<?xml version="1.0"?> 
<VTKFile type="UnstructuredGrid"> 
   <UnstructuredGrid> 
      <Piece NumberOfPoints="6000"  NumberOfCells="1500">  
          <Points>  
             <DataArray type="Float64" NumberOfComponents="3" format="ascii">   
-500.0   0.0   0.0
-450.0   0.0   0.0
-500.0   30.0   0.0
-500.0   0.0   16.666666666666668
-450.0   0.0   0.0
-450.0   30.0   0.0
-500.0   30.0   0.0
-450.0   30.0   16.666666666666668
-500.0   0.0   16.666666666666668
-500.0   30.0   16.666666666666668
-450.0   30.0   16.666666666666668
-500.0   30.0   0.0
-500.0   0.0   16.666666666666668
-450.0   30.0   16.666666666666668
-450.0   0.0   16.666666666666668
-450.0   0.0   0.0
-500.0   0.0   16.666666666666668
-450.0   30.0   16.666666666666668
-450.0   0.0   0.0
-500.0   30.0   0.0
-500.0   0.0   16.666666666666668
-450.0   0.0   16.666666666666668
-500.0   30.0   16.666666666666668
-500.0   0.0   33.333333333333336
-450.0   0.0   16.666666666666668
-450.0   30.0   16.666666666666668
-500.0   30.0   16.666666666666668
-450.0   30.0   33.333333333333336
-500.0   0.0   33.333333333333336
-500.0   30.0   33.333333333333336
-450.0   30.0   33.333333333333336
-500.0   30.0   16.666666666666668
-500.0   0.0   33.333333333333336
-450.0   30.0   33.333333333333336
-450.0   0.0   33.333333333333336
-450.0   0.0   16.666666666666668
-500.0   0.0   33.333333333333336
-450.0   30.0   33.333333333333336
-450.0   0.0   16.666666666666668
-500.0   30.0   16.666666666666668
-500.0   0.0   33.333333333333336
-450.0   0.0   33.333333333333336
-500.0   30.0   33.333333333333336
-500.0   0.0   50.0
-450.0   0.0   33.333333333333336
-450.0   30.0   33.333333333333336
-500.0   30.0   33.333333333333336
-450.0   30.0   50.0
-500.0   0.0   50.0
-500.0   30.0   50.0
-450.0   30.0   50.0
-500.0   30.0   33.333333333333336
-500.0   0.0   50.0
-450.0   30.0   50.0
-450.0   0.0   50.0
-450.0   0.0   33.333333333333336
-500.0   0.0   50.0
-450.0   30.0   50.0
-450.0   0.0   33.333333333333336
-500.0   30.0   33.333333333333336
-500.0   30.0   0.0
-450.0   30.0   0.0
-500.0   60.0   0.0
-500.0   30.0   16.666666666666668
-450.0   30.0   0.0
-450.0   60.0   0.0
-500.0   60.0   0.0
-450.0   60.0   16.666666666666668
-500.0   30.0   16.666666666666668
-500.0   60.0   16.666666666666668
-450.0   60.0   16.666666666666668
-500.0   60.0   0.0
-500.0   30.0   16.666666666666668
-450.0   60.0   16.666666666666668
-450.0   30.0   16.666666666666668
-450.0   30.0   0.0
-500.0   30.0   16.666666666666668
-450.0   60.0   16.666666666666668
-450.0   30.0   0.0
-500.0   60.0   0.0
-500.0   30.0   16.666666666666668
-450.0   30.0   16.666666666666668
-500.0   60.0   16.666666666666668
-500.0   30.0   33.333333333333336
-450.0   30.0   16.666666666666668
-450.0   60.0   16.666666666666668
-500.0   60.0   16.666666666666668
-450.0   60.0   33.333333333333336
-500.0   30.0   33.333333333333336
-500.0   60.0   33.333333333333336
-450.0   60.0   33.333333333333336
-500.0   60.0   16.666666666666668
-500.0   30.0   33.333333333333336
-450.0   60.0   33.333333333333336
-450.0   30.0   33.333333333333336
-450.0   30.0   16.666666666666668
-500.0   30.0   33.333333333333336
-450.0   60.0   33.333333333333336
-450.0   30.0   16.666666666666668
-500.0   60.0   16.666666666666668
-500.0   30.0   33.333333333333336
-450.0   30.0   33.333333333333336
-500.0   60.0   33.333333333333336
-500.0   30.0   50.0
-450.0   30.0   33.333333333333336
-450.0   60.0   33.333333333333336
-500.0   60.0   33.333333333333336
-450.0   60.0   50.0
-500.0   30.0   50.0
-500.0   60.0   50.0
-450.0   60.0   50.0
-500.0   60.0   33.333333333333336
-500.0   30.0   50.0
-450.0   60.0   50.0
-450.0   30.0   50.0
-450.0   30.0   33.333333333333336
-500.0   30.0   50.0
-450.0   60.0   50.0
-450.0   30.0   33.333333333333336
-500.0   60.0   33.333333333333336
-500.0   60.0   0.0
-450.0   60.0   0.0
-500.0   90.0   0.0
-500.0   60.0   16.666666666666668
-450.0   60.0   0.0
-450.0   90.0   0.0
-500.0   90.0   0.0
-450.0   90.0   16.666666666666668
-500.0   60.0   16.666666666666668
-500.0   90.0   16.666666666666668
-450.0   90.0   16.666666666666668
-500.0   90.0   0.0
-500.0   60.0   16.666666666666668
-450.0   90.0   16.666666666666668
-450.0   60.0   16.666666666666668
-450.0   60.0   0.0
-500.0   60.0   16.666666666666668
-450.0   90.0   16.666666666666668
-450.0   60.0   0.0
-500.0   90.0   0.0
-500.0   60.0   16.666666666666668
-450.0   60.0   16.666666666666668
-500.0   90.0   16.666666666666668
-500.0   60.0   33.333333333333336
-450.0   60.0   16.666666666666668
-450.0   90.0   16.666666666666668
-500.0   90.0   16.666666666666668
-450.0   90.0   33.333333333333336
-500.0   60.0   33.333333333333336
-500.0   90.0   33.333333333333336
-450.0   90.0   33.333333333333336
-500.0   90.0   16.666666666666668
-500.0   60.0   33.333333333333336
-450.0   90.0   33.333333333333336
-450.0   60.0   33.333333333333336
-450.0   60.0   16.666666666666668
-500.0   60.0   33.333333333333336
-450.0   90.0   33.333333333333336
-450.0   60.0   16.666666666666668
-500.0   90.0   16.666666666666668
-500.0   60.0   33.333333333333336
-450.0   60.0   33.333333333333336
-500.0   90.0   33.333333333333336
-500.0   60.0   50.0
-450.0   60.0   33.333333333333336
-450.0   90.0   33.333333333333336
-500.0   90.0   33.333333333333336
-450.0   90.0   50.0
-500.0   60.0   50.0
-500.0   90.0   50.0
-450.0   90.0   50.0
-500.0   90.0   33.333333333333336
-500.0   60.0   50.0
-450.0   90.0   50.0
-450.0   60.0   50.0
-450.0   60.0   33.333333333333336
-500.0   60.0   50.0
-450.0   90.0   50.0
-450.0   60.0   33.333333333333336
-500.0   90.0   33.333333333333336
-500.0   90.0   0.0
-450.0   90.0   0.0
-500.0   120.0   0.0
-500.0   90.0   16.666666666666668
-450.0   90.0   0.0
-450.0   120.0   0.0
-500.0   120.0   0.0
-450.0   120.0   16.666666666666668
-500.0   90.0   16.666666666666668
-500.0   120.0   16.666666666666668
-450.0   120.0   16.666666666666668
-500.0   120.0   0.0
-500.0   90.0   16.666666666666668
-450.0   120.0   16.666666666666668
-450.0   90.0   16.666666666666668
-450.0   90.0   0.0
-500.0   90.0   16.666666666666668
-450.0   120.0   16.666666666666668
-450.0   90.0   0.0
-500.0   120.0   0.0
-500.0   90.0   16.666666666666668
-450.0   90.0   16.666666666666668
-500.0   120.0   16.666666666666668
-500.0   90.0   33.333333333333336
-450.0   90.0   16.666666666666668
-450.0   120.0   16.666666666666668
-500.0   120.0   16.666666666666668
-450.0   120.0   33.333333333333336
-500.0   90.0   33.333333333333336
-500.0   120.0   33.333333333333336
-450.0   120.0   33.333333333333336
-500.0   120.0   16.666666666666668
-500.0   90.0   33.333333333333336
-450.0   120.0   33.333333333333336
-450.0   90.0   33.333333333333336
-450.0   90.0   16.666666666666668
-500.0   90.0   33.333333333333336
-450.0   120.0   33.333333333333336
-450.0   90.0   16.666666666666668
-500.0   120.0   16.666666666666668
-500.0   90.0   33.333333333333336
-450.0   90.0   33.333333333333336
-500.0   120.0   33.333333333333336
-500.0   90.0   50.0
-450.0   90.0   33.333333333333336
-450.0   120.0   33.333333333333336
-500.0   120.0   33.333333333333336
-450.0   120.0   50.0
-500.0   90.0   50.0
-500.0   120.0   50.0
-450.0   120.0   50.0
-500.0   120.0   33.333333333333336
-500.0   90.0   50.0
-450.0   120.0   50.0
-450.0   90.0   50.0
-450.0   90.0   33.333333333333336
-500.0   90.0   50.0
-450.0   120.0   50.0
-450.0   90.0   33.333333333333336
-500.0   120.0   33.333333333333336
-500.0   120.0   0.0
-450.0   120.0   0.0
-500.0   150.0   0.0
-500.0   120.0   16.666666666666668
-450.0   120.0   0.0
-450.0   150.0   0.0
-500.0   150.0   0.0
-450.0   150.0   16.666666666666668
-500.0   120.0   16.666666666666668
-500.0   150.0   16.666666666666668
-450.0   150.0   16.666666666666668
-500.0   150.0   0.0
-500.0   120.0   16.666666666666668
-450.0   150.0   16.666666666666668
-450.0   120.0   16.666666666666668
-450.0   120.0   0.0
-500.0   120.0   16.666666666666668
-450.0   150.0   16.666666666666668
-450.0   120.0   0.0
-500.0   150.0   0.0
-500.0   120.0   16.666666666666668
-450.0   120.0   16.666666666666668
-500.0   150.0   16.666666666666668
-500.0   120.0   33.333333333333336
-450.0   120.0   16.666666666666668
-450.0   150.0   16.666666666666668
-500.0   150.0   16.666666666666668
-450.0   150.0   33.333333333333336
-500.0   120.0   33.333333333333336
-500.0   150.0   33.333333333333336
-450.0   150.0   33.333333333333336
-500.0   150.0   16.666666666666668
-500.0   120.0   33.333333333333336
-450.0   150.0   33.333333333333336
-450.0   120.0   33.333333333333336
-450.0   120.0   16.666666666666668
-500.0   120.0   33.333333333333336
-450.0   150.0   33.333333333333336
-450.0   120.0   16.666666666666668
-500.0   150.0   16.666666666666668
-500.0   120.0   33.333333333333336
-450.0   120.0   33.333333333333336
-500.0   150.0   33.333333333333336
-500.0   120.0   50.0
-450.0   120.0   33.333333333333336
-450.0   150.0   33.333333333333336
-500.0   150.0   33.333333333333336
-450.0   150.0   50.0
-500.0   120.0   50.0
-500.0   150.0   50.0
-450.0   150.0   50.0
-500.0   150.0   33.333333333333336
-500.0   120.0   50.0
-450.0   150.0   50.0
-450.0   120.0   50.0
-450.0   120.0   33.333333333333336
-500.0   120.0   50.0
-450.0   150.0   50.0
-450.0   120.0   33.333333333333336
-500.0   150.0   33.333333333333336
-450.0   0.0   0.0
-400.0   0.0   0.0
-450.0   30.0   0.0
-450.0   0.0   16.666666666666668
-400.0   0.0   0.0
-400.0   30.0   0.0
-450.0   30.0   0.0
-400.0   30.0   16.666666666666668
-450.0   0.0   16.666666666666668
-450.0   30.0   16.666666666666668
-400.0   30.0   16.666666666666668
-450.0   30.0   0.0
-450.0   0.0   16.666666666666668
-400.0   30.0   16.666666666666668
-400.0   0.0   16.666666666666668
-400.0   0.0   0.0
-450.0   0.0   16.666666666666668
-400.0   30.0   16.666666666666668
-400.0   0.0   0.0
-450.0   30.0   0.0
-450.0   0.0   16.666666666666668
-400.0   0.0   16.666666666666668
-450.0   30.0   16.666666666666668
-450.0   0.0   33.333333333333336
-400.0   0.0   16.666666666666668
-400.0   30.0   16.666666666666668
-450.0   30.0   16.666666666666668
-400.0   30.0   33.333333333333336
-450.0   0.0   33.333333333333336
-450.0   30.0   33.333333333333336
-400.0   30.0   33.333333333333336
-450.0   30.0   16.666666666666668
-450.0   0.0   33.333333333333336
-400.0   30.0   33.333333333333336
-400.0   0.0   33.333333333333336
-400.0   0.0   16.666666666666668
-450.0   0.0   33.333333333333336
-400.0   30.0   33.333333333333336
-400.0   0.0   16.666666666666668
-450.0   30.0   16.666666666666668
-450.0   0.0   33.333333333333336
-400.0   0.0   33.333333333333336
-450.0   30.0   33.333333333333336
-450.0   0.0   50.0
-400.0   0.0   33.333333333333336
-400.0   30.0   33.333333333333336
-450.0   30.0   33.333333333333336
-400.0   30.0   50.0
-450.0   0.0   50.0
-450.0   30.0   50.0
-400.0   30.0   50.0
-450.0   30.0   33.333333333333336
-450.0   0.0   50.0
-400.0   30.0   50.0
-400.0   0.0   50.0
-400.0   0.0   33.333333333333336
-450.0   0.0   50.0
-400.0   30.0   50.0
-400.0   0.0   33.333333333333336
-450.0   30.0   33.333333333333336
-450.0   30.0   0.0
-400.0   30.0   0.0
-450.0   60.0   0.0
-450.0   30.0   16.666666666666668
-400.0   30.0   0.0
-400.0   60.0   0.0
-450.0   60.0   0.0
-400.0   60.0   16.666666666666668
-450.0   30.0   16.666666666666668
-450.0   60.0   16.666666666666668
-400.0   60.0   16.666666666666668
-450.0   60.0   0.0
-450.0   30.0   16.666666666666668
-400.0   60.0   16.666666666666668
-400.0   30.0   16.666666666666668
-400.0   30.0   0.0
-450.0   30.0   16.666666666666668
-400.0   60.0   16.666666666666668
-400.0   30.0   0.0
-450.0   60.0   0.0
-450.0   30.0   16.666666666666668
-400.0   30.0   16.666666666666668
-450.0   60.0   16.666666666666668
-450.0   30.0   33.333333333333336
-400.0   30.0   16.666666666666668
-400.0   60.0   16.666666666666668
-450.0   60.0   16.666666666666668
-400.0   60.0   33.333333333333336
-450.0   30.0   33.333333333333336
-450.0   60.0   33.333333333333336
-400.0   60.0   33.333333333333336
-450.0   60.0   16.666666666666668
-450.0   30.0   33.333333333333336
-400.0   60.0   33.333333333333336
-400.0   30.0   33.333333333333336
-400.0   30.0   16.666666666666668
-450.0   30.0   33.333333333333336
-400.0   60.0   33.333333333333336
-400.0   30.0   16.666666666666668
-450.0   60.0   16.666666666666668
-450.0   30.0   33.333333333333336
-400.0   30.0   33.333333333333336
-450.0   60.0   33.333333333333336
-450.0   30.0   50.0
-400.0   30.0   33.333333333333336
-400.0   60.0   33.333333333333336
-450.0   60.0   33.333333333333336
-400.0   60.0   50.0
-450.0   30.0   50.0
-450.0   60.0   50.0
-400.0   60.0   50.0
-450.0   60.0   33.333333333333336
-450.0   30.0   50.0
-400.0   60.0   50.0
-400.0   30.0   50.0
-400.0   30.0   33.333333333333336
-450.0   30.0   50.0
-400.0   60.0   50.0
-400.0   30.0   33.333333333333336
-450.0   60.0   33.333333333333336
-450.0   60.0   0.0
-400.0   60.0   0.0
-450.0   90.0   0.0
-450.0   60.0   16.666666666666668
-400.0   60.0   0.0
-400.0   90.0   0.0
-450.0   90.0   0.0
-400.0   90.0   16.666666666666668
-450.0   60.0   16.666666666666668
-450.0   90.0   16.666666666666668
-400.0   90.0   16.666666666666668
-450.0   90.0   0.0
-450.0   60.0   16.666666666666668
-400.0   90.0   16.666666666666668
-400.0   60.0   16.666666666666668
-400.0   60.0   0.0
-450.0   60.0   16.666666666666668
-400.0   90.0   16.666666666666668
-400.0   60.0   0.0
-450.0   90.0   0.0
-450.0   60.0   16.666666666666668
-400.0   60.0   16.666666666666668
-450.0   90.0   16.666666666666668
-450.0   60.0   33.333333333333336
-400.0   60.0   16.666666666666668
-400.0   90.0   16.666666666666668
-450.0   90.0   16.666666666666668
-400.0   90.0   33.333333333333336
-450.0   60.0   33.333333333333336
-450.0   90.0   33.333333333333336
-400.0   90.0   33.333333333333336
-450.0   90.0   16.666666666666668
-450.0   60.0   33.333333333333336
-400.0   90.0   33.333333333333336
-400.0   60.0   33.333333333333336
-400.0   60.0   16.666666666666668
-450.0   60.0   33.333333333333336
-400.0   90.0   33.333333333333336
-400.0   60.0   16.666666666666668
-450.0   90.0   16.666666666666668
-450.0   60.0   33.333333333333336
-400.0   60.0   33.333333333333336
-450.0   90.0   33.333333333333336
-450.0   60.0   50.0
-400.0   60.0   33.333333333333336
-400.0   90.0   33.333333333333336
-450.0   90.0   33.333333333333336
-400.0   90.0   50.0
-450.0   60.0   50.0
-450.0   90.0   50.0
-400.0   90.0   50.0
-450.0   90.0   33.333333333333336
-450.0   60.0   50.0
-400.0   90.0   50.0
-400.0   60.0   50.0
-400.0   60.0   33.333333333333336
-450.0   60.0   50.0
-400.0   90.0   50.0
-400.0   60.0   33.333333333333336
-450.0   90.0   33.333333333333336
-450.0   90.0   0.0
-400.0   90.0   0.0
-450.0   120.0   0.0
-450.0   90.0   16.666666666666668
-400.0   90.0   0.0
-400.0   120.0   0.0
-450.0   120.0   0.0
-400.0   120.0   16.666666666666668
-450.0   90.0   16.666666666666668
-450.0   120.0   16.666666666666668
-400.0   120.0   16.666666666666668
-450.0   120.0   0.0
-450.0   90.0   16.666666666666668
-400.0   120.0   16.666666666666668
-400.0   90.0   16.666666666666668
-400.0   90.0   0.0
-450.0   90.0   16.666666666666668
-400.0   120.0   16.666666666666668
-400.0   90.0   0.0
-450.0   120.0   0.0
-450.0   90.0   16.666666666666668
-400.0   90.0   16.666666666666668
-450.0   120.0   16.666666666666668
-450.0   90.0   33.333333333333336
-400.0   90.0   16.666666666666668
-400.0   120.0   16.666666666666668
-450.0   120.0   16.666666666666668
-400.0   120.0   33.333333333333336
-450.0   90.0   33.333333333333336
-450.0   120.0   33.333333333333336
-400.0   120.0   33.333333333333336
-450.0   120.0   16.666666666666668
-450.0   90.0   33.333333333333336
-400.0   120.0   33.333333333333336
-400.0   90.0   33.333333333333336
-400.0   90.0   16.666666666666668
-450.0   90.0   33.333333333333336
-400.0   120.0   33.333333333333336
-400.0   90.0   16.666666666666668
-450.0   120.0   16.666666666666668
-450.0   90.0   33.333333333333336
-400.0   90.0   33.333333333333336
-450.0   120.0   33.333333333333336
-450.0   90.0   50.0
-400.0   90.0   33.333333333333336
-400.0   120.0   33.333333333333336
-450.0   120.0   33.333333333333336
-400.0   120.0   50.0
-450.0   90.0   50.0
-450.0   120.0   50.0
-400.0   120.0   50.0
-450.0   120.0   33.333333333333336
-450.0   90.0   50.0
-400.0   120.0   50.0
-400.0   90.0   50.0
-400.0   90.0   33.333333333333336
-450.0   90.0   50.0
-400.0   120.0   50.0
-400.0   90.0   33.333333333333336
-450.0   120.0   33.333333333333336
-450.0   120.0   0.0
-400.0   120.0   0.0
-450.0   150.0   0.0
-450.0   120.0   16.666666666666668
-400.0   120.0   0.0
-400.0   150.0   0.0
-450.0   150.0   0.0
-400.0   150.0   16.666666666666668
-450.0   120.0   16.666666666666668
-450.0   150.0   16.666666666666668
-400.0   150.0   16.666666666666668
-450.0   150.0   0.0
-450.0   120.0   16.666666666666668
-400.0   150.0   16.666666666666668
-400.0   120.0   16.666666666666668
-400.0   120.0   0.0
-450.0   120.0   16.666666666666668
-400.0   150.0   16.666666666666668
-400.0   120.0   0.0
-450.0   150.0   0.0
-450.0   120.0   16.666666666666668
-400.0   120.0   16.666666666666668
-450.0   150.0   16.666666666666668
-450.0   120.0   33.333333333333336
-400.0   120.0   16.666666666666668
-400.0   150.0   16.666666666666668
-450.0   150.0   16.666666666666668
-400.0   150.0   33.333333333333336
-450.0   120.0   33.333333333333336
-450.0   150.0   33.333333333333336
-400.0   150.0   33.333333333333336
-450.0   150.0   16.666666666666668
-450.0   120.0   33.333333333333336
-400.0   150.0   33.333333333333336
-400.0   120.0   33.333333333333336
-400.0   120.0   16.666666666666668
-450.0   120.0   33.333333333333336
-400.0   150.0   33.333333333333336
-400.0   120.0   16.666666666666668
-450.0   150.0   16.666666666666668
-450.0   120.0   33.333333333333336
-400.0   120.0   33.333333333333336
-450.0   150.0   33.333333333333336
-450.0   120.0   50.0
-400.0   120.0   33.333333333333336
-400.0   150.0   33.333333333333336
-450.0   150.0   33.333333333333336
-400.0   150.0   50.0
-450.0   120.0   50.0
-450.0   150.0   50.0
-400.0   150.0   50.0
-450.0   150.0   33.333333333333336
-450.0   120.0   50.0
-400.0   150.0   50.0
-400.0   120.0   50.0
-400.0   120.0   33.333333333333336
-450.0   120.0   50.0
-400.0   150.0   50.0
-400.0   120.0   33.333333333333336
-450.0   150.0   33.333333333333336
-400.0   0.0   0.0
-350.0   0.0   0.0
-400.0   30.0   0.0
-400.0   0.0   16.666666666666668
-350.0   0.0   0.0
-350.0   30.0   0.0
-400.0   30.0   0.0
-350.0   30.0   16.666666666666668
-400.0   0.0   16.666666666666668
-400.0   30.0   16.666666666666668
-350.0   30.0   16.666666666666668
-400.0   30.0   0.0
-400.0   0.0   16.666666666666668
-350.0   30.0   16.666666666666668
-350.0   0.0   16.666666666666668
-350.0   0.0   0.0
-400.0   0.0   16.666666666666668
-350.0   30.0   16.666666666666668
-350.0   0.0   0.0
-400.0   30.0   0.0
-400.0   0.0   16.666666666666668
-350.0   0.0   16.666666666666668
-400.0   30.0   16.666666666666668
-400.0   0.0   33.333333333333336
-350.0   0.0   16.666666666666668
-350.0   30.0   16.666666666666668
-400.0   30.0   16.666666666666668
-350.0   30.0   33.333333333333336
-400.0   0.0   33.333333333333336
-400.0   30.0   33.333333333333336
-350.0   30.0   33.333333333333336
-400.0   30.0   16.666666666666668
-400.0   0.0   33.333333333333336
-350.0   30.0   33.333333333333336
-350.0   0.0   33.333333333333336
-350.0   0.0   16.666666666666668
-400.0   0.0   33.333333333333336
-350.0   30.0   33.333333333333336
-350.0   0.0   16.666666666666668
-400.0   30.0   16.666666666666668
-400.0   0.0   33.333333333333336
-350.0   0.0   33.333333333333336
-400.0   30.0   33.333333333333336
-400.0   0.0   50.0
-350.0   0.0   33.333333333333336
-350.0   30.0   33.333333333333336
-400.0   30.0   33.333333333333336
-350.0   30.0   50.0
-400.0   0.0   50.0
-400.0   30.0   50.0
-350.0   30.0   50.0
-400.0   30.0   33.333333333333336
-400.0   0.0   50.0
-350.0   30.0   50.0
-350.0   0.0   50.0
-350.0   0.0   33.333333333333336
-400.0   0.0   50.0
-350.0   30.0   50.0
-350.0   0.0   33.333333333333336
-400.0   30.0   33.333333333333336
-400.0   30.0   0.0
-350.0   30.0   0.0
-400.0   60.0   0.0
-400.0   30.0   16.666666666666668
-350.0   30.0   0.0
-350.0   60.0   0.0
-400.0   60.0   0.0
-350.0   60.0   16.666666666666668
-400.0   30.0   16.666666666666668
-400.0   60.0   16.666666666666668
-350.0   60.0   16.666666666666668
-400.0   60.0   0.0
-400.0   30.0   16.666666666666668
-350.0   60.0   16.666666666666668
-350.0   30.0   16.666666666666668
-350.0   30.0   0.0
-400.0   30.0   16.666666666666668
-350.0   60.0   16.666666666666668
-350.0   30.0   0.0
-400.0   60.0   0.0
-400.0   30.0   16.666666666666668
-350.0   30.0   16.666666666666668
-400.0   60.0   16.666666666666668
-400.0   30.0   33.333333333333336
-350.0   30.0   16.666666666666668
-350.0   60.0   16.666666666666668
-400.0   60.0   16.666666666666668
-350.0   60.0   33.333333333333336
-400.0   30.0   33.333333333333336
-400.0   60.0   33.333333333333336
-350.0   60.0   33.333333333333336
-400.0   60.0   16.666666666666668
-400.0   30.0   33.333333333333336
-350.0   60.0   33.333333333333336
-350.0   30.0   33.333333333333336
-350.0   30.0   16.666666666666668
-400.0   30.0   33.333333333333336
-350.0   60.0   33.333333333333336
-350.0   30.0   16.666666666666668
-400.0   60.0   16.666666666666668
-400.0   30.0   33.333333333333336
-350.0   30.0   33.333333333333336
-400.0   60.0   33.333333333333336
-400.0   30.0   50.0
-350.0   30.0   33.333333333333336
-350.0   60.0   33.333333333333336
-400.0   60.0   33.333333333333336
-350.0   60.0   50.0
-400.0   30.0   50.0
-400.0   60.0   50.0
-350.0   60.0   50.0
-400.0   60.0   33.333333333333336
-400.0   30.0   50.0
-350.0   60.0   50.0
-350.0   30.0   50.0
-350.0   30.0   33.333333333333336
-400.0   30.0   50.0
-350.0   60.0   50.0
-350.0   30.0   33.333333333333336
-400.0   60.0   33.333333333333336
-400.0   60.0   0.0
-350.0   60.0   0.0
-400.0   90.0   0.0
-400.0   60.0   16.666666666666668
-350.0   60.0   0.0
-350.0   90.0   0.0
-400.0   90.0   0.0
-350.0   90.0   16.666666666666668
-400.0   60.0   16.666666666666668
-400.0   90.0   16.666666666666668
-350.0   90.0   16.666666666666668
-400.0   90.0   0.0
-400.0   60.0   16.666666666666668
-350.0   90.0   16.666666666666668
-350.0   60.0   16.666666666666668
-350.0   60.0   0.0
-400.0   60.0   16.666666666666668
-350.0   90.0   16.666666666666668
-350.0   60.0   0.0
-400.0   90.0   0.0
-400.0   60.0   16.666666666666668
-350.0   60.0   16.666666666666668
-400.0   90.0   16.666666666666668
-400.0   60.0   33.333333333333336
-350.0   60.0   16.666666666666668
-350.0   90.0   16.666666666666668
-400.0   90.0   16.666666666666668
-350.0   90.0   33.333333333333336
-400.0   60.0   33.333333333333336
-400.0   90.0   33.333333333333336
-350.0   90.0   33.333333333333336
-400.0   90.0   16.666666666666668
-400.0   60.0   33.333333333333336
-350.0   90.0   33.333333333333336
-350.0   60.0   33.333333333333336
-350.0   60.0   16.666666666666668
-400.0   60.0   33.333333333333336
-350.0   90.0   33.333333333333336
-350.0   60.0   16.666666666666668
-400.0   90.0   16.666666666666668
-400.0   60.0   33.333333333333336
-350.0   60.0   33.333333333333336
-400.0   90.0   33.333333333333336
-400.0   60.0   50.0
-350.0   60.0   33.333333333333336
-350.0   90.0   33.333333333333336
-400.0   90.0   33.333333333333336
-350.0   90.0   50.0
-400.0   60.0   50.0
-400.0   90.0   50.0
-350.0   90.0   50.0
-400.0   90.0   33.333333333333336
-400.0   60.0   50.0
-350.0   90.0   50.0
-350.0   60.0   50.0
-350.0   60.0   33.333333333333336
-400.0   60.0   50.0
-350.0   90.0   50.0
-350.0   60.0   33.333333333333336
-400.0   90.0   33.333333333333336
-400.0   90.0   0.0
-350.0   90.0   0.0
-400.0   120.0   0.0
-400.0   90.0   16.666666666666668
-350.0   90.0   0.0
-350.0   120.0   0.0
-400.0   120.0   0.0
-350.0   120.0   16.666666666666668
-400.0   90.0   16.666666666666668
-400.0   120.0   16.666666666666668
-350.0   120.0   16.666666666666668
-400.0   120.0   0.0
-400.0   90.0   16.666666666666668
-350.0   120.0   16.666666666666668
-350.0   90.0   16.666666666666668
-350.0   90.0   0.0
-400.0   90.0   16.666666666666668
-350.0   120.0   16.666666666666668
-350.0   90.0   0.0
-400.0   120.0   0.0
-400.0   90.0   16.666666666666668
-350.0   90.0   16.666666666666668
-400.0   120.0   16.666666666666668
-400.0   90.0   33.333333333333336
-350.0   90.0   16.666666666666668
-350.0   120.0   16.666666666666668
-400.0   120.0   16.666666666666668
-350.0   120.0   33.333333333333336
-400.0   90.0   33.333333333333336
-400.0   120.0   33.333333333333336
-350.0   120.0   33.333333333333336
-400.0   120.0   16.666666666666668
-400.0   90.0   33.333333333333336
-350.0   120.0   33.333333333333336
-350.0   90.0   33.333333333333336
-350.0   90.0   16.666666666666668
-400.0   90.0   33.333333333333336
-350.0   120.0   33.333333333333336
-350.0   90.0   16.666666666666668
-400.0   120.0   16.666666666666668
-400.0   90.0   33.333333333333336
-350.0   90.0   33.333333333333336
-400.0   120.0   33.333333333333336
-400.0   90.0   50.0
-350.0   90.0   33.333333333333336
-350.0   120.0   33.333333333333336
-400.0   120.0   33.333333333333336
-350.0   120.0   50.0
-400.0   90.0   50.0
-400.0   120.0   50.0
-350.0   120.0   50.0
-400.0   120.0   33.333333333333336
-400.0   90.0   50.0
-350.0   120.0   50.0
-350.0   90.0   50.0
-350.0   90.0   33.333333333333336
-400.0   90.0   50.0
-350.0   120.0   50.0
-350.0   90.0   33.333333333333336
-400.0   120.0   33.333333333333336
-400.0   120.0   0.0
-350.0   120.0   0.0
-400.0   150.0   0.0
-400.0   120.0   16.666666666666668
-350.0   120.0   0.0
-350.0   150.0   0.0
-400.0   150.0   0.0
-350.0   150.0   16.666666666666668
-400.0   120.0   16.666666666666668
-400.0   150.0   16.666666666666668
-350.0   150.0   16.666666666666668
-400.0   150.0   0.0
-400.0   120.0   16.666666666666668
-350.0   150.0   16.666666666666668
-350.0   120.0   16.666666666666668
-350.0   120.0   0.0
-400.0   120.0   16.666666666666668
-350.0   150.0   16.666666666666668
-350.0   120.0   0.0
-400.0   150.0   0.0
-400.0   120.0   16.666666666666668
-350.0   120.0   16.666666666666668
-400.0   150.0   16.666666666666668
-400.0   120.0   33.333333333333336
-350.0   120.0   16.666666666666668
-350.0   150.0   16.666666666666668
-400.0   150.0   16.666666666666668
-350.0   150.0   33.333333333333336
-400.0   120.0   33.333333333333336
-400.0   150.0   33.333333333333336
-350.0   150.0   33.333333333333336
-400.0   150.0   16.666666666666668
-400.0   120.0   33.333333333333336
-350.0   150.0   33.333333333333336
-350.0   120.0   33.333333333333336
-350.0   120.0   16.666666666666668
-400.0   120.0   33.333333333333336
-350.0   150.0   33.333333333333336
-350.0   120.0   16.666666666666668
-400.0   150.0   16.666666666666668
-400.0   120.0   33.333333333333336
-350.0   120.0   33.333333333333336
-400.0   150.0   33.333333333333336
-400.0   120.0   50.0
-350.0   120.0   33.333333333333336
-350.0   150.0   33.333333333333336
-400.0   150.0   33.333333333333336
-350.0   150.0   50.0
-400.0   120.0   50.0
-400.0   150.0   50.0
-350.0   150.0   50.0
-400.0   150.0   33.333333333333336
-400.0   120.0   50.0
-350.0   150.0   50.0
-350.0   120.0   50.0
-350.0   120.0   33.333333333333336
-400.0   120.0   50.0
-350.0   150.0   50.0
-350.0   120.0   33.333333333333336
-400.0   150.0   33.333333333333336
-350.0   0.0   0.0
-300.0   0.0   0.0
-350.0   30.0   0.0
-350.0   0.0   16.666666666666668
-300.0   0.0   0.0
-300.0   30.0   0.0
-350.0   30.0   0.0
-300.0   30.0   16.666666666666668
-350.0   0.0   16.666666666666668
-350.0   30.0   16.666666666666668
-300.0   30.0   16.666666666666668
-350.0   30.0   0.0
-350.0   0.0   16.666666666666668
-300.0   30.0   16.666666666666668
-300.0   0.0   16.666666666666668
-300.0   0.0   0.0
-350.0   0.0   16.666666666666668
-300.0   30.0   16.666666666666668
-300.0   0.0   0.0
-350.0   30.0   0.0
-350.0   0.0   16.666666666666668
-300.0   0.0   16.666666666666668
-350.0   30.0   16.666666666666668
-350.0   0.0   33.333333333333336
-300.0   0.0   16.666666666666668
-300.0   30.0   16.666666666666668
-350.0   30.0   16.666666666666668
-300.0   30.0   33.333333333333336
-350.0   0.0   33.333333333333336
-350.0   30.0   33.333333333333336
-300.0   30.0   33.333333333333336
-350.0   30.0   16.666666666666668
-350.0   0.0   33.333333333333336
-300.0   30.0   33.333333333333336
-300.0   0.0   33.333333333333336
-300.0   0.0   16.666666666666668
-350.0   0.0   33.333333333333336
-300.0   30.0   33.333333333333336
-300.0   0.0   16.666666666666668
-350.0   30.0   16.666666666666668
-350.0   0.0   33.333333333333336
-300.0   0.0   33.333333333333336
-350.0   30.0   33.333333333333336
-350.0   0.0   50.0
-300.0   0.0   33.333333333333336
-300.0   30.0   33.333333333333336
-350.0   30.0   33.333333333333336
-300.0   30.0   50.0
-350.0   0.0   50.0
-350.0   30.0   50.0
-300.0   30.0   50.0
-350.0   30.0   33.333333333333336
-350.0   0.0   50.0
-300.0   30.0   50.0
-300.0   0.0   50.0
-300.0   0.0   33.333333333333336
-350.0   0.0   50.0
-300.0   30.0   50.0
-300.0   0.0   33.333333333333336
-350.0   30.0   33.333333333333336
-350.0   30.0   0.0
-300.0   30.0   0.0
-350.0   60.0   0.0
-350.0   30.0   16.666666666666668
-300.0   30.0   0.0
-300.0   60.0   0.0
-350.0   60.0   0.0
-300.0   60.0   16.666666666666668
-350.0   30.0   16.666666666666668
-350.0   60.0   16.666666666666668
-300.0   60.0   16.666666666666668
-350.0   60.0   0.0
-350.0   30.0   16.666666666666668
-300.0   60.0   16.666666666666668
-300.0   30.0   16.666666666666668
-300.0   30.0   0.0
-350.0   30.0   16.666666666666668
-300.0   60.0   16.666666666666668
-300.0   30.0   0.0
-350.0   60.0   0.0
-350.0   30.0   16.666666666666668
-300.0   30.0   16.666666666666668
-350.0   60.0   16.666666666666668
-350.0   30.0   33.333333333333336
-300.0   30.0   16.666666666666668
-300.0   60.0   16.666666666666668
-350.0   60.0   16.666666666666668
-300.0   60.0   33.333333333333336
-350.0   30.0   33.333333333333336
-350.0   60.0   33.333333333333336
-300.0   60.0   33.333333333333336
-350.0   60.0   16.666666666666668
-350.0   30.0   33.333333333333336
-300.0   60.0   33.333333333333336
-300.0   30.0   33.333333333333336
-300.0   30.0   16.666666666666668
-350.0   30.0   33.333333333333336
-300.0   60.0   33.333333333333336
-300.0   30.0   16.666666666666668
-350.0   60.0   16.666666666666668
-350.0   30.0   33.333333333333336
-300.0   30.0   33.333333333333336
-350.0   60.0   33.333333333333336
-350.0   30.0   50.0
-300.0   30.0   33.333333333333336
-300.0   60.0   33.333333333333336
-350.0   60.0   33.333333333333336
-300.0   60.0   50.0
-350.0   30.0   50.0
-350.0   60.0   50.0
-300.0   60.0   50.0
-350.0   60.0   33.333333333333336
-350.0   30.0   50.0
-300.0   60.0   50.0
-300.0   30.0   50.0
-300.0   30.0   33.333333333333336
-350.0   30.0   50.0
-300.0   60.0   50.0
-300.0   30.0   33.333333333333336
-350.0   60.0   33.333333333333336
-350.0   60.0   0.0
-300.0   60.0   0.0
-350.0   90.0   0.0
-350.0   60.0   16.666666666666668
-300.0   60.0   0.0
-300.0   90.0   0.0
-350.0   90.0   0.0
-300.0   90.0   16.666666666666668
-350.0   60.0   16.666666666666668
-350.0   90.0   16.666666666666668
-300.0   90.0   16.666666666666668
-350.0   90.0   0.0
-350.0   60.0   16.666666666666668
-300.0   90.0   16.666666666666668
-300.0   60.0   16.666666666666668
-300.0   60.0   0.0
-350.0   60.0   16.666666666666668
-300.0   90.0   16.666666666666668
-300.0   60.0   0.0
-350.0   90.0   0.0
-350.0   60.0   16.666666666666668
-300.0   60.0   16.666666666666668
-350.0   90.0   16.666666666666668
-350.0   60.0   33.333333333333336
-300.0   60.0   16.666666666666668
-300.0   90.0   16.666666666666668
-350.0   90.0   16.666666666666668
-300.0   90.0   33.333333333333336
-350.0   60.0   33.333333333333336
-350.0   90.0   33.333333333333336
-300.0   90.0   33.333333333333336
-350.0   90.0   16.666666666666668
-350.0   60.0   33.333333333333336
-300.0   90.0   33.333333333333336
-300.0   60.0   33.333333333333336
-300.0   60.0   16.666666666666668
-350.0   60.0   33.333333333333336
-300.0   90.0   33.333333333333336
-300.0   60.0   16.666666666666668
-350.0   90.0   16.666666666666668
-350.0   60.0   33.333333333333336
-300.0   60.0   33.333333333333336
-350.0   90.0   33.333333333333336
-350.0   60.0   50.0
-300.0   60.0   33.333333333333336
-300.0   90.0   33.333333333333336
-350.0   90.0   33.333333333333336
-300.0   90.0   50.0
-350.0   60.0   50.0
-350.0   90.0   50.0
-300.0   90.0   50.0
-350.0   90.0   33.333333333333336
-350.0   60.0   50.0
-300.0   90.0   50.0
-300.0   60.0   50.0
-300.0   60.0   33.333333333333336
-350.0   60.0   50.0
-300.0   90.0   50.0
-300.0   60.0   33.333333333333336
-350.0   90.0   33.333333333333336
-350.0   90.0   0.0
-300.0   90.0   0.0
-350.0   120.0   0.0
-350.0   90.0   16.666666666666668
-300.0   90.0   0.0
-300.0   120.0   0.0
-350.0   120.0   0.0
-300.0   120.0   16.666666666666668
-350.0   90.0   16.666666666666668
-350.0   120.0   16.666666666666668
-300.0   120.0   16.666666666666668
-350.0   120.0   0.0
-350.0   90.0   16.666666666666668
-300.0   120.0   16.666666666666668
-300.0   90.0   16.666666666666668
-300.0   90.0   0.0
-350.0   90.0   16.666666666666668
-300.0   120.0   16.666666666666668
-300.0   90.0   0.0
-350.0   120.0   0.0
-350.0   90.0   16.666666666666668
-300.0   90.0   16.666666666666668
-350.0   120.0   16.666666666666668
-350.0   90.0   33.333333333333336
-300.0   90.0   16.666666666666668
-300.0   120.0   16.666666666666668
-350.0   120.0   16.666666666666668
-300.0   120.0   33.333333333333336
-350.0   90.0   33.333333333333336
-350.0   120.0   33.333333333333336
-300.0   120.0   33.333333333333336
-350.0   120.0   16.666666666666668
-350.0   90.0   33.333333333333336
-300.0   120.0   33.333333333333336
-300.0   90.0   33.333333333333336
-300.0   90.0   16.666666666666668
-350.0   90.0   33.333333333333336
-300.0   120.0   33.333333333333336
-300.0   90.0   16.666666666666668
-350.0   120.0   16.666666666666668
-350.0   90.0   33.333333333333336
-300.0   90.0   33.333333333333336
-350.0   120.0   33.333333333333336
-350.0   90.0   50.0
-300.0   90.0   33.333333333333336
-300.0   120.0   33.333333333333336
-350.0   120.0   33.333333333333336
-300.0   120.0   50.0
-350.0   90.0   50.0
-350.0   120.0   50.0
-300.0   120.0   50.0
-350.0   120.0   33.333333333333336
-350.0   90.0   50.0
-300.0   120.0   50.0
-300.0   90.0   50.0
-300.0   90.0   33.333333333333336
-350.0   90.0   50.0
-300.0   120.0   50.0
-300.0   90.0   33.333333333333336
-350.0   120.0   33.333333333333336
-350.0   120.0   0.0
-300.0   120.0   0.0
-350.0   150.0   0.0
-350.0   120.0   16.666666666666668
-300.0   120.0   0.0
-300.0   150.0   0.0
-350.0   150.0   0.0
-300.0   150.0   16.666666666666668
-350.0   120.0   16.666666666666668
-350.0   150.0   16.666666666666668
-300.0   150.0   16.666666666666668
-350.0   150.0   0.0
-350.0   120.0   16.666666666666668
-300.0   150.0   16.666666666666668
-300.0   120.0   16.666666666666668
-300.0   120.0   0.0
-350.0   120.0   16.666666666666668
-300.0   150.0   16.666666666666668
-300.0   120.0   0.0
-350.0   150.0   0.0
-350.0   120.0   16.666666666666668
-300.0   120.0   16.666666666666668
-350.0   150.0   16.666666666666668
-350.0   120.0   33.333333333333336
-300.0   120.0   16.666666666666668
-300.0   150.0   16.666666666666668
-350.0   150.0   16.666666666666668
-300.0   150.0   33.333333333333336
-350.0   120.0   33.333333333333336
-350.0   150.0   33.333333333333336
-300.0   150.0   33.333333333333336
-350.0   150.0   16.666666666666668
-350.0   120.0   33.333333333333336
-300.0   150.0   33.333333333333336
-300.0   120.0   33.333333333333336
-300.0   120.0   16.666666666666668
-350.0   120.0   33.333333333333336
-300.0   150.0   33.333333333333336
-300.0   120.0   16.666666666666668
-350.0   150.0   16.666666666666668
-350.0   120.0   33.333333333333336
-300.0   120.0   33.333333333333336
-350.0   150.0   33.333333333333336
-350.0   120.0   50.0
-300.0   120.0   33.333333333333336
-300.0   150.0   33.333333333333336
-350.0   150.0   33.333333333333336
-300.0   150.0   50.0
-350.0   120.0   50.0
-350.0   150.0   50.0
-300.0   150.0   50.0
-350.0   150.0   33.333333333333336
-350.0   120.0   50.0
-300.0   150.0   50.0
-300.0   120.0   50.0
-300.0   120.0   33.333333333333336
-350.0   120.0   50.0
-300.0   150.0   50.0
-300.0   120.0   33.333333333333336
-350.0   150.0   33.333333333333336
-300.0   0.0   0.0
-250.0   0.0   0.0
-300.0   30.0   0.0
-300.0   0.0   16.666666666666668
-250.0   0.0   0.0
-250.0   30.0   0.0
-300.0   30.0   0.0
-250.0   30.0   16.666666666666668
-300.0   0.0   16.666666666666668
-300.0   30.0   16.666666666666668
-250.0   30.0   16.666666666666668
-300.0   30.0   0.0
-300.0   0.0   16.666666666666668
-250.0   30.0   16.666666666666668
-250.0   0.0   16.666666666666668
-250.0   0.0   0.0
-300.0   0.0   16.666666666666668
-250.0   30.0   16.666666666666668
-250.0   0.0   0.0
-300.0   30.0   0.0
-300.0   0.0   16.666666666666668
-250.0   0.0   16.666666666666668
-300.0   30.0   16.666666666666668
-300.0   0.0   33.333333333333336
-250.0   0.0   16.666666666666668
-250.0   30.0   16.666666666666668
-300.0   30.0   16.666666666666668
-250.0   30.0   33.333333333333336
-300.0   0.0   33.333333333333336
-300.0   30.0   33.333333333333336
-250.0   30.0   33.333333333333336
-300.0   30.0   16.666666666666668
-300.0   0.0   33.333333333333336
-250.0   30.0   33.333333333333336
-250.0   0.0   33.333333333333336
-250.0   0.0   16.666666666666668
-300.0   0.0   33.333333333333336
-250.0   30.0   33.333333333333336
-250.0   0.0   16.666666666666668
-300.0   30.0   16.666666666666668
-300.0   0.0   33.333333333333336
-250.0   0.0   33.333333333333336
-300.0   30.0   33.333333333333336
-300.0   0.0   50.0
-250.0   0.0   33.333333333333336
-250.0   30.0   33.333333333333336
-300.0   30.0   33.333333333333336
-250.0   30.0   50.0
-300.0   0.0   50.0
-300.0   30.0   50.0
-250.0   30.0   50.0
-300.0   30.0   33.333333333333336
-300.0   0.0   50.0
-250.0   30.0   50.0
-250.0   0.0   50.0
-250.0   0.0   33.333333333333336
-300.0   0.0   50.0
-250.0   30.0   50.0
-250.0   0.0   33.333333333333336
-300.0   30.0   33.333333333333336
-300.0   30.0   0.0
-250.0   30.0   0.0
-300.0   60.0   0.0
-300.0   30.0   16.666666666666668
-250.0   30.0   0.0
-250.0   60.0   0.0
-300.0   60.0   0.0
-250.0   60.0   16.666666666666668
-300.0   30.0   16.666666666666668
-300.0   60.0   16.666666666666668
-250.0   60.0   16.666666666666668
-300.0   60.0   0.0
-300.0   30.0   16.666666666666668
-250.0   60.0   16.666666666666668
-250.0   30.0   16.666666666666668
-250.0   30.0   0.0
-300.0   30.0   16.666666666666668
-250.0   60.0   16.666666666666668
-250.0   30.0   0.0
-300.0   60.0   0.0
-300.0   30.0   16.666666666666668
-250.0   30.0   16.666666666666668
-300.0   60.0   16.666666666666668
-300.0   30.0   33.333333333333336
-250.0   30.0   16.666666666666668
-250.0   60.0   16.666666666666668
-300.0   60.0   16.666666666666668
-250.0   60.0   33.333333333333336
-300.0   30.0   33.333333333333336
-300.0   60.0   33.333333333333336
-250.0   60.0   33.333333333333336
-300.0   60.0   16.666666666666668
-300.0   30.0   33.333333333333336
-250.0   60.0   33.333333333333336
-250.0   30.0   33.333333333333336
-250.0   30.0   16.666666666666668
-300.0   30.0   33.333333333333336
-250.0   60.0   33.333333333333336
-250.0   30.0   16.666666666666668
-300.0   60.0   16.666666666666668
-300.0   30.0   33.333333333333336
-250.0   30.0   33.333333333333336
-300.0   60.0   33.333333333333336
-300.0   30.0   50.0
-250.0   30.0   33.333333333333336
-250.0   60.0   33.333333333333336
-300.0   60.0   33.333333333333336
-250.0   60.0   50.0
-300.0   30.0   50.0
-300.0   60.0   50.0
-250.0   60.0   50.0
-300.0   60.0   33.333333333333336
-300.0   30.0   50.0
-250.0   60.0   50.0
-250.0   30.0   50.0
-250.0   30.0   33.333333333333336
-300.0   30.0   50.0
-250.0   60.0   50.0
-250.0   30.0   33.333333333333336
-300.0   60.0   33.333333333333336
-300.0   60.0   0.0
-250.0   60.0   0.0
-300.0   90.0   0.0
-300.0   60.0   16.666666666666668
-250.0   60.0   0.0
-250.0   90.0   0.0
-300.0   90.0   0.0
-250.0   90.0   16.666666666666668
-300.0   60.0   16.666666666666668
-300.0   90.0   16.666666666666668
-250.0   90.0   16.666666666666668
-300.0   90.0   0.0
-300.0   60.0   16.666666666666668
-250.0   90.0   16.666666666666668
-250.0   60.0   16.666666666666668
-250.0   60.0   0.0
-300.0   60.0   16.666666666666668
-250.0   90.0   16.666666666666668
-250.0   60.0   0.0
-300.0   90.0   0.0
-300.0   60.0   16.666666666666668
-250.0   60.0   16.666666666666668
-300.0   90.0   16.666666666666668
-300.0   60.0   33.333333333333336
-250.0   60.0   16.666666666666668
-250.0   90.0   16.666666666666668
-300.0   90.0   16.666666666666668
-250.0   90.0   33.333333333333336
-300.0   60.0   33.333333333333336
-300.0   90.0   33.333333333333336
-250.0   90.0   33.333333333333336
-300.0   90.0   16.666666666666668
-300.0   60.0   33.333333333333336
-250.0   90.0   33.333333333333336
-250.0   60.0   33.333333333333336
-250.0   60.0   16.666666666666668
-300.0   60.0   33.333333333333336
-250.0   90.0   33.333333333333336
-250.0   60.0   16.666666666666668
-300.0   90.0   16.666666666666668
-300.0   60.0   33.333333333333336
-250.0   60.0   33.333333333333336
-300.0   90.0   33.333333333333336
-300.0   60.0   50.0
-250.0   60.0   33.333333333333336
-250.0   90.0   33.333333333333336
-300.0   90.0   33.333333333333336
-250.0   90.0   50.0
-300.0   60.0   50.0
-300.0   90.0   50.0
-250.0   90.0   50.0
-300.0   90.0   33.333333333333336
-300.0   60.0   50.0
-250.0   90.0   50.0
-250.0   60.0   50.0
-250.0   60.0   33.333333333333336
-300.0   60.0   50.0
-250.0   90.0   50.0
-250.0   60.0   33.333333333333336
-300.0   90.0   33.333333333333336
-300.0   90.0   0.0
-250.0   90.0   0.0
-300.0   120.0   0.0
-300.0   90.0   16.666666666666668
-250.0   90.0   0.0
-250.0   120.0   0.0
-300.0   120.0   0.0
-250.0   120.0   16.666666666666668
-300.0   90.0   16.666666666666668
-300.0   120.0   16.666666666666668
-250.0   120.0   16.666666666666668
-300.0   120.0   0.0
-300.0   90.0   16.666666666666668
-250.0   120.0   16.666666666666668
-250.0   90.0   16.666666666666668
-250.0   90.0   0.0
-300.0   90.0   16.666666666666668
-250.0   120.0   16.666666666666668
-250.0   90.0   0.0
-300.0   120.0   0.0
-300.0   90.0   16.666666666666668
-250.0   90.0   16.666666666666668
-300.0   120.0   16.666666666666668
-300.0   90.0   33.333333333333336
-250.0   90.0   16.666666666666668
-250.0   120.0   16.666666666666668
-300.0   120.0   16.666666666666668
-250.0   120.0   33.333333333333336
-300.0   90.0   33.333333333333336
-300.0   120.0   33.333333333333336
-250.0   120.0   33.333333333333336
-300.0   120.0   16.666666666666668
-300.0   90.0   33.333333333333336
-250.0   120.0   33.333333333333336
-250.0   90.0   33.333333333333336
-250.0   90.0   16.666666666666668
-300.0   90.0   33.333333333333336
-250.0   120.0   33.333333333333336
-250.0   90.0   16.666666666666668
-300.0   120.0   16.666666666666668
-300.0   90.0   33.333333333333336
-250.0   90.0   33.333333333333336
-300.0   120.0   33.333333333333336
-300.0   90.0   50.0
-250.0   90.0   33.333333333333336
-250.0   120.0   33.333333333333336
-300.0   120.0   33.333333333333336
-250.0   120.0   50.0
-300.0   90.0   50.0
-300.0   120.0   50.0
-250.0   120.0   50.0
-300.0   120.0   33.333333333333336
-300.0   90.0   50.0
-250.0   120.0   50.0
-250.0   90.0   50.0
-250.0   90.0   33.333333333333336
-300.0   90.0   50.0
-250.0   120.0   50.0
-250.0   90.0   33.333333333333336
-300.0   120.0   33.333333333333336
-300.0   120.0   0.0
-250.0   120.0   0.0
-300.0   150.0   0.0
-300.0   120.0   16.666666666666668
-250.0   120.0   0.0
-250.0   150.0   0.0
-300.0   150.0   0.0
-250.0   150.0   16.666666666666668
-300.0   120.0   16.666666666666668
-300.0   150.0   16.666666666666668
-250.0   150.0   16.666666666666668
-300.0   150.0   0.0
-300.0   120.0   16.666666666666668
-250.0   150.0   16.666666666666668
-250.0   120.0   16.666666666666668
-250.0   120.0   0.0
-300.0   120.0   16.666666666666668
-250.0   150.0   16.666666666666668
-250.0   120.0   0.0
-300.0   150.0   0.0
-300.0   120.0   16.666666666666668
-250.0   120.0   16.666666666666668
-300.0   150.0   16.666666666666668
-300.0   120.0   33.333333333333336
-250.0   120.0   16.666666666666668
-250.0   150.0   16.666666666666668
-300.0   150.0   16.666666666666668
-250.0   150.0   33.333333333333336
-300.0   120.0   33.333333333333336
-300.0   150.0   33.333333333333336
-250.0   150.0   33.333333333333336
-300.0   150.0   16.666666666666668
-300.0   120.0   33.333333333333336
-250.0   150.0   33.333333333333336
-250.0   120.0   33.333333333333336
-250.0   120.0   16.666666666666668
-300.0   120.0   33.333333333333336
-250.0   150.0   33.333333333333336
-250.0   120.0   16.666666666666668
-300.0   150.0   16.666666666666668
-300.0   120.0   33.333333333333336
-250.0   120.0   33.333333333333336
-300.0   150.0   33.333333333333336
-300.0   120.0   50.0
-250.0   120.0   33.333333333333336
-250.0   150.0   33.333333333333336
-300.0   150.0   33.333333333333336
-250.0   150.0   50.0
-300.0   120.0   50.0
-300.0   150.0   50.0
-250.0   150.0   50.0
-300.0   150.0   33.333333333333336
-300.0   120.0   50.0
-250.0   150.0   50.0
-250.0   120.0   50.0
-250.0   120.0   33.333333333333336
-300.0   120.0   50.0
-250.0   150.0   50.0
-250.0   120.0   33.333333333333336
-300.0   150.0   33.333333333333336
-250.0   0.0   0.0
-200.0   0.0   0.0
-250.0   30.0   0.0
-250.0   0.0   16.666666666666668
-200.0   0.0   0.0
-200.0   30.0   0.0
-250.0   30.0   0.0
-200.0   30.0   16.666666666666668
-250.0   0.0   16.666666666666668
-250.0   30.0   16.666666666666668
-200.0   30.0   16.666666666666668
-250.0   30.0   0.0
-250.0   0.0   16.666666666666668
-200.0   30.0   16.666666666666668
-200.0   0.0   16.666666666666668
-200.0   0.0   0.0
-250.0   0.0   16.666666666666668
-200.0   30.0   16.666666666666668
-200.0   0.0   0.0
-250.0   30.0   0.0
-250.0   0.0   16.666666666666668
-200.0   0.0   16.666666666666668
-250.0   30.0   16.666666666666668
-250.0   0.0   33.333333333333336
-200.0   0.0   16.666666666666668
-200.0   30.0   16.666666666666668
-250.0   30.0   16.666666666666668
-200.0   30.0   33.333333333333336
-250.0   0.0   33.333333333333336
-250.0   30.0   33.333333333333336
-200.0   30.0   33.333333333333336
-250.0   30.0   16.666666666666668
-250.0   0.0   33.333333333333336
-200.0   30.0   33.333333333333336
-200.0   0.0   33.333333333333336
-200.0   0.0   16.666666666666668
-250.0   0.0   33.333333333333336
-200.0   30.0   33.333333333333336
-200.0   0.0   16.666666666666668
-250.0   30.0   16.666666666666668
-250.0   0.0   33.333333333333336
-200.0   0.0   33.333333333333336
-250.0   30.0   33.333333333333336
-250.0   0.0   50.0
-200.0   0.0   33.333333333333336
-200.0   30.0   33.333333333333336
-250.0   30.0   33.333333333333336
-200.0   30.0   50.0
-250.0   0.0   50.0
-250.0   30.0   50.0
-200.0   30.0   50.0
-250.0   30.0   33.333333333333336
-250.0   0.0   50.0
-200.0   30.0   50.0
-200.0   0.0   50.0
-200.0   0.0   33.333333333333336
-250.0   0.0   50.0
-200.0   30.0   50.0
-200.0   0.0   33.333333333333336
-250.0   30.0   33.333333333333336
-250.0   30.0   0.0
-200.0   30.0   0.0
-250.0   60.0   0.0
-250.0   30.0   16.666666666666668
-200.0   30.0   0.0
-200.0   60.0   0.0
-250.0   60.0   0.0
-200.0   60.0   16.666666666666668
-250.0   30.0   16.666666666666668
-250.0   60.0   16.666666666666668
-200.0   60.0   16.666666666666668
-250.0   60.0   0.0
-250.0   30.0   16.666666666666668
-200.0   60.0   16.666666666666668
-200.0   30.0   16.666666666666668
-200.0   30.0   0.0
-250.0   30.0   16.666666666666668
-200.0   60.0   16.666666666666668
-200.0   30.0   0.0
-250.0   60.0   0.0
-250.0   30.0   16.666666666666668
-200.0   30.0   16.666666666666668
-250.0   60.0   16.666666666666668
-250.0   30.0   33.333333333333336
-200.0   30.0   16.666666666666668
-200.0   60.0   16.666666666666668
-250.0   60.0   16.666666666666668
-200.0   60.0   33.333333333333336
-250.0   30.0   33.333333333333336
-250.0   60.0   33.333333333333336
-200.0   60.0   33.333333333333336
-250.0   60.0   16.666666666666668
-250.0   30.0   33.333333333333336
-200.0   60.0   33.333333333333336
-200.0   30.0   33.333333333333336
-200.0   30.0   16.666666666666668
-250.0   30.0   33.333333333333336
-200.0   60.0   33.333333333333336
-200.0   30.0   16.666666666666668
-250.0   60.0   16.666666666666668
-250.0   30.0   33.333333333333336
-200.0   30.0   33.333333333333336
-250.0   60.0   33.333333333333336
-250.0   30.0   50.0
-200.0   30.0   33.333333333333336
-200.0   60.0   33.333333333333336
-250.0   60.0   33.333333333333336
-200.0   60.0   50.0
-250.0   30.0   50.0
-250.0   60.0   50.0
-200.0   60.0   50.0
-250.0   60.0   33.333333333333336
-250.0   30.0   50.0
-200.0   60.0   50.0
-200.0   30.0   50.0
-200.0   30.0   33.333333333333336
-250.0   30.0   50.0
-200.0   60.0   50.0
-200.0   30.0   33.333333333333336
-250.0   60.0   33.333333333333336
-250.0   60.0   0.0
-200.0   60.0   0.0
-250.0   90.0   0.0
-250.0   60.0   16.666666666666668
-200.0   60.0   0.0
-200.0   90.0   0.0
-250.0   90.0   0.0
-200.0   90.0   16.666666666666668
-250.0   60.0   16.666666666666668
-250.0   90.0   16.666666666666668
-200.0   90.0   16.666666666666668
-250.0   90.0   0.0
-250.0   60.0   16.666666666666668
-200.0   90.0   16.666666666666668
-200.0   60.0   16.666666666666668
-200.0   60.0   0.0
-250.0   60.0   16.666666666666668
-200.0   90.0   16.666666666666668
-200.0   60.0   0.0
-250.0   90.0   0.0
-250.0   60.0   16.666666666666668
-200.0   60.0   16.666666666666668
-250.0   90.0   16.666666666666668
-250.0   60.0   33.333333333333336
-200.0   60.0   16.666666666666668
-200.0   90.0   16.666666666666668
-250.0   90.0   16.666666666666668
-200.0   90.0   33.333333333333336
-250.0   60.0   33.333333333333336
-250.0   90.0   33.333333333333336
-200.0   90.0   33.333333333333336
-250.0   90.0   16.666666666666668
-250.0   60.0   33.333333333333336
-200.0   90.0   33.333333333333336
-200.0   60.0   33.333333333333336
-200.0   60.0   16.666666666666668
-250.0   60.0   33.333333333333336
-200.0   90.0   33.333333333333336
-200.0   60.0   16.666666666666668
-250.0   90.0   16.666666666666668
-250.0   60.0   33.333333333333336
-200.0   60.0   33.333333333333336
-250.0   90.0   33.333333333333336
-250.0   60.0   50.0
-200.0   60.0   33.333333333333336
-200.0   90.0   33.333333333333336
-250.0   90.0   33.333333333333336
-200.0   90.0   50.0
-250.0   60.0   50.0
-250.0   90.0   50.0
-200.0   90.0   50.0
-250.0   90.0   33.333333333333336
-250.0   60.0   50.0
-200.0   90.0   50.0
-200.0   60.0   50.0
-200.0   60.0   33.333333333333336
-250.0   60.0   50.0
-200.0   90.0   50.0
-200.0   60.0   33.333333333333336
-250.0   90.0   33.333333333333336
-250.0   90.0   0.0
-200.0   90.0   0.0
-250.0   120.0   0.0
-250.0   90.0   16.666666666666668
-200.0   90.0   0.0
-200.0   120.0   0.0
-250.0   120.0   0.0
-200.0   120.0   16.666666666666668
-250.0   90.0   16.666666666666668
-250.0   120.0   16.666666666666668
-200.0   120.0   16.666666666666668
-250.0   120.0   0.0
-250.0   90.0   16.666666666666668
-200.0   120.0   16.666666666666668
-200.0   90.0   16.666666666666668
-200.0   90.0   0.0
-250.0   90.0   16.666666666666668
-200.0   120.0   16.666666666666668
-200.0   90.0   0.0
-250.0   120.0   0.0
-250.0   90.0   16.666666666666668
-200.0   90.0   16.666666666666668
-250.0   120.0   16.666666666666668
-250.0   90.0   33.333333333333336
-200.0   90.0   16.666666666666668
-200.0   120.0   16.666666666666668
-250.0   120.0   16.666666666666668
-200.0   120.0   33.333333333333336
-250.0   90.0   33.333333333333336
-250.0   120.0   33.333333333333336
-200.0   120.0   33.333333333333336
-250.0   120.0   16.666666666666668
-250.0   90.0   33.333333333333336
-200.0   120.0   33.333333333333336
-200.0   90.0   33.333333333333336
-200.0   90.0   16.666666666666668
-250.0   90.0   33.333333333333336
-200.0   120.0   33.333333333333336
-200.0   90.0   16.666666666666668
-250.0   120.0   16.666666666666668
-250.0   90.0   33.333333333333336
-200.0   90.0   33.333333333333336
-250.0   120.0   33.333333333333336
-250.0   90.0   50.0
-200.0   90.0   33.333333333333336
-200.0   120.0   33.333333333333336
-250.0   120.0   33.333333333333336
-200.0   120.0   50.0
-250.0   90.0   50.0
-250.0   120.0   50.0
-200.0   120.0   50.0
-250.0   120.0   33.333333333333336
-250.0   90.0   50.0
-200.0   120.0   50.0
-200.0   90.0   50.0
-200.0   90.0   33.333333333333336
-250.0   90.0   50.0
-200.0   120.0   50.0
-200.0   90.0   33.333333333333336
-250.0   120.0   33.333333333333336
-250.0   120.0   0.0
-200.0   120.0   0.0
-250.0   150.0   0.0
-250.0   120.0   16.666666666666668
-200.0   120.0   0.0
-200.0   150.0   0.0
-250.0   150.0   0.0
-200.0   150.0   16.666666666666668
-250.0   120.0   16.666666666666668
-250.0   150.0   16.666666666666668
-200.0   150.0   16.666666666666668
-250.0   150.0   0.0
-250.0   120.0   16.666666666666668
-200.0   150.0   16.666666666666668
-200.0   120.0   16.666666666666668
-200.0   120.0   0.0
-250.0   120.0   16.666666666666668
-200.0   150.0   16.666666666666668
-200.0   120.0   0.0
-250.0   150.0   0.0
-250.0   120.0   16.666666666666668
-200.0   120.0   16.666666666666668
-250.0   150.0   16.666666666666668
-250.0   120.0   33.333333333333336
-200.0   120.0   16.666666666666668
-200.0   150.0   16.666666666666668
-250.0   150.0   16.666666666666668
-200.0   150.0   33.333333333333336
-250.0   120.0   33.333333333333336
-250.0   150.0   33.333333333333336
-200.0   150.0   33.333333333333336
-250.0   150.0   16.666666666666668
-250.0   120.0   33.333333333333336
-200.0   150.0   33.333333333333336
-200.0   120.0   33.333333333333336
-200.0   120.0   16.666666666666668
-250.0   120.0   33.333333333333336
-200.0   150.0   33.333333333333336
-200.0   120.0   16.666666666666668
-250.0   150.0   16.666666666666668
-250.0   120.0   33.333333333333336
-200.0   120.0   33.333333333333336
-250.0   150.0   33.333333333333336
-250.0   120.0   50.0
-200.0   120.0   33.333333333333336
-200.0   150.0   33.333333333333336
-250.0   150.0   33.333333333333336
-200.0   150.0   50.0
-250.0   120.0   50.0
-250.0   150.0   50.0
-200.0   150.0   50.0
-250.0   150.0   33.333333333333336
-250.0   120.0   50.0
-200.0   150.0   50.0
-200.0   120.0   50.0
-200.0   120.0   33.333333333333336
-250.0   120.0   50.0
-200.0   150.0   50.0
-200.0   120.0   33.333333333333336
-250.0   150.0   33.333333333333336
-200.0   0.0   0.0
-150.0   0.0   0.0
-200.0   30.0   0.0
-200.0   0.0   16.666666666666668
-150.0   0.0   0.0
-150.0   30.0   0.0
-200.0   30.0   0.0
-150.0   30.0   16.666666666666668
-200.0   0.0   16.666666666666668
-200.0   30.0   16.666666666666668
-150.0   30.0   16.666666666666668
-200.0   30.0   0.0
-200.0   0.0   16.666666666666668
-150.0   30.0   16.666666666666668
-150.0   0.0   16.666666666666668
-150.0   0.0   0.0
-200.0   0.0   16.666666666666668
-150.0   30.0   16.666666666666668
-150.0   0.0   0.0
-200.0   30.0   0.0
-200.0   0.0   16.666666666666668
-150.0   0.0   16.666666666666668
-200.0   30.0   16.666666666666668
-200.0   0.0   33.333333333333336
-150.0   0.0   16.666666666666668
-150.0   30.0   16.666666666666668
-200.0   30.0   16.666666666666668
-150.0   30.0   33.333333333333336
-200.0   0.0   33.333333333333336
-200.0   30.0   33.333333333333336
-150.0   30.0   33.333333333333336
-200.0   30.0   16.666666666666668
-200.0   0.0   33.333333333333336
-150.0   30.0   33.333333333333336
-150.0   0.0   33.333333333333336
-150.0   0.0   16.666666666666668
-200.0   0.0   33.333333333333336
-150.0   30.0   33.333333333333336
-150.0   0.0   16.666666666666668
-200.0   30.0   16.666666666666668
-200.0   0.0   33.333333333333336
-150.0   0.0   33.333333333333336
-200.0   30.0   33.333333333333336
-200.0   0.0   50.0
-150.0   0.0   33.333333333333336
-150.0   30.0   33.333333333333336
-200.0   30.0   33.333333333333336
-150.0   30.0   50.0
-200.0   0.0   50.0
-200.0   30.0   50.0
-150.0   30.0   50.0
-200.0   30.0   33.333333333333336
-200.0   0.0   50.0
-150.0   30.0   50.0
-150.0   0.0   50.0
-150.0   0.0   33.333333333333336
-200.0   0.0   50.0
-150.0   30.0   50.0
-150.0   0.0   33.333333333333336
-200.0   30.0   33.333333333333336
-200.0   30.0   0.0
-150.0   30.0   0.0
-200.0   60.0   0.0
-200.0   30.0   16.666666666666668
-150.0   30.0   0.0
-150.0   60.0   0.0
-200.0   60.0   0.0
-150.0   60.0   16.666666666666668
-200.0   30.0   16.666666666666668
-200.0   60.0   16.666666666666668
-150.0   60.0   16.666666666666668
-200.0   60.0   0.0
-200.0   30.0   16.666666666666668
-150.0   60.0   16.666666666666668
-150.0   30.0   16.666666666666668
-150.0   30.0   0.0
-200.0   30.0   16.666666666666668
-150.0   60.0   16.666666666666668
-150.0   30.0   0.0
-200.0   60.0   0.0
-200.0   30.0   16.666666666666668
-150.0   30.0   16.666666666666668
-200.0   60.0   16.666666666666668
-200.0   30.0   33.333333333333336
-150.0   30.0   16.666666666666668
-150.0   60.0   16.666666666666668
-200.0   60.0   16.666666666666668
-150.0   60.0   33.333333333333336
-200.0   30.0   33.333333333333336
-200.0   60.0   33.333333333333336
-150.0   60.0   33.333333333333336
-200.0   60.0   16.666666666666668
-200.0   30.0   33.333333333333336
-150.0   60.0   33.333333333333336
-150.0   30.0   33.333333333333336
-150.0   30.0   16.666666666666668
-200.0   30.0   33.333333333333336
-150.0   60.0   33.333333333333336
-150.0   30.0   16.666666666666668
-200.0   60.0   16.666666666666668
-200.0   30.0   33.333333333333336
-150.0   30.0   33.333333333333336
-200.0   60.0   33.333333333333336
-200.0   30.0   50.0
-150.0   30.0   33.333333333333336
-150.0   60.0   33.333333333333336
-200.0   60.0   33.333333333333336
-150.0   60.0   50.0
-200.0   30.0   50.0
-200.0   60.0   50.0
-150.0   60.0   50.0
-200.0   60.0   33.333333333333336
-200.0   30.0   50.0
-150.0   60.0   50.0
-150.0   30.0   50.0
-150.0   30.0   33.333333333333336
-200.0   30.0   50.0
-150.0   60.0   50.0
-150.0   30.0   33.333333333333336
-200.0   60.0   33.333333333333336
-200.0   60.0   0.0
-150.0   60.0   0.0
-200.0   90.0   0.0
-200.0   60.0   16.666666666666668
-150.0   60.0   0.0
-150.0   90.0   0.0
-200.0   90.0   0.0
-150.0   90.0   16.666666666666668
-200.0   60.0   16.666666666666668
-200.0   90.0   16.666666666666668
-150.0   90.0   16.666666666666668
-200.0   90.0   0.0
-200.0   60.0   16.666666666666668
-150.0   90.0   16.666666666666668
-150.0   60.0   16.666666666666668
-150.0   60.0   0.0
-200.0   60.0   16.666666666666668
-150.0   90.0   16.666666666666668
-150.0   60.0   0.0
-200.0   90.0   0.0
-200.0   60.0   16.666666666666668
-150.0   60.0   16.666666666666668
-200.0   90.0   16.666666666666668
-200.0   60.0   33.333333333333336
-150.0   60.0   16.666666666666668
-150.0   90.0   16.666666666666668
-200.0   90.0   16.666666666666668
-150.0   90.0   33.333333333333336
-200.0   60.0   33.333333333333336
-200.0   90.0   33.333333333333336
-150.0   90.0   33.333333333333336
-200.0   90.0   16.666666666666668
-200.0   60.0   33.333333333333336
-150.0   90.0   33.333333333333336
-150.0   60.0   33.333333333333336
-150.0   60.0   16.666666666666668
-200.0   60.0   33.333333333333336
-150.0   90.0   33.333333333333336
-150.0   60.0   16.666666666666668
-200.0   90.0   16.666666666666668
-200.0   60.0   33.333333333333336
-150.0   60.0   33.333333333333336
-200.0   90.0   33.333333333333336
-200.0   60.0   50.0
-150.0   60.0   33.333333333333336
-150.0   90.0   33.333333333333336
-200.0   90.0   33.333333333333336
-150.0   90.0   50.0
-200.0   60.0   50.0
-200.0   90.0   50.0
-150.0   90.0   50.0
-200.0   90.0   33.333333333333336
-200.0   60.0   50.0
-150.0   90.0   50.0
-150.0   60.0   50.0
-150.0   60.0   33.333333333333336
-200.0   60.0   50.0
-150.0   90.0   50.0
-150.0   60.0   33.333333333333336
-200.0   90.0   33.333333333333336
-200.0   90.0   0.0
-150.0   90.0   0.0
-200.0   120.0   0.0
-200.0   90.0   16.666666666666668
-150.0   90.0   0.0
-150.0   120.0   0.0
-200.0   120.0   0.0
-150.0   120.0   16.666666666666668
-200.0   90.0   16.666666666666668
-200.0   120.0   16.666666666666668
-150.0   120.0   16.666666666666668
-200.0   120.0   0.0
-200.0   90.0   16.666666666666668
-150.0   120.0   16.666666666666668
-150.0   90.0   16.666666666666668
-150.0   90.0   0.0
-200.0   90.0   16.666666666666668
-150.0   120.0   16.666666666666668
-150.0   90.0   0.0
-200.0   120.0   0.0
-200.0   90.0   16.666666666666668
-150.0   90.0   16.666666666666668
-200.0   120.0   16.666666666666668
-200.0   90.0   33.333333333333336
-150.0   90.0   16.666666666666668
-150.0   120.0   16.666666666666668
-200.0   120.0   16.666666666666668
-150.0   120.0   33.333333333333336
-200.0   90.0   33.333333333333336
-200.0   120.0   33.333333333333336
-150.0   120.0   33.333333333333336
-200.0   120.0   16.666666666666668
-200.0   90.0   33.333333333333336
-150.0   120.0   33.333333333333336
-150.0   90.0   33.333333333333336
-150.0   90.0   16.666666666666668
-200.0   90.0   33.333333333333336
-150.0   120.0   33.333333333333336
-150.0   90.0   16.666666666666668
-200.0   120.0   16.666666666666668
-200.0   90.0   33.333333333333336
-150.0   90.0   33.333333333333336
-200.0   120.0   33.333333333333336
-200.0   90.0   50.0
-150.0   90.0   33.333333333333336
-150.0   120.0   33.333333333333336
-200.0   120.0   33.333333333333336
-150.0   120.0   50.0
-200.0   90.0   50.0
-200.0   120.0   50.0
-150.0   120.0   50.0
-200.0   120.0   33.333333333333336
-200.0   90.0   50.0
-150.0   120.0   50.0
-150.0   90.0   50.0
-150.0   90.0   33.333333333333336
-200.0   90.0   50.0
-150.0   120.0   50.0
-150.0   90.0   33.333333333333336
-200.0   120.0   33.333333333333336
-200.0   120.0   0.0
-150.0   120.0   0.0
-200.0   150.0   0.0
-200.0   120.0   16.666666666666668
-150.0   120.0   0.0
-150.0   150.0   0.0
-200.0   150.0   0.0
-150.0   150.0   16.666666666666668
-200.0   120.0   16.666666666666668
-200.0   150.0   16.666666666666668
-150.0   150.0   16.666666666666668
-200.0   150.0   0.0
-200.0   120.0   16.666666666666668
-150.0   150.0   16.666666666666668
-150.0   120.0   16.666666666666668
-150.0   120.0   0.0
-200.0   120.0   16.666666666666668
-150.0   150.0   16.666666666666668
-150.0   120.0   0.0
-200.0   150.0   0.0
-200.0   120.0   16.666666666666668
-150.0   120.0   16.666666666666668
-200.0   150.0   16.666666666666668
-200.0   120.0   33.333333333333336
-150.0   120.0   16.666666666666668
-150.0   150.0   16.666666666666668
-200.0   150.0   16.666666666666668
-150.0   150.0   33.333333333333336
-200.0   120.0   33.333333333333336
-200.0   150.0   33.333333333333336
-150.0   150.0   33.333333333333336
-200.0   150.0   16.666666666666668
-200.0   120.0   33.333333333333336
-150.0   150.0   33.333333333333336
-150.0   120.0   33.333333333333336
-150.0   120.0   16.666666666666668
-200.0   120.0   33.333333333333336
-150.0   150.0   33.333333333333336
-150.0   120.0   16.666666666666668
-200.0   150.0   16.666666666666668
-200.0   120.0   33.333333333333336
-150.0   120.0   33.333333333333336
-200.0   150.0   33.333333333333336
-200.0   120.0   50.0
-150.0   120.0   33.333333333333336
-150.0   150.0   33.333333333333336
-200.0   150.0   33.333333333333336
-150.0   150.0   50.0
-200.0   120.0   50.0
-200.0   150.0   50.0
-150.0   150.0   50.0
-200.0   150.0   33.333333333333336
-200.0   120.0   50.0
-150.0   150.0   50.0
-150.0   120.0   50.0
-150.0   120.0   33.333333333333336
-200.0   120.0   50.0
-150.0   150.0   50.0
-150.0   120.0   33.333333333333336
-200.0   150.0   33.333333333333336
-150.0   0.0   0.0
-100.0   0.0   0.0
-150.0   30.0   0.0
-150.0   0.0   16.666666666666668
-100.0   0.0   0.0
-100.0   30.0   0.0
-150.0   30.0   0.0
-100.0   30.0   16.666666666666668
-150.0   0.0   16.666666666666668
-150.0   30.0   16.666666666666668
-100.0   30.0   16.666666666666668
-150.0   30.0   0.0
-150.0   0.0   16.666666666666668
-100.0   30.0   16.666666666666668
-100.0   0.0   16.666666666666668
-100.0   0.0   0.0
-150.0   0.0   16.666666666666668
-100.0   30.0   16.666666666666668
-100.0   0.0   0.0
-150.0   30.0   0.0
-150.0   0.0   16.666666666666668
-100.0   0.0   16.666666666666668
-150.0   30.0   16.666666666666668
-150.0   0.0   33.333333333333336
-100.0   0.0   16.666666666666668
-100.0   30.0   16.666666666666668
-150.0   30.0   16.666666666666668
-100.0   30.0   33.333333333333336
-150.0   0.0   33.333333333333336
-150.0   30.0   33.333333333333336
-100.0   30.0   33.333333333333336
-150.0   30.0   16.666666666666668
-150.0   0.0   33.333333333333336
-100.0   30.0   33.333333333333336
-100.0   0.0   33.333333333333336
-100.0   0.0   16.666666666666668
-150.0   0.0   33.333333333333336
-100.0   30.0   33.333333333333336
-100.0   0.0   16.666666666666668
-150.0   30.0   16.666666666666668
-150.0   0.0   33.333333333333336
-100.0   0.0   33.333333333333336
-150.0   30.0   33.333333333333336
-150.0   0.0   50.0
-100.0   0.0   33.333333333333336
-100.0   30.0   33.333333333333336
-150.0   30.0   33.333333333333336
-100.0   30.0   50.0
-150.0   0.0   50.0
-150.0   30.0   50.0
-100.0   30.0   50.0
-150.0   30.0   33.333333333333336
-150.0   0.0   50.0
-100.0   30.0   50.0
-100.0   0.0   50.0
-100.0   0.0   33.333333333333336
-150.0   0.0   50.0
-100.0   30.0   50.0
-100.0   0.0   33.333333333333336
-150.0   30.0   33.333333333333336
-150.0   30.0   0.0
-100.0   30.0   0.0
-150.0   60.0   0.0
-150.0   30.0   16.666666666666668
-100.0   30.0   0.0
-100.0   60.0   0.0
-150.0   60.0   0.0
-100.0   60.0   16.666666666666668
-150.0   30.0   16.666666666666668
-150.0   60.0   16.666666666666668
-100.0   60.0   16.666666666666668
-150.0   60.0   0.0
-150.0   30.0   16.666666666666668
-100.0   60.0   16.666666666666668
-100.0   30.0   16.666666666666668
-100.0   30.0   0.0
-150.0   30.0   16.666666666666668
-100.0   60.0   16.666666666666668
-100.0   30.0   0.0
-150.0   60.0   0.0
-150.0   30.0   16.666666666666668
-100.0   30.0   16.666666666666668
-150.0   60.0   16.666666666666668
-150.0   30.0   33.333333333333336
-100.0   30.0   16.666666666666668
-100.0   60.0   16.666666666666668
-150.0   60.0   16.666666666666668
-100.0   60.0   33.333333333333336
-150.0   30.0   33.333333333333336
-150.0   60.0   33.333333333333336
-100.0   60.0   33.333333333333336
-150.0   60.0   16.666666666666668
-150.0   30.0   33.333333333333336
-100.0   60.0   33.333333333333336
-100.0   30.0   33.333333333333336
-100.0   30.0   16.666666666666668
-150.0   30.0   33.333333333333336
-100.0   60.0   33.333333333333336
-100.0   30.0   16.666666666666668
-150.0   60.0   16.666666666666668
-150.0   30.0   33.333333333333336
-100.0   30.0   33.333333333333336
-150.0   60.0   33.333333333333336
-150.0   30.0   50.0
-100.0   30.0   33.333333333333336
-100.0   60.0   33.333333333333336
-150.0   60.0   33.333333333333336
-100.0   60.0   50.0
-150.0   30.0   50.0
-150.0   60.0   50.0
-100.0   60.0   50.0
-150.0   60.0   33.333333333333336
-150.0   30.0   50.0
-100.0   60.0   50.0
-100.0   30.0   50.0
-100.0   30.0   33.333333333333336
-150.0   30.0   50.0
-100.0   60.0   50.0
-100.0   30.0   33.333333333333336
-150.0   60.0   33.333333333333336
-150.0   60.0   0.0
-100.0   60.0   0.0
-150.0   90.0   0.0
-150.0   60.0   16.666666666666668
-100.0   60.0   0.0
-100.0   90.0   0.0
-150.0   90.0   0.0
-100.0   90.0   16.666666666666668
-150.0   60.0   16.666666666666668
-150.0   90.0   16.666666666666668
-100.0   90.0   16.666666666666668
-150.0   90.0   0.0
-150.0   60.0   16.666666666666668
-100.0   90.0   16.666666666666668
-100.0   60.0   16.666666666666668
-100.0   60.0   0.0
-150.0   60.0   16.666666666666668
-100.0   90.0   16.666666666666668
-100.0   60.0   0.0
-150.0   90.0   0.0
-150.0   60.0   16.666666666666668
-100.0   60.0   16.666666666666668
-150.0   90.0   16.666666666666668
-150.0   60.0   33.333333333333336
-100.0   60.0   16.666666666666668
-100.0   90.0   16.666666666666668
-150.0   90.0   16.666666666666668
-100.0   90.0   33.333333333333336
-150.0   60.0   33.333333333333336
-150.0   90.0   33.333333333333336
-100.0   90.0   33.333333333333336
-150.0   90.0   16.666666666666668
-150.0   60.0   33.333333333333336
-100.0   90.0   33.333333333333336
-100.0   60.0   33.333333333333336
-100.0   60.0   16.666666666666668
-150.0   60.0   33.333333333333336
-100.0   90.0   33.333333333333336
-100.0   60.0   16.666666666666668
-150.0   90.0   16.666666666666668
-150.0   60.0   33.333333333333336
-100.0   60.0   33.333333333333336
-150.0   90.0   33.333333333333336
-150.0   60.0   50.0
-100.0   60.0   33.333333333333336
-100.0   90.0   33.333333333333336
-150.0   90.0   33.333333333333336
-100.0   90.0   50.0
-150.0   60.0   50.0
-150.0   90.0   50.0
-100.0   90.0   50.0
-150.0   90.0   33.333333333333336
-150.0   60.0   50.0
-100.0   90.0   50.0
-100.0   60.0   50.0
-100.0   60.0   33.333333333333336
-150.0   60.0   50.0
-100.0   90.0   50.0
-100.0   60.0   33.333333333333336
-150.0   90.0   33.333333333333336
-150.0   90.0   0.0
-100.0   90.0   0.0
-150.0   120.0   0.0
-150.0   90.0   16.666666666666668
-100.0   90.0   0.0
-100.0   120.0   0.0
-150.0   120.0   0.0
-100.0   120.0   16.666666666666668
-150.0   90.0   16.666666666666668
-150.0   120.0   16.666666666666668
-100.0   120.0   16.666666666666668
-150.0   120.0   0.0
-150.0   90.0   16.666666666666668
-100.0   120.0   16.666666666666668
-100.0   90.0   16.666666666666668
-100.0   90.0   0.0
-150.0   90.0   16.666666666666668
-100.0   120.0   16.666666666666668
-100.0   90.0   0.0
-150.0   120.0   0.0
-150.0   90.0   16.666666666666668
-100.0   90.0   16.666666666666668
-150.0   120.0   16.666666666666668
-150.0   90.0   33.333333333333336
-100.0   90.0   16.666666666666668
-100.0   120.0   16.666666666666668
-150.0   120.0   16.666666666666668
-100.0   120.0   33.333333333333336
-150.0   90.0   33.333333333333336
-150.0   120.0   33.333333333333336
-100.0   120.0   33.333333333333336
-150.0   120.0   16.666666666666668
-150.0   90.0   33.333333333333336
-100.0   120.0   33.333333333333336
-100.0   90.0   33.333333333333336
-100.0   90.0   16.666666666666668
-150.0   90.0   33.333333333333336
-100.0   120.0   33.333333333333336
-100.0   90.0   16.666666666666668
-150.0   120.0   16.666666666666668
-150.0   90.0   33.333333333333336
-100.0   90.0   33.333333333333336
-150.0   120.0   33.333333333333336
-150.0   90.0   50.0
-100.0   90.0   33.333333333333336
-100.0   120.0   33.333333333333336
-150.0   120.0   33.333333333333336
-100.0   120.0   50.0
-150.0   90.0   50.0
-150.0   120.0   50.0
-100.0   120.0   50.0
-150.0   120.0   33.333333333333336
-150.0   90.0   50.0
-100.0   120.0   50.0
-100.0   90.0   50.0
-100.0   90.0   33.333333333333336
-150.0   90.0   50.0
-100.0   120.0   50.0
-100.0   90.0   33.333333333333336
-150.0   120.0   33.333333333333336
-150.0   120.0   0.0
-100.0   120.0   0.0
-150.0   150.0   0.0
-150.0   120.0   16.666666666666668
-100.0   120.0   0.0
-100.0   150.0   0.0
-150.0   150.0   0.0
-100.0   150.0   16.666666666666668
-150.0   120.0   16.666666666666668
-150.0   150.0   16.666666666666668
-100.0   150.0   16.666666666666668
-150.0   150.0   0.0
-150.0   120.0   16.666666666666668
-100.0   150.0   16.666666666666668
-100.0   120.0   16.666666666666668
-100.0   120.0   0.0
-150.0   120.0   16.666666666666668
-100.0   150.0   16.666666666666668
-100.0   120.0   0.0
-150.0   150.0   0.0
-150.0   120.0   16.666666666666668
-100.0   120.0   16.666666666666668
-150.0   150.0   16.666666666666668
-150.0   120.0   33.333333333333336
-100.0   120.0   16.666666666666668
-100.0   150.0   16.666666666666668
-150.0   150.0   16.666666666666668
-100.0   150.0   33.333333333333336
-150.0   120.0   33.333333333333336
-150.0   150.0   33.333333333333336
-100.0   150.0   33.333333333333336
-150.0   150.0   16.666666666666668
-150.0   120.0   33.333333333333336
-100.0   150.0   33.333333333333336
-100.0   120.0   33.333333333333336
-100.0   120.0   16.666666666666668
-150.0   120.0   33.333333333333336
-100.0   150.0   33.333333333333336
-100.0   120.0   16.666666666666668
-150.0   150.0   16.666666666666668
-150.0   120.0   33.333333333333336
-100.0   120.0   33.333333333333336
-150.0   150.0   33.333333333333336
-150.0   120.0   50.0
-100.0   120.0   33.333333333333336
-100.0   150.0   33.333333333333336
-150.0   150.0   33.333333333333336
-100.0   150.0   50.0
-150.0   120.0   50.0
-150.0   150.0   50.0
-100.0   150.0   50.0
-150.0   150.0   33.333333333333336
-150.0   120.0   50.0
-100.0   150.0   50.0
-100.0   120.0   50.0
-100.0   120.0   33.333333333333336
-150.0   120.0   50.0
-100.0   150.0   50.0
-100.0   120.0   33.333333333333336
-150.0   150.0   33.333333333333336
-100.0   0.0   0.0
-50.0   0.0   0.0
-100.0   30.0   0.0
-100.0   0.0   16.666666666666668
-50.0   0.0   0.0
-50.0   30.0   0.0
-100.0   30.0   0.0
-50.0   30.0   16.666666666666668
-100.0   0.0   16.666666666666668
-100.0   30.0   16.666666666666668
-50.0   30.0   16.666666666666668
-100.0   30.0   0.0
-100.0   0.0   16.666666666666668
-50.0   30.0   16.666666666666668
-50.0   0.0   16.666666666666668
-50.0   0.0   0.0
-100.0   0.0   16.666666666666668
-50.0   30.0   16.666666666666668
-50.0   0.0   0.0
-100.0   30.0   0.0
-100.0   0.0   16.666666666666668
-50.0   0.0   16.666666666666668
-100.0   30.0   16.666666666666668
-100.0   0.0   33.333333333333336
-50.0   0.0   16.666666666666668
-50.0   30.0   16.666666666666668
-100.0   30.0   16.666666666666668
-50.0   30.0   33.333333333333336
-100.0   0.0   33.333333333333336
-100.0   30.0   33.333333333333336
-50.0   30.0   33.333333333333336
-100.0   30.0   16.666666666666668
-100.0   0.0   33.333333333333336
-50.0   30.0   33.333333333333336
-50.0   0.0   33.333333333333336
-50.0   0.0   16.666666666666668
-100.0   0.0   33.333333333333336
-50.0   30.0   33.333333333333336
-50.0   0.0   16.666666666666668
-100.0   30.0   16.666666666666668
-100.0   0.0   33.333333333333336
-50.0   0.0   33.333333333333336
-100.0   30.0   33.333333333333336
-100.0   0.0   50.0
-50.0   0.0   33.333333333333336
-50.0   30.0   33.333333333333336
-100.0   30.0   33.333333333333336
-50.0   30.0   50.0
-100.0   0.0   50.0
-100.0   30.0   50.0
-50.0   30.0   50.0
-100.0   30.0   33.333333333333336
-100.0   0.0   50.0
-50.0   30.0   50.0
-50.0   0.0   50.0
-50.0   0.0   33.333333333333336
-100.0   0.0   50.0
-50.0   30.0   50.0
-50.0   0.0   33.333333333333336
-100.0   30.0   33.333333333333336
-100.0   30.0   0.0
-50.0   30.0   0.0
-100.0   60.0   0.0
-100.0   30.0   16.666666666666668
-50.0   30.0   0.0
-50.0   60.0   0.0
-100.0   60.0   0.0
-50.0   60.0   16.666666666666668
-100.0   30.0   16.666666666666668
-100.0   60.0   16.666666666666668
-50.0   60.0   16.666666666666668
-100.0   60.0   0.0
-100.0   30.0   16.666666666666668
-50.0   60.0   16.666666666666668
-50.0   30.0   16.666666666666668
-50.0   30.0   0.0
-100.0   30.0   16.666666666666668
-50.0   60.0   16.666666666666668
-50.0   30.0   0.0
-100.0   60.0   0.0
-100.0   30.0   16.666666666666668
-50.0   30.0   16.666666666666668
-100.0   60.0   16.666666666666668
-100.0   30.0   33.333333333333336
-50.0   30.0   16.666666666666668
-50.0   60.0   16.666666666666668
-100.0   60.0   16.666666666666668
-50.0   60.0   33.333333333333336
-100.0   30.0   33.333333333333336
-100.0   60.0   33.333333333333336
-50.0   60.0   33.333333333333336
-100.0   60.0   16.666666666666668
-100.0   30.0   33.333333333333336
-50.0   60.0   33.333333333333336
-50.0   30.0   33.333333333333336
-50.0   30.0   16.666666666666668
-100.0   30.0   33.333333333333336
-50.0   60.0   33.333333333333336
-50.0   30.0   16.666666666666668
-100.0   60.0   16.666666666666668
-100.0   30.0   33.333333333333336
-50.0   30.0   33.333333333333336
-100.0   60.0   33.333333333333336
-100.0   30.0   50.0
-50.0   30.0   33.333333333333336
-50.0   60.0   33.333333333333336
-100.0   60.0   33.333333333333336
-50.0   60.0   50.0
-100.0   30.0   50.0
-100.0   60.0   50.0
-50.0   60.0   50.0
-100.0   60.0   33.333333333333336
-100.0   30.0   50.0
-50.0   60.0   50.0
-50.0   30.0   50.0
-50.0   30.0   33.333333333333336
-100.0   30.0   50.0
-50.0   60.0   50.0
-50.0   30.0   33.333333333333336
-100.0   60.0   33.333333333333336
-100.0   60.0   0.0
-50.0   60.0   0.0
-100.0   90.0   0.0
-100.0   60.0   16.666666666666668
-50.0   60.0   0.0
-50.0   90.0   0.0
-100.0   90.0   0.0
-50.0   90.0   16.666666666666668
-100.0   60.0   16.666666666666668
-100.0   90.0   16.666666666666668
-50.0   90.0   16.666666666666668
-100.0   90.0   0.0
-100.0   60.0   16.666666666666668
-50.0   90.0   16.666666666666668
-50.0   60.0   16.666666666666668
-50.0   60.0   0.0
-100.0   60.0   16.666666666666668
-50.0   90.0   16.666666666666668
-50.0   60.0   0.0
-100.0   90.0   0.0
-100.0   60.0   16.666666666666668
-50.0   60.0   16.666666666666668
-100.0   90.0   16.666666666666668
-100.0   60.0   33.333333333333336
-50.0   60.0   16.666666666666668
-50.0   90.0   16.666666666666668
-100.0   90.0   16.666666666666668
-50.0   90.0   33.333333333333336
-100.0   60.0   33.333333333333336
-100.0   90.0   33.333333333333336
-50.0   90.0   33.333333333333336
-100.0   90.0   16.666666666666668
-100.0   60.0   33.333333333333336
-50.0   90.0   33.333333333333336
-50.0   60.0   33.333333333333336
-50.0   60.0   16.666666666666668
-100.0   60.0   33.333333333333336
-50.0   90.0   33.333333333333336
-50.0   60.0   16.666666666666668
-100.0   90.0   16.666666666666668
-100.0   60.0   33.333333333333336
-50.0   60.0   33.333333333333336
-100.0   90.0   33.333333333333336
-100.0   60.0   50.0
-50.0   60.0   33.333333333333336
-50.0   90.0   33.333333333333336
-100.0   90.0   33.333333333333336
-50.0   90.0   50.0
-100.0   60.0   50.0
-100.0   90.0   50.0
-50.0   90.0   50.0
-100.0   90.0   33.333333333333336
-100.0   60.0   50.0
-50.0   90.0   50.0
-50.0   60.0   50.0
-50.0   60.0   33.333333333333336
-100.0   60.0   50.0
-50.0   90.0   50.0
-50.0   60.0   33.333333333333336
-100.0   90.0   33.333333333333336
-100.0   90.0   0.0
-50.0   90.0   0.0
-100.0   120.0   0.0
-100.0   90.0   16.666666666666668
-50.0   90.0   0.0
-50.0   120.0   0.0
-100.0   120.0   0.0
-50.0   120.0   16.666666666666668
-100.0   90.0   16.666666666666668
-100.0   120.0   16.666666666666668
-50.0   120.0   16.666666666666668
-100.0   120.0   0.0
-100.0   90.0   16.666666666666668
-50.0   120.0   16.666666666666668
-50.0   90.0   16.666666666666668
-50.0   90.0   0.0
-100.0   90.0   16.666666666666668
-50.0   120.0   16.666666666666668
-50.0   90.0   0.0
-100.0   120.0   0.0
-100.0   90.0   16.666666666666668
-50.0   90.0   16.666666666666668
-100.0   120.0   16.666666666666668
-100.0   90.0   33.333333333333336
-50.0   90.0   16.666666666666668
-50.0   120.0   16.666666666666668
-100.0   120.0   16.666666666666668
-50.0   120.0   33.333333333333336
-100.0   90.0   33.333333333333336
-100.0   120.0   33.333333333333336
-50.0   120.0   33.333333333333336
-100.0   120.0   16.666666666666668
-100.0   90.0   33.333333333333336
-50.0   120.0   33.333333333333336
-50.0   90.0   33.333333333333336
-50.0   90.0   16.666666666666668
-100.0   90.0   33.333333333333336
-50.0   120.0   33.333333333333336
-50.0   90.0   16.666666666666668
-100.0   120.0   16.666666666666668
-100.0   90.0   33.333333333333336
-50.0   90.0   33.333333333333336
-100.0   120.0   33.333333333333336
-100.0   90.0   50.0
-50.0   90.0   33.333333333333336
-50.0   120.0   33.333333333333336
-100.0   120.0   33.333333333333336
-50.0   120.0   50.0
-100.0   90.0   50.0
-100.0   120.0   50.0
-50.0   120.0   50.0
-100.0   120.0   33.333333333333336
-100.0   90.0   50.0
-50.0   120.0   50.0
-50.0   90.0   50.0
-50.0   90.0   33.333333333333336
-100.0   90.0   50.0
-50.0   120.0   50.0
-50.0   90.0   33.333333333333336
-100.0   120.0   33.333333333333336
-100.0   120.0   0.0
-50.0   120.0   0.0
-100.0   150.0   0.0
-100.0   120.0   16.666666666666668
-50.0   120.0   0.0
-50.0   150.0   0.0
-100.0   150.0   0.0
-50.0   150.0   16.666666666666668
-100.0   120.0   16.666666666666668
-100.0   150.0   16.666666666666668
-50.0   150.0   16.666666666666668
-100.0   150.0   0.0
-100.0   120.0   16.666666666666668
-50.0   150.0   16.666666666666668
-50.0   120.0   16.666666666666668
-50.0   120.0   0.0
-100.0   120.0   16.666666666666668
-50.0   150.0   16.666666666666668
-50.0   120.0   0.0
-100.0   150.0   0.0
-100.0   120.0   16.666666666666668
-50.0   120.0   16.666666666666668
-100.0   150.0   16.666666666666668
-100.0   120.0   33.333333333333336
-50.0   120.0   16.666666666666668
-50.0   150.0   16.666666666666668
-100.0   150.0   16.666666666666668
-50.0   150.0   33.333333333333336
-100.0   120.0   33.333333333333336
-100.0   150.0   33.333333333333336
-50.0   150.0   33.333333333333336
-100.0   150.0   16.666666666666668
-100.0   120.0   33.333333333333336
-50.0   150.0   33.333333333333336
-50.0   120.0   33.333333333333336
-50.0   120.0   16.666666666666668
-100.0   120.0   33.333333333333336
-50.0   150.0   33.333333333333336
-50.0   120.0   16.666666666666668
-100.0   150.0   16.666666666666668
-100.0   120.0   33.333333333333336
-50.0   120.0   33.333333333333336
-100.0   150.0   33.333333333333336
-100.0   120.0   50.0
-50.0   120.0   33.333333333333336
-50.0   150.0   33.333333333333336
-100.0   150.0   33.333333333333336
-50.0   150.0   50.0
-100.0   120.0   50.0
-100.0   150.0   50.0
-50.0   150.0   50.0
-100.0   150.0   33.333333333333336
-100.0   120.0   50.0
-50.0   150.0   50.0
-50.0   120.0   50.0
-50.0   120.0   33.333333333333336
-100.0   120.0   50.0
-50.0   150.0   50.0
-50.0   120.0   33.333333333333336
-100.0   150.0   33.333333333333336
-50.0   0.0   0.0
0.0   0.0   0.0
-50.0   30.0   0.0
-50.0   0.0   16.666666666666668
0.0   0.0   0.0
0.0   30.0   0.0
-50.0   30.0   0.0
0.0   30.0   16.666666666666668
-50.0   0.0   16.666666666666668
-50.0   30.0   16.666666666666668
0.0   30.0   16.666666666666668
-50.0   30.0   0.0
-50.0   0.0   16.666666666666668
0.0   30.0   16.666666666666668
0.0   0.0   16.666666666666668
0.0   0.0   0.0
-50.0   0.0   16.666666666666668
0.0   30.0   16.666666666666668
0.0   0.0   0.0
-50.0   30.0   0.0
-50.0   0.0   16.666666666666668
0.0   0.0   16.666666666666668
-50.0   30.0   16.666666666666668
-50.0   0.0   33.333333333333336
0.0   0.0   16.666666666666668
0.0   30.0   16.666666666666668
-50.0   30.0   16.666666666666668
0.0   30.0   33.333333333333336
-50.0   0.0   33.333333333333336
-50.0   30.0   33.333333333333336
0.0   30.0   33.333333333333336
-50.0   30.0   16.666666666666668
-50.0   0.0   33.333333333333336
0.0   30.0   33.333333333333336
0.0   0.0   33.333333333333336
0.0   0.0   16.666666666666668
-50.0   0.0   33.333333333333336
0.0   30.0   33.333333333333336
0.0   0.0   16.666666666666668
-50.0   30.0   16.666666666666668
-50.0   0.0   33.333333333333336
0.0   0.0   33.333333333333336
-50.0   30.0   33.333333333333336
-50.0   0.0   50.0
0.0   0.0   33.333333333333336
0.0   30.0   33.333333333333336
-50.0   30.0   33.333333333333336
0.0   30.0   50.0
-50.0   0.0   50.0
-50.0   30.0   50.0
0.0   30.0   50.0
-50.0   30.0   33.333333333333336
-50.0   0.0   50.0
0.0   30.0   50.0
0.0   0.0   50.0
0.0   0.0   33.333333333333336
-50.0   0.0   50.0
0.0   30.0   50.0
0.0   0.0   33.333333333333336
-50.0   30.0   33.333333333333336
-50.0   30.0   0.0
0.0   30.0   0.0
-50.0   60.0   0.0
-50.0   30.0   16.666666666666668
0.0   30.0   0.0
0.0   60.0   0.0
-50.0   60.0   0.0
0.0   60.0   16.666666666666668
-50.0   30.0   16.666666666666668
-50.0   60.0   16.666666666666668
0.0   60.0   16.666666666666668
-50.0   60.0   0.0
-50.0   30.0   16.666666666666668
0.0   60.0   16.666666666666668
0.0   30.0   16.666666666666668
0.0   30.0   0.0
-50.0   30.0   16.666666666666668
0.0   60.0   16.666666666666668
0.0   30.0   0.0
-50.0   60.0   0.0
-50.0   30.0   16.666666666666668
0.0   30.0   16.666666666666668
-50.0   60.0   16.666666666666668
-50.0   30.0   33.333333333333336
0.0   30.0   16.666666666666668
0.0   60.0   16.666666666666668
-50.0   60.0   16.666666666666668
0.0   60.0   33.333333333333336
-50.0   30.0   33.333333333333336
-50.0   60.0   33.333333333333336
0.0   60.0   33.333333333333336
-50.0   60.0   16.666666666666668
-50.0   30.0   33.333333333333336
0.0   60.0   33.333333333333336
0.0   30.0   33.333333333333336
0.0   30.0   16.666666666666668
-50.0   30.0   33.333333333333336
0.0   60.0   33.333333333333336
0.0   30.0   16.666666666666668
-50.0   60.0   16.666666666666668
-50.0   30.0   33.333333333333336
0.0   30.0   33.333333333333336
-50.0   60.0   33.333333333333336
-50.0   30.0   50.0
0.0   30.0   33.333333333333336
0.0   60.0   33.333333333333336
-50.0   60.0   33.333333333333336
0.0   60.0   50.0
-50.0   30.0   50.0
-50.0   60.0   50.0
0.0   60.0   50.0
-50.0   60.0   33.333333333333336
-50.0   30.0   50.0
0.0   60.0   50.0
0.0   30.0   50.0
0.0   30.0   33.333333333333336
-50.0   30.0   50.0
0.0   60.0   50.0
0.0   30.0   33.333333333333336
-50.0   60.0   33.333333333333336
-50.0   60.0   0.0
0.0   60.0   0.0
-50.0   90.0   0.0
-50.0   60.0   16.666666666666668
0.0   60.0   0.0
0.0   90.0   0.0
-50.0   90.0   0.0
0.0   90.0   16.666666666666668
-50.0   60.0   16.666666666666668
-50.0   90.0   16.666666666666668
0.0   90.0   16.666666666666668
-50.0   90.0   0.0
-50.0   60.0   16.666666666666668
0.0   90.0   16.666666666666668
0.0   60.0   16.666666666666668
0.0   60.0   0.0
-50.0   60.0   16.666666666666668
0.0   90.0   16.666666666666668
0.0   60.0   0.0
-50.0   90.0   0.0
-50.0   60.0   16.666666666666668
0.0   60.0   16.666666666666668
-50.0   90.0   16.666666666666668
-50.0   60.0   33.333333333333336
0.0   60.0   16.666666666666668
0.0   90.0   16.666666666666668
-50.0   90.0   16.666666666666668
0.0   90.0   33.333333333333336
-50.0   60.0   33.333333333333336
-50.0   90.0   33.333333333333336
0.0   90.0   33.333333333333336
-50.0   90.0   16.666666666666668
-50.0   60.0   33.333333333333336
0.0   90.0   33.333333333333336
0.0   60.0   33.333333333333336
0.0   60.0   16.666666666666668
-50.0   60.0   33.333333333333336
0.0   90.0   33.333333333333336
0.0   60.0   16.666666666666668
-50.0   90.0   16.666666666666668
-50.0   60.0   33.333333333333336
0.0   60.0   33.333333333333336
-50.0   90.0   33.333333333333336
-50.0   60.0   50.0
0.0   60.0   33.333333333333336
0.0   90.0   33.333333333333336
-50.0   90.0   33.333333333333336
0.0   90.0   50.0
-50.0   60.0   50.0
-50.0   90.0   50.0
0.0   90.0   50.0
-50.0   90.0   33.333333333333336
-50.0   60.0   50.0
0.0   90.0   50.0
0.0   60.0   50.0
0.0   60.0   33.333333333333336
-50.0   60.0   50.0
0.0   90.0   50.0
0.0   60.0   33.333333333333336
-50.0   90.0   33.333333333333336
-50.0   90.0   0.0
0.0   90.0   0.0
-50.0   120.0   0.0
-50.0   90.0   16.666666666666668
0.0   90.0   0.0
0.0   120.0   0.0
-50.0   120.0   0.0
0.0   120.0   16.666666666666668
-50.0   90.0   16.666666666666668
-50.0   120.0   16.666666666666668
0.0   120.0   16.666666666666668
-50.0   120.0   0.0
-50.0   90.0   16.666666666666668
0.0   120.0   16.666666666666668
0.0   90.0   16.666666666666668
0.0   90.0   0.0
-50.0   90.0   16.666666666666668
0.0   120.0   16.666666666666668
0.0   90.0   0.0
-50.0   120.0   0.0
-50.0   90.0   16.666666666666668
0.0   90.0   16.666666666666668
-50.0   120.0   16.666666666666668
-50.0   90.0   33.333333333333336
0.0   90.0   16.666666666666668
0.0   120.0   16.666666666666668
-50.0   120.0   16.666666666666668
0.0   120.0   33.333333333333336
-50.0   90.0   33.333333333333336
-50.0   120.0   33.333333333333336
0.0   120.0   33.333333333333336
-50.0   120.0   16.666666666666668
-50.0   90.0   33.333333333333336
0.0   120.0   33.333333333333336
0.0   90.0   33.333333333333336
0.0   90.0   16.666666666666668
-50.0   90.0   33.333333333333336
0.0   120.0   33.333333333333336
0.0   90.0   16.666666666666668
-50.0   120.0   16.666666666666668
-50.0   90.0   33.333333333333336
0.0   90.0   33.333333333333336
-50.0   120.0   33.333333333333336
-50.0   90.0   50.0
0.0   90.0   33.333333333333336
0.0   120.0   33.333333333333336
-50.0   120.0   33.333333333333336
0.0   120.0   50.0
-50.0   90.0   50.0
-50.0   120.0   50.0
0.0   120.0   50.0
-50.0   120.0   33.333333333333336
-50.0   90.0   50.0
0.0   120.0   50.0
0.0   90.0   50.0
0.0   90.0   33.333333333333336
-50.0   90.0   50.0
0.0   120.0   50.0
0.0   90.0   33.333333333333336
-50.0   120.0   33.333333333333336
-50.0   120.0   0.0
0.0   120.0   0.0
-50.0   150.0   0.0
-50.0   120.0   16.666666666666668
0.0   120.0   0.0
0.0   150.0   0.0
-50.0   150.0   0.0
0.0   150.0   16.666666666666668
-50.0   120.0   16.666666666666668
-50.0   150.0   16.666666666666668
0.0   150.0   16.666666666666668
-50.0   150.0   0.0
-50.0   120.0   16.666666666666668
0.0   150.0   16.666666666666668
0.0   120.0   16.666666666666668
0.0   120.0   0.0
-50.0   120.0   16.666666666666668
0.0   150.0   16.666666666666668
0.0   120.0   0.0
-50.0   150.0   0.0
-50.0   120.0   16.666666666666668
0.0   120.0   16.666666666666668
-50.0   150.0   16.666666666666668
-50.0   120.0   33.333333333333336
0.0   120.0   16.666666666666668
0.0   150.0   16.666666666666668
-50.0   150.0   16.666666666666668
0.0   150.0   33.333333333333336
-50.0   120.0   33.333333333333336
-50.0   150.0   33.333333333333336
0.0   150.0   33.333333333333336
-50.0   150.0   16.666666666666668
-50.0   120.0   33.333333333333336
0.0   150.0   33.333333333333336
0.0   120.0   33.333333333333336
0.0   120.0   16.666666666666668
-50.0   120.0   33.333333333333336
0.0   150.0   33.333333333333336
0.0   120.0   16.666666666666668
-50.0   150.0   16.666666666666668
-50.0   120.0   33.333333333333336
0.0   120.0   33.333333333333336
-50.0   150.0   33.333333333333336
-50.0   120.0   50.0
0.0   120.0   33.333333333333336
0.0   150.0   33.333333333333336
-50.0   150.0   33.333333333333336
0.0   150.0   50.0
-50.0   120.0   50.0
-50.0   150.0   50.0
0.0   150.0   50.0
-50.0   150.0   33.333333333333336
-50.0   120.0   50.0
0.0   150.0   50.0
0.0   120.0   50.0
0.0   120.0   33.333333333333336
-50.0   120.0   50.0
0.0   150.0   50.0
0.0   120.0   33.333333333333336
-50.0   150.0   33.333333333333336
0.0   0.0   0.0
50.0   0.0   0.0
0.0   30.0   0.0
0.0   0.0   16.666666666666668
50.0   0.0   0.0
50.0   30.0   0.0
0.0   30.0   0.0
50.0   30.0   16.666666666666668
0.0   0.0   16.666666666666668
0.0   30.0   16.666666666666668
50.0   30.0   16.666666666666668
0.0   30.0   0.0
0.0   0.0   16.666666666666668
50.0   30.0   16.666666666666668
50.0   0.0   16.666666666666668
50.0   0.0   0.0
0.0   0.0   16.666666666666668
50.0   30.0   16.666666666666668
50.0   0.0   0.0
0.0   30.0   0.0
0.0   0.0   16.666666666666668
50.0   0.0   16.666666666666668
0.0   30.0   16.666666666666668
0.0   0.0   33.333333333333336
50.0   0.0   16.666666666666668
50.0   30.0   16.666666666666668
0.0   30.0   16.666666666666668
50.0   30.0   33.333333333333336
0.0   0.0   33.333333333333336
0.0   30.0   33.333333333333336
50.0   30.0   33.333333333333336
0.0   30.0   16.666666666666668
0.0   0.0   33.333333333333336
50.0   30.0   33.333333333333336
50.0   0.0   33.333333333333336
50.0   0.0   16.666666666666668
0.0   0.0   33.333333333333336
50.0   30.0   33.333333333333336
50.0   0.0   16.666666666666668
0.0   30.0   16.666666666666668
0.0   0.0   33.333333333333336
50.0   0.0   33.333333333333336
0.0   30.0   33.333333333333336
0.0   0.0   50.0
50.0   0.0   33.333333333333336
50.0   30.0   33.333333333333336
0.0   30.0   33.333333333333336
50.0   30.0   50.0
0.0   0.0   50.0
0.0   30.0   50.0
50.0   30.0   50.0
0.0   30.0   33.333333333333336
0.0   0.0   50.0
50.0   30.0   50.0
50.0   0.0   50.0
50.0   0.0   33.333333333333336
0.0   0.0   50.0
50.0   30.0   50.0
50.0   0.0   33.333333333333336
0.0   30.0   33.333333333333336
0.0   30.0   0.0
50.0   30.0   0.0
0.0   60.0   0.0
0.0   30.0   16.666666666666668
50.0   30.0   0.0
50.0   60.0   0.0
0.0   60.0   0.0
50.0   60.0   16.666666666666668
0.0   30.0   16.666666666666668
0.0   60.0   16.666666666666668
50.0   60.0   16.666666666666668
0.0   60.0   0.0
0.0   30.0   16.666666666666668
50.0   60.0   16.666666666666668
50.0   30.0   16.666666666666668
50.0   30.0   0.0
0.0   30.0   16.666666666666668
50.0   60.0   16.666666666666668
50.0   30.0   0.0
0.0   60.0   0.0
0.0   30.0   16.666666666666668
50.0   30.0   16.666666666666668
0.0   60.0   16.666666666666668
0.0   30.0   33.333333333333336
50.0   30.0   16.666666666666668
50.0   60.0   16.666666666666668
0.0   60.0   16.666666666666668
50.0   60.0   33.333333333333336
0.0   30.0   33.333333333333336
0.0   60.0   33.333333333333336
50.0   60.0   33.333333333333336
0.0   60.0   16.666666666666668
0.0   30.0   33.333333333333336
50.0   60.0   33.333333333333336
50.0   30.0   33.333333333333336
50.0   30.0   16.666666666666668
0.0   30.0   33.333333333333336
50.0   60.0   33.333333333333336
50.0   30.0   16.666666666666668
0.0   60.0   16.666666666666668
0.0   30.0   33.333333333333336
50.0   30.0   33.333333333333336
0.0   60.0   33.333333333333336
0.0   30.0   50.0
50.0   30.0   33.333333333333336
50.0   60.0   33.333333333333336
0.0   60.0   33.333333333333336
50.0   60.0   50.0
0.0   30.0   50.0
0.0   60.0   50.0
50.0   60.0   50.0
0.0   60.0   33.333333333333336
0.0   30.0   50.0
50.0   60.0   50.0
50.0   30.0   50.0
50.0   30.0   33.333333333333336
0.0   30.0   50.0
50.0   60.0   50.0
50.0   30.0   33.333333333333336
0.0   60.0   33.333333333333336
0.0   60.0   0.0
50.0   60.0   0.0
0.0   90.0   0.0
0.0   60.0   16.666666666666668
50.0   60.0   0.0
50.0   90.0   0.0
0.0   90.0   0.0
50.0   90.0   16.666666666666668
0.0   60.0   16.666666666666668
0.0   90.0   16.666666666666668
50.0   90.0   16.666666666666668
0.0   90.0   0.0
0.0   60.0   16.666666666666668
50.0   90.0   16.666666666666668
50.0   60.0   16.666666666666668
50.0   60.0   0.0
0.0   60.0   16.666666666666668
50.0   90.0   16.666666666666668
50.0   60.0   0.0
0.0   90.0   0.0
0.0   60.0   16.666666666666668
50.0   60.0   16.666666666666668
0.0   90.0   16.666666666666668
0.0   60.0   33.333333333333336
50.0   60.0   16.666666666666668
50.0   90.0   16.666666666666668
0.0   90.0   16.666666666666668
50.0   90.0   33.333333333333336
0.0   60.0   33.333333333333336
0.0   90.0   33.333333333333336
50.0   90.0   33.333333333333336
0.0   90.0   16.666666666666668
0.0   60.0   33.333333333333336
50.0   90.0   33.333333333333336
50.0   60.0   33.333333333333336
50.0   60.0   16.666666666666668
0.0   60.0   33.333333333333336
50.0   90.0   33.333333333333336
50.0   60.0   16.666666666666668
0.0   90.0   16.666666666666668
0.0   60.0   33.333333333333336
50.0   60.0   33.333333333333336
0.0   90.0   33.333333333333336
0.0   60.0   50.0
50.0   60.0   33.333333333333336
50.0   90.0   33.333333333333336
0.0   90.0   33.333333333333336
50.0   90.0   50.0
0.0   60.0   50.0
0.0   90.0   50.0
50.0   90.0   50.0
0.0   90.0   33.333333333333336
0.0   60.0   50.0
50.0   90.0   50.0
50.0   60.0   50.0
50.0   60.0   33.333333333333336
0.0   60.0   50.0
50.0   90.0   50.0
50.0   60.0   33.333333333333336
0.0   90.0   33.333333333333336
0.0   90.0   0.0
50.0   90.0   0.0
0.0   120.0   0.0
0.0   90.0   16.666666666666668
50.0   90.0   0.0
50.0   120.0   0.0
0.0   120.0   0.0
50.0   120.0   16.666666666666668
0.0   90.0   16.666666666666668
0.0   120.0   16.666666666666668
50.0   120.0   16.666666666666668
0.0   120.0   0.0
0.0   90.0   16.666666666666668
50.0   120.0   16.666666666666668
50.0   90.0   16.666666666666668
50.0   90.0   0.0
0.0   90.0   16.666666666666668
50.0   120.0   16.666666666666668
50.0   90.0   0.0
0.0   120.0   0.0
0.0   90.0   16.666666666666668
50.0   90.0   16.666666666666668
0.0   120.0   16.666666666666668
0.0   90.0   33.333333333333336
50.0   90.0   16.666666666666668
50.0   120.0   16.666666666666668
0.0   120.0   16.666666666666668
50.0   120.0   33.333333333333336
0.0   90.0   33.333333333333336
0.0   120.0   33.333333333333336
50.0   120.0   33.333333333333336
0.0   120.0   16.666666666666668
0.0   90.0   33.333333333333336
50.0   120.0   33.333333333333336
50.0   90.0   33.333333333333336
50.0   90.0   16.666666666666668
0.0   90.0   33.333333333333336
50.0   120.0   33.333333333333336
50.0   90.0   16.666666666666668
0.0   120.0   16.666666666666668
0.0   90.0   33.333333333333336
50.0   90.0   33.333333333333336
0.0   120.0   33.333333333333336
0.0   90.0   50.0
50.0   90.0   33.333333333333336
50.0   120.0   33.333333333333336
0.0   120.0   33.333333333333336
50.0   120.0   50.0
0.0   90.0   50.0
0.0   120.0   50.0
50.0   120.0   50.0
0.0   120.0   33.333333333333336
0.0   90.0   50.0
50.0   120.0   50.0
50.0   90.0   50.0
50.0   90.0   33.333333333333336
0.0   90.0   50.0
50.0   120.0   50.0
50.0   90.0   33.333333333333336
0.0   120.0   33.333333333333336
0.0   120.0   0.0
50.0   120.0   0.0
0.0   150.0   0.0
0.0   120.0   16.666666666666668
50.0   120.0   0.0
50.0   150.0   0.0
0.0   150.0   0.0
50.0   150.0   16.666666666666668
0.0   120.0   16.666666666666668
0.0   150.0   16.666666666666668
50.0   150.0   16.666666666666668
0.0   150.0   0.0
0.0   120.0   16.666666666666668
50.0   150.0   16.666666666666668
50.0   120.0   16.666666666666668
50.0   120.0   0.0
0.0   120.0   16.666666666666668
50.0   150.0   16.666666666666668
50.0   120.0   0.0
0.0   150.0   0.0
0.0   120.0   16.666666666666668
50.0   120.0   16.666666666666668
0.0   150.0   16.666666666666668
0.0   120.0   33.333333333333336
50.0   120.0   16.666666666666668
50.0   150.0   16.666666666666668
0.0   150.0   16.666666666666668
50.0   150.0   33.333333333333336
0.0   120.0   33.333333333333336
0.0   150.0   33.333333333333336
50.0   150.0   33.333333333333336
0.0   150.0   16.666666666666668
0.0   120.0   33.333333333333336
50.0   150.0   33.333333333333336
50.0   120.0   33.333333333333336
50.0   120.0   16.666666666666668
0.0   120.0   33.333333333333336
50.0   150.0   33.333333333333336
50.0   120.0   16.666666666666668
0.0   150.0   16.666666666666668
0.0   120.0   33.333333333333336
50.0   120.0   33.333333333333336
0.0   150.0   33.333333333333336
0.0   120.0   50.0
50.0   120.0   33.333333333333336
50.0   150.0   33.333333333333336
0.0   150.0   33.333333333333336
50.0   150.0   50.0
0.0   120.0   50.0
0.0   150.0   50.0
50.0   150.0   50.0
0.0   150.0   33.333333333333336
0.0   120.0   50.0
50.0   150.0   50.0
50.0   120.0   50.0
50.0   120.0   33.333333333333336
0.0   120.0   50.0
50.0   150.0   50.0
50.0   120.0   33.333333333333336
0.0   150.0   33.333333333333336
50.0   0.0   0.0
100.0   0.0   0.0
50.0   30.0   0.0
50.0   0.0   16.666666666666668
100.0   0.0   0.0
100.0   30.0   0.0
50.0   30.0   0.0
100.0   30.0   16.666666666666668
50.0   0.0   16.666666666666668
50.0   30.0   16.666666666666668
100.0   30.0   16.666666666666668
50.0   30.0   0.0
50.0   0.0   16.666666666666668
100.0   30.0   16.666666666666668
100.0   0.0   16.666666666666668
100.0   0.0   0.0
50.0   0.0   16.666666666666668
100.0   30.0   16.666666666666668
100.0   0.0   0.0
50.0   30.0   0.0
50.0   0.0   16.666666666666668
100.0   0.0   16.666666666666668
50.0   30.0   16.666666666666668
50.0   0.0   33.333333333333336
100.0   0.0   16.666666666666668
100.0   30.0   16.666666666666668
50.0   30.0   16.666666666666668
100.0   30.0   33.333333333333336
50.0   0.0   33.333333333333336
50.0   30.0   33.333333333333336
100.0   30.0   33.333333333333336
50.0   30.0   16.666666666666668
50.0   0.0   33.333333333333336
100.0   30.0   33.333333333333336
100.0   0.0   33.333333333333336
100.0   0.0   16.666666666666668
50.0   0.0   33.333333333333336
100.0   30.0   33.333333333333336
100.0   0.0   16.666666666666668
50.0   30.0   16.666666666666668
50.0   0.0   33.333333333333336
100.0   0.0   33.333333333333336
50.0   30.0   33.333333333333336
50.0   0.0   50.0
100.0   0.0   33.333333333333336
100.0   30.0   33.333333333333336
50.0   30.0   33.333333333333336
100.0   30.0   50.0
50.0   0.0   50.0
50.0   30.0   50.0
100.0   30.0   50.0
50.0   30.0   33.333333333333336
50.0   0.0   50.0
100.0   30.0   50.0
100.0   0.0   50.0
100.0   0.0   33.333333333333336
50.0   0.0   50.0
100.0   30.0   50.0
100.0   0.0   33.333333333333336
50.0   30.0   33.333333333333336
50.0   30.0   0.0
100.0   30.0   0.0
50.0   60.0   0.0
50.0   30.0   16.666666666666668
100.0   30.0   0.0
100.0   60.0   0.0
50.0   60.0   0.0
100.0   60.0   16.666666666666668
50.0   30.0   16.666666666666668
50.0   60.0   16.666666666666668
100.0   60.0   16.666666666666668
50.0   60.0   0.0
50.0   30.0   16.666666666666668
100.0   60.0   16.666666666666668
100.0   30.0   16.666666666666668
100.0   30.0   0.0
50.0   30.0   16.666666666666668
100.0   60.0   16.666666666666668
100.0   30.0   0.0
50.0   60.0   0.0
50.0   30.0   16.666666666666668
100.0   30.0   16.666666666666668
50.0   60.0   16.666666666666668
50.0   30.0   33.333333333333336
100.0   30.0   16.666666666666668
100.0   60.0   16.666666666666668
50.0   60.0   16.666666666666668
100.0   60.0   33.333333333333336
50.0   30.0   33.333333333333336
50.0   60.0   33.333333333333336
100.0   60.0   33.333333333333336
50.0   60.0   16.666666666666668
50.0   30.0   33.333333333333336
100.0   60.0   33.333333333333336
100.0   30.0   33.333333333333336
100.0   30.0   16.666666666666668
50.0   30.0   33.333333333333336
100.0   60.0   33.333333333333336
100.0   30.0   16.666666666666668
50.0   60.0   16.666666666666668
50.0   30.0   33.333333333333336
100.0   30.0   33.333333333333336
50.0   60.0   33.333333333333336
50.0   30.0   50.0
100.0   30.0   33.333333333333336
100.0   60.0   33.333333333333336
50.0   60.0   33.333333333333336
100.0   60.0   50.0
50.0   30.0   50.0
50.0   60.0   50.0
100.0   60.0   50.0
50.0   60.0   33.333333333333336
50.0   30.0   50.0
100.0   60.0   50.0
100.0   30.0   50.0
100.0   30.0   33.333333333333336
50.0   30.0   50.0
100.0   60.0   50.0
100.0   30.0   33.333333333333336
50.0   60.0   33.333333333333336
50.0   60.0   0.0
100.0   60.0   0.0
50.0   90.0   0.0
50.0   60.0   16.666666666666668
100.0   60.0   0.0
100.0   90.0   0.0
50.0   90.0   0.0
100.0   90.0   16.666666666666668
50.0   60.0   16.666666666666668
50.0   90.0   16.666666666666668
100.0   90.0   16.666666666666668
50.0   90.0   0.0
50.0   60.0   16.666666666666668
100.0   90.0   16.666666666666668
100.0   60.0   16.666666666666668
100.0   60.0   0.0
50.0   60.0   16.666666666666668
100.0   90.0   16.666666666666668
100.0   60.0   0.0
50.0   90.0   0.0
50.0   60.0   16.666666666666668
100.0   60.0   16.666666666666668
50.0   90.0   16.666666666666668
50.0   60.0   33.333333333333336
100.0   60.0   16.666666666666668
100.0   90.0   16.666666666666668
50.0   90.0   16.666666666666668
100.0   90.0   33.333333333333336
50.0   60.0   33.333333333333336
50.0   90.0   33.333333333333336
100.0   90.0   33.333333333333336
50.0   90.0   16.666666666666668
50.0   60.0   33.333333333333336
100.0   90.0   33.333333333333336
100.0   60.0   33.333333333333336
100.0   60.0   16.666666666666668
50.0   60.0   33.333333333333336
100.0   90.0   33.333333333333336
100.0   60.0   16.666666666666668
50.0   90.0   16.666666666666668
50.0   60.0   33.333333333333336
100.0   60.0   33.333333333333336
50.0   90.0   33.333333333333336
50.0   60.0   50.0
100.0   60.0   33.333333333333336
100.0   90.0   33.333333333333336
50.0   90.0   33.333333333333336
100.0   90.0   50.0
50.0   60.0   50.0
50.0   90.0   50.0
100.0   90.0   50.0
50.0   90.0   33.333333333333336
50.0   60.0   50.0
100.0   90.0   50.0
100.0   60.0   50.0
100.0   60.0   33.333333333333336
50.0   60.0   50.0
100.0   90.0   50.0
100.0   60.0   33.333333333333336
50.0   90.0   33.333333333333336
50.0   90.0   0.0
100.0   90.0   0.0
50.0   120.0   0.0
50.0   90.0   16.666666666666668
100.0   90.0   0.0
100.0   120.0   0.0
50.0   120.0   0.0
100.0   120.0   16.666666666666668
50.0   90.0   16.666666666666668
50.0   120.0   16.666666666666668
100.0   120.0   16.666666666666668
50.0   120.0   0.0
50.0   90.0   16.666666666666668
100.0   120.0   16.666666666666668
100.0   90.0   16.666666666666668
100.0   90.0   0.0
50.0   90.0   16.666666666666668
100.0   120.0   16.666666666666668
100.0   90.0   0.0
50.0   120.0   0.0
50.0   90.0   16.666666666666668
100.0   90.0   16.666666666666668
50.0   120.0   16.666666666666668
50.0   90.0   33.333333333333336
100.0   90.0   16.666666666666668
100.0   120.0   16.666666666666668
50.0   120.0   16.666666666666668
100.0   120.0   33.333333333333336
50.0   90.0   33.333333333333336
50.0   120.0   33.333333333333336
100.0   120.0   33.333333333333336
50.0   120.0   16.666666666666668
50.0   90.0   33.333333333333336
100.0   120.0   33.333333333333336
100.0   90.0   33.333333333333336
100.0   90.0   16.666666666666668
50.0   90.0   33.333333333333336
100.0   120.0   33.333333333333336
100.0   90.0   16.666666666666668
50.0   120.0   16.666666666666668
50.0   90.0   33.333333333333336
100.0   90.0   33.333333333333336
50.0   120.0   33.333333333333336
50.0   90.0   50.0
100.0   90.0   33.333333333333336
100.0   120.0   33.333333333333336
50.0   120.0   33.333333333333336
100.0   120.0   50.0
50.0   90.0   50.0
50.0   120.0   50.0
100.0   120.0   50.0
50.0   120.0   33.333333333333336
50.0   90.0   50.0
100.0   120.0   50.0
100.0   90.0   50.0
100.0   90.0   33.333333333333336
50.0   90.0   50.0
100.0   120.0   50.0
100.0   90.0   33.333333333333336
50.0   120.0   33.333333333333336
50.0   120.0   0.0
100.0   120.0   0.0
50.0   150.0   0.0
50.0   120.0   16.666666666666668
100.0   120.0   0.0
100.0   150.0   0.0
50.0   150.0   0.0
100.0   150.0   16.666666666666668
50.0   120.0   16.666666666666668
50.0   150.0   16.666666666666668
100.0   150.0   16.666666666666668
50.0   150.0   0.0
50.0   120.0   16.666666666666668
100.0   150.0   16.666666666666668
100.0   120.0   16.666666666666668
100.0   120.0   0.0
50.0   120.0   16.666666666666668
100.0   150.0   16.666666666666668
100.0   120.0   0.0
50.0   150.0   0.0
50.0   120.0   16.666666666666668
100.0   120.0   16.666666666666668
50.0   150.0   16.666666666666668
50.0   120.0   33.333333333333336
100.0   120.0   16.666666666666668
100.0   150.0   16.666666666666668
50.0   150.0   16.666666666666668
100.0   150.0   33.333333333333336
50.0   120.0   33.333333333333336
50.0   150.0   33.333333333333336
100.0   150.0   33.333333333333336
50.0   150.0   16.666666666666668
50.0   120.0   33.333333333333336
100.0   150.0   33.333333333333336
100.0   120.0   33.333333333333336
100.0   120.0   16.666666666666668
50.0   120.0   33.333333333333336
100.0   150.0   33.333333333333336
100.0   120.0   16.666666666666668
50.0   150.0   16.666666666666668
50.0   120.0   33.333333333333336
100.0   120.0   33.333333333333336
50.0   150.0   33.333333333333336
50.0   120.0   50.0
100.0   120.0   33.333333333333336
100.0   150.0   33.333333333333336
50.0   150.0   33.333333333333336
100.0   150.0   50.0
50.0   120.0   50.0
50.0   150.0   50.0
100.0   150.0   50.0
50.0   150.0   33.333333333333336
50.0   120.0   50.0
100.0   150.0   50.0
100.0   120.0   50.0
100.0   120.0   33.333333333333336
50.0   120.0   50.0
100.0   150.0   50.0
100.0   120.0   33.333333333333336
50.0   150.0   33.333333333333336
100.0   0.0   0.0
150.0   0.0   0.0
100.0   30.0   0.0
100.0   0.0   16.666666666666668
150.0   0.0   0.0
150.0   30.0   0.0
100.0   30.0   0.0
150.0   30.0   16.666666666666668
100.0   0.0   16.666666666666668
100.0   30.0   16.666666666666668
150.0   30.0   16.666666666666668
100.0   30.0   0.0
100.0   0.0   16.666666666666668
150.0   30.0   16.666666666666668
150.0   0.0   16.666666666666668
150.0   0.0   0.0
100.0   0.0   16.666666666666668
150.0   30.0   16.666666666666668
150.0   0.0   0.0
100.0   30.0   0.0
100.0   0.0   16.666666666666668
150.0   0.0   16.666666666666668
100.0   30.0   16.666666666666668
100.0   0.0   33.333333333333336
150.0   0.0   16.666666666666668
150.0   30.0   16.666666666666668
100.0   30.0   16.666666666666668
150.0   30.0   33.333333333333336
100.0   0.0   33.333333333333336
100.0   30.0   33.333333333333336
150.0   30.0   33.333333333333336
100.0   30.0   16.666666666666668
100.0   0.0   33.333333333333336
150.0   30.0   33.333333333333336
150.0   0.0   33.333333333333336
150.0   0.0   16.666666666666668
100.0   0.0   33.333333333333336
150.0   30.0   33.333333333333336
150.0   0.0   16.666666666666668
100.0   30.0   16.666666666666668
100.0   0.0   33.333333333333336
150.0   0.0   33.333333333333336
100.0   30.0   33.333333333333336
100.0   0.0   50.0
150.0   0.0   33.333333333333336
150.0   30.0   33.333333333333336
100.0   30.0   33.333333333333336
150.0   30.0   50.0
100.0   0.0   50.0
100.0   30.0   50.0
150.0   30.0   50.0
100.0   30.0   33.333333333333336
100.0   0.0   50.0
150.0   30.0   50.0
150.0   0.0   50.0
150.0   0.0   33.333333333333336
100.0   0.0   50.0
150.0   30.0   50.0
150.0   0.0   33.333333333333336
100.0   30.0   33.333333333333336
100.0   30.0   0.0
150.0   30.0   0.0
100.0   60.0   0.0
100.0   30.0   16.666666666666668
150.0   30.0   0.0
150.0   60.0   0.0
100.0   60.0   0.0
150.0   60.0   16.666666666666668
100.0   30.0   16.666666666666668
100.0   60.0   16.666666666666668
150.0   60.0   16.666666666666668
100.0   60.0   0.0
100.0   30.0   16.666666666666668
150.0   60.0   16.666666666666668
150.0   30.0   16.666666666666668
150.0   30.0   0.0
100.0   30.0   16.666666666666668
150.0   60.0   16.666666666666668
150.0   30.0   0.0
100.0   60.0   0.0
100.0   30.0   16.666666666666668
150.0   30.0   16.666666666666668
100.0   60.0   16.666666666666668
100.0   30.0   33.333333333333336
150.0   30.0   16.666666666666668
150.0   60.0   16.666666666666668
100.0   60.0   16.666666666666668
150.0   60.0   33.333333333333336
100.0   30.0   33.333333333333336
100.0   60.0   33.333333333333336
150.0   60.0   33.333333333333336
100.0   60.0   16.666666666666668
100.0   30.0   33.333333333333336
150.0   60.0   33.333333333333336
150.0   30.0   33.333333333333336
150.0   30.0   16.666666666666668
100.0   30.0   33.333333333333336
150.0   60.0   33.333333333333336
150.0   30.0   16.666666666666668
100.0   60.0   16.666666666666668
100.0   30.0   33.333333333333336
150.0   30.0   33.333333333333336
100.0   60.0   33.333333333333336
100.0   30.0   50.0
150.0   30.0   33.333333333333336
150.0   60.0   33.333333333333336
100.0   60.0   33.333333333333336
150.0   60.0   50.0
100.0   30.0   50.0
100.0   60.0   50.0
150.0   60.0   50.0
100.0   60.0   33.333333333333336
100.0   30.0   50.0
150.0   60.0   50.0
150.0   30.0   50.0
150.0   30.0   33.333333333333336
100.0   30.0   50.0
150.0   60.0   50.0
150.0   30.0   33.333333333333336
100.0   60.0   33.333333333333336
100.0   60.0   0.0
150.0   60.0   0.0
100.0   90.0   0.0
100.0   60.0   16.666666666666668
150.0   60.0   0.0
150.0   90.0   0.0
100.0   90.0   0.0
150.0   90.0   16.666666666666668
100.0   60.0   16.666666666666668
100.0   90.0   16.666666666666668
150.0   90.0   16.666666666666668
100.0   90.0   0.0
100.0   60.0   16.666666666666668
150.0   90.0   16.666666666666668
150.0   60.0   16.666666666666668
150.0   60.0   0.0
100.0   60.0   16.666666666666668
150.0   90.0   16.666666666666668
150.0   60.0   0.0
100.0   90.0   0.0
100.0   60.0   16.666666666666668
150.0   60.0   16.666666666666668
100.0   90.0   16.666666666666668
100.0   60.0   33.333333333333336
150.0   60.0   16.666666666666668
150.0   90.0   16.666666666666668
100.0   90.0   16.666666666666668
150.0   90.0   33.333333333333336
100.0   60.0   33.333333333333336
100.0   90.0   33.333333333333336
150.0   90.0   33.333333333333336
100.0   90.0   16.666666666666668
100.0   60.0   33.333333333333336
150.0   90.0   33.333333333333336
150.0   60.0   33.333333333333336
150.0   60.0   16.666666666666668
100.0   60.0   33.333333333333336
150.0   90.0   33.333333333333336
150.0   60.0   16.666666666666668
100.0   90.0   16.666666666666668
100.0   60.0   33.333333333333336
150.0   60.0   33.333333333333336
100.0   90.0   33.333333333333336
100.0   60.0   50.0
150.0   60.0   33.333333333333336
150.0   90.0   33.333333333333336
100.0   90.0   33.333333333333336
150.0   90.0   50.0
100.0   60.0   50.0
100.0   90.0   50.0
150.0   90.0   50.0
100.0   90.0   33.333333333333336
100.0   60.0   50.0
150.0   90.0   50.0
150.0   60.0   50.0
150.0   60.0   33.333333333333336
100.0   60.0   50.0
150.0   90.0   50.0
150.0   60.0   33.333333333333336
100.0   90.0   33.333333333333336
100.0   90.0   0.0
150.0   90.0   0.0
100.0   120.0   0.0
100.0   90.0   16.666666666666668
150.0   90.0   0.0
150.0   120.0   0.0
100.0   120.0   0.0
150.0   120.0   16.666666666666668
100.0   90.0   16.666666666666668
100.0   120.0   16.666666666666668
150.0   120.0   16.666666666666668
100.0   120.0   0.0
100.0   90.0   16.666666666666668
150.0   120.0   16.666666666666668
150.0   90.0   16.666666666666668
150.0   90.0   0.0
100.0   90.0   16.666666666666668
150.0   120.0   16.666666666666668
150.0   90.0   0.0
100.0   120.0   0.0
100.0   90.0   16.666666666666668
150.0   90.0   16.666666666666668
100.0   120.0   16.666666666666668
100.0   90.0   33.333333333333336
150.0   90.0   16.666666666666668
150.0   120.0   16.666666666666668
100.0   120.0   16.666666666666668
150.0   120.0   33.333333333333336
100.0   90.0   33.333333333333336
100.0   120.0   33.333333333333336
150.0   120.0   33.333333333333336
100.0   120.0   16.666666666666668
100.0   90.0   33.333333333333336
150.0   120.0   33.333333333333336
150.0   90.0   33.333333333333336
150.0   90.0   16.666666666666668
100.0   90.0   33.333333333333336
150.0   120.0   33.333333333333336
150.0   90.0   16.666666666666668
100.0   120.0   16.666666666666668
100.0   90.0   33.333333333333336
150.0   90.0   33.333333333333336
100.0   120.0   33.333333333333336
100.0   90.0   50.0
150.0   90.0   33.333333333333336
150.0   120.0   33.333333333333336
100.0   120.0   33.333333333333336
150.0   120.0   50.0
100.0   90.0   50.0
100.0   120.0   50.0
150.0   120.0   50.0
100.0   120.0   33.333333333333336
100.0   90.0   50.0
150.0   120.0   50.0
150.0   90.0   50.0
150.0   90.0   33.333333333333336
100.0   90.0   50.0
150.0   120.0   50.0
150.0   90.0   33.333333333333336
100.0   120.0   33.333333333333336
100.0   120.0   0.0
150.0   120.0   0.0
100.0   150.0   0.0
100.0   120.0   16.666666666666668
150.0   120.0   0.0
150.0   150.0   0.0
100.0   150.0   0.0
150.0   150.0   16.666666666666668
100.0   120.0   16.666666666666668
100.0   150.0   16.666666666666668
150.0   150.0   16.666666666666668
100.0   150.0   0.0
100.0   120.0   16.666666666666668
150.0   150.0   16.666666666666668
150.0   120.0   16.666666666666668
150.0   120.0   0.0
100.0   120.0   16.666666666666668
150.0   150.0   16.666666666666668
150.0   120.0   0.0
100.0   150.0   0.0
100.0   120.0   16.666666666666668
150.0   120.0   16.666666666666668
100.0   150.0   16.666666666666668
100.0   120.0   33.333333333333336
150.0   120.0   16.666666666666668
150.0   150.0   16.666666666666668
100.0   150.0   16.666666666666668
150.0   150.0   33.333333333333336
100.0   120.0   33.333333333333336
100.0   150.0   33.333333333333336
150.0   150.0   33.333333333333336
100.0   150.0   16.666666666666668
100.0   120.0   33.333333333333336
150.0   150.0   33.333333333333336
150.0   120.0   33.333333333333336
150.0   120.0   16.666666666666668
100.0   120.0   33.333333333333336
150.0   150.0   33.333333333333336
150.0   120.0   16.666666666666668
100.0   150.0   16.666666666666668
100.0   120.0   33.333333333333336
150.0   120.0   33.333333333333336
100.0   150.0   33.333333333333336
100.0   120.0   50.0
150.0   120.0   33.333333333333336
150.0   150.0   33.333333333333336
100.0   150.0   33.333333333333336
150.0   150.0   50.0
100.0   120.0   50.0
100.0   150.0   50.0
150.0   150.0   50.0
100.0   150.0   33.333333333333336
100.0   120.0   50.0
150.0   150.0   50.0
150.0   120.0   50.0
150.0   120.0   33.333333333333336
100.0   120.0   50.0
150.0   150.0   50.0
150.0   120.0   33.333333333333336
100.0   150.0   33.333333333333336
150.0   0.0   0.0
200.0   0.0   0.0
150.0   30.0   0.0
150.0   0.0   16.666666666666668
200.0   0.0   0.0
200.0   30.0   0.0
150.0   30.0   0.0
200.0   30.0   16.666666666666668
150.0   0.0   16.666666666666668
150.0   30.0   16.666666666666668
200.0   30.0   16.666666666666668
150.0   30.0   0.0
150.0   0.0   16.666666666666668
200.0   30.0   16.666666666666668
200.0   0.0   16.666666666666668
200.0   0.0   0.0
150.0   0.0   16.666666666666668
200.0   30.0   16.666666666666668
200.0   0.0   0.0
150.0   30.0   0.0
150.0   0.0   16.666666666666668
200.0   0.0   16.666666666666668
150.0   30.0   16.666666666666668
150.0   0.0   33.333333333333336
200.0   0.0   16.666666666666668
200.0   30.0   16.666666666666668
150.0   30.0   16.666666666666668
200.0   30.0   33.333333333333336
150.0   0.0   33.333333333333336
150.0   30.0   33.333333333333336
200.0   30.0   33.333333333333336
150.0   30.0   16.666666666666668
150.0   0.0   33.333333333333336
200.0   30.0   33.333333333333336
200.0   0.0   33.333333333333336
200.0   0.0   16.666666666666668
150.0   0.0   33.333333333333336
200.0   30.0   33.333333333333336
200.0   0.0   16.666666666666668
150.0   30.0   16.666666666666668
150.0   0.0   33.333333333333336
200.0   0.0   33.333333333333336
150.0   30.0   33.333333333333336
150.0   0.0   50.0
200.0   0.0   33.333333333333336
200.0   30.0   33.333333333333336
150.0   30.0   33.333333333333336
200.0   30.0   50.0
150.0   0.0   50.0
150.0   30.0   50.0
200.0   30.0   50.0
150.0   30.0   33.333333333333336
150.0   0.0   50.0
200.0   30.0   50.0
200.0   0.0   50.0
200.0   0.0   33.333333333333336
150.0   0.0   50.0
200.0   30.0   50.0
200.0   0.0   33.333333333333336
150.0   30.0   33.333333333333336
150.0   30.0   0.0
200.0   30.0   0.0
150.0   60.0   0.0
150.0   30.0   16.666666666666668
200.0   30.0   0.0
200.0   60.0   0.0
150.0   60.0   0.0
200.0   60.0   16.666666666666668
150.0   30.0   16.666666666666668
150.0   60.0   16.666666666666668
200.0   60.0   16.666666666666668
150.0   60.0   0.0
150.0   30.0   16.666666666666668
200.0   60.0   16.666666666666668
200.0   30.0   16.666666666666668
200.0   30.0   0.0
150.0   30.0   16.666666666666668
200.0   60.0   16.666666666666668
200.0   30.0   0.0
150.0   60.0   0.0
150.0   30.0   16.666666666666668
200.0   30.0   16.666666666666668
150.0   60.0   16.666666666666668
150.0   30.0   33.333333333333336
200.0   30.0   16.666666666666668
200.0   60.0   16.666666666666668
150.0   60.0   16.666666666666668
200.0   60.0   33.333333333333336
150.0   30.0   33.333333333333336
150.0   60.0   33.333333333333336
200.0   60.0   33.333333333333336
150.0   60.0   16.666666666666668
150.0   30.0   33.333333333333336
200.0   60.0   33.333333333333336
200.0   30.0   33.333333333333336
200.0   30.0   16.666666666666668
150.0   30.0   33.333333333333336
200.0   60.0   33.333333333333336
200.0   30.0   16.666666666666668
150.0   60.0   16.666666666666668
150.0   30.0   33.333333333333336
200.0   30.0   33.333333333333336
150.0   60.0   33.333333333333336
150.0   30.0   50.0
200.0   30.0   33.333333333333336
200.0   60.0   33.333333333333336
150.0   60.0   33.333333333333336
200.0   60.0   50.0
150.0   30.0   50.0
150.0   60.0   50.0
200.0   60.0   50.0
150.0   60.0   33.333333333333336
150.0   30.0   50.0
200.0   60.0   50.0
200.0   30.0   50.0
200.0   30.0   33.333333333333336
150.0   30.0   50.0
200.0   60.0   50.0
200.0   30.0   33.333333333333336
150.0   60.0   33.333333333333336
150.0   60.0   0.0
200.0   60.0   0.0
150.0   90.0   0.0
150.0   60.0   16.666666666666668
200.0   60.0   0.0
200.0   90.0   0.0
150.0   90.0   0.0
200.0   90.0   16.666666666666668
150.0   60.0   16.666666666666668
150.0   90.0   16.666666666666668
200.0   90.0   16.666666666666668
150.0   90.0   0.0
150.0   60.0   16.666666666666668
200.0   90.0   16.666666666666668
200.0   60.0   16.666666666666668
200.0   60.0   0.0
150.0   60.0   16.666666666666668
200.0   90.0   16.666666666666668
200.0   60.0   0.0
150.0   90.0   0.0
150.0   60.0   16.666666666666668
200.0   60.0   16.666666666666668
150.0   90.0   16.666666666666668
150.0   60.0   33.333333333333336
200.0   60.0   16.666666666666668
200.0   90.0   16.666666666666668
150.0   90.0   16.666666666666668
200.0   90.0   33.333333333333336
150.0   60.0   33.333333333333336
150.0   90.0   33.333333333333336
200.0   90.0   33.333333333333336
150.0   90.0   16.666666666666668
150.0   60.0   33.333333333333336
200.0   90.0   33.333333333333336
200.0   60.0   33.333333333333336
200.0   60.0   16.666666666666668
150.0   60.0   33.333333333333336
200.0   90.0   33.333333333333336
200.0   60.0   16.666666666666668
150.0   90.0   16.666666666666668
150.0   60.0   33.333333333333336
200.0   60.0   33.333333333333336
150.0   90.0   33.333333333333336
150.0   60.0   50.0
200.0   60.0   33.333333333333336
200.0   90.0   33.333333333333336
150.0   90.0   33.333333333333336
200.0   90.0   50.0
150.0   60.0   50.0
150.0   90.0   50.0
200.0   90.0   50.0
150.0   90.0   33.333333333333336
150.0   60.0   50.0
200.0   90.0   50.0
200.0   60.0   50.0
200.0   60.0   33.333333333333336
150.0   60.0   50.0
200.0   90.0   50.0
200.0   60.0   33.333333333333336
150.0   90.0   33.333333333333336
150.0   90.0   0.0
200.0   90.0   0.0
150.0   120.0   0.0
150.0   90.0   16.666666666666668
200.0   90.0   0.0
200.0   120.0   0.0
150.0   120.0   0.0
200.0   120.0   16.666666666666668
150.0   90.0   16.666666666666668
150.0   120.0   16.666666666666668
200.0   120.0   16.666666666666668
150.0   120.0   0.0
150.0   90.0   16.666666666666668
200.0   120.0   16.666666666666668
200.0   90.0   16.666666666666668
200.0   90.0   0.0
150.0   90.0   16.666666666666668
200.0   120.0   16.666666666666668
200.0   90.0   0.0
150.0   120.0   0.0
150.0   90.0   16.666666666666668
200.0   90.0   16.666666666666668
150.0   120.0   16.666666666666668
150.0   90.0   33.333333333333336
200.0   90.0   16.666666666666668
200.0   120.0   16.666666666666668
150.0   120.0   16.666666666666668
200.0   120.0   33.333333333333336
150.0   90.0   33.333333333333336
150.0   120.0   33.333333333333336
200.0   120.0   33.333333333333336
150.0   120.0   16.666666666666668
150.0   90.0   33.333333333333336
200.0   120.0   33.333333333333336
200.0   90.0   33.333333333333336
200.0   90.0   16.666666666666668
150.0   90.0   33.333333333333336
200.0   120.0   33.333333333333336
200.0   90.0   16.666666666666668
150.0   120.0   16.666666666666668
150.0   90.0   33.333333333333336
200.0   90.0   33.333333333333336
150.0   120.0   33.333333333333336
150.0   90.0   50.0
200.0   90.0   33.333333333333336
200.0   120.0   33.333333333333336
150.0   120.0   33.333333333333336
200.0   120.0   50.0
150.0   90.0   50.0
150.0   120.0   50.0
200.0   120.0   50.0
150.0   120.0   33.333333333333336
150.0   90.0   50.0
200.0   120.0   50.0
200.0   90.0   50.0
200.0   90.0   33.333333333333336
150.0   90.0   50.0
200.0   120.0   50.0
200.0   90.0   33.333333333333336
150.0   120.0   33.333333333333336
150.0   120.0   0.0
200.0   120.0   0.0
150.0   150.0   0.0
150.0   120.0   16.666666666666668
200.0   120.0   0.0
200.0   150.0   0.0
150.0   150.0   0.0
200.0   150.0   16.666666666666668
150.0   120.0   16.666666666666668
150.0   150.0   16.666666666666668
200.0   150.0   16.666666666666668
150.0   150.0   0.0
150.0   120.0   16.666666666666668
200.0   150.0   16.666666666666668
200.0   120.0   16.666666666666668
200.0   120.0   0.0
150.0   120.0   16.666666666666668
200.0   150.0   16.666666666666668
200.0   120.0   0.0
150.0   150.0   0.0
150.0   120.0   16.666666666666668
200.0   120.0   16.666666666666668
150.0   150.0   16.666666666666668
150.0   120.0   33.333333333333336
200.0   120.0   16.666666666666668
200.0   150.0   16.666666666666668
150.0   150.0   16.666666666666668
200.0   150.0   33.333333333333336
150.0   120.0   33.333333333333336
150.0   150.0   33.333333333333336
200.0   150.0   33.333333333333336
150.0   150.0   16.666666666666668
150.0   120.0   33.333333333333336
200.0   150.0   33.333333333333336
200.0   120.0   33.333333333333336
200.0   120.0   16.666666666666668
150.0   120.0   33.333333333333336
200.0   150.0   33.333333333333336
200.0   120.0   16.666666666666668
150.0   150.0   16.666666666666668
150.0   120.0   33.333333333333336
200.0   120.0   33.333333333333336
150.0   150.0   33.333333333333336
150.0   120.0   50.0
200.0   120.0   33.333333333333336
200.0   150.0   33.333333333333336
150.0   150.0   33.333333333333336
200.0   150.0   50.0
150.0   120.0   50.0
150.0   150.0   50.0
200.0   150.0   50.0
150.0   150.0   33.333333333333336
150.0   120.0   50.0
200.0   150.0   50.0
200.0   120.0   50.0
200.0   120.0   33.333333333333336
150.0   120.0   50.0
200.0   150.0   50.0
200.0   120.0   33.333333333333336
150.0   150.0   33.333333333333336
200.0   0.0   0.0
250.0   0.0   0.0
200.0   30.0   0.0
200.0   0.0   16.666666666666668
250.0   0.0   0.0
250.0   30.0   0.0
200.0   30.0   0.0
250.0   30.0   16.666666666666668
200.0   0.0   16.666666666666668
200.0   30.0   16.666666666666668
250.0   30.0   16.666666666666668
200.0   30.0   0.0
200.0   0.0   16.666666666666668
250.0   30.0   16.666666666666668
250.0   0.0   16.666666666666668
250.0   0.0   0.0
200.0   0.0   16.666666666666668
250.0   30.0   16.666666666666668
250.0   0.0   0.0
200.0   30.0   0.0
200.0   0.0   16.666666666666668
250.0   0.0   16.666666666666668
200.0   30.0   16.666666666666668
200.0   0.0   33.333333333333336
250.0   0.0   16.666666666666668
250.0   30.0   16.666666666666668
200.0   30.0   16.666666666666668
250.0   30.0   33.333333333333336
200.0   0.0   33.333333333333336
200.0   30.0   33.333333333333336
250.0   30.0   33.333333333333336
200.0   30.0   16.666666666666668
200.0   0.0   33.333333333333336
250.0   30.0   33.333333333333336
250.0   0.0   33.333333333333336
250.0   0.0   16.666666666666668
200.0   0.0   33.333333333333336
250.0   30.0   33.333333333333336
250.0   0.0   16.666666666666668
200.0   30.0   16.666666666666668
200.0   0.0   33.333333333333336
250.0   0.0   33.333333333333336
200.0   30.0   33.333333333333336
200.0   0.0   50.0
250.0   0.0   33.333333333333336
250.0   30.0   33.333333333333336
200.0   30.0   33.333333333333336
250.0   30.0   50.0
200.0   0.0   50.0
200.0   30.0   50.0
250.0   30.0   50.0
200.0   30.0   33.333333333333336
200.0   0.0   50.0
250.0   30.0   50.0
250.0   0.0   50.0
250.0   0.0   33.333333333333336
200.0   0.0   50.0
250.0   30.0   50.0
250.0   0.0   33.333333333333336
200.0   30.0   33.333333333333336
200.0   30.0   0.0
250.0   30.0   0.0
200.0   60.0   0.0
200.0   30.0   16.666666666666668
250.0   30.0   0.0
250.0   60.0   0.0
200.0   60.0   0.0
250.0   60.0   16.666666666666668
200.0   30.0   16.666666666666668
200.0   60.0   16.666666666666668
250.0   60.0   16.666666666666668
200.0   60.0   0.0
200.0   30.0   16.666666666666668
250.0   60.0   16.666666666666668
250.0   30.0   16.666666666666668
250.0   30.0   0.0
200.0   30.0   16.666666666666668
250.0   60.0   16.666666666666668
250.0   30.0   0.0
200.0   60.0   0.0
200.0   30.0   16.666666666666668
250.0   30.0   16.666666666666668
200.0   60.0   16.666666666666668
200.0   30.0   33.333333333333336
250.0   30.0   16.666666666666668
250.0   60.0   16.666666666666668
200.0   60.0   16.666666666666668
250.0   60.0   33.333333333333336
200.0   30.0   33.333333333333336
200.0   60.0   33.333333333333336
250.0   60.0   33.333333333333336
200.0   60.0   16.666666666666668
200.0   30.0   33.333333333333336
250.0   60.0   33.333333333333336
250.0   30.0   33.333333333333336
250.0   30.0   16.666666666666668
200.0   30.0   33.333333333333336
250.0   60.0   33.333333333333336
250.0   30.0   16.666666666666668
200.0   60.0   16.666666666666668
200.0   30.0   33.333333333333336
250.0   30.0   33.333333333333336
200.0   60.0   33.333333333333336
200.0   30.0   50.0
250.0   30.0   33.333333333333336
250.0   60.0   33.333333333333336
200.0   60.0   33.333333333333336
250.0   60.0   50.0
200.0   30.0   50.0
200.0   60.0   50.0
250.0   60.0   50.0
200.0   60.0   33.333333333333336
200.0   30.0   50.0
250.0   60.0   50.0
250.0   30.0   50.0
250.0   30.0   33.333333333333336
200.0   30.0   50.0
250.0   60.0   50.0
250.0   30.0   33.333333333333336
200.0   60.0   33.333333333333336
200.0   60.0   0.0
250.0   60.0   0.0
200.0   90.0   0.0
200.0   60.0   16.666666666666668
250.0   60.0   0.0
250.0   90.0   0.0
200.0   90.0   0.0
250.0   90.0   16.666666666666668
200.0   60.0   16.666666666666668
200.0   90.0   16.666666666666668
250.0   90.0   16.666666666666668
200.0   90.0   0.0
200.0   60.0   16.666666666666668
250.0   90.0   16.666666666666668
250.0   60.0   16.666666666666668
250.0   60.0   0.0
200.0   60.0   16.666666666666668
250.0   90.0   16.666666666666668
250.0   60.0   0.0
200.0   90.0   0.0
200.0   60.0   16.666666666666668
250.0   60.0   16.666666666666668
200.0   90.0   16.666666666666668
200.0   60.0   33.333333333333336
250.0   60.0   16.666666666666668
250.0   90.0   16.666666666666668
200.0   90.0   16.666666666666668
250.0   90.0   33.333333333333336
200.0   60.0   33.333333333333336
200.0   90.0   33.333333333333336
250.0   90.0   33.333333333333336
200.0   90.0   16.666666666666668
200.0   60.0   33.333333333333336
250.0   90.0   33.333333333333336
250.0   60.0   33.333333333333336
250.0   60.0   16.666666666666668
200.0   60.0   33.333333333333336
250.0   90.0   33.333333333333336
250.0   60.0   16.666666666666668
200.0   90.0   16.666666666666668
200.0   60.0   33.333333333333336
250.0   60.0   33.333333333333336
200.0   90.0   33.333333333333336
200.0   60.0   50.0
250.0   60.0   33.333333333333336
250.0   90.0   33.333333333333336
200.0   90.0   33.333333333333336
250.0   90.0   50.0
200.0   60.0   50.0
200.0   90.0   50.0
250.0   90.0   50.0
200.0   90.0   33.333333333333336
200.0   60.0   50.0
250.0   90.0   50.0
250.0   60.0   50.0
250.0   60.0   33.333333333333336
200.0   60.0   50.0
250.0   90.0   50.0
250.0   60.0   33.333333333333336
200.0   90.0   33.333333333333336
200.0   90.0   0.0
250.0   90.0   0.0
200.0   120.0   0.0
200.0   90.0   16.666666666666668
250.0   90.0   0.0
250.0   120.0   0.0
200.0   120.0   0.0
250.0   120.0   16.666666666666668
200.0   90.0   16.666666666666668
200.0   120.0   16.666666666666668
250.0   120.0   16.666666666666668
200.0   120.0   0.0
200.0   90.0   16.666666666666668
250.0   120.0   16.666666666666668
250.0   90.0   16.666666666666668
250.0   90.0   0.0
200.0   90.0   16.666666666666668
250.0   120.0   16.666666666666668
250.0   90.0   0.0
200.0   120.0   0.0
200.0   90.0   16.666666666666668
250.0   90.0   16.666666666666668
200.0   120.0   16.666666666666668
200.0   90.0   33.333333333333336
250.0   90.0   16.666666666666668
250.0   120.0   16.666666666666668
200.0   120.0   16.666666666666668
250.0   120.0   33.333333333333336
200.0   90.0   33.333333333333336
200.0   120.0   33.333333333333336
250.0   120.0   33.333333333333336
200.0   120.0   16.666666666666668
200.0   90.0   33.333333333333336
250.0   120.0   33.333333333333336
250.0   90.0   33.333333333333336
250.0   90.0   16.666666666666668
200.0   90.0   33.333333333333336
250.0   120.0   33.333333333333336
250.0   90.0   16.666666666666668
200.0   120.0   16.666666666666668
200.0   90.0   33.333333333333336
250.0   90.0   33.333333333333336
200.0   120.0   33.333333333333336
200.0   90.0   50.0
250.0   90.0   33.333333333333336
250.0   120.0   33.333333333333336
200.0   120.0   33.333333333333336
250.0   120.0   50.0
200.0   90.0   50.0
200.0   120.0   50.0
250.0   120.0   50.0
200.0   120.0   33.333333333333336
200.0   90.0   50.0
250.0   120.0   50.0
250.0   90.0   50.0
250.0   90.0   33.333333333333336
200.0   90.0   50.0
250.0   120.0   50.0
250.0   90.0   33.333333333333336
200.0   120.0   33.333333333333336
200.0   120.0   0.0
250.0   120.0   0.0
200.0   150.0   0.0
200.0   120.0   16.666666666666668
250.0   120.0   0.0
250.0   150.0   0.0
200.0   150.0   0.0
250.0   150.0   16.666666666666668
200.0   120.0   16.666666666666668
200.0   150.0   16.666666666666668
250.0   150.0   16.666666666666668
200.0   150.0   0.0
200.0   120.0   16.666666666666668
250.0   150.0   16.666666666666668
250.0   120.0   16.666666666666668
250.0   120.0   0.0
200.0   120.0   16.666666666666668
250.0   150.0   16.666666666666668
250.0   120.0   0.0
200.0   150.0   0.0
200.0   120.0   16.666666666666668
250.0   120.0   16.666666666666668
200.0   150.0   16.666666666666668
200.0   120.0   33.333333333333336
250.0   120.0   16.666666666666668
250.0   150.0   16.666666666666668
200.0   150.0   16.666666666666668
250.0   150.0   33.333333333333336
200.0   120.0   33.333333333333336
200.0   150.0   33.333333333333336
250.0   150.0   33.333333333333336
200.0   150.0   16.666666666666668
200.0   120.0   33.333333333333336
250.0   150.0   33.333333333333336
250.0   120.0   33.333333333333336
250.0   120.0   16.666666666666668
200.0   120.0   33.333333333333336
250.0   150.0   33.333333333333336
250.0   120.0   16.666666666666668
200.0   150.0   16.666666666666668
200.0   120.0   33.333333333333336
250.0   120.0   33.333333333333336
200.0   150.0   33.333333333333336
200.0   120.0   50.0
250.0   120.0   33.333333333333336
250.0   150.0   33.333333333333336
200.0   150.0   33.333333333333336
250.0   150.0   50.0
200.0   120.0   50.0
200.0   150.0   50.0
250.0   150.0   50.0
200.0   150.0   33.333333333333336
200.0   120.0   50.0
250.0   150.0   50.0
250.0   120.0   50.0
250.0   120.0   33.333333333333336
200.0   120.0   50.0
250.0   150.0   50.0
250.0   120.0   33.333333333333336
200.0   150.0   33.333333333333336
250.0   0.0   0.0
300.0   0.0   0.0
250.0   30.0   0.0
250.0   0.0   16.666666666666668
300.0   0.0   0.0
300.0   30.0   0.0
250.0   30.0   0.0
300.0   30.0   16.666666666666668
250.0   0.0   16.666666666666668
250.0   30.0   16.666666666666668
300.0   30.0   16.666666666666668
250.0   30.0   0.0
250.0   0.0   16.666666666666668
300.0   30.0   16.666666666666668
300.0   0.0   16.666666666666668
300.0   0.0   0.0
250.0   0.0   16.666666666666668
300.0   30.0   16.666666666666668
300.0   0.0   0.0
250.0   30.0   0.0
250.0   0.0   16.666666666666668
300.0   0.0   16.666666666666668
250.0   30.0   16.666666666666668
250.0   0.0   33.333333333333336
300.0   0.0   16.666666666666668
300.0   30.0   16.666666666666668
250.0   30.0   16.666666666666668
300.0   30.0   33.333333333333336
250.0   0.0   33.333333333333336
250.0   30.0   33.333333333333336
300.0   30.0   33.333333333333336
250.0   30.0   16.666666666666668
250.0   0.0   33.333333333333336
300.0   30.0   33.333333333333336
300.0   0.0   33.333333333333336
300.0   0.0   16.666666666666668
250.0   0.0   33.333333333333336
300.0   30.0   33.333333333333336
300.0   0.0   16.666666666666668
250.0   30.0   16.666666666666668
250.0   0.0   33.333333333333336
300.0   0.0   33.333333333333336
250.0   30.0   33.333333333333336
250.0   0.0   50.0
300.0   0.0   33.333333333333336
300.0   30.0   33.333333333333336
250.0   30.0   33.333333333333336
300.0   30.0   50.0
250.0   0.0   50.0
250.0   30.0   50.0
300.0   30.0   50.0
250.0   30.0   33.333333333333336
250.0   0.0   50.0
300.0   30.0   50.0
300.0   0.0   50.0
300.0   0.0   33.333333333333336
250.0   0.0   50.0
300.0   30.0   50.0
300.0   0.0   33.333333333333336
250.0   30.0   33.333333333333336
250.0   30.0   0.0
300.0   30.0   0.0
250.0   60.0   0.0
250.0   30.0   16.666666666666668
300.0   30.0   0.0
300.0   60.0   0.0
250.0   60.0   0.0
300.0   60.0   16.666666666666668
250.0   30.0   16.666666666666668
250.0   60.0   16.666666666666668
300.0   60.0   16.666666666666668
250.0   60.0   0.0
250.0   30.0   16.666666666666668
300.0   60.0   16.666666666666668
300.0   30.0   16.666666666666668
300.0   30.0   0.0
250.0   30.0   16.666666666666668
300.0   60.0   16.666666666666668
300.0   30.0   0.0
250.0   60.0   0.0
250.0   30.0   16.666666666666668
300.0   30.0   16.666666666666668
250.0   60.0   16.666666666666668
250.0   30.0   33.333333333333336
300.0   30.0   16.666666666666668
300.0   60.0   16.666666666666668
250.0   60.0   16.666666666666668
300.0   60.0   33.333333333333336
250.0   30.0   33.333333333333336
250.0   60.0   33.333333333333336
300.0   60.0   33.333333333333336
250.0   60.0   16.666666666666668
250.0   30.0   33.333333333333336
300.0   60.0   33.333333333333336
300.0   30.0   33.333333333333336
300.0   30.0   16.666666666666668
250.0   30.0   33.333333333333336
300.0   60.0   33.333333333333336
300.0   30.0   16.666666666666668
250.0   60.0   16.666666666666668
250.0   30.0   33.333333333333336
300.0   30.0   33.333333333333336
250.0   60.0   33.333333333333336
250.0   30.0   50.0
300.0   30.0   33.333333333333336
300.0   60.0   33.333333333333336
250.0   60.0   33.333333333333336
300.0   60.0   50.0
250.0   30.0   50.0
250.0   60.0   50.0
300.0   60.0   50.0
250.0   60.0   33.333333333333336
250.0   30.0   50.0
300.0   60.0   50.0
300.0   30.0   50.0
300.0   30.0   33.333333333333336
250.0   30.0   50.0
300.0   60.0   50.0
300.0   30.0   33.333333333333336
250.0   60.0   33.333333333333336
250.0   60.0   0.0
300.0   60.0   0.0
250.0   90.0   0.0
250.0   60.0   16.666666666666668
300.0   60.0   0.0
300.0   90.0   0.0
250.0   90.0   0.0
300.0   90.0   16.666666666666668
250.0   60.0   16.666666666666668
250.0   90.0   16.666666666666668
300.0   90.0   16.666666666666668
250.0   90.0   0.0
250.0   60.0   16.666666666666668
300.0   90.0   16.666666666666668
300.0   60.0   16.666666666666668
300.0   60.0   0.0
250.0   60.0   16.666666666666668
300.0   90.0   16.666666666666668
300.0   60.0   0.0
250.0   90.0   0.0
250.0   60.0   16.666666666666668
300.0   60.0   16.666666666666668
250.0   90.0   16.666666666666668
250.0   60.0   33.333333333333336
300.0   60.0   16.666666666666668
300.0   90.0   16.666666666666668
250.0   90.0   16.666666666666668
300.0   90.0   33.333333333333336
250.0   60.0   33.333333333333336
250.0   90.0   33.333333333333336
300.0   90.0   33.333333333333336
250.0   90.0   16.666666666666668
250.0   60.0   33.333333333333336
300.0   90.0   33.333333333333336
300.0   60.0   33.333333333333336
300.0   60.0   16.666666666666668
250.0   60.0   33.333333333333336
300.0   90.0   33.333333333333336
300.0   60.0   16.666666666666668
250.0   90.0   16.666666666666668
250.0   60.0   33.333333333333336
300.0   60.0   33.333333333333336
250.0   90.0   33.333333333333336
250.0   60.0   50.0
300.0   60.0   33.333333333333336
300.0   90.0   33.333333333333336
250.0   90.0   33.333333333333336
300.0   90.0   50.0
250.0   60.0   50.0
250.0   90.0   50.0
300.0   90.0   50.0
250.0   90.0   33.333333333333336
250.0   60.0   50.0
300.0   90.0   50.0
300.0   60.0   50.0
300.0   60.0   33.333333333333336
250.0   60.0   50.0
300.0   90.0   50.0
300.0   60.0   33.333333333333336
250.0   90.0   33.333333333333336
250.0   90.0   0.0
300.0   90.0   0.0
250.0   120.0   0.0
250.0   90.0   16.666666666666668
300.0   90.0   0.0
300.0   120.0   0.0
250.0   120.0   0.0
300.0   120.0   16.666666666666668
250.0   90.0   16.666666666666668
250.0   120.0   16.666666666666668
300.0   120.0   16.666666666666668
250.0   120.0   0.0
250.0   90.0   16.666666666666668
300.0   120.0   16.666666666666668
300.0   90.0   16.666666666666668
300.0   90.0   0.0
250.0   90.0   16.666666666666668
300.0   120.0   16.666666666666668
300.0   90.0   0.0
250.0   120.0   0.0
250.0   90.0   16.666666666666668
300.0   90.0   16.666666666666668
250.0   120.0   16.666666666666668
250.0   90.0   33.333333333333336
300.0   90.0   16.666666666666668
300.0   120.0   16.666666666666668
250.0   120.0   16.666666666666668
300.0   120.0   33.333333333333336
250.0   90.0   33.333333333333336
250.0   120.0   33.333333333333336
300.0   120.0   33.333333333333336
250.0   120.0   16.666666666666668
250.0   90.0   33.333333333333336
300.0   120.0   33.333333333333336
300.0   90.0   33.333333333333336
300.0   90.0   16.666666666666668
250.0   90.0   33.333333333333336
300.0   120.0   33.333333333333336
300.0   90.0   16.666666666666668
250.0   120.0   16.666666666666668
250.0   90.0   33.333333333333336
300.0   90.0   33.333333333333336
250.0   120.0   33.333333333333336
250.0   90.0   50.0
300.0   90.0   33.333333333333336
300.0   120.0   33.333333333333336
250.0   120.0   33.333333333333336
300.0   120.0   50.0
250.0   90.0   50.0
250.0   120.0   50.0
300.0   120.0   50.0
250.0   120.0   33.333333333333336
250.0   90.0   50.0
300.0   120.0   50.0
300.0   90.0   50.0
300.0   90.0   33.333333333333336
250.0   90.0   50.0
300.0   120.0   50.0
300.0   90.0   33.333333333333336
250.0   120.0   33.333333333333336
250.0   120.0   0.0
300.0   120.0   0.0
250.0   150.0   0.0
250.0   120.0   16.666666666666668
300.0   120.0   0.0
300.0   150.0   0.0
250.0   150.0   0.0
300.0   150.0   16.666666666666668
250.0   120.0   16.666666666666668
250.0   150.0   16.666666666666668
300.0   150.0   16.666666666666668
250.0   150.0   0.0
250.0   120.0   16.666666666666668
300.0   150.0   16.666666666666668
300.0   120.0   16.666666666666668
300.0   120.0   0.0
250.0   120.0   16.666666666666668
300.0   150.0   16.666666666666668
300.0   120.0   0.0
250.0   150.0   0.0
250.0   120.0   16.666666666666668
300.0   120.0   16.666666666666668
250.0   150.0   16.666666666666668
250.0   120.0   33.333333333333336
300.0   120.0   16.666666666666668
300.0   150.0   16.666666666666668
250.0   150.0   16.666666666666668
300.0   150.0   33.333333333333336
250.0   120.0   33.333333333333336
250.0   150.0   33.333333333333336
300.0   150.0   33.333333333333336
250.0   150.0   16.666666666666668
250.0   120.0   33.333333333333336
300.0   150.0   33.333333333333336
300.0   120.0   33.333333333333336
300.0   120.0   16.666666666666668
250.0   120.0   33.333333333333336
300.0   150.0   33.333333333333336
300.0   120.0   16.666666666666668
250.0   150.0   16.666666666666668
250.0   120.0   33.333333333333336
300.0   120.0   33.333333333333336
250.0   150.0   33.333333333333336
250.0   120.0   50.0
300.0   120.0   33.333333333333336
300.0   150.0   33.333333333333336
250.0   150.0   33.333333333333336
300.0   150.0   50.0
250.0   120.0   50.0
250.0   150.0   50.0
300.0   150.0   50.0
250.0   150.0   33.333333333333336
250.0   120.0   50.0
300.0   150.0   50.0
300.0   120.0   50.0
300.0   120.0   33.333333333333336
250.0   120.0   50.0
300.0   150.0   50.0
300.0   120.0   33.333333333333336
250.0   150.0   33.333333333333336
300.0   0.0   0.0
350.0   0.0   0.0
300.0   30.0   0.0
300.0   0.0   16.666666666666668
350.0   0.0   0.0
350.0   30.0   0.0
300.0   30.0   0.0
350.0   30.0   16.666666666666668
300.0   0.0   16.666666666666668
300.0   30.0   16.666666666666668
350.0   30.0   16.666666666666668
300.0   30.0   0.0
300.0   0.0   16.666666666666668
350.0   30.0   16.666666666666668
350.0   0.0   16.666666666666668
350.0   0.0   0.0
300.0   0.0   16.666666666666668
350.0   30.0   16.666666666666668
350.0   0.0   0.0
300.0   30.0   0.0
300.0   0.0   16.666666666666668
350.0   0.0   16.666666666666668
300.0   30.0   16.666666666666668
300.0   0.0   33.333333333333336
350.0   0.0   16.666666666666668
350.0   30.0   16.666666666666668
300.0   30.0   16.666666666666668
350.0   30.0   33.333333333333336
300.0   0.0   33.333333333333336
300.0   30.0   33.333333333333336
350.0   30.0   33.333333333333336
300.0   30.0   16.666666666666668
300.0   0.0   33.333333333333336
350.0   30.0   33.333333333333336
350.0   0.0   33.333333333333336
350.0   0.0   16.666666666666668
300.0   0.0   33.333333333333336
350.0   30.0   33.333333333333336
350.0   0.0   16.666666666666668
300.0   30.0   16.666666666666668
300.0   0.0   33.333333333333336
350.0   0.0   33.333333333333336
300.0   30.0   33.333333333333336
300.0   0.0   50.0
350.0   0.0   33.333333333333336
350.0   30.0   33.333333333333336
300.0   30.0   33.333333333333336
350.0   30.0   50.0
300.0   0.0   50.0
300.0   30.0   50.0
350.0   30.0   50.0
300.0   30.0   33.333333333333336
300.0   0.0   50.0
350.0   30.0   50.0
350.0   0.0   50.0
350.0   0.0   33.333333333333336
300.0   0.0   50.0
350.0   30.0   50.0
350.0   0.0   33.333333333333336
300.0   30.0   33.333333333333336
300.0   30.0   0.0
350.0   30.0   0.0
300.0   60.0   0.0
300.0   30.0   16.666666666666668
350.0   30.0   0.0
350.0   60.0   0.0
300.0   60.0   0.0
350.0   60.0   16.666666666666668
300.0   30.0   16.666666666666668
300.0   60.0   16.666666666666668
350.0   60.0   16.666666666666668
300.0   60.0   0.0
300.0   30.0   16.666666666666668
350.0   60.0   16.666666666666668
350.0   30.0   16.666666666666668
350.0   30.0   0.0
300.0   30.0   16.666666666666668
350.0   60.0   16.666666666666668
350.0   30.0   0.0
300.0   60.0   0.0
300.0   30.0   16.666666666666668
350.0   30.0   16.666666666666668
300.0   60.0   16.666666666666668
300.0   30.0   33.333333333333336
350.0   30.0   16.666666666666668
350.0   60.0   16.666666666666668
300.0   60.0   16.666666666666668
350.0   60.0   33.333333333333336
300.0   30.0   33.333333333333336
300.0   60.0   33.333333333333336
350.0   60.0   33.333333333333336
300.0   60.0   16.666666666666668
300.0   30.0   33.333333333333336
350.0   60.0   33.333333333333336
350.0   30.0   33.333333333333336
350.0   30.0   16.666666666666668
300.0   30.0   33.333333333333336
350.0   60.0   33.333333333333336
350.0   30.0   16.666666666666668
300.0   60.0   16.666666666666668
300.0   30.0   33.333333333333336
350.0   30.0   33.333333333333336
300.0   60.0   33.333333333333336
300.0   30.0   50.0
350.0   30.0   33.333333333333336
350.0   60.0   33.333333333333336
300.0   60.0   33.333333333333336
350.0   60.0   50.0
300.0   30.0   50.0
300.0   60.0   50.0
350.0   60.0   50.0
300.0   60.0   33.333333333333336
300.0   30.0   50.0
350.0   60.0   50.0
350.0   30.0   50.0
350.0   30.0   33.333333333333336
300.0   30.0   50.0
350.0   60.0   50.0
350.0   30.0   33.333333333333336
300.0   60.0   33.333333333333336
300.0   60.0   0.0
350.0   60.0   0.0
300.0   90.0   0.0
300.0   60.0   16.666666666666668
350.0   60.0   0.0
350.0   90.0   0.0
300.0   90.0   0.0
350.0   90.0   16.666666666666668
300.0   60.0   16.666666666666668
300.0   90.0   16.666666666666668
350.0   90.0   16.666666666666668
300.0   90.0   0.0
300.0   60.0   16.666666666666668
350.0   90.0   16.666666666666668
350.0   60.0   16.666666666666668
350.0   60.0   0.0
300.0   60.0   16.666666666666668
350.0   90.0   16.666666666666668
350.0   60.0   0.0
300.0   90.0   0.0
300.0   60.0   16.666666666666668
350.0   60.0   16.666666666666668
300.0   90.0   16.666666666666668
300.0   60.0   33.333333333333336
350.0   60.0   16.666666666666668
350.0   90.0   16.666666666666668
300.0   90.0   16.666666666666668
350.0   90.0   33.333333333333336
300.0   60.0   33.333333333333336
300.0   90.0   33.333333333333336
350.0   90.0   33.333333333333336
300.0   90.0   16.666666666666668
300.0   60.0   33.333333333333336
350.0   90.0   33.333333333333336
350.0   60.0   33.333333333333336
350.0   60.0   16.666666666666668
300.0   60.0   33.333333333333336
350.0   90.0   33.333333333333336
350.0   60.0   16.666666666666668
300.0   90.0   16.666666666666668
300.0   60.0   33.333333333333336
350.0   60.0   33.333333333333336
300.0   90.0   33.333333333333336
300.0   60.0   50.0
350.0   60.0   33.333333333333336
350.0   90.0   33.333333333333336
300.0   90.0   33.333333333333336
350.0   90.0   50.0
300.0   60.0   50.0
300.0   90.0   50.0
350.0   90.0   50.0
300.0   90.0   33.333333333333336
300.0   60.0   50.0
350.0   90.0   50.0
350.0   60.0   50.0
350.0   60.0   33.333333333333336
300.0   60.0   50.0
350.0   90.0   50.0
350.0   60.0   33.333333333333336
300.0   90.0   33.333333333333336
300.0   90.0   0.0
350.0   90.0   0.0
300.0   120.0   0.0
300.0   90.0   16.666666666666668
350.0   90.0   0.0
350.0   120.0   0.0
300.0   120.0   0.0
350.0   120.0   16.666666666666668
300.0   90.0   16.666666666666668
300.0   120.0   16.666666666666668
350.0   120.0   16.666666666666668
300.0   120.0   0.0
300.0   90.0   16.666666666666668
350.0   120.0   16.666666666666668
350.0   90.0   16.666666666666668
350.0   90.0   0.0
300.0   90.0   16.666666666666668
350.0   120.0   16.666666666666668
350.0   90.0   0.0
300.0   120.0   0.0
300.0   90.0   16.666666666666668
350.0   90.0   16.666666666666668
300.0   120.0   16.666666666666668
300.0   90.0   33.333333333333336
350.0   90.0   16.666666666666668
350.0   120.0   16.666666666666668
300.0   120.0   16.666666666666668
350.0   120.0   33.333333333333336
300.0   90.0   33.333333333333336
300.0   120.0   33.333333333333336
350.0   120.0   33.333333333333336
300.0   120.0   16.666666666666668
300.0   90.0   33.333333333333336
350.0   120.0   33.333333333333336
350.0   90.0   33.333333333333336
350.0   90.0   16.666666666666668
300.0   90.0   33.333333333333336
350.0   120.0   33.333333333333336
350.0   90.0   16.666666666666668
300.0   120.0   16.666666666666668
300.0   90.0   33.333333333333336
350.0   90.0   33.333333333333336
300.0   120.0   33.333333333333336
300.0   90.0   50.0
350.0   90.0   33.333333333333336
350.0   120.0   33.333333333333336
300.0   120.0   33.333333333333336
350.0   120.0   50.0
300.0   90.0   50.0
300.0   120.0   50.0
350.0   120.0   50.0
300.0   120.0   33.333333333333336
300.0   90.0   50.0
350.0   120.0   50.0
350.0   90.0   50.0
350.0   90.0   33.333333333333336
300.0   90.0   50.0
350.0   120.0   50.0
350.0   90.0   33.333333333333336
300.0   120.0   33.333333333333336
300.0   120.0   0.0
350.0   120.0   0.0
300.0   150.0   0.0
300.0   120.0   16.666666666666668
350.0   120.0   0.0
350.0   150.0   0.0
300.0   150.0   0.0
350.0   150.0   16.666666666666668
300.0   120.0   16.666666666666668
300.0   150.0   16.666666666666668
350.0   150.0   16.666666666666668
300.0   150.0   0.0
300.0   120.0   16.666666666666668
350.0   150.0   16.666666666666668
350.0   120.0   16.666666666666668
350.0   120.0   0.0
300.0   120.0   16.666666666666668
350.0   150.0   16.666666666666668
350.0   120.0   0.0
300.0   150.0   0.0
300.0   120.0   16.666666666666668
350.0   120.0   16.666666666666668
300.0   150.0   16.666666666666668
300.0   120.0   33.333333333333336
350.0   120.0   16.666666666666668
350.0   150.0   16.666666666666668
300.0   150.0   16.666666666666668
350.0   150.0   33.333333333333336
300.0   120.0   33.333333333333336
300.0   150.0   33.333333333333336
350.0   150.0   33.333333333333336
300.0   150.0   16.666666666666668
300.0   120.0   33.333333333333336
350.0   150.0   33.333333333333336
350.0   120.0   33.333333333333336
350.0   120.0   16.666666666666668
300.0   120.0   33.333333333333336
350.0   150.0   33.333333333333336
350.0   120.0   16.666666666666668
300.0   150.0   16.666666666666668
300.0   120.0   33.333333333333336
350.0   120.0   33.333333333333336
300.0   150.0   33.333333333333336
300.0   120.0   50.0
350.0   120.0   33.333333333333336
350.0   150.0   33.333333333333336
300.0   150.0   33.333333333333336
350.0   150.0   50.0
300.0   120.0   50.0
300.0   150.0   50.0
350.0   150.0   50.0
300.0   150.0   33.333333333333336
300.0   120.0   50.0
350.0   150.0   50.0
350.0   120.0   50.0
350.0   120.0   33.333333333333336
300.0   120.0   50.0
350.0   150.0   50.0
350.0   120.0   33.333333333333336
300.0   150.0   33.333333333333336
350.0   0.0   0.0
400.0   0.0   0.0
350.0   30.0   0.0
350.0   0.0   16.666666666666668
400.0   0.0   0.0
400.0   30.0   0.0
350.0   30.0   0.0
400.0   30.0   16.666666666666668
350.0   0.0   16.666666666666668
350.0   30.0   16.666666666666668
400.0   30.0   16.666666666666668
350.0   30.0   0.0
350.0   0.0   16.666666666666668
400.0   30.0   16.666666666666668
400.0   0.0   16.666666666666668
400.0   0.0   0.0
350.0   0.0   16.666666666666668
400.0   30.0   16.666666666666668
400.0   0.0   0.0
350.0   30.0   0.0
350.0   0.0   16.666666666666668
400.0   0.0   16.666666666666668
350.0   30.0   16.666666666666668
350.0   0.0   33.333333333333336
400.0   0.0   16.666666666666668
400.0   30.0   16.666666666666668
350.0   30.0   16.666666666666668
400.0   30.0   33.333333333333336
350.0   0.0   33.333333333333336
350.0   30.0   33.333333333333336
400.0   30.0   33.333333333333336
350.0   30.0   16.666666666666668
350.0   0.0   33.333333333333336
400.0   30.0   33.333333333333336
400.0   0.0   33.333333333333336
400.0   0.0   16.666666666666668
350.0   0.0   33.333333333333336
400.0   30.0   33.333333333333336
400.0   0.0   16.666666666666668
350.0   30.0   16.666666666666668
350.0   0.0   33.333333333333336
400.0   0.0   33.333333333333336
350.0   30.0   33.333333333333336
350.0   0.0   50.0
400.0   0.0   33.333333333333336
400.0   30.0   33.333333333333336
350.0   30.0   33.333333333333336
400.0   30.0   50.0
350.0   0.0   50.0
350.0   30.0   50.0
400.0   30.0   50.0
350.0   30.0   33.333333333333336
350.0   0.0   50.0
400.0   30.0   50.0
400.0   0.0   50.0
400.0   0.0   33.333333333333336
350.0   0.0   50.0
400.0   30.0   50.0
400.0   0.0   33.333333333333336
350.0   30.0   33.333333333333336
350.0   30.0   0.0
400.0   30.0   0.0
350.0   60.0   0.0
350.0   30.0   16.666666666666668
400.0   30.0   0.0
400.0   60.0   0.0
350.0   60.0   0.0
400.0   60.0   16.666666666666668
350.0   30.0   16.666666666666668
350.0   60.0   16.666666666666668
400.0   60.0   16.666666666666668
350.0   60.0   0.0
350.0   30.0   16.666666666666668
400.0   60.0   16.666666666666668
400.0   30.0   16.666666666666668
400.0   30.0   0.0
350.0   30.0   16.666666666666668
400.0   60.0   16.666666666666668
400.0   30.0   0.0
350.0   60.0   0.0
350.0   30.0   16.666666666666668
400.0   30.0   16.666666666666668
350.0   60.0   16.666666666666668
350.0   30.0   33.333333333333336
400.0   30.0   16.666666666666668
400.0   60.0   16.666666666666668
350.0   60.0   16.666666666666668
400.0   60.0   33.333333333333336
350.0   30.0   33.333333333333336
350.0   60.0   33.333333333333336
400.0   60.0   33.333333333333336
350.0   60.0   16.666666666666668
350.0   30.0   33.333333333333336
400.0   60.0   33.333333333333336
400.0   30.0   33.333333333333336
400.0   30.0   16.666666666666668
350.0   30.0   33.333333333333336
400.0   60.0   33.333333333333336
400.0   30.0   16.666666666666668
350.0   60.0   16.666666666666668
350.0   30.0   33.333333333333336
400.0   30.0   33.333333333333336
350.0   60.0   33.333333333333336
350.0   30.0   50.0
400.0   30.0   33.333333333333336
400.0   60.0   33.333333333333336
350.0   60.0   33.333333333333336
400.0   60.0   50.0
350.0   30.0   50.0
350.0   60.0   50.0
400.0   60.0   50.0
350.0   60.0   33.333333333333336
350.0   30.0   50.0
400.0   60.0   50.0
400.0   30.0   50.0
400.0   30.0   33.333333333333336
350.0   30.0   50.0
400.0   60.0   50.0
400.0   30.0   33.333333333333336
350.0   60.0   33.333333333333336
350.0   60.0   0.0
400.0   60.0   0.0
350.0   90.0   0.0
350.0   60.0   16.666666666666668
400.0   60.0   0.0
400.0   90.0   0.0
350.0   90.0   0.0
400.0   90.0   16.666666666666668
350.0   60.0   16.666666666666668
350.0   90.0   16.666666666666668
400.0   90.0   16.666666666666668
350.0   90.0   0.0
350.0   60.0   16.666666666666668
400.0   90.0   16.666666666666668
400.0   60.0   16.666666666666668
400.0   60.0   0.0
350.0   60.0   16.666666666666668
400.0   90.0   16.666666666666668
400.0   60.0   0.0
350.0   90.0   0.0
350.0   60.0   16.666666666666668
400.0   60.0   16.666666666666668
350.0   90.0   16.666666666666668
350.0   60.0   33.333333333333336
400.0   60.0   16.666666666666668
400.0   90.0   16.666666666666668
350.0   90.0   16.666666666666668
400.0   90.0   33.333333333333336
350.0   60.0   33.333333333333336
350.0   90.0   33.333333333333336
400.0   90.0   33.333333333333336
350.0   90.0   16.666666666666668
350.0   60.0   33.333333333333336
400.0   90.0   33.333333333333336
400.0   60.0   33.333333333333336
400.0   60.0   16.666666666666668
350.0   60.0   33.333333333333336
400.0   90.0   33.333333333333336
400.0   60.0   16.666666666666668
350.0   90.0   16.666666666666668
350.0   60.0   33.333333333333336
400.0   60.0   33.333333333333336
350.0   90.0   33.333333333333336
350.0   60.0   50.0
400.0   60.0   33.333333333333336
400.0   90.0   33.333333333333336
350.0   90.0   33.333333333333336
400.0   90.0   50.0
350.0   60.0   50.0
350.0   90.0   50.0
400.0   90.0   50.0
350.0   90.0   33.333333333333336
350.0   60.0   50.0
400.0   90.0   50.0
400.0   60.0   50.0
400.0   60.0   33.333333333333336
350.0   60.0   50.0
400.0   90.0   50.0
400.0   60.0   33.333333333333336
350.0   90.0   33.333333333333336
350.0   90.0   0.0
400.0   90.0   0.0
350.0   120.0   0.0
350.0   90.0   16.666666666666668
400.0   90.0   0.0
400.0   120.0   0.0
350.0   120.0   0.0
400.0   120.0   16.666666666666668
350.0   90.0   16.666666666666668
350.0   120.0   16.666666666666668
400.0   120.0   16.666666666666668
350.0   120.0   0.0
350.0   90.0   16.666666666666668
400.0   120.0   16.666666666666668
400.0   90.0   16.666666666666668
400.0   90.0   0.0
350.0   90.0   16.666666666666668
400.0   120.0   16.666666666666668
400.0   90.0   0.0
350.0   120.0   0.0
350.0   90.0   16.666666666666668
400.0   90.0   16.666666666666668
350.0   120.0   16.666666666666668
350.0   90.0   33.333333333333336
400.0   90.0   16.666666666666668
400.0   120.0   16.666666666666668
350.0   120.0   16.666666666666668
400.0   120.0   33.333333333333336
350.0   90.0   33.333333333333336
350.0   120.0   33.333333333333336
400.0   120.0   33.333333333333336
350.0   120.0   16.666666666666668
350.0   90.0   33.333333333333336
400.0   120.0   33.333333333333336
400.0   90.0   33.333333333333336
400.0   90.0   16.666666666666668
350.0   90.0   33.333333333333336
400.0   120.0   33.333333333333336
400.0   90.0   16.666666666666668
350.0   120.0   16.666666666666668
350.0   90.0   33.333333333333336
400.0   90.0   33.333333333333336
350.0   120.0   33.333333333333336
350.0   90.0   50.0
400.0   90.0   33.333333333333336
400.0   120.0   33.333333333333336
350.0   120.0   33.333333333333336
400.0   120.0   50.0
350.0   90.0   50.0
350.0   120.0   50.0
400.0   120.0   50.0
350.0   120.0   33.333333333333336
350.0   90.0   50.0
400.0   120.0   50.0
400.0   90.0   50.0
400.0   90.0   33.333333333333336
350.0   90.0   50.0
400.0   120.0   50.0
400.0   90.0   33.333333333333336
350.0   120.0   33.333333333333336
350.0   120.0   0.0
400.0   120.0   0.0
350.0   150.0   0.0
350.0   120.0   16.666666666666668
400.0   120.0   0.0
400.0   150.0   0.0
350.0   150.0   0.0
400.0   150.0   16.666666666666668
350.0   120.0   16.666666666666668
350.0   150.0   16.666666666666668
400.0   150.0   16.666666666666668
350.0   150.0   0.0
350.0   120.0   16.666666666666668
400.0   150.0   16.666666666666668
400.0   120.0   16.666666666666668
400.0   120.0   0.0
350.0   120.0   16.666666666666668
400.0   150.0   16.666666666666668
400.0   120.0   0.0
350.0   150.0   0.0
350.0   120.0   16.666666666666668
400.0   120.0   16.666666666666668
350.0   150.0   16.666666666666668
350.0   120.0   33.333333333333336
400.0   120.0   16.666666666666668
400.0   150.0   16.666666666666668
350.0   150.0   16.666666666666668
400.0   150.0   33.333333333333336
350.0   120.0   33.333333333333336
350.0   150.0   33.333333333333336
400.0   150.0   33.333333333333336
350.0   150.0   16.666666666666668
350.0   120.0   33.333333333333336
400.0   150.0   33.333333333333336
400.0   120.0   33.333333333333336
400.0   120.0   16.666666666666668
350.0   120.0   33.333333333333336
400.0   150.0   33.333333333333336
400.0   120.0   16.666666666666668
350.0   150.0   16.666666666666668
350.0   120.0   33.333333333333336
400.0   120.0   33.333333333333336
350.0   150.0   33.333333333333336
350.0   120.0   50.0
400.0   120.0   33.333333333333336
400.0   150.0   33.333333333333336
350.0   150.0   33.333333333333336
400.0   150.0   50.0
350.0   120.0   50.0
350.0   150.0   50.0
400.0   150.0   50.0
350.0   150.0   33.333333333333336
350.0   120.0   50.0
400.0   150.0   50.0
400.0   120.0   50.0
400.0   120.0   33.333333333333336
350.0   120.0   50.0
400.0   150.0   50.0
400.0   120.0   33.333333333333336
350.0   150.0   33.333333333333336
400.0   0.0   0.0
450.0   0.0   0.0
400.0   30.0   0.0
400.0   0.0   16.666666666666668
450.0   0.0   0.0
450.0   30.0   0.0
400.0   30.0   0.0
450.0   30.0   16.666666666666668
400.0   0.0   16.666666666666668
400.0   30.0   16.666666666666668
450.0   30.0   16.666666666666668
400.0   30.0   0.0
400.0   0.0   16.666666666666668
450.0   30.0   16.666666666666668
450.0   0.0   16.666666666666668
450.0   0.0   0.0
400.0   0.0   16.666666666666668
450.0   30.0   16.666666666666668
450.0   0.0   0.0
400.0   30.0   0.0
400.0   0.0   16.666666666666668
450.0   0.0   16.666666666666668
400.0   30.0   16.666666666666668
400.0   0.0   33.333333333333336
450.0   0.0   16.666666666666668
450.0   30.0   16.666666666666668
400.0   30.0   16.666666666666668
450.0   30.0   33.333333333333336
400.0   0.0   33.333333333333336
400.0   30.0   33.333333333333336
450.0   30.0   33.333333333333336
400.0   30.0   16.666666666666668
400.0   0.0   33.333333333333336
450.0   30.0   33.333333333333336
450.0   0.0   33.333333333333336
450.0   0.0   16.666666666666668
400.0   0.0   33.333333333333336
450.0   30.0   33.333333333333336
450.0   0.0   16.666666666666668
400.0   30.0   16.666666666666668
400.0   0.0   33.333333333333336
450.0   0.0   33.333333333333336
400.0   30.0   33.333333333333336
400.0   0.0   50.0
450.0   0.0   33.333333333333336
450.0   30.0   33.333333333333336
400.0   30.0   33.333333333333336
450.0   30.0   50.0
400.0   0.0   50.0
400.0   30.0   50.0
450.0   30.0   50.0
400.0   30.0   33.333333333333336
400.0   0.0   50.0
450.0   30.0   50.0
450.0   0.0   50.0
450.0   0.0   33.333333333333336
400.0   0.0   50.0
450.0   30.0   50.0
450.0   0.0   33.333333333333336
400.0   30.0   33.333333333333336
400.0   30.0   0.0
450.0   30.0   0.0
400.0   60.0   0.0
400.0   30.0   16.666666666666668
450.0   30.0   0.0
450.0   60.0   0.0
400.0   60.0   0.0
450.0   60.0   16.666666666666668
400.0   30.0   16.666666666666668
400.0   60.0   16.666666666666668
450.0   60.0   16.666666666666668
400.0   60.0   0.0
400.0   30.0   16.666666666666668
450.0   60.0   16.666666666666668
450.0   30.0   16.666666666666668
450.0   30.0   0.0
400.0   30.0   16.666666666666668
450.0   60.0   16.666666666666668
450.0   30.0   0.0
400.0   60.0   0.0
400.0   30.0   16.666666666666668
450.0   30.0   16.666666666666668
400.0   60.0   16.666666666666668
400.0   30.0   33.333333333333336
450.0   30.0   16.666666666666668
450.0   60.0   16.666666666666668
400.0   60.0   16.666666666666668
450.0   60.0   33.333333333333336
400.0   30.0   33.333333333333336
400.0   60.0   33.333333333333336
450.0   60.0   33.333333333333336
400.0   60.0   16.666666666666668
400.0   30.0   33.333333333333336
450.0   60.0   33.333333333333336
450.0   30.0   33.333333333333336
450.0   30.0   16.666666666666668
400.0   30.0   33.333333333333336
450.0   60.0   33.333333333333336
450.0   30.0   16.666666666666668
400.0   60.0   16.666666666666668
400.0   30.0   33.333333333333336
450.0   30.0   33.333333333333336
400.0   60.0   33.333333333333336
400.0   30.0   50.0
450.0   30.0   33.333333333333336
450.0   60.0   33.333333333333336
400.0   60.0   33.333333333333336
450.0   60.0   50.0
400.0   30.0   50.0
400.0   60.0   50.0
450.0   60.0   50.0
400.0   60.0   33.333333333333336
400.0   30.0   50.0
450.0   60.0   50.0
450.0   30.0   50.0
450.0   30.0   33.333333333333336
400.0   30.0   50.0
450.0   60.0   50.0
450.0   30.0   33.333333333333336
400.0   60.0   33.333333333333336
400.0   60.0   0.0
450.0   60.0   0.0
400.0   90.0   0.0
400.0   60.0   16.666666666666668
450.0   60.0   0.0
450.0   90.0   0.0
400.0   90.0   0.0
450.0   90.0   16.666666666666668
400.0   60.0   16.666666666666668
400.0   90.0   16.666666666666668
450.0   90.0   16.666666666666668
400.0   90.0   0.0
400.0   60.0   16.666666666666668
450.0   90.0   16.666666666666668
450.0   60.0   16.666666666666668
450.0   60.0   0.0
400.0   60.0   16.666666666666668
450.0   90.0   16.666666666666668
450.0   60.0   0.0
400.0   90.0   0.0
400.0   60.0   16.666666666666668
450.0   60.0   16.666666666666668
400.0   90.0   16.666666666666668
400.0   60.0   33.333333333333336
450.0   60.0   16.666666666666668
450.0   90.0   16.666666666666668
400.0   90.0   16.666666666666668
450.0   90.0   33.333333333333336
400.0   60.0   33.333333333333336
400.0   90.0   33.333333333333336
450.0   90.0   33.333333333333336
400.0   90.0   16.666666666666668
400.0   60.0   33.333333333333336
450.0   90.0   33.333333333333336
450.0   60.0   33.333333333333336
450.0   60.0   16.666666666666668
400.0   60.0   33.333333333333336
450.0   90.0   33.333333333333336
450.0   60.0   16.666666666666668
400.0   90.0   16.666666666666668
400.0   60.0   33.333333333333336
450.0   60.0   33.333333333333336
400.0   90.0   33.333333333333336
400.0   60.0   50.0
450.0   60.0   33.333333333333336
450.0   90.0   33.333333333333336
400.0   90.0   33.333333333333336
450.0   90.0   50.0
400.0   60.0   50.0
400.0   90.0   50.0
450.0   90.0   50.0
400.0   90.0   33.333333333333336
400.0   60.0   50.0
450.0   90.0   50.0
450.0   60.0   50.0
450.0   60.0   33.333333333333336
400.0   60.0   50.0
450.0   90.0   50.0
450.0   60.0   33.333333333333336
400.0   90.0   33.333333333333336
400.0   90.0   0.0
450.0   90.0   0.0
400.0   120.0   0.0
400.0   90.0   16.666666666666668
450.0   90.0   0.0
450.0   120.0   0.0
400.0   120.0   0.0
450.0   120.0   16.666666666666668
400.0   90.0   16.666666666666668
400.0   120.0   16.666666666666668
450.0   120.0   16.666666666666668
400.0   120.0   0.0
400.0   90.0   16.666666666666668
450.0   120.0   16.666666666666668
450.0   90.0   16.666666666666668
450.0   90.0   0.0
400.0   90.0   16.666666666666668
450.0   120.0   16.666666666666668
450.0   90.0   0.0
400.0   120.0   0.0
400.0   90.0   16.666666666666668
450.0   90.0   16.666666666666668
400.0   120.0   16.666666666666668
400.0   90.0   33.333333333333336
450.0   90.0   16.666666666666668
450.0   120.0   16.666666666666668
400.0   120.0   16.666666666666668
450.0   120.0   33.333333333333336
400.0   90.0   33.333333333333336
400.0   120.0   33.333333333333336
450.0   120.0   33.333333333333336
400.0   120.0   16.666666666666668
400.0   90.0   33.333333333333336
450.0   120.0   33.333333333333336
450.0   90.0   33.333333333333336
450.0   90.0   16.666666666666668
400.0   90.0   33.333333333333336
450.0   120.0   33.333333333333336
450.0   90.0   16.666666666666668
400.0   120.0   16.666666666666668
400.0   90.0   33.333333333333336
450.0   90.0   33.333333333333336
400.0   120.0   33.333333333333336
400.0   90.0   50.0
450.0   90.0   33.333333333333336
450.0   120.0   33.333333333333336
400.0   120.0   33.333333333333336
450.0   120.0   50.0
400.0   90.0   50.0
400.0   120.0   50.0
450.0   120.0   50.0
400.0   120.0   33.333333333333336
400.0   90.0   50.0
450.0   120.0   50.0
450.0   90.0   50.0
450.0   90.0   33.333333333333336
400.0   90.0   50.0
450.0   120.0   50.0
450.0   90.0   33.333333333333336
400.0   120.0   33.333333333333336
400.0   120.0   0.0
450.0   120.0   0.0
400.0   150.0   0.0
400.0   120.0   16.666666666666668
450.0   120.0   0.0
450.0   150.0   0.0
400.0   150.0   0.0
450.0   150.0   16.666666666666668
400.0   120.0   16.666666666666668
400.0   150.0   16.666666666666668
450.0   150.0   16.666666666666668
400.0   150.0   0.0
400.0   120.0   16.666666666666668
450.0   150.0   16.666666666666668
450.0   120.0   16.666666666666668
450.0   120.0   0.0
400.0   120.0   16.666666666666668
450.0   150.0   16.666666666666668
450.0   120.0   0.0
400.0   150.0   0.0
400.0   120.0   16.666666666666668
450.0   120.0   16.666666666666668
400.0   150.0   16.666666666666668
400.0   120.0   33.333333333333336
450.0   120.0   16.666666666666668
450.0   150.0   16.666666666666668
400.0   150.0   16.666666666666668
450.0   150.0   33.333333333333336
400.0   120.0   33.333333333333336
400.0   150.0   33.333333333333336
450.0   150.0   33.333333333333336
400.0   150.0   16.666666666666668
400.0   120.0   33.333333333333336
450.0   150.0   33.333333333333336
450.0   120.0   33.333333333333336
450.0   120.0   16.666666666666668
400.0   120.0   33.333333333333336
450.0   150.0   33.333333333333336
450.0   120.0   16.666666666666668
400.0   150.0   16.666666666666668
400.0   120.0   33.333333333333336
450.0   120.0   33.333333333333336
400.0   150.0   33.333333333333336
400.0   120.0   50.0
450.0   120.0   33.333333333333336
450.0   150.0   33.333333333333336
400.0   150.0   33.333333333333336
450.0   150.0   50.0
400.0   120.0   50.0
400.0   150.0   50.0
450.0   150.0   50.0
400.0   150.0   33.333333333333336
400.0   120.0   50.0
450.0   150.0   50.0
450.0   120.0   50.0
450.0   120.0   33.333333333333336
400.0   120.0   50.0
450.0   150.0   50.0
450.0   120.0   33.333333333333336
400.0   150.0   33.333333333333336
450.0   0.0   0.0
500.0   0.0   0.0
450.0   30.0   0.0
450.0   0.0   16.666666666666668
500.0   0.0   0.0
500.0   30.0   0.0
450.0   30.0   0.0
500.0   30.0   16.666666666666668
450.0   0.0   16.666666666666668
450.0   30.0   16.666666666666668
500.0   30.0   16.666666666666668
450.0   30.0   0.0
450.0   0.0   16.666666666666668
500.0   30.0   16.666666666666668
500.0   0.0   16.666666666666668
500.0   0.0   0.0
450.0   0.0   16.666666666666668
500.0   30.0   16.666666666666668
500.0   0.0   0.0
450.0   30.0   0.0
450.0   0.0   16.666666666666668
500.0   0.0   16.666666666666668
450.0   30.0   16.666666666666668
450.0   0.0   33.333333333333336
500.0   0.0   16.666666666666668
500.0   30.0   16.666666666666668
450.0   30.0   16.666666666666668
500.0   30.0   33.333333333333336
450.0   0.0   33.333333333333336
450.0   30.0   33.333333333333336
500.0   30.0   33.333333333333336
450.0   30.0   16.666666666666668
450.0   0.0   33.333333333333336
500.0   30.0   33.333333333333336
500.0   0.0   33.333333333333336
500.0   0.0   16.666666666666668
450.0   0.0   33.333333333333336
500.0   30.0   33.333333333333336
500.0   0.0   16.666666666666668
450.0   30.0   16.666666666666668
450.0   0.0   33.333333333333336
500.0   0.0   33.333333333333336
450.0   30.0   33.333333333333336
450.0   0.0   50.0
500.0   0.0   33.333333333333336
500.0   30.0   33.333333333333336
450.0   30.0   33.333333333333336
500.0   30.0   50.0
450.0   0.0   50.0
450.0   30.0   50.0
500.0   30.0   50.0
450.0   30.0   33.333333333333336
450.0   0.0   50.0
500.0   30.0   50.0
500.0   0.0   50.0
500.0   0.0   33.333333333333336
450.0   0.0   50.0
500.0   30.0   50.0
500.0   0.0   33.333333333333336
450.0   30.0   33.333333333333336
450.0   30.0   0.0
500.0   30.0   0.0
450.0   60.0   0.0
450.0   30.0   16.666666666666668
500.0   30.0   0.0
500.0   60.0   0.0
450.0   60.0   0.0
500.0   60.0   16.666666666666668
450.0   30.0   16.666666666666668
450.0   60.0   16.666666666666668
500.0   60.0   16.666666666666668
450.0   60.0   0.0
450.0   30.0   16.666666666666668
500.0   60.0   16.666666666666668
500.0   30.0   16.666666666666668
500.0   30.0   0.0
450.0   30.0   16.666666666666668
500.0   60.0   16.666666666666668
500.0   30.0   0.0
450.0   60.0   0.0
450.0   30.0   16.666666666666668
500.0   30.0   16.666666666666668
450.0   60.0   16.666666666666668
450.0   30.0   33.333333333333336
500.0   30.0   16.666666666666668
500.0   60.0   16.666666666666668
450.0   60.0   16.666666666666668
500.0   60.0   33.333333333333336
450.0   30.0   33.333333333333336
450.0   60.0   33.333333333333336
500.0   60.0   33.333333333333336
450.0   60.0   16.666666666666668
450.0   30.0   33.333333333333336
500.0   60.0   33.333333333333336
500.0   30.0   33.333333333333336
500.0   30.0   16.666666666666668
450.0   30.0   33.333333333333336
500.0   60.0   33.333333333333336
500.0   30.0   16.666666666666668
450.0   60.0   16.666666666666668
450.0   30.0   33.333333333333336
500.0   30.0   33.333333333333336
450.0   60.0   33.333333333333336
450.0   30.0   50.0
500.0   30.0   33.333333333333336
500.0   60.0   33.333333333333336
450.0   60.0   33.333333333333336
500.0   60.0   50.0
450.0   30.0   50.0
450.0   60.0   50.0
500.0   60.0   50.0
450.0   60.0   33.333333333333336
450.0   30.0   50.0
500.0   60.0   50.0
500.0   30.0   50.0
500.0   30.0   33.333333333333336
450.0   30.0   50.0
500.0   60.0   50.0
500.0   30.0   33.333333333333336
450.0   60.0   33.333333333333336
450.0   60.0   0.0
500.0   60.0   0.0
450.0   90.0   0.0
450.0   60.0   16.666666666666668
500.0   60.0   0.0
500.0   90.0   0.0
450.0   90.0   0.0
500.0   90.0   16.666666666666668
450.0   60.0   16.666666666666668
450.0   90.0   16.666666666666668
500.0   90.0   16.666666666666668
450.0   90.0   0.0
450.0   60.0   16.666666666666668
500.0   90.0   16.666666666666668
500.0   60.0   16.666666666666668
500.0   60.0   0.0
450.0   60.0   16.666666666666668
500.0   90.0   16.666666666666668
500.0   60.0   0.0
450.0   90.0   0.0
450.0   60.0   16.666666666666668
500.0   60.0   16.666666666666668
450.0   90.0   16.666666666666668
450.0   60.0   33.333333333333336
500.0   60.0   16.666666666666668
500.0   90.0   16.666666666666668
450.0   90.0   16.666666666666668
500.0   90.0   33.333333333333336
450.0   60.0   33.333333333333336
450.0   90.0   33.333333333333336
500.0   90.0   33.333333333333336
450.0   90.0   16.666666666666668
450.0   60.0   33.333333333333336
500.0   90.0   33.333333333333336
500.0   60.0   33.333333333333336
500.0   60.0   16.666666666666668
450.0   60.0   33.333333333333336
500.0   90.0   33.333333333333336
500.0   60.0   16.666666666666668
450.0   90.0   16.666666666666668
450.0   60.0   33.333333333333336
500.0   60.0   33.333333333333336
450.0   90.0   33.333333333333336
450.0   60.0   50.0
500.0   60.0   33.333333333333336
500.0   90.0   33.333333333333336
450.0   90.0   33.333333333333336
500.0   90.0   50.0
450.0   60.0   50.0
450.0   90.0   50.0
500.0   90.0   50.0
450.0   90.0   33.333333333333336
450.0   60.0   50.0
500.0   90.0   50.0
500.0   60.0   50.0
500.0   60.0   33.333333333333336
450.0   60.0   50.0
500.0   90.0   50.0
500.0   60.0   33.333333333333336
450.0   90.0   33.333333333333336
450.0   90.0   0.0
500.0   90.0   0.0
450.0   120.0   0.0
450.0   90.0   16.666666666666668
500.0   90.0   0.0
500.0   120.0   0.0
450.0   120.0   0.0
500.0   120.0   16.666666666666668
450.0   90.0   16.666666666666668
450.0   120.0   16.666666666666668
500.0   120.0   16.666666666666668
450.0   120.0   0.0
450.0   90.0   16.666666666666668
500.0   120.0   16.666666666666668
500.0   90.0   16.666666666666668
500.0   90.0   0.0
450.0   90.0   16.666666666666668
500.0   120.0   16.666666666666668
500.0   90.0   0.0
450.0   120.0   0.0
450.0   90.0   16.666666666666668
500.0   90.0   16.666666666666668
450.0   120.0   16.666666666666668
450.0   90.0   33.333333333333336
500.0   90.0   16.666666666666668
500.0   120.0   16.666666666666668
450.0   120.0   16.666666666666668
500.0   120.0   33.333333333333336
450.0   90.0   33.333333333333336
450.0   120.0   33.333333333333336
500.0   120.0   33.333333333333336
450.0   120.0   16.666666666666668
450.0   90.0   33.333333333333336
500.0   120.0   33.333333333333336
500.0   90.0   33.333333333333336
500.0   90.0   16.666666666666668
450.0   90.0   33.333333333333336
500.0   120.0   33.333333333333336
500.0   90.0   16.666666666666668
450.0   120.0   16.666666666666668
450.0   90.0   33.333333333333336
500.0   90.0   33.333333333333336
450.0   120.0   33.333333333333336
450.0   90.0   50.0
500.0   90.0   33.333333333333336
500.0   120.0   33.333333333333336
450.0   120.0   33.333333333333336
500.0   120.0   50.0
450.0   90.0   50.0
450.0   120.0   50.0
500.0   120.0   50.0
450.0   120.0   33.333333333333336
450.0   90.0   50.0
500.0   120.0   50.0
500.0   90.0   50.0
500.0   90.0   33.333333333333336
450.0   90.0   50.0
500.0   120.0   50.0
500.0   90.0   33.333333333333336
450.0   120.0   33.333333333333336
450.0   120.0   0.0
500.0   120.0   0.0
450.0   150.0   0.0
450.0   120.0   16.666666666666668
500.0   120.0   0.0
500.0   150.0   0.0
450.0   150.0   0.0
500.0   150.0   16.666666666666668
450.0   120.0   16.666666666666668
450.0   150.0   16.666666666666668
500.0   150.0   16.666666666666668
450.0   150.0   0.0
450.0   120.0   16.666666666666668
500.0   150.0   16.666666666666668
500.0   120.0   16.666666666666668
500.0   120.0   0.0
450.0   120.0   16.666666666666668
500.0   150.0   16.666666666666668
500.0   120.0   0.0
450.0   150.0   0.0
450.0   120.0   16.666666666666668
500.0   120.0   16.666666666666668
450.0   150.0   16.666666666666668
450.0   120.0   33.333333333333336
500.0   120.0   16.666666666666668
500.0   150.0   16.666666666666668
450.0   150.0   16.666666666666668
500.0   150.0   33.333333333333336
450.0   120.0   33.333333333333336
450.0   150.0   33.333333333333336
500.0   150.0   33.333333333333336
450.0   150.0   16.666666666666668
450.0   120.0   33.333333333333336
500.0   150.0   33.333333333333336
500.0   120.0   33.333333333333336
500.0   120.0   16.666666666666668
450.0   120.0   33.333333333333336
500.0   150.0   33.333333333333336
500.0   120.0   16.666666666666668
450.0   150.0   16.666666666666668
450.0   120.0   33.333333333333336
500.0   120.0   33.333333333333336
450.0   150.0   33.333333333333336
450.0   120.0   50.0
500.0   120.0   33.333333333333336
500.0   150.0   33.333333333333336
450.0   150.0   33.333333333333336
500.0   150.0   50.0
450.0   120.0   50.0
450.0   150.0   50.0
500.0   150.0   50.0
450.0   150.0   33.333333333333336
450.0   120.0   50.0
500.0   150.0   50.0
500.0   120.0   50.0
500.0   120.0   33.333333333333336
450.0   120.0   50.0
500.0   150.0   50.0
500.0   120.0   33.333333333333336
450.0   150.0   33.333333333333336
             </DataArray>   
          </Points>  
          <Cells>  
             <DataArray type="Int32" Name="connectivity" format="ascii">   
0   1   2   3
4   5   6   7
8   9   10   11
12   13   14   15
16   17   18   19
20   21   22   23
24   25   26   27
28   29   30   31
32   33   34   35
36   37   38   39
40   41   42   43
44   45   46   47
48   49   50   51
52   53   54   55
56   57   58   59
60   61   62   63
64   65   66   67
68   69   70   71
72   73   74   75
76   77   78   79
80   81   82   83
84   85   86   87
88   89   90   91
92   93   94   95
96   97   98   99
100   101   102   103
104   105   106   107
108   109   110   111
112   113   114   115
116   117   118   119
120   121   122   123
124   125   126   127
128   129   130   131
132   133   134   135
136   137   138   139
140   141   142   143
144   145   146   147
148   149   150   151
152   153   154   155
156   157   158   159
160   161   162   163
164   165   166   167
168   169   170   171
172   173   174   175
176   177   178   179
180   181   182   183
184   185   186   187
188   189   190   191
192   193   194   195
196   197   198   199
200   201   202   203
204   205   206   207
208   209   210   211
212   213   214   215
216   217   218   219
220   221   222   223
224   225   226   227
228   229   230   231
232   233   234   235
236   237   238   239
240   241   242   243
244   245   246   247
248   249   250   251
252   253   254   255
256   257   258   259
260   261   262   263
264   265   266   267
268   269   270   271
272   273   274   275
276   277   278   279
280   281   282   283
284   285   286   287
288   289   290   291
292   293   294   295
296   297   298   299
300   301   302   303
304   305   306   307
308   309   310   311
312   313   314   315
316   317   318   319
320   321   322   323
324   325   326   327
328   329   330   331
332   333   334   335
336   337   338   339
340   341   342   343
344   345   346   347
348   349   350   351
352   353   354   355
356   357   358   359
360   361   362   363
364   365   366   367
368   369   370   371
372   373   374   375
376   377   378   379
380   381   382   383
384   385   386   387
388   389   390   391
392   393   394   395
396   397   398   399
400   401   402   403
404   405   406   407
408   409   410   411
412   413   414   415
416   417   418   419
420   421   422   423
424   425   426   427
428   429   430   431
432   433   434   435
436   437   438   439
440   441   442   443
444   445   446   447
448   449   450   451
452   453   454   455
456   457   458   459
460   461   462   463
464   465   466   467
468   469   470   471
472   473   474   475
476   477   478   479
480   481   482   483
484   485   486   487
488   489   490   491
492   493   494   495
496   497   498   499
500   501   502   503
504   505   506   507
508   509   510   511
512   513   514   515
516   517   518   519
520   521   522   523
524   525   526   527
528   529   530   531
532   533   534   535
536   537   538   539
540   541   542   543
544   545   546   547
548   549   550   551
552   553   554   555
556   557   558   559
560   561   562   563
564   565   566   567
568   569   570   571
572   573   574   575
576   577   578   579
580   581   582   583
584   585   586   587
588   589   590   591
592   593   594   595
596   597   598   599
600   601   602   603
604   605   606   607
608   609   610   611
612   613   614   615
616   617   618   619
620   621   622   623
624   625   626   627
628   629   630   631
632   633   634   635
636   637   638   639
640   641   642   643
644   645   646   647
648   649   650   651
652   653   654   655
656   657   658   659
660   661   662   663
664   665   666   667
668   669   670   671
672   673   674   675
676   677   678   679
680   681   682   683
684   685   686   687
688   689   690   691
692   693   694   695
696   697   698   699
700   701   702   703
704   705   706   707
708   709   710   711
712   713   714   715
716   717   718   719
720   721   722   723
724   725   726   727
728   729   730   731
732   733   734   735
736   737   738   739
740   741   742   743
744   745   746   747
748   749   750   751
752   753   754   755
756   757   758   759
760   761   762   763
764   765   766   767
768   769   770   771
772   773   774   775
776   777   778   779
780   781   782   783
784   785   786   787
788   789   790   791
792   793   794   795
796   797   798   799
800   801   802   803
804   805   806   807
808   809   810   811
812   813   814   815
816   817   818   819
820   821   822   823
824   825   826   827
828   829   830   831
832   833   834   835
836   837   838   839
840   841   842   843
844   845   846   847
848   849   850   851
852   853   854   855
856   857   858   859
860   861   862   863
864   865   866   867
868   869   870   871
872   873   874   875
876   877   878   879
880   881   882   883
884   885   886   887
888   889   890   891
892   893   894   895
896   897   898   899
900   901   902   903
904   905   906   907
908   909   910   911
912   913   914   915
916   917   918   919
920   921   922   923
924   925   926   927
928   929   930   931
932   933   934   935
936   937   938   939
940   941   942   943
944   945   946   947
948   949   950   951
952   953   954   955
956   957   958   959
960   961   962   963
964   965   966   967
968   969   970   971
972   973   974   975
976   977   978   979
980   981   982   983
984   985   986   987
988   989   990   991
992   993   994   995
996   997   998   999
1000   1001   1002   1003
1004   1005   1006   1007
1008   1009   1010   1011
1012   1013   1014   1015
1016   1017   1018   1019
1020   1021   1022   1023
1024   1025   1026   1027
1028   1029   1030   1031
1032   1033   1034   1035
1036   1037   1038   1039
1040   1041   1042   1043
1044   1045   1046   1047
1048   1049   1050   1051
1052   1053   1054   1055
1056   1057   1058   1059
1060   1061   1062   1063
1064   1065   1066   1067
1068   1069   1070   1071
1072   1073   1074   1075
1076   1077   1078   1079
1080   1081   1082   1083
1084   1085   1086   1087
1088   1089   1090   1091
1092   1093   1094   1095
1096   1097   1098   1099
1100   1101   1102   1103
1104   1105   1106   1107
1108   1109   1110   1111
1112   1113   1114   1115
1116   1117   1118   1119
1120   1121   1122   1123
1124   1125   1126   1127
1128   1129   1130   1131
1132   1133   1134   1135
1136   1137   1138   1139
1140   1141   1142   1143
1144   1145   1146   1147
1148   1149   1150   1151
1152   1153   1154   1155
1156   1157   1158   1159
1160   1161   1162   1163
1164   1165   1166   1167
1168   1169   1170   1171
1172   1173   1174   1175
1176   1177   1178   1179
1180   1181   1182   1183
1184   1185   1186   1187
1188   1189   1190   1191
1192   1193   1194   1195
1196   1197   1198   1199
1200   1201   1202   1203
1204   1205   1206   1207
1208   1209   1210   1211
1212   1213   1214   1215
1216   1217   1218   1219
1220   1221   1222   1223
1224   1225   1226   1227
1228   1229   1230   1231
1232   1233   1234   1235
1236   1237   1238   1239
1240   1241   1242   1243
1244   1245   1246   1247
1248   1249   1250   1251
1252   1253   1254   1255
1256   1257   1258   1259
1260   1261   1262   1263
1264   1265   1266   1267
1268   1269   1270   1271
1272   1273   1274   1275
1276   1277   1278   1279
1280   1281   1282   1283
1284   1285   1286   1287
1288   1289   1290   1291
1292   1293   1294   1295
1296   1297   1298   1299
1300   1301   1302   1303
1304   1305   1306   1307
1308   1309   1310   1311
1312   1313   1314   1315
1316   1317   1318   1319
1320   1321   1322   1323
1324   1325   1326   1327
1328   1329   1330   1331
1332   1333   1334   1335
1336   1337   1338   1339
1340   1341   1342   1343
1344   1345   1346   1347
1348   1349   1350   1351
1352   1353   1354   1355
1356   1357   1358   1359
1360   1361   1362   1363
1364   1365   1366   1367
1368   1369   1370   1371
1372   1373   1374   1375
1376   1377   1378   1379
1380   1381   1382   1383
1384   1385   1386   1387
1388   1389   1390   1391
1392   1393   1394   1395
1396   1397   1398   1399
1400   1401   1402   1403
1404   1405   1406   1407
1408   1409   1410   1411
1412   1413   1414   1415
1416   1417   1418   1419
1420   1421   1422   1423
1424   1425   1426   1427
1428   1429   1430   1431
1432   1433   1434   1435
1436   1437   1438   1439
1440   1441   1442   1443
1444   1445   1446   1447
1448   1449   1450   1451
1452   1453   1454   1455
1456   1457   1458   1459
1460   1461   1462   1463
1464   1465   1466   1467
1468   1469   1470   1471
1472   1473   1474   1475
1476   1477   1478   1479
1480   1481   1482   1483
1484   1485   1486   1487
1488   1489   1490   1491
1492   1493   1494   1495
1496   1497   1498   1499
1500   1501   1502   1503
1504   1505   1506   1507
1508   1509   1510   1511
1512   1513   1514   1515
1516   1517   1518   1519
1520   1521   1522   1523
1524   1525   1526   1527
1528   1529   1530   1531
1532   1533   1534   1535
1536   1537   1538   1539
1540   1541   1542   1543
1544   1545   1546   1547
1548   1549   1550   1551
1552   1553   1554   1555
1556   1557   1558   1559
1560   1561   1562   1563
1564   1565   1566   1567
1568   1569   1570   1571
1572   1573   1574   1575
1576   1577   1578   1579
1580   1581   1582   1583
1584   1585   1586   1587
1588   1589   1590   1591
1592   1593   1594   1595
1596   1597   1598   1599
1600   1601   1602   1603
1604   1605   1606   1607
1608   1609   1610   1611
1612   1613   1614   1615
1616   1617   1618   1619
1620   1621   1622   1623
1624   1625   1626   1627
1628   1629   1630   1631
1632   1633   1634   1635
1636   1637   1638   1639
1640   1641   1642   1643
1644   1645   1646   1647
1648   1649   1650   1651
1652   1653   1654   1655
1656   1657   1658   1659
1660   1661   1662   1663
1664   1665   1666   1667
1668   1669   1670   1671
1672   1673   1674   1675
1676   1677   1678   1679
1680   1681   1682   1683
1684   1685   1686   1687
1688   1689   1690   1691
1692   1693   1694   1695
1696   1697   1698   1699
1700   1701   1702   1703
1704   1705   1706   1707
1708   1709   1710   1711
1712   1713   1714   1715
1716   1717   1718   1719
1720   1721   1722   1723
1724   1725   1726   1727
1728   1729   1730   1731
1732   1733   1734   1735
1736   1737   1738   1739
1740   1741   1742   1743
1744   1745   1746   1747
1748   1749   1750   1751
1752   1753   1754   1755
1756   1757   1758   1759
1760   1761   1762   1763
1764   1765   1766   1767
1768   1769   1770   1771
1772   1773   1774   1775
1776   1777   1778   1779
1780   1781   1782   1783
1784   1785   1786   1787
1788   1789   1790   1791
1792   1793   1794   1795
1796   1797   1798   1799
1800   1801   1802   1803
1804   1805   1806   1807
1808   1809   1810   1811
1812   1813   1814   1815
1816   1817   1818   1819
1820   1821   1822   1823
1824   1825   1826   1827
1828   1829   1830   1831
1832   1833   1834   1835
1836   1837   1838   1839
1840   1841   1842   1843
1844   1845   1846   1847
1848   1849   1850   1851
1852   1853   1854   1855
1856   1857   1858   1859
1860   1861   1862   1863
1864   1865   1866   1867
1868   1869   1870   1871
1872   1873   1874   1875
1876   1877   1878   1879
1880   1881   1882   1883
1884   1885   1886   1887
1888   1889   1890   1891
1892   1893   1894   1895
1896   1897   1898   1899
1900   1901   1902   1903
1904   1905   1906   1907
1908   1909   1910   1911
1912   1913   1914   1915
1916   1917   1918   1919
1920   1921   1922   1923
1924   1925   1926   1927
1928   1929   1930   1931
1932   1933   1934   1935
1936   1937   1938   1939
1940   1941   1942   1943
1944   1945   1946   1947
1948   1949   1950   1951
1952   1953   1954   1955
1956   1957   1958   1959
1960   1961   1962   1963
1964   1965   1966   1967
1968   1969   1970   1971
1972   1973   1974   1975
1976   1977   1978   1979
1980   1981   1982   1983
1984   1985   1986   1987
1988   1989   1990   1991
1992   1993   1994   1995
1996   1997   1998   1999
2000   2001   2002   2003
2004   2005   2006   2007
2008   2009   2010   2011
2012   2013   2014   2015
2016   2017   2018   2019
2020   2021   2022   2023
2024   2025   2026   2027
2028   2029   2030   2031
2032   2033   2034   2035
2036   2037   2038   2039
2040   2041   2042   2043
2044   2045   2046   2047
2048   2049   2050   2051
2052   2053   2054   2055
2056   2057   2058   2059
2060   2061   2062   2063
2064   2065   2066   2067
2068   2069   2070   2071
2072   2073   2074   2075
2076   2077   2078   2079
2080   2081   2082   2083
2084   2085   2086   2087
2088   2089   2090   2091
2092   2093   2094   2095
2096   2097   2098   2099
2100   2101   2102   2103
2104   2105   2106   2107
2108   2109   2110   2111
2112   2113   2114   2115
2116   2117   2118   2119
2120   2121   2122   2123
2124   2125   2126   2127
2128   2129   2130   2131
2132   2133   2134   2135
2136   2137   2138   2139
2140   2141   2142   2143
2144   2145   2146   2147
2148   2149   2150   2151
2152   2153   2154   2155
2156   2157   2158   2159
2160   2161   2162   2163
2164   2165   2166   2167
2168   2169   2170   2171
2172   2173   2174   2175
2176   2177   2178   2179
2180   2181   2182   2183
2184   2185   2186   2187
2188   2189   2190   2191
2192   2193   2194   2195
2196   2197   2198   2199
2200   2201   2202   2203
2204   2205   2206   2207
2208   2209   2210   2211
2212   2213   2214   2215
2216   2217   2218   2219
2220   2221   2222   2223
2224   2225   2226   2227
2228   2229   2230   2231
2232   2233   2234   2235
2236   2237   2238   2239
2240   2241   2242   2243
2244   2245   2246   2247
2248   2249   2250   2251
2252   2253   2254   2255
2256   2257   2258   2259
2260   2261   2262   2263
2264   2265   2266   2267
2268   2269   2270   2271
2272   2273   2274   2275
2276   2277   2278   2279
2280   2281   2282   2283
2284   2285   2286   2287
2288   2289   2290   2291
2292   2293   2294   2295
2296   2297   2298   2299
2300   2301   2302   2303
2304   2305   2306   2307
2308   2309   2310   2311
2312   2313   2314   2315
2316   2317   2318   2319
2320   2321   2322   2323
2324   2325   2326   2327
2328   2329   2330   2331
2332   2333   2334   2335
2336   2337   2338   2339
2340   2341   2342   2343
2344   2345   2346   2347
2348   2349   2350   2351
2352   2353   2354   2355
2356   2357   2358   2359
2360   2361   2362   2363
2364   2365   2366   2367
2368   2369   2370   2371
2372   2373   2374   2375
2376   2377   2378   2379
2380   2381   2382   2383
2384   2385   2386   2387
2388   2389   2390   2391
2392   2393   2394   2395
2396   2397   2398   2399
2400   2401   2402   2403
2404   2405   2406   2407
2408   2409   2410   2411
2412   2413   2414   2415
2416   2417   2418   2419
2420   2421   2422   2423
2424   2425   2426   2427
2428   2429   2430   2431
2432   2433   2434   2435
2436   2437   2438   2439
2440   2441   2442   2443
2444   2445   2446   2447
2448   2449   2450   2451
2452   2453   2454   2455
2456   2457   2458   2459
2460   2461   2462   2463
2464   2465   2466   2467
2468   2469   2470   2471
2472   2473   2474   2475
2476   2477   2478   2479
2480   2481   2482   2483
2484   2485   2486   2487
2488   2489   2490   2491
2492   2493   2494   2495
2496   2497   2498   2499
2500   2501   2502   2503
2504   2505   2506   2507
2508   2509   2510   2511
2512   2513   2514   2515
2516   2517   2518   2519
2520   2521   2522   2523
2524   2525   2526   2527
2528   2529   2530   2531
2532   2533   2534   2535
2536   2537   2538   2539
2540   2541   2542   2543
2544   2545   2546   2547
2548   2549   2550   2551
2552   2553   2554   2555
2556   2557   2558   2559
2560   2561   2562   2563
2564   2565   2566   2567
2568   2569   2570   2571
2572   2573   2574   2575
2576   2577   2578   2579
2580   2581   2582   2583
2584   2585   2586   2587
2588   2589   2590   2591
2592   2593   2594   2595
2596   2597   2598   2599
2600   2601   2602   2603
2604   2605   2606   2607
2608   2609   2610   2611
2612   2613   2614   2615
2616   2617   2618   2619
2620   2621   2622   2623
2624   2625   2626   2627
2628   2629   2630   2631
2632   2633   2634   2635
2636   2637   2638   2639
2640   2641   2642   2643
2644   2645   2646   2647
2648   2649   2650   2651
2652   2653   2654   2655
2656   2657   2658   2659
2660   2661   2662   2663
2664   2665   2666   2667
2668   2669   2670   2671
2672   2673   2674   2675
2676   2677   2678   2679
2680   2681   2682   2683
2684   2685   2686   2687
2688   2689   2690   2691
2692   2693   2694   2695
2696   2697   2698   2699
2700   2701   2702   2703
2704   2705   2706   2707
2708   2709   2710   2711
2712   2713   2714   2715
2716   2717   2718   2719
2720   2721   2722   2723
2724   2725   2726   2727
2728   2729   2730   2731
2732   2733   2734   2735
2736   2737   2738   2739
2740   2741   2742   2743
2744   2745   2746   2747
2748   2749   2750   2751
2752   2753   2754   2755
2756   2757   2758   2759
2760   2761   2762   2763
2764   2765   2766   2767
2768   2769   2770   2771
2772   2773   2774   2775
2776   2777   2778   2779
2780   2781   2782   2783
2784   2785   2786   2787
2788   2789   2790   2791
2792   2793   2794   2795
2796   2797   2798   2799
2800   2801   2802   2803
2804   2805   2806   2807
2808   2809   2810   2811
2812   2813   2814   2815
2816   2817   2818   2819
2820   2821   2822   2823
2824   2825   2826   2827
2828   2829   2830   2831
2832   2833   2834   2835
2836   2837   2838   2839
2840   2841   2842   2843
2844   2845   2846   2847
2848   2849   2850   2851
2852   2853   2854   2855
2856   2857   2858   2859
2860   2861   2862   2863
2864   2865   2866   2867
2868   2869   2870   2871
2872   2873   2874   2875
2876   2877   2878   2879
2880   2881   2882   2883
2884   2885   2886   2887
2888   2889   2890   2891
2892   2893   2894   2895
2896   2897   2898   2899
2900   2901   2902   2903
2904   2905   2906   2907
2908   2909   2910   2911
2912   2913   2914   2915
2916   2917   2918   2919
2920   2921   2922   2923
2924   2925   2926   2927
2928   2929   2930   2931
2932   2933   2934   2935
2936   2937   2938   2939
2940   2941   2942   2943
2944   2945   2946   2947
2948   2949   2950   2951
2952   2953   2954   2955
2956   2957   2958   2959
2960   2961   2962   2963
2964   2965   2966   2967
2968   2969   2970   2971
2972   2973   2974   2975
2976   2977   2978   2979
2980   2981   2982   2983
2984   2985   2986   2987
2988   2989   2990   2991
2992   2993   2994   2995
2996   2997   2998   2999
3000   3001   3002   3003
3004   3005   3006   3007
3008   3009   3010   3011
3012   3013   3014   3015
3016   3017   3018   3019
3020   3021   3022   3023
3024   3025   3026   3027
3028   3029   3030   3031
3032   3033   3034   3035
3036   3037   3038   3039
3040   3041   3042   3043
3044   3045   3046   3047
3048   3049   3050   3051
3052   3053   3054   3055
3056   3057   3058   3059
3060   3061   3062   3063
3064   3065   3066   3067
3068   3069   3070   3071
3072   3073   3074   3075
3076   3077   3078   3079
3080   3081   3082   3083
3084   3085   3086   3087
3088   3089   3090   3091
3092   3093   3094   3095
3096   3097   3098   3099
3100   3101   3102   3103
3104   3105   3106   3107
3108   3109   3110   3111
3112   3113   3114   3115
3116   3117   3118   3119
3120   3121   3122   3123
3124   3125   3126   3127
3128   3129   3130   3131
3132   3133   3134   3135
3136   3137   3138   3139
3140   3141   3142   3143
3144   3145   3146   3147
3148   3149   3150   3151
3152   3153   3154   3155
3156   3157   3158   3159
3160   3161   3162   3163
3164   3165   3166   3167
3168   3169   3170   3171
3172   3173   3174   3175
3176   3177   3178   3179
3180   3181   3182   3183
3184   3185   3186   3187
3188   3189   3190   3191
3192   3193   3194   3195
3196   3197   3198   3199
3200   3201   3202   3203
3204   3205   3206   3207
3208   3209   3210   3211
3212   3213   3214   3215
3216   3217   3218   3219
3220   3221   3222   3223
3224   3225   3226   3227
3228   3229   3230   3231
3232   3233   3234   3235
3236   3237   3238   3239
3240   3241   3242   3243
3244   3245   3246   3247
3248   3249   3250   3251
3252   3253   3254   3255
3256   3257   3258   3259
3260   3261   3262   3263
3264   3265   3266   3267
3268   3269   3270   3271
3272   3273   3274   3275
3276   3277   3278   3279
3280   3281   3282   3283
3284   3285   3286   3287
3288   3289   3290   3291
3292   3293   3294   3295
3296   3297   3298   3299
3300   3301   3302   3303
3304   3305   3306   3307
3308   3309   3310   3311
3312   3313   3314   3315
3316   3317   3318   3319
3320   3321   3322   3323
3324   3325   3326   3327
3328   3329   3330   3331
3332   3333   3334   3335
3336   3337   3338   3339
3340   3341   3342   3343
3344   3345   3346   3347
3348   3349   3350   3351
3352   3353   3354   3355
3356   3357   3358   3359
3360   3361   3362   3363
3364   3365   3366   3367
3368   3369   3370   3371
3372   3373   3374   3375
3376   3377   3378   3379
3380   3381   3382   3383
3384   3385   3386   3387
3388   3389   3390   3391
3392   3393   3394   3395
3396   3397   3398   3399
3400   3401   3402   3403
3404   3405   3406   3407
3408   3409   3410   3411
3412   3413   3414   3415
3416   3417   3418   3419
3420   3421   3422   3423
3424   3425   3426   3427
3428   3429   3430   3431
3432   3433   3434   3435
3436   3437   3438   3439
3440   3441   3442   3443
3444   3445   3446   3447
3448   3449   3450   3451
3452   3453   3454   3455
3456   3457   3458   3459
3460   3461   3462   3463
3464   3465   3466   3467
3468   3469   3470   3471
3472   3473   3474   3475
3476   3477   3478   3479
3480   3481   3482   3483
3484   3485   3486   3487
3488   3489   3490   3491
3492   3493   3494   3495
3496   3497   3498   3499
3500   3501   3502   3503
3504   3505   3506   3507
3508   3509   3510   3511
3512   3513   3514   3515
3516   3517   3518   3519
3520   3521   3522   3523
3524   3525   3526   3527
3528   3529   3530   3531
3532   3533   3534   3535
3536   3537   3538   3539
3540   3541   3542   3543
3544   3545   3546   3547
3548   3549   3550   3551
3552   3553   3554   3555
3556   3557   3558   3559
3560   3561   3562   3563
3564   3565   3566   3567
3568   3569   3570   3571
3572   3573   3574   3575
3576   3577   3578   3579
3580   3581   3582   3583
3584   3585   3586   3587
3588   3589   3590   3591
3592   3593   3594   3595
3596   3597   3598   3599
3600   3601   3602   3603
3604   3605   3606   3607
3608   3609   3610   3611
3612   3613   3614   3615
3616   3617   3618   3619
3620   3621   3622   3623
3624   3625   3626   3627
3628   3629   3630   3631
3632   3633   3634   3635
3636   3637   3638   3639
3640   3641   3642   3643
3644   3645   3646   3647
3648   3649   3650   3651
3652   3653   3654   3655
3656   3657   3658   3659
3660   3661   3662   3663
3664   3665   3666   3667
3668   3669   3670   3671
3672   3673   3674   3675
3676   3677   3678   3679
3680   3681   3682   3683
3684   3685   3686   3687
3688   3689   3690   3691
3692   3693   3694   3695
3696   3697   3698   3699
3700   3701   3702   3703
3704   3705   3706   3707
3708   3709   3710   3711
3712   3713   3714   3715
3716   3717   3718   3719
3720   3721   3722   3723
3724   3725   3726   3727
3728   3729   3730   3731
3732   3733   3734   3735
3736   3737   3738   3739
3740   3741   3742   3743
3744   3745   3746   3747
3748   3749   3750   3751
3752   3753   3754   3755
3756   3757   3758   3759
3760   3761   3762   3763
3764   3765   3766   3767
3768   3769   3770   3771
3772   3773   3774   3775
3776   3777   3778   3779
3780   3781   3782   3783
3784   3785   3786   3787
3788   3789   3790   3791
3792   3793   3794   3795
3796   3797   3798   3799
3800   3801   3802   3803
3804   3805   3806   3807
3808   3809   3810   3811
3812   3813   3814   3815
3816   3817   3818   3819
3820   3821   3822   3823
3824   3825   3826   3827
3828   3829   3830   3831
3832   3833   3834   3835
3836   3837   3838   3839
3840   3841   3842   3843
3844   3845   3846   3847
3848   3849   3850   3851
3852   3853   3854   3855
3856   3857   3858   3859
3860   3861   3862   3863
3864   3865   3866   3867
3868   3869   3870   3871
3872   3873   3874   3875
3876   3877   3878   3879
3880   3881   3882   3883
3884   3885   3886   3887
3888   3889   3890   3891
3892   3893   3894   3895
3896   3897   3898   3899
3900   3901   3902   3903
3904   3905   3906   3907
3908   3909   3910   3911
3912   3913   3914   3915
3916   3917   3918   3919
3920   3921   3922   3923
3924   3925   3926   3927
3928   3929   3930   3931
3932   3933   3934   3935
3936   3937   3938   3939
3940   3941   3942   3943
3944   3945   3946   3947
3948   3949   3950   3951
3952   3953   3954   3955
3956   3957   3958   3959
3960   3961   3962   3963
3964   3965   3966   3967
3968   3969   3970   3971
3972   3973   3974   3975
3976   3977   3978   3979
3980   3981   3982   3983
3984   3985   3986   3987
3988   3989   3990   3991
3992   3993   3994   3995
3996   3997   3998   3999
4000   4001   4002   4003
4004   4005   4006   4007
4008   4009   4010   4011
4012   4013   4014   4015
4016   4017   4018   4019
4020   4021   4022   4023
4024   4025   4026   4027
4028   4029   4030   4031
4032   4033   4034   4035
4036   4037   4038   4039
4040   4041   4042   4043
4044   4045   4046   4047
4048   4049   4050   4051
4052   4053   4054   4055
4056   4057   4058   4059
4060   4061   4062   4063
4064   4065   4066   4067
4068   4069   4070   4071
4072   4073   4074   4075
4076   4077   4078   4079
4080   4081   4082   4083
4084   4085   4086   4087
4088   4089   4090   4091
4092   4093   4094   4095
4096   4097   4098   4099
4100   4101   4102   4103
4104   4105   4106   4107
4108   4109   4110   4111
4112   4113   4114   4115
4116   4117   4118   4119
4120   4121   4122   4123
4124   4125   4126   4127
4128   4129   4130   4131
4132   4133   4134   4135
4136   4137   4138   4139
4140   4141   4142   4143
4144   4145   4146   4147
4148   4149   4150   4151
4152   4153   4154   4155
4156   4157   4158   4159
4160   4161   4162   4163
4164   4165   4166   4167
4168   4169   4170   4171
4172   4173   4174   4175
4176   4177   4178   4179
4180   4181   4182   4183
4184   4185   4186   4187
4188   4189   4190   4191
4192   4193   4194   4195
4196   4197   4198   4199
4200   4201   4202   4203
4204   4205   4206   4207
4208   4209   4210   4211
4212   4213   4214   4215
4216   4217   4218   4219
4220   4221   4222   4223
4224   4225   4226   4227
4228   4229   4230   4231
4232   4233   4234   4235
4236   4237   4238   4239
4240   4241   4242   4243
4244   4245   4246   4247
4248   4249   4250   4251
4252   4253   4254   4255
4256   4257   4258   4259
4260   4261   4262   4263
4264   4265   4266   4267
4268   4269   4270   4271
4272   4273   4274   4275
4276   4277   4278   4279
4280   4281   4282   4283
4284   4285   4286   4287
4288   4289   4290   4291
4292   4293   4294   4295
4296   4297   4298   4299
4300   4301   4302   4303
4304   4305   4306   4307
4308   4309   4310   4311
4312   4313   4314   4315
4316   4317   4318   4319
4320   4321   4322   4323
4324   4325   4326   4327
4328   4329   4330   4331
4332   4333   4334   4335
4336   4337   4338   4339
4340   4341   4342   4343
4344   4345   4346   4347
4348   4349   4350   4351
4352   4353   4354   4355
4356   4357   4358   4359
4360   4361   4362   4363
4364   4365   4366   4367
4368   4369   4370   4371
4372   4373   4374   4375
4376   4377   4378   4379
4380   4381   4382   4383
4384   4385   4386   4387
4388   4389   4390   4391
4392   4393   4394   4395
4396   4397   4398   4399
4400   4401   4402   4403
4404   4405   4406   4407
4408   4409   4410   4411
4412   4413   4414   4415
4416   4417   4418   4419
4420   4421   4422   4423
4424   4425   4426   4427
4428   4429   4430   4431
4432   4433   4434   4435
4436   4437   4438   4439
4440   4441   4442   4443
4444   4445   4446   4447
4448   4449   4450   4451
4452   4453   4454   4455
4456   4457   4458   4459
4460   4461   4462   4463
4464   4465   4466   4467
4468   4469   4470   4471
4472   4473   4474   4475
4476   4477   4478   4479
4480   4481   4482   4483
4484   4485   4486   4487
4488   4489   4490   4491
4492   4493   4494   4495
4496   4497   4498   4499
4500   4501   4502   4503
4504   4505   4506   4507
4508   4509   4510   4511
4512   4513   4514   4515
4516   4517   4518   4519
4520   4521   4522   4523
4524   4525   4526   4527
4528   4529   4530   4531
4532   4533   4534   4535
4536   4537   4538   4539
4540   4541   4542   4543
4544   4545   4546   4547
4548   4549   4550   4551
4552   4553   4554   4555
4556   4557   4558   4559
4560   4561   4562   4563
4564   4565   4566   4567
4568   4569   4570   4571
4572   4573   4574   4575
4576   4577   4578   4579
4580   4581   4582   4583
4584   4585   4586   4587
4588   4589   4590   4591
4592   4593   4594   4595
4596   4597   4598   4599
4600   4601   4602   4603
4604   4605   4606   4607
4608   4609   4610   4611
4612   4613   4614   4615
4616   4617   4618   4619
4620   4621   4622   4623
4624   4625   4626   4627
4628   4629   4630   4631
4632   4633   4634   4635
4636   4637   4638   4639
4640   4641   4642   4643
4644   4645   4646   4647
4648   4649   4650   4651
4652   4653   4654   4655
4656   4657   4658   4659
4660   4661   4662   4663
4664   4665   4666   4667
4668   4669   4670   4671
4672   4673   4674   4675
4676   4677   4678   4679
4680   4681   4682   4683
4684   4685   4686   4687
4688   4689   4690   4691
4692   4693   4694   4695
4696   4697   4698   4699
4700   4701   4702   4703
4704   4705   4706   4707
4708   4709   4710   4711
4712   4713   4714   4715
4716   4717   4718   4719
4720   4721   4722   4723
4724   4725   4726   4727
4728   4729   4730   4731
4732   4733   4734   4735
4736   4737   4738   4739
4740   4741   4742   4743
4744   4745   4746   4747
4748   4749   4750   4751
4752   4753   4754   4755
4756   4757   4758   4759
4760   4761   4762   4763
4764   4765   4766   4767
4768   4769   4770   4771
4772   4773   4774   4775
4776   4777   4778   4779
4780   4781   4782   4783
4784   4785   4786   4787
4788   4789   4790   4791
4792   4793   4794   4795
4796   4797   4798   4799
4800   4801   4802   4803
4804   4805   4806   4807
4808   4809   4810   4811
4812   4813   4814   4815
4816   4817   4818   4819
4820   4821   4822   4823
4824   4825   4826   4827
4828   4829   4830   4831
4832   4833   4834   4835
4836   4837   4838   4839
4840   4841   4842   4843
4844   4845   4846   4847
4848   4849   4850   4851
4852   4853   4854   4855
4856   4857   4858   4859
4860   4861   4862   4863
4864   4865   4866   4867
4868   4869   4870   4871
4872   4873   4874   4875
4876   4877   4878   4879
4880   4881   4882   4883
4884   4885   4886   4887
4888   4889   4890   4891
4892   4893   4894   4895
4896   4897   4898   4899
4900   4901   4902   4903
4904   4905   4906   4907
4908   4909   4910   4911
4912   4913   4914   4915
4916   4917   4918   4919
4920   4921   4922   4923
4924   4925   4926   4927
4928   4929   4930   4931
4932   4933   4934   4935
4936   4937   4938   4939
4940   4941   4942   4943
4944   4945   4946   4947
4948   4949   4950   4951
4952   4953   4954   4955
4956   4957   4958   4959
4960   4961   4962   4963
4964   4965   4966   4967
4968   4969   4970   4971
4972   4973   4974   4975
4976   4977   4978   4979
4980   4981   4982   4983
4984   4985   4986   4987
4988   4989   4990   4991
4992   4993   4994   4995
4996   4997   4998   4999
5000   5001   5002   5003
5004   5005   5006   5007
5008   5009   5010   5011
5012   5013   5014   5015
5016   5017   5018   5019
5020   5021   5022   5023
5024   5025   5026   5027
5028   5029   5030   5031
5032   5033   5034   5035
5036   5037   5038   5039
5040   5041   5042   5043
5044   5045   5046   5047
5048   5049   5050   5051
5052   5053   5054   5055
5056   5057   5058   5059
5060   5061   5062   5063
5064   5065   5066   5067
5068   5069   5070   5071
5072   5073   5074   5075
5076   5077   5078   5079
5080   5081   5082   5083
5084   5085   5086   5087
5088   5089   5090   5091
5092   5093   5094   5095
5096   5097   5098   5099
5100   5101   5102   5103
5104   5105   5106   5107
5108   5109   5110   5111
5112   5113   5114   5115
5116   5117   5118   5119
5120   5121   5122   5123
5124   5125   5126   5127
5128   5129   5130   5131
5132   5133   5134   5135
5136   5137   5138   5139
5140   5141   5142   5143
5144   5145   5146   5147
5148   5149   5150   5151
5152   5153   5154   5155
5156   5157   5158   5159
5160   5161   5162   5163
5164   5165   5166   5167
5168   5169   5170   5171
5172   5173   5174   5175
5176   5177   5178   5179
5180   5181   5182   5183
5184   5185   5186   5187
5188   5189   5190   5191
5192   5193   5194   5195
5196   5197   5198   5199
5200   5201   5202   5203
5204   5205   5206   5207
5208   5209   5210   5211
5212   5213   5214   5215
5216   5217   5218   5219
5220   5221   5222   5223
5224   5225   5226   5227
5228   5229   5230   5231
5232   5233   5234   5235
5236   5237   5238   5239
5240   5241   5242   5243
5244   5245   5246   5247
5248   5249   5250   5251
5252   5253   5254   5255
5256   5257   5258   5259
5260   5261   5262   5263
5264   5265   5266   5267
5268   5269   5270   5271
5272   5273   5274   5275
5276   5277   5278   5279
5280   5281   5282   5283
5284   5285   5286   5287
5288   5289   5290   5291
5292   5293   5294   5295
5296   5297   5298   5299
5300   5301   5302   5303
5304   5305   5306   5307
5308   5309   5310   5311
5312   5313   5314   5315
5316   5317   5318   5319
5320   5321   5322   5323
5324   5325   5326   5327
5328   5329   5330   5331
5332   5333   5334   5335
5336   5337   5338   5339
5340   5341   5342   5343
5344   5345   5346   5347
5348   5349   5350   5351
5352   5353   5354   5355
5356   5357   5358   5359
5360   5361   5362   5363
5364   5365   5366   5367
5368   5369   5370   5371
5372   5373   5374   5375
5376   5377   5378   5379
5380   5381   5382   5383
5384   5385   5386   5387
5388   5389   5390   5391
5392   5393   5394   5395
5396   5397   5398   5399
5400   5401   5402   5403
5404   5405   5406   5407
5408   5409   5410   5411
5412   5413   5414   5415
5416   5417   5418   5419
5420   5421   5422   5423
5424   5425   5426   5427
5428   5429   5430   5431
5432   5433   5434   5435
5436   5437   5438   5439
5440   5441   5442   5443
5444   5445   5446   5447
5448   5449   5450   5451
5452   5453   5454   5455
5456   5457   5458   5459
5460   5461   5462   5463
5464   5465   5466   5467
5468   5469   5470   5471
5472   5473   5474   5475
5476   5477   5478   5479
5480   5481   5482   5483
5484   5485   5486   5487
5488   5489   5490   5491
5492   5493   5494   5495
5496   5497   5498   5499
5500   5501   5502   5503
5504   5505   5506   5507
5508   5509   5510   5511
5512   5513   5514   5515
5516   5517   5518   5519
5520   5521   5522   5523
5524   5525   5526   5527
5528   5529   5530   5531
5532   5533   5534   5535
5536   5537   5538   5539
5540   5541   5542   5543
5544   5545   5546   5547
5548   5549   5550   5551
5552   5553   5554   5555
5556   5557   5558   5559
5560   5561   5562   5563
5564   5565   5566   5567
5568   5569   5570   5571
5572   5573   5574   5575
5576   5577   5578   5579
5580   5581   5582   5583
5584   5585   5586   5587
5588   5589   5590   5591
5592   5593   5594   5595
5596   5597   5598   5599
5600   5601   5602   5603
5604   5605   5606   5607
5608   5609   5610   5611
5612   5613   5614   5615
5616   5617   5618   5619
5620   5621   5622   5623
5624   5625   5626   5627
5628   5629   5630   5631
5632   5633   5634   5635
5636   5637   5638   5639
5640   5641   5642   5643
5644   5645   5646   5647
5648   5649   5650   5651
5652   5653   5654   5655
5656   5657   5658   5659
5660   5661   5662   5663
5664   5665   5666   5667
5668   5669   5670   5671
5672   5673   5674   5675
5676   5677   5678   5679
5680   5681   5682   5683
5684   5685   5686   5687
5688   5689   5690   5691
5692   5693   5694   5695
5696   5697   5698   5699
5700   5701   5702   5703
5704   5705   5706   5707
5708   5709   5710   5711
5712   5713   5714   5715
5716   5717   5718   5719
5720   5721   5722   5723
5724   5725   5726   5727
5728   5729   5730   5731
5732   5733   5734   5735
5736   5737   5738   5739
5740   5741   5742   5743
5744   5745   5746   5747
5748   5749   5750   5751
5752   5753   5754   5755
5756   5757   5758   5759
5760   5761   5762   5763
5764   5765   5766   5767
5768   5769   5770   5771
5772   5773   5774   5775
5776   5777   5778   5779
5780   5781   5782   5783
5784   5785   5786   5787
5788   5789   5790   5791
5792   5793   5794   5795
5796   5797   5798   5799
5800   5801   5802   5803
5804   5805   5806   5807
5808   5809   5810   5811
5812   5813   5814   5815
5816   5817   5818   5819
5820   5821   5822   5823
5824   5825   5826   5827
5828   5829   5830   5831
5832   5833   5834   5835
5836   5837   5838   5839
5840   5841   5842   5843
5844   5845   5846   5847
5848   5849   5850   5851
5852   5853   5854   5855
5856   5857   5858   5859
5860   5861   5862   5863
5864   5865   5866   5867
5868   5869   5870   5871
5872   5873   5874   5875
5876   5877   5878   5879
5880   5881   5882   5883
5884   5885   5886   5887
5888   5889   5890   5891
5892   5893   5894   5895
5896   5897   5898   5899
5900   5901   5902   5903
5904   5905   5906   5907
5908   5909   5910   5911
5912   5913   5914   5915
5916   5917   5918   5919
5920   5921   5922   5923
5924   5925   5926   5927
5928   5929   5930   5931
5932   5933   5934   5935
5936   5937   5938   5939
5940   5941   5942   5943
5944   5945   5946   5947
5948   5949   5950   5951
5952   5953   5954   5955
5956   5957   5958   5959
5960   5961   5962   5963
5964   5965   5966   5967
5968   5969   5970   5971
5972   5973   5974   5975
5976   5977   5978   5979
5980   5981   5982   5983
5984   5985   5986   5987
5988   5989   5990   5991
5992   5993   5994   5995
5996   5997   5998   5999
              </DataArray>   
              <DataArray type="Int32" Name="offsets" format="ascii">   
4
8
12
16
20
24
28
32
36
40
44
48
52
56
60
64
68
72
76
80
84
88
92
96
100
104
108
112
116
120
124
128
132
136
140
144
148
152
156
160
164
168
172
176
180
184
188
192
196
200
204
208
212
216
220
224
228
232
236
240
244
248
252
256
260
264
268
272
276
280
284
288
292
296
300
304
308
312
316
320
324
328
332
336
340
344
348
352
356
360
364
368
372
376
380
384
388
392
396
400
404
408
412
416
420
424
428
432
436
440
444
448
452
456
460
464
468
472
476
480
484
488
492
496
500
504
508
512
516
520
524
528
532
536
540
544
548
552
556
560
564
568
572
576
580
584
588
592
596
600
604
608
612
616
620
624
628
632
636
640
644
648
652
656
660
664
668
672
676
680
684
688
692
696
700
704
708
712
716
720
724
728
732
736
740
744
748
752
756
760
764
768
772
776
780
784
788
792
796
800
804
808
812
816
820
824
828
832
836
840
844
848
852
856
860
864
868
872
876
880
884
888
892
896
900
904
908
912
916
920
924
928
932
936
940
944
948
952
956
960
964
968
972
976
980
984
988
992
996
1000
1004
1008
1012
1016
1020
1024
1028
1032
1036
1040
1044
1048
1052
1056
1060
1064
1068
1072
1076
1080
1084
1088
1092
1096
1100
1104
1108
1112
1116
1120
1124
1128
1132
1136
1140
1144
1148
1152
1156
1160
1164
1168
1172
1176
1180
1184
1188
1192
1196
1200
1204
1208
1212
1216
1220
1224
1228
1232
1236
1240
1244
1248
1252
1256
1260
1264
1268
1272
1276
1280
1284
1288
1292
1296
1300
1304
1308
1312
1316
1320
1324
1328
1332
1336
1340
1344
1348
1352
1356
1360
1364
1368
1372
1376
1380
1384
1388
1392
1396
1400
1404
1408
1412
1416
1420
1424
1428
1432
1436
1440
1444
1448
1452
1456
1460
1464
1468
1472
1476
1480
1484
1488
1492
1496
1500
1504
1508
1512
1516
1520
1524
1528
1532
1536
1540
1544
1548
1552
1556
1560
1564
1568
1572
1576
1580
1584
1588
1592
1596
1600
1604
1608
1612
1616
1620
1624
1628
1632
1636
1640
1644
1648
1652
1656
1660
1664
1668
1672
1676
1680
1684
1688
1692
1696
1700
1704
1708
1712
1716
1720
1724
1728
1732
1736
1740
1744
1748
1752
1756
1760
1764
1768
1772
1776
1780
1784
1788
1792
1796
1800
1804
1808
1812
1816
1820
1824
1828
1832
1836
1840
1844
1848
1852
1856
1860
1864
1868
1872
1876
1880
1884
1888
1892
1896
1900
1904
1908
1912
1916
1920
1924
1928
1932
1936
1940
1944
1948
1952
1956
1960
1964
1968
1972
1976
1980
1984
1988
1992
1996
2000
2004
2008
2012
2016
2020
2024
2028
2032
2036
2040
2044
2048
2052
2056
2060
2064
2068
2072
2076
2080
2084
2088
2092
2096
2100
2104
2108
2112
2116
2120
2124
2128
2132
2136
2140
2144
2148
2152
2156
2160
2164
2168
2172
2176
2180
2184
2188
2192
2196
2200
2204
2208
2212
2216
2220
2224
2228
2232
2236
2240
2244
2248
2252
2256
2260
2264
2268
2272
2276
2280
2284
2288
2292
2296
2300
2304
2308
2312
2316
2320
2324
2328
2332
2336
2340
2344
2348
2352
2356
2360
2364
2368
2372
2376
2380
2384
2388
2392
2396
2400
2404
2408
2412
2416
2420
2424
2428
2432
2436
2440
2444
2448
2452
2456
2460
2464
2468
2472
2476
2480
2484
2488
2492
2496
2500
2504
2508
2512
2516
2520
2524
2528
2532
2536
2540
2544
2548
2552
2556
2560
2564
2568
2572
2576
2580
2584
2588
2592
2596
2600
2604
2608
2612
2616
2620
2624
2628
2632
2636
2640
2644
2648
2652
2656
2660
2664
2668
2672
2676
2680
2684
2688
2692
2696
2700
2704
2708
2712
2716
2720
2724
2728
2732
2736
2740
2744
2748
2752
2756
2760
2764
2768
2772
2776
2780
2784
2788
2792
2796
2800
2804
2808
2812
2816
2820
2824
2828
2832
2836
2840
2844
2848
2852
2856
2860
2864
2868
2872
2876
2880
2884
2888
2892
2896
2900
2904
2908
2912
2916
2920
2924
2928
2932
2936
2940
2944
2948
2952
2956
2960
2964
2968
2972
2976
2980
2984
2988
2992
2996
3000
3004
3008
3012
3016
3020
3024
3028
3032
3036
3040
3044
3048
3052
3056
3060
3064
3068
3072
3076
3080
3084
3088
3092
3096
3100
3104
3108
3112
3116
3120
3124
3128
3132
3136
3140
3144
3148
3152
3156
3160
3164
3168
3172
3176
3180
3184
3188
3192
3196
3200
3204
3208
3212
3216
3220
3224
3228
3232
3236
3240
3244
3248
3252
3256
3260
3264
3268
3272
3276
3280
3284
3288
3292
3296
3300
3304
3308
3312
3316
3320
3324
3328
3332
3336
3340
3344
3348
3352
3356
3360
3364
3368
3372
3376
3380
3384
3388
3392
3396
3400
3404
3408
3412
3416
3420
3424
3428
3432
3436
3440
3444
3448
3452
3456
3460
3464
3468
3472
3476
3480
3484
3488
3492
3496
3500
3504
3508
3512
3516
3520
3524
3528
3532
3536
3540
3544
3548
3552
3556
3560
3564
3568
3572
3576
3580
3584
3588
3592
3596
3600
3604
3608
3612
3616
3620
3624
3628
3632
3636
3640
3644
3648
3652
3656
3660
3664
3668
3672
3676
3680
3684
3688
3692
3696
3700
3704
3708
3712
3716
3720
3724
3728
3732
3736
3740
3744
3748
3752
3756
3760
3764
3768
3772
3776
3780
3784
3788
3792
3796
3800
3804
3808
3812
3816
3820
3824
3828
3832
3836
3840
3844
3848
3852
3856
3860
3864
3868
3872
3876
3880
3884
3888
3892
3896
3900
3904
3908
3912
3916
3920
3924
3928
3932
3936
3940
3944
3948
3952
3956
3960
3964
3968
3972
3976
3980
3984
3988
3992
3996
4000
4004
4008
4012
4016
4020
4024
4028
4032
4036
4040
4044
4048
4052
4056
4060
4064
4068
4072
4076
4080
4084
4088
4092
4096
4100
4104
4108
4112
4116
4120
4124
4128
4132
4136
4140
4144
4148
4152
4156
4160
4164
4168
4172
4176
4180
4184
4188
4192
4196
4200
4204
4208
4212
4216
4220
4224
4228
4232
4236
4240
4244
4248
4252
4256
4260
4264
4268
4272
4276
4280
4284
4288
4292
4296
4300
4304
4308
4312
4316
4320
4324
4328
4332
4336
4340
4344
4348
4352
4356
4360
4364
4368
4372
4376
4380
4384
4388
4392
4396
4400
4404
4408
4412
4416
4420
4424
4428
4432
4436
4440
4444
4448
4452
4456
4460
4464
4468
4472
4476
4480
4484
4488
4492
4496
4500
4504
4508
4512
4516
4520
4524
4528
4532
4536
4540
4544
4548
4552
4556
4560
4564
4568
4572
4576
4580
4584
4588
4592
4596
4600
4604
4608
4612
4616
4620
4624
4628
4632
4636
4640
4644
4648
4652
4656
4660
4664
4668
4672
4676
4680
4684
4688
4692
4696
4700
4704
4708
4712
4716
4720
4724
4728
4732
4736
4740
4744
4748
4752
4756
4760
4764
4768
4772
4776
4780
4784
4788
4792
4796
4800
4804
4808
4812
4816
4820
4824
4828
4832
4836
4840
4844
4848
4852
4856
4860
4864
4868
4872
4876
4880
4884
4888
4892
4896
4900
4904
4908
4912
4916
4920
4924
4928
4932
4936
4940
4944
4948
4952
4956
4960
4964
4968
4972
4976
4980
4984
4988
4992
4996
5000
5004
5008
5012
5016
5020
5024
5028
5032
5036
5040
5044
5048
5052
5056
5060
5064
5068
5072
5076
5080
5084
5088
5092
5096
5100
5104
5108
5112
5116
5120
5124
5128
5132
5136
5140
5144
5148
5152
5156
5160
5164
5168
5172
5176
5180
5184
5188
5192
5196
5200
5204
5208
5212
5216
5220
5224
5228
5232
5236
5240
5244
5248
5252
5256
5260
5264
5268
5272
5276
5280
5284
5288
5292
5296
5300
5304
5308
5312
5316
5320
5324
5328
5332
5336
5340
5344
5348
5352
5356
5360
5364
5368
5372
5376
5380
5384
5388
5392
5396
5400
5404
5408
5412
5416
5420
5424
5428
5432
5436
5440
5444
5448
5452
5456
5460
5464
5468
5472
5476
5480
5484
5488
5492
5496
5500
5504
5508
5512
5516
5520
5524
5528
5532
5536
5540
5544
5548
5552
5556
5560
5564
5568
5572
5576
5580
5584
5588
5592
5596
5600
5604
5608
5612
5616
5620
5624
5628
5632
5636
5640
5644
5648
5652
5656
5660
5664
5668
5672
5676
5680
5684
5688
5692
5696
5700
5704
5708
5712
5716
5720
5724
5728
5732
5736
5740
5744
5748
5752
5756
5760
5764
5768
5772
5776
5780
5784
5788
5792
5796
5800
5804
5808
5812
5816
5820
5824
5828
5832
5836
5840
5844
5848
5852
5856
5860
5864
5868
5872
5876
5880
5884
5888
5892
5896
5900
5904
5908
5912
5916
5920
5924
5928
5932
5936
5940
5944
5948
5952
5956
5960
5964
5968
5972
5976
5980
5984
5988
5992
5996
6000
              </DataArray>   
              <DataArray type="UInt8" Name="types" format="ascii">   
10
10
10
10
10
10
10
10
10
10
10
10
10
10
10
10
10
10
10
10
10
10
10
10
10
10
10
10
10
10
10
10
10
10
10
10
10
10
10
10
10
10
10
10
10
10
10
10
10
10
10
10
10
10
10
10
10
10
10
10
10
10
10
10
10
10
10
10
10
10
10
10
10
10
10
10
10
10
10
10
10
10
10
10
10
10
10
10
10
10
10
10
10
10
10
10
10
10
10
10
10
10
10
10
10
10
10
10
10
10
10
10
10
10
10
10
10
10
10
10
10
10
10
10
10
10
10
10
10
10
10
10
10
10
10
10
10
10
10
10
10
10
10
10
10
10
10
10
10
10
10
10
10
10
10
10
10
10
10
10
10
10
10
10
10
10
10
10
10
10
10
10
10
10
10
10
10
10
10
10
10
10
10
10
10
10
10
10
10
10
10
10
10
10
10
10
10
10
10
10
10
10
10
10
10
10
10
10
10
10
10
10
10
10
10
10
10
10
10
10
10
10
10
10
10
10
10
10
10
10
10
10
10
10
10
10
10
10
10
10
10
10
10
10
10
10
10
10
10
10
10
10
10
10
10
10
10
10
10
10
10
10
10
10
10
10
10
10
10
10
10
10
10
10
10
10
10
10
10
10
10
10
10
10
10
10
10
10
10
10
10
10
10
10
10
10
10
10
10
10
10
10
10
10
10
10
10
10
10
10
10
10
10
10
10
10
10
10
10
10
10
10
10
10
10
10
10
10
10
10
10
10
10
10
10
10
10
10
10
10
10
10
10
10
10
10
10
10
10
10
10
10
10
10
10
10
10
10
10
10
10
10
10
10
10
10
10
10
10
10
10
10
10
10
10
10
10
10
10
10
10
10
10
10
10
10
10
10
10
10
10
10
10
10
10
10
10
10
10
10
10
10
10
10
10
10
10
10
10
10
10
10
10
10
10
10
10
10
10
10
10
10
10
10
10
10
10
10
10
10
10
10
10
10
10
10
10
10
10
10
10
10
10
10
10
10
10
10
10
10
10
10
10
10
10
10
10
10
10
10
10
10
10
10
10
10
10
10
10
10
10
10
10
10
10
10
10
10
10
10
10
10
10
10
10
10
10
10
10
10
10
10
10
10
10
10
10
10
10
10
10
10
10
10
10
10
10
10
10
10
10
10
10
10
10
10
10
10
10
10
10
10
10
10
10
10
10
10
10
10
10
10
10
10
10
10
10
10
10
10
10
10
10
10
10
10
10
10
10
10
10
10
10
10
10
10
10
10
10
10
10
10
10
10
10
10
10
10
10
10
10
10
10
10
10
10
10
10
10
10
10
10
10
10
10
10
10
10
10
10
10
10
10
10
10
10
10
10
10
10
10
10
10
10
10
10
10
10
10
10
10
10
10
10
10
10
10
10
10
10
10
10
10
10
10
10
10
10
10
10
10
10
10
10
10
10
10
10
10
10
10
10
10
10
10
10
10
10
10
10
10
10
10
10
10
10
10
10
10
10
10
10
10
10
10
10
10
10
10
10
10
10
10
10
10
10
10
10
10
10
10
10
10
10
10
10
10
10
10
10
10
10
10
10
10
10
10
10
10
10
10
10
10
10
10
10
10
10
10
10
10
10
10
10
10
10
10
10
10
10
10
10
10
10
10
10
10
10
10
10
10
10
10
10
10
10
10
10
10
10
10
10
10
10
10
10
10
10
10
10
10
10
10
10
10
10
10
10
10
10
10
10
10
10
10
10
10
10
10
10
10
10
10
10
10
10
10
10
10
10
10
10
10
10
10
10
10
10
10
10
10
10
10
10
10
10
10
10
10
10
10
10
10
10
10
10
10
10
10
10
10
10
10
10
10
10
10
10
10
10
10
10
10
10
10
10
10
10
10
10
10
10
10
10
10
10
10
10
10
10
10
10
10
10
10
10
10
10
10
10
10
10
10
10
10
10
10
10
10
10
10
10
10
10
10
10
10
10
10
10
10
10
10
10
10
10
10
10
10
10
10
10
10
10
10
10
10
10
10
10
10
10
10
10
10
10
10
10
10
10
10
10
10
10
10
10
10
10
10
10
10
10
10
10
10
10
10
10
10
10
10
10
10
10
10
10
10
10
10
10
10
10
10
10
10
10
10
10
10
10
10
10
10
10
10
10
10
10
10
10
10
10
10
10
10
10
10
10
10
10
10
10
10
10
10
10
10
10
10
10
10
10
10
10
10
10
10
10
10
10
10
10
10
10
10
10
10
10
10
10
10
10
10
10
10
10
10
10
10
10
10
10
10
10
10
10
10
10
10
10
10
10
10
10
10
10
10
10
10
10
10
10
10
10
10
10
10
10
10
10
10
10
10
10
10
10
10
10
10
10
10
10
10
10
10
10
10
10
10
10
10
10
10
10
10
10
10
10
10
10
10
10
10
10
10
10
10
10
10
10
10
10
10
10
10
10
10
10
10
10
10
10
10
10
10
10
10
10
10
10
10
10
10
10
10
10
10
10
10
10
10
10
10
10
10
10
10
10
10
10
10
10
10
10
10
10
10
10
10
10
10
10
10
10
10
10
10
10
10
10
10
10
10
10
10
10
10
10
10
10
10
10
10
10
10
10
10
10
10
10
10
10
10
10
10
10
10
10
10
10
10
10
10
10
10
10
10
10
10
10
10
10
10
10
10
10
10
10
10
10
10
10
10
10
10
10
10
10
10
10
10
10
10
10
10
10
10
10
10
10
10
10
10
10
10
10
10
10
10
10
10
10
10
10
10
10
10
10
10
10
10
10
10
10
10
10
10
10
10
10
10
10
10
10
10
10
10
10
10
10
10
10
10
10
10
10
10
10
10
10
10
10
10
10
10
10
10
10
10
10
10
10
10
10
10
10
10
10
10
10
10
10
10
10
10
10
10
10
10
10
10
10
10
10
10
10
10
10
10
10
10
10
10
10
10
10
10
10
10
10
10
10
10
10
10
10
10
10
10
10
10
10
10
10
10
10
10
10
10
10
10
10
10
10
10
10
10
10
10
10
10
10
10
10
10
10
10
10
10
10
10
10
10
10
10
10
10
10
10
10
10
10
10
10
10
10
10
10
10
10
10
10
10
10
10
10
10
10
10
10
10
10
10
10
10
10
10
10
10
10
10
10
10
10
10
10
10
10
10
10
10
10
10
10
10
10
10
10
10
10
10
10
10
10
10
10
10
10
10
10
10
10
10
10
10
10
10
10
10
10
10
10
10
10
10
10
10
10
10
10
10
10
10
10
10
10
10
10
10
10
10
10
10
10
10
10
10
10
10
10
10
10
10
10
10
10
10
10
10
10
10
10
10
10
10
10
10
10
10
10
10
10
10
10
10
10
10
10
10
10
10
10
10
10
10
10
10
10
10
10
10
10
10
10
10
10
10
10
10
10
              </DataArray>   
          </Cells>  
          <PointData>  
             <DataArray type="Float64" NumberOfComponents="3" Name="Strains" format="ascii">   
-0.00011314908742652553   0.0   -7.42083599402559e-05
-0.00011314908742652553   0.0   -7.42083599402559e-05
-0.00011314908742652553   0.0   -7.42083599402559e-05
-0.00011314908742652553   0.0   -7.42083599402559e-05
-7.20040595025514e-05   1.254159409352092e-05   1.8916430558133776e-06
-7.20040595025514e-05   1.254159409352092e-05   1.8916430558133776e-06
-7.20040595025514e-05   1.254159409352092e-05   1.8916430558133776e-06
-7.20040595025514e-05   1.254159409352092e-05   1.8916430558133776e-06
-7.058378904986567e-05   0.0   -7.003125786780469e-05
-7.058378904986567e-05   0.0   -7.003125786780469e-05
-7.058378904986567e-05   0.0   -7.003125786780469e-05
-7.058378904986567e-05   0.0   -7.003125786780469e-05
-0.00011842049591123456   1.5047285845796936e-05   6.682153936656324e-07
-0.00011842049591123456   1.5047285845796936e-05   6.682153936656324e-07
-0.00011842049591123456   1.5047285845796936e-05   6.682153936656324e-07
-0.00011842049591123456   1.5047285845796936e-05   6.682153936656324e-07
-9.186643823819544e-05   3.480918393709335e-06   -3.664872692348031e-05
-9.186643823819544e-05   3.480918393709335e-06   -3.664872692348031e-05
-9.186643823819544e-05   3.480918393709335e-06   -3.664872692348031e-05
-9.186643823819544e-05   3.480918393709335e-06   -3.664872692348031e-05
-0.00011842049591123476   0.0   -7.905962937528285e-05
-0.00011842049591123476   0.0   -7.905962937528285e-05
-0.00011842049591123476   0.0   -7.905962937528285e-05
-0.00011842049591123476   0.0   -7.905962937528285e-05
-7.058378904986567e-05   1.5047285845796963e-05   9.696586901143783e-06
-7.058378904986567e-05   1.5047285845796963e-05   9.696586901143783e-06
-7.058378904986567e-05   1.5047285845796963e-05   9.696586901143783e-06
-7.058378904986567e-05   1.5047285845796963e-05   9.696586901143783e-06
-7.078688856273825e-05   0.0   -7.174646460613963e-05
-7.078688856273825e-05   0.0   -7.174646460613963e-05
-7.078688856273825e-05   0.0   -7.174646460613963e-05
-7.078688856273825e-05   0.0   -7.174646460613963e-05
-0.00012212440946167188   1.612000872944104e-05   4.144064987752111e-06
-0.00012212440946167188   1.612000872944104e-05   4.144064987752111e-06
-0.00012212440946167188   1.612000872944104e-05   4.144064987752111e-06
-0.00012212440946167188   1.612000872944104e-05   4.144064987752111e-06
-9.460369223698634e-05   6.0943039742860156e-06   -3.5708374200297394e-05
-9.460369223698634e-05   6.0943039742860156e-06   -3.5708374200297394e-05
-9.460369223698634e-05   6.0943039742860156e-06   -3.5708374200297394e-05
-9.460369223698634e-05   6.0943039742860156e-06   -3.5708374200297394e-05
-0.0001221244094616721   0.0   -8.141846984380427e-05
-0.0001221244094616721   0.0   -8.141846984380427e-05
-0.0001221244094616721   0.0   -8.141846984380427e-05
-0.0001221244094616721   0.0   -8.141846984380427e-05
-7.078688856273825e-05   1.6120008729441054e-05   1.3816070225416768e-05
-7.078688856273825e-05   1.6120008729441054e-05   1.3816070225416768e-05
-7.078688856273825e-05   1.6120008729441054e-05   1.3816070225416768e-05
-7.078688856273825e-05   1.6120008729441054e-05   1.3816070225416768e-05
-7.075423645049172e-05   0.0   -7.218656714888347e-05
-7.075423645049172e-05   0.0   -7.218656714888347e-05
-7.075423645049172e-05   0.0   -7.218656714888347e-05
-7.075423645049172e-05   0.0   -7.218656714888347e-05
-0.0001300996496597853   1.8361214076088558e-05   1.570572642095304e-05
-0.0001300996496597853   1.8361214076088558e-05   1.570572642095304e-05
-0.0001300996496597853   1.8361214076088558e-05   1.570572642095304e-05
-0.0001300996496597853   1.8361214076088558e-05   1.570572642095304e-05
-9.643932295608175e-05   7.693252245767326e-06   -3.3994040987026775e-05
-9.643932295608175e-05   7.693252245767326e-06   -3.3994040987026775e-05
-9.643932295608175e-05   7.693252245767326e-06   -3.3994040987026775e-05
-9.643932295608175e-05   7.693252245767326e-06   -3.3994040987026775e-05
-7.200405950255152e-05   0.0   -6.668340348414333e-05
-7.200405950255152e-05   0.0   -6.668340348414333e-05
-7.200405950255152e-05   0.0   -6.668340348414333e-05
-7.200405950255152e-05   0.0   -6.668340348414333e-05
-3.27863652470664e-05   4.601084256259175e-06   1.440070828754008e-06
-3.27863652470664e-05   4.601084256259175e-06   1.440070828754008e-06
-3.27863652470664e-05   4.601084256259175e-06   1.440070828754008e-06
-3.27863652470664e-05   4.601084256259175e-06   1.440070828754008e-06
-3.153740051551547e-05   0.0   -6.610229958983002e-05
-3.153740051551547e-05   0.0   -6.610229958983002e-05
-3.153740051551547e-05   0.0   -6.610229958983002e-05
-3.153740051551547e-05   0.0   -6.610229958983002e-05
-7.058378904986567e-05   6.548263796624429e-06   -4.953943643887685e-06
-7.058378904986567e-05   6.548263796624429e-06   -4.953943643887685e-06
-7.058378904986567e-05   6.548263796624429e-06   -4.953943643887685e-06
-7.058378904986567e-05   6.548263796624429e-06   -4.953943643887685e-06
-5.177073000903341e-05   4.842532452610897e-07   -3.267063571445654e-05
-5.177073000903341e-05   4.842532452610897e-07   -3.267063571445654e-05
-5.177073000903341e-05   4.842532452610897e-07   -3.267063571445654e-05
-5.177073000903341e-05   4.842532452610897e-07   -3.267063571445654e-05
-7.05837890498656e-05   0.0   -7.003125786780462e-05
-7.05837890498656e-05   0.0   -7.003125786780462e-05
-7.05837890498656e-05   0.0   -7.003125786780462e-05
-7.05837890498656e-05   0.0   -7.003125786780462e-05
-3.153740051551547e-05   6.548263796624429e-06   -1.0249853659130258e-06
-3.153740051551547e-05   6.548263796624429e-06   -1.0249853659130258e-06
-3.153740051551547e-05   6.548263796624429e-06   -1.0249853659130258e-06
-3.153740051551547e-05   6.548263796624429e-06   -1.0249853659130258e-06
-3.083759521899682e-05   0.0   -6.693289741484005e-05
-3.083759521899682e-05   0.0   -6.693289741484005e-05
-3.083759521899682e-05   0.0   -6.693289741484005e-05
-3.083759521899682e-05   0.0   -6.693289741484005e-05
-7.078688856273825e-05   8.022611985499304e-06   -5.1643090332372665e-06
-7.078688856273825e-05   8.022611985499304e-06   -5.1643090332372665e-06
-7.078688856273825e-05   8.022611985499304e-06   -5.1643090332372665e-06
-7.078688856273825e-05   8.022611985499304e-06   -5.1643090332372665e-06
-5.071069213443114e-05   2.5819670441371926e-06   -3.536024944893155e-05
-5.071069213443114e-05   2.5819670441371926e-06   -3.536024944893155e-05
-5.071069213443114e-05   2.5819670441371926e-06   -3.536024944893155e-05
-5.071069213443114e-05   2.5819670441371926e-06   -3.536024944893155e-05
-7.078688856273825e-05   0.0   -7.174646460613963e-05
-7.078688856273825e-05   0.0   -7.174646460613963e-05
-7.078688856273825e-05   0.0   -7.174646460613963e-05
-7.078688856273825e-05   0.0   -7.174646460613963e-05
-3.083759521899682e-05   8.022611985499304e-06   -3.5074184193767345e-07
-3.083759521899682e-05   8.022611985499304e-06   -3.5074184193767345e-07
-3.083759521899682e-05   8.022611985499304e-06   -3.5074184193767345e-07
-3.083759521899682e-05   8.022611985499304e-06   -3.5074184193767345e-07
-3.020103518915358e-05   0.0   -6.658599500318134e-05
-3.020103518915358e-05   0.0   -6.658599500318134e-05
-3.020103518915358e-05   0.0   -6.658599500318134e-05
-3.020103518915358e-05   0.0   -6.658599500318134e-05
-7.075423645049155e-05   9.334286909503441e-06   -4.597898379986529e-06
-7.075423645049155e-05   9.334286909503441e-06   -4.597898379986529e-06
-7.075423645049155e-05   9.334286909503441e-06   -4.597898379986529e-06
-7.075423645049155e-05   9.334286909503441e-06   -4.597898379986529e-06
-5.04939618759459e-05   4.3003913357985335e-06   -3.534468532667325e-05
-5.04939618759459e-05   4.3003913357985335e-06   -3.534468532667325e-05
-5.04939618759459e-05   4.3003913357985335e-06   -3.534468532667325e-05
-5.04939618759459e-05   4.3003913357985335e-06   -3.534468532667325e-05
-3.278636524706646e-05   0.0   -6.392275293038783e-05
-3.278636524706646e-05   0.0   -6.392275293038783e-05
-3.278636524706646e-05   0.0   -6.392275293038783e-05
-3.278636524706646e-05   0.0   -6.392275293038783e-05
4.270441906778239e-06   -5.884724769178348e-07   -2.514491160130628e-06
4.270441906778239e-06   -5.884724769178348e-07   -2.514491160130628e-06
4.270441906778239e-06   -5.884724769178348e-07   -2.514491160130628e-06
4.270441906778239e-06   -5.884724769178348e-07   -2.514491160130628e-06
5.065780927414504e-06   0.0   -6.540601310508905e-05
5.065780927414504e-06   0.0   -6.540601310508905e-05
5.065780927414504e-06   0.0   -6.540601310508905e-05
5.065780927414504e-06   0.0   -6.540601310508905e-05
-3.153740051551541e-05   1.1604774745679089e-06   -5.096997184946704e-06
-3.153740051551541e-05   1.1604774745679089e-06   -5.096997184946704e-06
-3.153740051551541e-05   1.1604774745679089e-06   -5.096997184946704e-06
-3.153740051551541e-05   1.1604774745679089e-06   -5.096997184946704e-06
-1.386029215982592e-05   -1.2360501455845364e-06   -3.31209278723376e-05
-1.386029215982592e-05   -1.2360501455845364e-06   -3.31209278723376e-05
-1.386029215982592e-05   -1.2360501455845364e-06   -3.31209278723376e-05
-1.386029215982592e-05   -1.2360501455845364e-06   -3.31209278723376e-05
-3.153740051551547e-05   0.0   -6.610229958983002e-05
-3.153740051551547e-05   0.0   -6.610229958983002e-05
-3.153740051551547e-05   0.0   -6.610229958983002e-05
-3.153740051551547e-05   0.0   -6.610229958983002e-05
5.065780927414512e-06   1.1604774745679089e-06   -4.4007107002059615e-06
5.065780927414512e-06   1.1604774745679089e-06   -4.4007107002059615e-06
5.065780927414512e-06   1.1604774745679089e-06   -4.4007107002059615e-06
5.065780927414512e-06   1.1604774745679089e-06   -4.4007107002059615e-06
5.692978815543765e-06   0.0   -6.531275023970805e-05
5.692978815543765e-06   0.0   -6.531275023970805e-05
5.692978815543765e-06   0.0   -6.531275023970805e-05
5.692978815543765e-06   0.0   -6.531275023970805e-05
-3.083759521899671e-05   2.7002452918864777e-06   -6.048607357272386e-06
-3.083759521899671e-05   2.7002452918864777e-06   -6.048607357272386e-06
-3.083759521899671e-05   2.7002452918864777e-06   -6.048607357272386e-06
-3.083759521899671e-05   2.7002452918864777e-06   -6.048607357272386e-06
-1.2922210849985823e-05   6.579577917682167e-07   -3.468220880555297e-05
-1.2922210849985823e-05   6.579577917682167e-07   -3.468220880555297e-05
-1.2922210849985823e-05   6.579577917682167e-07   -3.468220880555297e-05
-1.2922210849985823e-05   6.579577917682167e-07   -3.468220880555297e-05
-3.083759521899682e-05   0.0   -6.693289741484005e-05
-3.083759521899682e-05   0.0   -6.693289741484005e-05
-3.083759521899682e-05   0.0   -6.693289741484005e-05
-3.083759521899682e-05   0.0   -6.693289741484005e-05
5.692978815543774e-06   2.7002452918864777e-06   -4.428460182140511e-06
5.692978815543774e-06   2.7002452918864777e-06   -4.428460182140511e-06
5.692978815543774e-06   2.7002452918864777e-06   -4.428460182140511e-06
5.692978815543774e-06   2.7002452918864777e-06   -4.428460182140511e-06
6.538217918130002e-06   0.0   -6.389563754402167e-05
6.538217918130002e-06   0.0   -6.389563754402167e-05
6.538217918130002e-06   0.0   -6.389563754402167e-05
6.538217918130002e-06   0.0   -6.389563754402167e-05
-3.0201035189153503e-05   4.483929098599357e-06   -5.353906491042028e-06
-3.0201035189153503e-05   4.483929098599357e-06   -5.353906491042028e-06
-3.0201035189153503e-05   4.483929098599357e-06   -5.353906491042028e-06
-3.0201035189153503e-05   4.483929098599357e-06   -5.353906491042028e-06
-1.2149688650433382e-05   2.53104989234856e-06   -3.426775653182514e-05
-1.2149688650433382e-05   2.53104989234856e-06   -3.426775653182514e-05
-1.2149688650433382e-05   2.53104989234856e-06   -3.426775653182514e-05
-1.2149688650433382e-05   2.53104989234856e-06   -3.426775653182514e-05
4.270441906778245e-06   0.0   -6.427583641653852e-05
4.270441906778245e-06   0.0   -6.427583641653852e-05
4.270441906778245e-06   0.0   -6.427583641653852e-05
4.270441906778245e-06   0.0   -6.427583641653852e-05
4.449160761435947e-05   -5.218389841634644e-06   -3.7159414221720984e-07
4.449160761435947e-05   -5.218389841634644e-06   -3.7159414221720984e-07
4.449160761435947e-05   -5.218389841634644e-06   -3.7159414221720984e-07
4.449160761435947e-05   -5.218389841634644e-06   -3.7159414221720984e-07
4.4564965298915835e-05   0.0   -6.776708171273535e-05
4.4564965298915835e-05   0.0   -6.776708171273535e-05
4.4564965298915835e-05   0.0   -6.776708171273535e-05
4.4564965298915835e-05   0.0   -6.776708171273535e-05
5.065780927414521e-06   -3.9351143460767784e-06   4.2596084741291394e-07
5.065780927414521e-06   -3.9351143460767784e-06   4.2596084741291394e-07
5.065780927414521e-06   -3.9351143460767784e-06   4.2596084741291394e-07
5.065780927414521e-06   -3.9351143460767784e-06   4.2596084741291394e-07
2.441770360284704e-05   -2.9093710801640217e-06   -3.244268957118892e-05
2.441770360284704e-05   -2.9093710801640217e-06   -3.244268957118892e-05
2.441770360284704e-05   -2.9093710801640217e-06   -3.244268957118892e-05
2.441770360284704e-05   -2.9093710801640217e-06   -3.244268957118892e-05
5.065780927414521e-06   0.0   -6.540601310508927e-05
5.065780927414521e-06   0.0   -6.540601310508927e-05
5.065780927414521e-06   0.0   -6.540601310508927e-05
5.065780927414521e-06   0.0   -6.540601310508927e-05
4.4564965298915835e-05   -3.9351143460767784e-06   -1.935107760233165e-06
4.4564965298915835e-05   -3.9351143460767784e-06   -1.935107760233165e-06
4.4564965298915835e-05   -3.9351143460767784e-06   -1.935107760233165e-06
4.4564965298915835e-05   -3.9351143460767784e-06   -1.935107760233165e-06
4.4369139708314567e-05   0.0   -6.679935213655712e-05
4.4369139708314567e-05   0.0   -6.679935213655712e-05
4.4369139708314567e-05   0.0   -6.679935213655712e-05
4.4369139708314567e-05   0.0   -6.679935213655712e-05
5.692978815543774e-06   -2.477669828081588e-06   -8.524820850901853e-07
5.692978815543774e-06   -2.477669828081588e-06   -8.524820850901853e-07
5.692978815543774e-06   -2.477669828081588e-06   -8.524820850901853e-07
5.692978815543774e-06   -2.477669828081588e-06   -8.524820850901853e-07
2.4717460317864542e-05   -1.1611158595565386e-06   -3.33498836367398e-05
2.4717460317864542e-05   -1.1611158595565386e-06   -3.33498836367398e-05
2.4717460317864542e-05   -1.1611158595565386e-06   -3.33498836367398e-05
2.4717460317864542e-05   -1.1611158595565386e-06   -3.33498836367398e-05
5.69297881554377e-06   0.0   -6.53127502397081e-05
5.69297881554377e-06   0.0   -6.53127502397081e-05
5.69297881554377e-06   0.0   -6.53127502397081e-05
5.69297881554377e-06   0.0   -6.53127502397081e-05
4.4369139708314567e-05   -2.477669828081588e-06   -2.339083981939139e-06
4.4369139708314567e-05   -2.477669828081588e-06   -2.339083981939139e-06
4.4369139708314567e-05   -2.477669828081588e-06   -2.339083981939139e-06
4.4369139708314567e-05   -2.477669828081588e-06   -2.339083981939139e-06
4.522367023923447e-05   0.0   -6.420697006959747e-05
4.522367023923447e-05   0.0   -6.420697006959747e-05
4.522367023923447e-05   0.0   -6.420697006959747e-05
4.522367023923447e-05   0.0   -6.420697006959747e-05
6.538217918130014e-06   -5.188875426261693e-07   5.801163244856439e-07
6.538217918130014e-06   -5.188875426261693e-07   5.801163244856439e-07
6.538217918130014e-06   -5.188875426261693e-07   5.801163244856439e-07
6.538217918130014e-06   -5.188875426261693e-07   5.801163244856439e-07
2.5458324527389102e-05   9.214834750922299e-07   -3.181761730157718e-05
2.5458324527389102e-05   9.214834750922299e-07   -3.181761730157718e-05
2.5458324527389102e-05   9.214834750922299e-07   -3.181761730157718e-05
2.5458324527389102e-05   9.214834750922299e-07   -3.181761730157718e-05
4.449160761435947e-05   0.0   -6.74068703215193e-05
4.449160761435947e-05   0.0   -6.74068703215193e-05
4.449160761435947e-05   0.0   -6.74068703215193e-05
4.449160761435947e-05   0.0   -6.74068703215193e-05
0.0001004157239173916   -1.32247219599677e-05   1.7865157007554194e-05
0.0001004157239173916   -1.32247219599677e-05   1.7865157007554194e-05
0.0001004157239173916   -1.32247219599677e-05   1.7865157007554194e-05
0.0001004157239173916   -1.32247219599677e-05   1.7865157007554194e-05
9.429909323384744e-05   0.0   -7.452018616348836e-05
9.429909323384744e-05   0.0   -7.452018616348836e-05
9.429909323384744e-05   0.0   -7.452018616348836e-05
9.429909323384744e-05   0.0   -7.452018616348836e-05
4.4564965298915835e-05   -1.1255174084588351e-05   1.512313151215064e-05
4.4564965298915835e-05   -1.1255174084588351e-05   1.512313151215064e-05
4.4564965298915835e-05   -1.1255174084588351e-05   1.512313151215064e-05
4.4564965298915835e-05   -1.1255174084588351e-05   1.512313151215064e-05
6.939535042410345e-05   -5.927763201640882e-06   -2.9457290226263838e-05
6.939535042410345e-05   -5.927763201640882e-06   -2.9457290226263838e-05
6.939535042410345e-05   -5.927763201640882e-06   -2.9457290226263838e-05
6.939535042410345e-05   -5.927763201640882e-06   -2.9457290226263838e-05
4.45649652989158e-05   0.0   -6.776708171273528e-05
4.45649652989158e-05   0.0   -6.776708171273528e-05
4.45649652989158e-05   0.0   -6.776708171273528e-05
4.45649652989158e-05   0.0   -6.776708171273528e-05
9.429909323384712e-05   -1.125517408458831e-05   8.370027061397586e-06
9.429909323384712e-05   -1.125517408458831e-05   8.370027061397586e-06
9.429909323384712e-05   -1.125517408458831e-05   8.370027061397586e-06
9.429909323384712e-05   -1.125517408458831e-05   8.370027061397586e-06
9.147622973433427e-05   0.0   -7.297081633630353e-05
9.147622973433427e-05   0.0   -7.297081633630353e-05
9.147622973433427e-05   0.0   -7.297081633630353e-05
9.147622973433427e-05   0.0   -7.297081633630353e-05
4.4369139708314567e-05   -1.0285773666244026e-05   1.171246457347573e-05
4.4369139708314567e-05   -1.0285773666244026e-05   1.171246457347573e-05
4.4369139708314567e-05   -1.0285773666244026e-05   1.171246457347573e-05
4.4369139708314567e-05   -1.0285773666244026e-05   1.171246457347573e-05
6.802059751662501e-05   -4.336445519640162e-06   -3.127622866167069e-05
6.802059751662501e-05   -4.336445519640162e-06   -3.127622866167069e-05
6.802059751662501e-05   -4.336445519640162e-06   -3.127622866167069e-05
6.802059751662501e-05   -4.336445519640162e-06   -3.127622866167069e-05
4.4369139708314567e-05   0.0   -6.679935213655712e-05
4.4369139708314567e-05   0.0   -6.679935213655712e-05
4.4369139708314567e-05   0.0   -6.679935213655712e-05
4.4369139708314567e-05   0.0   -6.679935213655712e-05
9.147622973433396e-05   -1.0285773666243999e-05   5.54100037372928e-06
9.147622973433396e-05   -1.0285773666243999e-05   5.54100037372928e-06
9.147622973433396e-05   -1.0285773666243999e-05   5.54100037372928e-06
9.147622973433396e-05   -1.0285773666243999e-05   5.54100037372928e-06
8.727724697417375e-05   0.0   -6.90057247757417e-05
8.727724697417375e-05   0.0   -6.90057247757417e-05
8.727724697417375e-05   0.0   -6.90057247757417e-05
8.727724697417375e-05   0.0   -6.90057247757417e-05
4.522367023923447e-05   -7.997924510240564e-06   5.882324488634905e-06
4.522367023923447e-05   -7.997924510240564e-06   5.882324488634905e-06
4.522367023923447e-05   -7.997924510240564e-06   5.882324488634905e-06
4.522367023923447e-05   -7.997924510240564e-06   5.882324488634905e-06
6.582319334124424e-05   -1.8386438659872515e-06   -3.214578240126667e-05
6.582319334124424e-05   -1.8386438659872515e-06   -3.214578240126667e-05
6.582319334124424e-05   -1.8386438659872515e-06   -3.214578240126667e-05
6.582319334124424e-05   -1.8386438659872515e-06   -3.214578240126667e-05
-9.8211103946492e-05   1.2541594093520907e-05   -6.440486402494938e-05
-9.8211103946492e-05   1.2541594093520907e-05   -6.440486402494938e-05
-9.8211103946492e-05   1.2541594093520907e-05   -6.440486402494938e-05
-9.8211103946492e-05   1.2541594093520907e-05   -6.440486402494938e-05
-6.289997666028063e-05   1.1280752619664412e-05   -6.3094900989109685e-06
-6.289997666028063e-05   1.1280752619664412e-05   -6.3094900989109685e-06
-6.289997666028063e-05   1.1280752619664412e-05   -6.3094900989109685e-06
-6.289997666028063e-05   1.1280752619664412e-05   -6.3094900989109685e-06
-6.448498037412543e-05   1.5047285845796923e-05   -5.408648522265276e-05
-6.448498037412543e-05   1.5047285845796923e-05   -5.408648522265276e-05
-6.448498037412543e-05   1.5047285845796923e-05   -5.408648522265276e-05
-6.448498037412543e-05   1.5047285845796923e-05   -5.408648522265276e-05
-9.927930442257528e-05   1.3537363517160102e-05   4.810008255279276e-06
-9.927930442257528e-05   1.3537363517160102e-05   4.810008255279276e-06
-9.927930442257528e-05   1.3537363517160102e-05   4.810008255279276e-06
-9.927930442257528e-05   1.3537363517160102e-05   4.810008255279276e-06
-7.80022026916113e-05   1.309909044741291e-05   -3.03888641211462e-05
-7.80022026916113e-05   1.309909044741291e-05   -3.03888641211462e-05
-7.80022026916113e-05   1.309909044741291e-05   -3.03888641211462e-05
-7.80022026916113e-05   1.309909044741291e-05   -3.03888641211462e-05
-9.927930442257528e-05   1.5047285845796923e-05   -5.318053182547068e-05
-9.927930442257528e-05   1.5047285845796923e-05   -5.318053182547068e-05
-9.927930442257528e-05   1.5047285845796923e-05   -5.318053182547068e-05
-9.927930442257528e-05   1.5047285845796923e-05   -5.318053182547068e-05
-6.448498037412563e-05   1.3537363517160102e-05   3.9040548580971995e-06
-6.448498037412563e-05   1.3537363517160102e-05   3.9040548580971995e-06
-6.448498037412563e-05   1.3537363517160102e-05   3.9040548580971995e-06
-6.448498037412563e-05   1.3537363517160102e-05   3.9040548580971995e-06
-6.481959001863382e-05   1.6120008729441027e-05   -4.8624483306772466e-05
-6.481959001863382e-05   1.6120008729441027e-05   -4.8624483306772466e-05
-6.481959001863382e-05   1.6120008729441027e-05   -4.8624483306772466e-05
-6.481959001863382e-05   1.6120008729441027e-05   -4.8624483306772466e-05
-9.99823612526753e-05   1.4555752544896867e-05   1.0918689127356206e-05
-9.99823612526753e-05   1.4555752544896867e-05   1.0918689127356206e-05
-9.99823612526753e-05   1.4555752544896867e-05   1.0918689127356206e-05
-9.99823612526753e-05   1.4555752544896867e-05   1.0918689127356206e-05
-8.029904020182232e-05   1.451811266769436e-05   -2.1864262031077005e-05
-8.029904020182232e-05   1.451811266769436e-05   -2.1864262031077005e-05
-8.029904020182232e-05   1.451811266769436e-05   -2.1864262031077005e-05
-8.029904020182232e-05   1.451811266769436e-05   -2.1864262031077005e-05
-9.998236125267513e-05   1.6120008729441027e-05   -4.768592959604592e-05
-9.998236125267513e-05   1.6120008729441027e-05   -4.768592959604592e-05
-9.998236125267513e-05   1.6120008729441027e-05   -4.768592959604592e-05
-9.998236125267513e-05   1.6120008729441027e-05   -4.768592959604592e-05
-6.481959001863394e-05   1.4555752544896867e-05   9.98013541662966e-06
-6.481959001863394e-05   1.4555752544896867e-05   9.98013541662966e-06
-6.481959001863394e-05   1.4555752544896867e-05   9.98013541662966e-06
-6.481959001863394e-05   1.4555752544896867e-05   9.98013541662966e-06
-6.44542021093943e-05   1.8361214076088558e-05   -3.5920572732249046e-05
-6.44542021093943e-05   1.8361214076088558e-05   -3.5920572732249046e-05
-6.44542021093943e-05   1.8361214076088558e-05   -3.5920572732249046e-05
-6.44542021093943e-05   1.8361214076088558e-05   -3.5920572732249046e-05
-9.721622990067536e-05   1.536441698832123e-05   2.0480885172546122e-05
-9.721622990067536e-05   1.536441698832123e-05   2.0480885172546122e-05
-9.721622990067536e-05   1.536441698832123e-05   2.0480885172546122e-05
-9.721622990067536e-05   1.536441698832123e-05   2.0480885172546122e-05
-7.821433552585488e-05   1.592300280265114e-05   -1.1524090274085875e-05
-7.821433552585488e-05   1.592300280265114e-05   -1.1524090274085875e-05
-7.821433552585488e-05   1.592300280265114e-05   -1.1524090274085875e-05
-7.821433552585488e-05   1.592300280265114e-05   -1.1524090274085875e-05
-6.289997666028063e-05   4.601084256259161e-06   -6.837359169007814e-05
-6.289997666028063e-05   4.601084256259161e-06   -6.837359169007814e-05
-6.289997666028063e-05   4.601084256259161e-06   -6.837359169007814e-05
-6.289997666028063e-05   4.601084256259161e-06   -6.837359169007814e-05
-2.9799446833378902e-05   5.249035383842967e-06   -1.2817271302024838e-05
-2.9799446833378902e-05   5.249035383842967e-06   -1.2817271302024838e-05
-2.9799446833378902e-05   5.249035383842967e-06   -1.2817271302024838e-05
-2.9799446833378902e-05   5.249035383842967e-06   -1.2817271302024838e-05
-3.0513983573261883e-05   6.548263796624416e-06   -6.827146295422079e-05
-3.0513983573261883e-05   6.548263796624416e-06   -6.827146295422079e-05
-3.0513983573261883e-05   6.548263796624416e-06   -6.827146295422079e-05
-3.0513983573261883e-05   6.548263796624416e-06   -6.827146295422079e-05
-6.448498037412543e-05   7.324185152396791e-06   -1.2118687766244816e-05
-6.448498037412543e-05   7.324185152396791e-06   -1.2118687766244816e-05
-6.448498037412543e-05   7.324185152396791e-06   -1.2118687766244816e-05
-6.448498037412543e-05   7.324185152396791e-06   -1.2118687766244816e-05
-4.679263297733878e-05   5.897705919010219e-06   -4.075004588752433e-05
-4.679263297733878e-05   5.897705919010219e-06   -4.075004588752433e-05
-4.679263297733878e-05   5.897705919010219e-06   -4.075004588752433e-05
-4.679263297733878e-05   5.897705919010219e-06   -4.075004588752433e-05
-6.448498037412537e-05   6.548263796624416e-06   -6.873701576768408e-05
-6.448498037412537e-05   6.548263796624416e-06   -6.873701576768408e-05
-6.448498037412537e-05   6.548263796624416e-06   -6.873701576768408e-05
-6.448498037412537e-05   6.548263796624416e-06   -6.873701576768408e-05
-3.0513983573261937e-05   7.3241851523968456e-06   -1.165313495278139e-05
-3.0513983573261937e-05   7.3241851523968456e-06   -1.165313495278139e-05
-3.0513983573261937e-05   7.3241851523968456e-06   -1.165313495278139e-05
-3.0513983573261937e-05   7.3241851523968456e-06   -1.165313495278139e-05
-3.07408212504056e-05   8.022611985499277e-06   -6.699347834016311e-05
-3.07408212504056e-05   8.022611985499277e-06   -6.699347834016311e-05
-3.07408212504056e-05   8.022611985499277e-06   -6.699347834016311e-05
-3.07408212504056e-05   8.022611985499277e-06   -6.699347834016311e-05
-6.481959001863382e-05   9.041585694271454e-06   -1.080691461837941e-05
-6.481959001863382e-05   9.041585694271454e-06   -1.080691461837941e-05
-6.481959001863382e-05   9.041585694271454e-06   -1.080691461837941e-05
-6.481959001863382e-05   9.041585694271454e-06   -1.080691461837941e-05
-4.716144840756996e-05   7.484351289841764e-06   -3.930280999416119e-05
-4.716144840756996e-05   7.484351289841764e-06   -3.930280999416119e-05
-4.716144840756996e-05   7.484351289841764e-06   -3.930280999416119e-05
-4.716144840756996e-05   7.484351289841764e-06   -3.930280999416119e-05
-6.481959001863382e-05   8.022611985499277e-06   -6.76048625654264e-05
-6.481959001863382e-05   8.022611985499277e-06   -6.76048625654264e-05
-6.481959001863382e-05   8.022611985499277e-06   -6.76048625654264e-05
-6.481959001863382e-05   8.022611985499277e-06   -6.76048625654264e-05
-3.0740821250405694e-05   9.041585694271454e-06   -1.0195530393116156e-05
-3.0740821250405694e-05   9.041585694271454e-06   -1.0195530393116156e-05
-3.0740821250405694e-05   9.041585694271454e-06   -1.0195530393116156e-05
-3.0740821250405694e-05   9.041585694271454e-06   -1.0195530393116156e-05
-3.066899662256726e-05   9.334286909503428e-06   -6.630797172776936e-05
-3.066899662256726e-05   9.334286909503428e-06   -6.630797172776936e-05
-3.066899662256726e-05   9.334286909503428e-06   -6.630797172776936e-05
-3.066899662256726e-05   9.334286909503428e-06   -6.630797172776936e-05
-6.445420210939425e-05   1.0889210661290587e-05   -1.0932250167463388e-05
-6.445420210939425e-05   1.0889210661290587e-05   -1.0932250167463388e-05
-6.445420210939425e-05   1.0889210661290587e-05   -1.0932250167463388e-05
-6.445420210939425e-05   1.0889210661290587e-05   -1.0932250167463388e-05
-4.744233936180225e-05   8.920430815553414e-06   -3.810408683934129e-05
-4.744233936180225e-05   8.920430815553414e-06   -3.810408683934129e-05
-4.744233936180225e-05   8.920430815553414e-06   -3.810408683934129e-05
-4.744233936180225e-05   8.920430815553414e-06   -3.810408683934129e-05
-2.9799446833378848e-05   -5.884724769178212e-07   -7.158629951626177e-05
-2.9799446833378848e-05   -5.884724769178212e-07   -7.158629951626177e-05
-2.9799446833378848e-05   -5.884724769178212e-07   -7.158629951626177e-05
-2.9799446833378848e-05   -5.884724769178212e-07   -7.158629951626177e-05
2.883983552490773e-06   -1.5573183398604525e-07   -1.6854271154053297e-05
2.883983552490773e-06   -1.5573183398604525e-07   -1.6854271154053297e-05
2.883983552490773e-06   -1.5573183398604525e-07   -1.6854271154053297e-05
2.883983552490773e-06   -1.5573183398604525e-07   -1.6854271154053297e-05
2.7464917010686285e-06   1.1604774745679089e-06   -7.198610194094758e-05
2.7464917010686285e-06   1.1604774745679089e-06   -7.198610194094758e-05
2.7464917010686285e-06   1.1604774745679089e-06   -7.198610194094758e-05
2.7464917010686285e-06   1.1604774745679089e-06   -7.198610194094758e-05
-3.0513983573261883e-05   1.7560988617462106e-06   -1.6909349316036773e-05
-3.0513983573261883e-05   1.7560988617462106e-06   -1.6909349316036773e-05
-3.0513983573261883e-05   1.7560988617462106e-06   -1.6909349316036773e-05
-3.0513983573261883e-05   1.7560988617462106e-06   -1.6909349316036773e-05
-1.3753290421612467e-05   5.828695211906746e-07   -4.4139900297785994e-05
-1.3753290421612467e-05   5.828695211906746e-07   -4.4139900297785994e-05
-1.3753290421612467e-05   5.828695211906746e-07   -4.4139900297785994e-05
-1.3753290421612467e-05   5.828695211906746e-07   -4.4139900297785994e-05
-3.0513983573261883e-05   1.1604774745679089e-06   -7.234347477325445e-05
-3.0513983573261883e-05   1.1604774745679089e-06   -7.234347477325445e-05
-3.0513983573261883e-05   1.1604774745679089e-06   -7.234347477325445e-05
-3.0513983573261883e-05   1.1604774745679089e-06   -7.234347477325445e-05
2.7464917010686285e-06   1.7560988617462106e-06   -1.6551976483729838e-05
2.7464917010686285e-06   1.7560988617462106e-06   -1.6551976483729838e-05
2.7464917010686285e-06   1.7560988617462106e-06   -1.6551976483729838e-05
2.7464917010686285e-06   1.7560988617462106e-06   -1.6551976483729838e-05
2.560175522233913e-06   2.7002452918864777e-06   -7.213708275452757e-05
2.560175522233913e-06   2.7002452918864777e-06   -7.213708275452757e-05
2.560175522233913e-06   2.7002452918864777e-06   -7.213708275452757e-05
2.560175522233913e-06   2.7002452918864777e-06   -7.213708275452757e-05
-3.07408212504056e-05   3.6240137935035347e-06   -1.7189682567765385e-05
-3.07408212504056e-05   3.6240137935035347e-06   -1.7189682567765385e-05
-3.07408212504056e-05   3.6240137935035347e-06   -1.7189682567765385e-05
-3.07408212504056e-05   3.6240137935035347e-06   -1.7189682567765385e-05
-1.4013207729708681e-05   2.2031983549293977e-06   -4.421654917244891e-05
-1.4013207729708681e-05   2.2031983549293977e-06   -4.421654917244891e-05
-1.4013207729708681e-05   2.2031983549293977e-06   -4.421654917244891e-05
-1.4013207729708681e-05   2.2031983549293977e-06   -4.421654917244891e-05
-3.07408212504056e-05   2.7002452918864777e-06   -7.26913438554978e-05
-3.07408212504056e-05   2.7002452918864777e-06   -7.26913438554978e-05
-3.07408212504056e-05   2.7002452918864777e-06   -7.26913438554978e-05
-3.07408212504056e-05   2.7002452918864777e-06   -7.26913438554978e-05
2.560175522233916e-06   3.6240137935035347e-06   -1.663542146679516e-05
2.560175522233916e-06   3.6240137935035347e-06   -1.663542146679516e-05
2.560175522233916e-06   3.6240137935035347e-06   -1.663542146679516e-05
2.560175522233916e-06   3.6240137935035347e-06   -1.663542146679516e-05
2.188348253686457e-06   4.483929098599343e-06   -7.201272912972386e-05
2.188348253686457e-06   4.483929098599343e-06   -7.201272912972386e-05
2.188348253686457e-06   4.483929098599343e-06   -7.201272912972386e-05
2.188348253686457e-06   4.483929098599343e-06   -7.201272912972386e-05
-3.066899662256729e-05   5.570300523271188e-06   -1.7902310524104117e-05
-3.066899662256729e-05   5.570300523271188e-06   -1.7902310524104117e-05
-3.066899662256729e-05   5.570300523271188e-06   -1.7902310524104117e-05
-3.066899662256729e-05   5.570300523271188e-06   -1.7902310524104117e-05
-1.4171896961988059e-05   3.867767421244806e-06   -4.4375956763853597e-05
-1.4171896961988059e-05   3.867767421244806e-06   -4.4375956763853597e-05
-1.4171896961988059e-05   3.867767421244806e-06   -4.4375956763853597e-05
-1.4171896961988059e-05   3.867767421244806e-06   -4.4375956763853597e-05
2.883983552490773e-06   -5.218389841634631e-06   -6.605272420760851e-05
2.883983552490773e-06   -5.218389841634631e-06   -6.605272420760851e-05
2.883983552490773e-06   -5.218389841634631e-06   -6.605272420760851e-05
2.883983552490773e-06   -5.218389841634631e-06   -6.605272420760851e-05
3.6564881962248836e-05   -5.365230071808298e-06   -1.000599766278257e-05
3.6564881962248836e-05   -5.365230071808298e-06   -1.000599766278257e-05
3.6564881962248836e-05   -5.365230071808298e-06   -1.000599766278257e-05
3.6564881962248836e-05   -5.365230071808298e-06   -1.000599766278257e-05
3.686095669203298e-05   -3.935114346076765e-06   -6.6975484711654e-05
3.686095669203298e-05   -3.935114346076765e-06   -6.6975484711654e-05
3.686095669203298e-05   -3.935114346076765e-06   -6.6975484711654e-05
3.686095669203298e-05   -3.935114346076765e-06   -6.6975484711654e-05
2.7464917010686285e-06   -3.6285382099526657e-06   -1.0301988741721124e-05
2.7464917010686285e-06   -3.6285382099526657e-06   -1.0301988741721124e-05
2.7464917010686285e-06   -3.6285382099526657e-06   -1.0301988741721124e-05
2.7464917010686285e-06   -3.6285382099526657e-06   -1.0301988741721124e-05
1.951147945422195e-05   -4.342967324893939e-06   -3.7814977528012015e-05
1.951147945422195e-05   -4.342967324893939e-06   -3.7814977528012015e-05
1.951147945422195e-05   -4.342967324893939e-06   -3.7814977528012015e-05
1.951147945422195e-05   -4.342967324893939e-06   -3.7814977528012015e-05
2.7464917010686234e-06   -3.9351143460767784e-06   -6.715943039332859e-05
2.7464917010686234e-06   -3.9351143460767784e-06   -6.715943039332859e-05
2.7464917010686234e-06   -3.9351143460767784e-06   -6.715943039332859e-05
2.7464917010686234e-06   -3.9351143460767784e-06   -6.715943039332859e-05
3.686095669203303e-05   -3.6285382099526657e-06   -1.0118043060046618e-05
3.686095669203303e-05   -3.6285382099526657e-06   -1.0118043060046618e-05
3.686095669203303e-05   -3.6285382099526657e-06   -1.0118043060046618e-05
3.686095669203303e-05   -3.6285382099526657e-06   -1.0118043060046618e-05
3.6674911044783804e-05   -2.4776698280815746e-06   -6.823077209065927e-05
3.6674911044783804e-05   -2.4776698280815746e-06   -6.823077209065927e-05
3.6674911044783804e-05   -2.4776698280815746e-06   -6.823077209065927e-05
3.6674911044783804e-05   -2.4776698280815746e-06   -6.823077209065927e-05
2.560175522233913e-06   -1.9271155500518236e-06   -1.170321211989405e-05
2.560175522233913e-06   -1.9271155500518236e-06   -1.170321211989405e-05
2.560175522233913e-06   -1.9271155500518236e-06   -1.170321211989405e-05
2.560175522233913e-06   -1.9271155500518236e-06   -1.170321211989405e-05
1.929918963356099e-05   -2.956088669951268e-06   -3.898418510016608e-05
1.929918963356099e-05   -2.956088669951268e-06   -3.898418510016608e-05
1.929918963356099e-05   -2.956088669951268e-06   -3.898418510016608e-05
1.929918963356099e-05   -2.956088669951268e-06   -3.898418510016608e-05
2.560175522233911e-06   -2.477669828081588e-06   -6.856110465747714e-05
2.560175522233911e-06   -2.477669828081588e-06   -6.856110465747714e-05
2.560175522233911e-06   -2.477669828081588e-06   -6.856110465747714e-05
2.560175522233911e-06   -2.477669828081588e-06   -6.856110465747714e-05
3.667491104478393e-05   -1.9271155500518236e-06   -1.1372879553076204e-05
3.667491104478393e-05   -1.9271155500518236e-06   -1.1372879553076204e-05
3.667491104478393e-05   -1.9271155500518236e-06   -1.1372879553076204e-05
3.667491104478393e-05   -1.9271155500518236e-06   -1.1372879553076204e-05
3.559951217200434e-05   -5.188875426261828e-07   -6.835114516966498e-05
3.559951217200434e-05   -5.188875426261828e-07   -6.835114516966498e-05
3.559951217200434e-05   -5.188875426261828e-07   -6.835114516966498e-05
3.559951217200434e-05   -5.188875426261828e-07   -6.835114516966498e-05
2.188348253686457e-06   1.7764346352499823e-07   -1.3083790576159305e-05
2.188348253686457e-06   1.7764346352499823e-07   -1.3083790576159305e-05
2.188348253686457e-06   1.7764346352499823e-07   -1.3083790576159305e-05
2.188348253686457e-06   1.7764346352499823e-07   -1.3083790576159305e-05
1.9084489561285983e-05   -1.3362172070849755e-06   -4.0335709686459155e-05
1.9084489561285983e-05   -1.3362172070849755e-06   -4.0335709686459155e-05
1.9084489561285983e-05   -1.3362172070849755e-06   -4.0335709686459155e-05
1.9084489561285983e-05   -1.3362172070849755e-06   -4.0335709686459155e-05
3.6564881962248836e-05   -1.32247219599677e-05   -3.996924401996066e-05
3.6564881962248836e-05   -1.32247219599677e-05   -3.996924401996066e-05
3.6564881962248836e-05   -1.32247219599677e-05   -3.996924401996066e-05
3.6564881962248836e-05   -1.32247219599677e-05   -3.996924401996066e-05
6.981223153429494e-05   -9.974276473019984e-06   1.7393272558951308e-05
6.981223153429494e-05   -9.974276473019984e-06   1.7393272558951308e-05
6.981223153429494e-05   -9.974276473019984e-06   1.7393272558951308e-05
6.981223153429494e-05   -9.974276473019984e-06   1.7393272558951308e-05
7.245770783221698e-05   -1.1255174084588365e-05   -4.859460940178855e-05
7.245770783221698e-05   -1.1255174084588365e-05   -4.859460940178855e-05
7.245770783221698e-05   -1.1255174084588365e-05   -4.859460940178855e-05
7.245770783221698e-05   -1.1255174084588365e-05   -4.859460940178855e-05
3.6860956692033105e-05   -9.050780688785187e-06   9.410673127702835e-06
3.6860956692033105e-05   -9.050780688785187e-06   9.410673127702835e-06
3.6860956692033105e-05   -9.050780688785187e-06   9.410673127702835e-06
3.6860956692033105e-05   -9.050780688785187e-06   9.410673127702835e-06
5.1416300713182515e-05   -1.0830546440327831e-05   -1.378037412328733e-05
5.1416300713182515e-05   -1.0830546440327831e-05   -1.378037412328733e-05
5.1416300713182515e-05   -1.0830546440327831e-05   -1.378037412328733e-05
5.1416300713182515e-05   -1.0830546440327831e-05   -1.378037412328733e-05
3.6860956692033004e-05   -1.1255174084588324e-05   -4.9917245439270284e-05
3.6860956692033004e-05   -1.1255174084588324e-05   -4.9917245439270284e-05
3.6860956692033004e-05   -1.1255174084588324e-05   -4.9917245439270284e-05
3.6860956692033004e-05   -1.1255174084588324e-05   -4.9917245439270284e-05
7.245770783221698e-05   -9.050780688785187e-06   1.0733309165184739e-05
7.245770783221698e-05   -9.050780688785187e-06   1.0733309165184739e-05
7.245770783221698e-05   -9.050780688785187e-06   1.0733309165184739e-05
7.245770783221698e-05   -9.050780688785187e-06   1.0733309165184739e-05
7.217913781400682e-05   -1.0285773666244026e-05   -5.285071753779855e-05
7.217913781400682e-05   -1.0285773666244026e-05   -5.285071753779855e-05
7.217913781400682e-05   -1.0285773666244026e-05   -5.285071753779855e-05
7.217913781400682e-05   -1.0285773666244026e-05   -5.285071753779855e-05
3.667491104478393e-05   -8.071597003833804e-06   4.994487746793393e-06
3.667491104478393e-05   -8.071597003833804e-06   4.994487746793393e-06
3.667491104478393e-05   -8.071597003833804e-06   4.994487746793393e-06
3.667491104478393e-05   -8.071597003833804e-06   4.994487746793393e-06
5.3206528298563945e-05   -9.566370195145232e-06   -2.166134376138643e-05
5.3206528298563945e-05   -9.566370195145232e-06   -2.166134376138643e-05
5.3206528298563945e-05   -9.566370195145232e-06   -2.166134376138643e-05
5.3206528298563945e-05   -9.566370195145232e-06   -2.166134376138643e-05
3.667491104478387e-05   -1.0285773666243999e-05   -5.417922353524459e-05
3.667491104478387e-05   -1.0285773666243999e-05   -5.417922353524459e-05
3.667491104478387e-05   -1.0285773666243999e-05   -5.417922353524459e-05
3.667491104478387e-05   -1.0285773666243999e-05   -5.417922353524459e-05
7.217913781400682e-05   -8.071597003833804e-06   6.322993744239524e-06
7.217913781400682e-05   -8.071597003833804e-06   6.322993744239524e-06
7.217913781400682e-05   -8.071597003833804e-06   6.322993744239524e-06
7.217913781400682e-05   -8.071597003833804e-06   6.322993744239524e-06
7.173410554685563e-05   -7.997924510240551e-06   -6.15173920204898e-05
7.173410554685563e-05   -7.997924510240551e-06   -6.15173920204898e-05
7.173410554685563e-05   -7.997924510240551e-06   -6.15173920204898e-05
7.173410554685563e-05   -7.997924510240551e-06   -6.15173920204898e-05
3.559951217200447e-05   -5.964237077823098e-06   -2.5132821885217303e-06
3.559951217200447e-05   -5.964237077823098e-06   -2.5132821885217303e-06
3.559951217200447e-05   -5.964237077823098e-06   -2.5132821885217303e-06
3.559951217200447e-05   -5.964237077823098e-06   -2.5132821885217303e-06
5.167775165027965e-05   -8.238221032779548e-06   -2.7945957612673163e-05
5.167775165027965e-05   -8.238221032779548e-06   -2.7945957612673163e-05
5.167775165027965e-05   -8.238221032779548e-06   -2.7945957612673163e-05
5.167775165027965e-05   -8.238221032779548e-06   -2.7945957612673163e-05
-7.826545518211644e-05   1.1280752619664412e-05   -5.399812953074063e-05
-7.826545518211644e-05   1.1280752619664412e-05   -5.399812953074063e-05
-7.826545518211644e-05   1.1280752619664412e-05   -5.399812953074063e-05
-7.826545518211644e-05   1.1280752619664412e-05   -5.399812953074063e-05
-5.130257078719594e-05   8.622344288886042e-06   -1.0655033871006747e-05
-5.130257078719594e-05   8.622344288886042e-06   -1.0655033871006747e-05
-5.130257078719594e-05   8.622344288886042e-06   -1.0655033871006747e-05
-5.130257078719594e-05   8.622344288886042e-06   -1.0655033871006747e-05
-5.1552262254794226e-05   1.3537363517160102e-05   -4.483337807294511e-05
-5.1552262254794226e-05   1.3537363517160102e-05   -4.483337807294511e-05
-5.1552262254794226e-05   1.3537363517160102e-05   -4.483337807294511e-05
-5.1552262254794226e-05   1.3537363517160102e-05   -4.483337807294511e-05
-7.708443034389634e-05   1.0429097408658347e-05   -4.148049260072626e-07
-7.708443034389634e-05   1.0429097408658347e-05   -4.148049260072626e-07
-7.708443034389634e-05   1.0429097408658347e-05   -4.148049260072626e-07
-7.708443034389634e-05   1.0429097408658347e-05   -4.148049260072626e-07
-6.182142086863868e-05   1.1470134700417565e-05   -2.6477776426492338e-05
-6.182142086863868e-05   1.1470134700417565e-05   -2.6477776426492338e-05
-6.182142086863868e-05   1.1470134700417565e-05   -2.6477776426492338e-05
-6.182142086863868e-05   1.1470134700417565e-05   -2.6477776426492338e-05
-7.708443034389634e-05   1.3537363517160102e-05   -4.296841840784407e-05
-7.708443034389634e-05   1.3537363517160102e-05   -4.296841840784407e-05
-7.708443034389634e-05   1.3537363517160102e-05   -4.296841840784407e-05
-7.708443034389634e-05   1.3537363517160102e-05   -4.296841840784407e-05
-5.1552262254794226e-05   1.0429097408658347e-05   -2.2797645911079795e-06
-5.1552262254794226e-05   1.0429097408658347e-05   -2.2797645911079795e-06
-5.1552262254794226e-05   1.0429097408658347e-05   -2.2797645911079795e-06
-5.1552262254794226e-05   1.0429097408658347e-05   -2.2797645911079795e-06
-5.150182028868972e-05   1.4555752544896867e-05   -3.835446494454282e-05
-5.150182028868972e-05   1.4555752544896867e-05   -3.835446494454282e-05
-5.150182028868972e-05   1.4555752544896867e-05   -3.835446494454282e-05
-5.150182028868972e-05   1.4555752544896867e-05   -3.835446494454282e-05
-7.593231782996668e-05   1.122265816619816e-05   4.362887584804533e-06
-7.593231782996668e-05   1.122265816619816e-05   4.362887584804533e-06
-7.593231782996668e-05   1.122265816619816e-05   4.362887584804533e-06
-7.593231782996668e-05   1.122265816619816e-05   4.362887584804533e-06
-6.235849470471494e-05   1.2517545329396198e-05   -1.903708325519995e-05
-6.235849470471494e-05   1.2517545329396198e-05   -1.903708325519995e-05
-6.235849470471494e-05   1.2517545329396198e-05   -1.903708325519995e-05
-6.235849470471494e-05   1.2517545329396198e-05   -1.903708325519995e-05
-7.593231782996668e-05   1.4555752544896867e-05   -3.635460831732362e-05
-7.593231782996668e-05   1.4555752544896867e-05   -3.635460831732362e-05
-7.593231782996668e-05   1.4555752544896867e-05   -3.635460831732362e-05
-7.593231782996668e-05   1.4555752544896867e-05   -3.635460831732362e-05
-5.150182028868983e-05   1.122265816619816e-05   2.3630309575856204e-06
-5.150182028868983e-05   1.122265816619816e-05   2.3630309575856204e-06
-5.150182028868983e-05   1.122265816619816e-05   2.3630309575856204e-06
-5.150182028868983e-05   1.122265816619816e-05   2.3630309575856204e-06
-5.15556252021998e-05   1.536441698832123e-05   -2.927979302959512e-05
-5.15556252021998e-05   1.536441698832123e-05   -2.927979302959512e-05
-5.15556252021998e-05   1.536441698832123e-05   -2.927979302959512e-05
-5.15556252021998e-05   1.536441698832123e-05   -2.927979302959512e-05
-7.442658239939238e-05   1.2002940581801245e-05   1.0855354809637336e-05
-7.442658239939238e-05   1.2002940581801245e-05   1.0855354809637336e-05
-7.442658239939238e-05   1.2002940581801245e-05   1.0855354809637336e-05
-7.442658239939238e-05   1.2002940581801245e-05   1.0855354809637336e-05
-6.094039708228347e-05   1.3068057412494874e-05   -1.2260690817292742e-05
-6.094039708228347e-05   1.3068057412494874e-05   -1.2260690817292742e-05
-6.094039708228347e-05   1.3068057412494874e-05   -1.2260690817292742e-05
-6.094039708228347e-05   1.3068057412494874e-05   -1.2260690817292742e-05
-5.130257078719594e-05   5.249035383842967e-06   -6.248972640887174e-05
-5.130257078719594e-05   5.249035383842967e-06   -6.248972640887174e-05
-5.130257078719594e-05   5.249035383842967e-06   -6.248972640887174e-05
-5.130257078719594e-05   5.249035383842967e-06   -6.248972640887174e-05
-2.61029230832812e-05   4.298344588742216e-06   -2.1060728046074245e-05
-2.61029230832812e-05   4.298344588742216e-06   -2.1060728046074245e-05
-2.61029230832812e-05   4.298344588742216e-06   -2.1060728046074245e-05
-2.61029230832812e-05   4.298344588742216e-06   -2.1060728046074245e-05
-2.64214103728547e-05   7.324185152396791e-06   -6.160559918237614e-05
-2.64214103728547e-05   7.324185152396791e-06   -6.160559918237614e-05
-2.64214103728547e-05   7.324185152396791e-06   -6.160559918237614e-05
-2.64214103728547e-05   7.324185152396791e-06   -6.160559918237614e-05
-5.1552262254794145e-05   6.075054343914919e-06   -1.897136756072107e-05
-5.1552262254794145e-05   6.075054343914919e-06   -1.897136756072107e-05
-5.1552262254794145e-05   6.075054343914919e-06   -1.897136756072107e-05
-5.1552262254794145e-05   6.075054343914919e-06   -1.897136756072107e-05
-3.8512409953611876e-05   6.052325661273382e-06   -4.069081751977341e-05
-3.8512409953611876e-05   6.052325661273382e-06   -4.069081751977341e-05
-3.8512409953611876e-05   6.052325661273382e-06   -4.069081751977341e-05
-3.8512409953611876e-05   6.052325661273382e-06   -4.069081751977341e-05
-5.155226225479417e-05   7.324185152396791e-06   -6.0856120697286856e-05
-5.155226225479417e-05   7.324185152396791e-06   -6.0856120697286856e-05
-5.155226225479417e-05   7.324185152396791e-06   -6.0856120697286856e-05
-5.155226225479417e-05   7.324185152396791e-06   -6.0856120697286856e-05
-2.6421410372854754e-05   6.075054343914919e-06   -1.9720846045810173e-05
-2.6421410372854754e-05   6.075054343914919e-06   -1.9720846045810173e-05
-2.6421410372854754e-05   6.075054343914919e-06   -1.9720846045810173e-05
-2.6421410372854754e-05   6.075054343914919e-06   -1.9720846045810173e-05
-2.6628442382388198e-05   9.041585694271454e-06   -5.9974547157451256e-05
-2.6628442382388198e-05   9.041585694271454e-06   -5.9974547157451256e-05
-2.6628442382388198e-05   9.041585694271454e-06   -5.9974547157451256e-05
-2.6628442382388198e-05   9.041585694271454e-06   -5.9974547157451256e-05
-5.150182028868972e-05   7.653198731105725e-06   -1.7685885135716327e-05
-5.150182028868972e-05   7.653198731105725e-06   -1.7685885135716327e-05
-5.150182028868972e-05   7.653198731105725e-06   -1.7685885135716327e-05
-5.150182028868972e-05   7.653198731105725e-06   -1.7685885135716327e-05
-3.8585013930213236e-05   7.513812294369904e-06   -3.913026387113478e-05
-3.8585013930213236e-05   7.513812294369904e-06   -3.913026387113478e-05
-3.8585013930213236e-05   7.513812294369904e-06   -3.913026387113478e-05
-3.8585013930213236e-05   7.513812294369904e-06   -3.913026387113478e-05
-5.150182028868972e-05   9.041585694271454e-06   -5.914151497955189e-05
-5.150182028868972e-05   9.041585694271454e-06   -5.914151497955189e-05
-5.150182028868972e-05   9.041585694271454e-06   -5.914151497955189e-05
-5.150182028868972e-05   9.041585694271454e-06   -5.914151497955189e-05
-2.6628442382388293e-05   7.653198731105834e-06   -1.8518917313615375e-05
-2.6628442382388293e-05   7.653198731105834e-06   -1.8518917313615375e-05
-2.6628442382388293e-05   7.653198731105834e-06   -1.8518917313615375e-05
-2.6628442382388293e-05   7.653198731105834e-06   -1.8518917313615375e-05
-2.6895802229771314e-05   1.0889210661290587e-05   -5.9829405553526755e-05
-2.6895802229771314e-05   1.0889210661290587e-05   -5.9829405553526755e-05
-2.6895802229771314e-05   1.0889210661290587e-05   -5.9829405553526755e-05
-2.6895802229771314e-05   1.0889210661290587e-05   -5.9829405553526755e-05
-5.1555625202199775e-05   9.331618266986553e-06   -1.779514516289687e-05
-5.1555625202199775e-05   9.331618266986553e-06   -1.779514516289687e-05
-5.1555625202199775e-05   9.331618266986553e-06   -1.779514516289687e-05
-5.1555625202199775e-05   9.331618266986553e-06   -1.779514516289687e-05
-3.9043638941132715e-05   8.961121815864183e-06   -3.842615772733471e-05
-3.9043638941132715e-05   8.961121815864183e-06   -3.842615772733471e-05
-3.9043638941132715e-05   8.961121815864183e-06   -3.842615772733471e-05
-3.9043638941132715e-05   8.961121815864183e-06   -3.842615772733471e-05
-2.610292308328116e-05   -1.5573183398599104e-07   -6.735678512371975e-05
-2.610292308328116e-05   -1.5573183398599104e-07   -6.735678512371975e-05
-2.610292308328116e-05   -1.5573183398599104e-07   -6.735678512371975e-05
-2.610292308328116e-05   -1.5573183398599104e-07   -6.735678512371975e-05
-1.1867302623482295e-06   2.28643939531592e-07   -2.5599171624720956e-05
-1.1867302623482295e-06   2.28643939531592e-07   -2.5599171624720956e-05
-1.1867302623482295e-06   2.28643939531592e-07   -2.5599171624720956e-05
-1.1867302623482295e-06   2.28643939531592e-07   -2.5599171624720956e-05
-1.4424568989891332e-06   1.7560988617461564e-06   -6.67291104542662e-05
-1.4424568989891332e-06   1.7560988617461564e-06   -6.67291104542662e-05
-1.4424568989891332e-06   1.7560988617461564e-06   -6.67291104542662e-05
-1.4424568989891332e-06   1.7560988617461564e-06   -6.67291104542662e-05
-2.64214103728547e-05   1.9772706806882702e-06   -2.5230224422522233e-05
-2.64214103728547e-05   1.9772706806882702e-06   -2.5230224422522233e-05
-2.64214103728547e-05   1.9772706806882702e-06   -2.5230224422522233e-05
-2.64214103728547e-05   1.9772706806882702e-06   -2.5230224422522233e-05
-1.371098040236206e-05   1.1518302140549634e-06   -4.591901009336334e-05
-1.371098040236206e-05   1.1518302140549634e-06   -4.591901009336334e-05
-1.371098040236206e-05   1.1518302140549634e-06   -4.591901009336334e-05
-1.371098040236206e-05   1.1518302140549634e-06   -4.591901009336334e-05
-2.64214103728547e-05   1.7560988617462106e-06   -6.686181354563148e-05
-2.64214103728547e-05   1.7560988617462106e-06   -6.686181354563148e-05
-2.64214103728547e-05   1.7560988617462106e-06   -6.686181354563148e-05
-2.64214103728547e-05   1.7560988617462106e-06   -6.686181354563148e-05
-1.4424568989891357e-06   1.9772706806882702e-06   -2.5097521331156867e-05
-1.4424568989891357e-06   1.9772706806882702e-06   -2.5097521331156867e-05
-1.4424568989891357e-06   1.9772706806882702e-06   -2.5097521331156867e-05
-1.4424568989891357e-06   1.9772706806882702e-06   -2.5097521331156867e-05
-1.6277450060101404e-06   3.6240137935035347e-06   -6.691071348125497e-05
-1.6277450060101404e-06   3.6240137935035347e-06   -6.691071348125497e-05
-1.6277450060101404e-06   3.6240137935035347e-06   -6.691071348125497e-05
-1.6277450060101404e-06   3.6240137935035347e-06   -6.691071348125497e-05
-2.662844238238824e-05   3.72065687824605e-06   -2.5300870371470553e-05
-2.662844238238824e-05   3.72065687824605e-06   -2.5300870371470553e-05
-2.662844238238824e-05   3.72065687824605e-06   -2.5300870371470553e-05
-2.662844238238824e-05   3.72065687824605e-06   -2.5300870371470553e-05
-1.4040620644472616e-05   2.693870145272794e-06   -4.566450122821226e-05
-1.4040620644472616e-05   2.693870145272794e-06   -4.566450122821226e-05
-1.4040620644472616e-05   2.693870145272794e-06   -4.566450122821226e-05
-1.4040620644472616e-05   2.693870145272794e-06   -4.566450122821226e-05
-2.662844238238824e-05   3.6240137935035347e-06   -6.696869933210057e-05
-2.662844238238824e-05   3.6240137935035347e-06   -6.696869933210057e-05
-2.662844238238824e-05   3.6240137935035347e-06   -6.696869933210057e-05
-2.662844238238824e-05   3.6240137935035347e-06   -6.696869933210057e-05
-1.6277450060101429e-06   3.72065687824605e-06   -2.5242884520624794e-05
-1.6277450060101429e-06   3.72065687824605e-06   -2.5242884520624794e-05
-1.6277450060101429e-06   3.72065687824605e-06   -2.5242884520624794e-05
-1.6277450060101429e-06   3.72065687824605e-06   -2.5242884520624794e-05
-1.9180446636115544e-06   5.570300523271188e-06   -6.777183888650995e-05
-1.9180446636115544e-06   5.570300523271188e-06   -6.777183888650995e-05
-1.9180446636115544e-06   5.570300523271188e-06   -6.777183888650995e-05
-1.9180446636115544e-06   5.570300523271188e-06   -6.777183888650995e-05
-2.6895802229771287e-05   5.50460264782057e-06   -2.610282421764028e-05
-2.6895802229771287e-05   5.50460264782057e-06   -2.610282421764028e-05
-2.6895802229771287e-05   5.50460264782057e-06   -2.610282421764028e-05
-2.6895802229771287e-05   5.50460264782057e-06   -2.610282421764028e-05
-1.4390729934821268e-05   4.254225340328025e-06   -4.6194384991394435e-05
-1.4390729934821268e-05   4.254225340328025e-06   -4.6194384991394435e-05
-1.4390729934821268e-05   4.254225340328025e-06   -4.6194384991394435e-05
-1.4390729934821268e-05   4.254225340328025e-06   -4.6194384991394435e-05
-1.1867302623482312e-06   -5.365230071808298e-06   -6.0189782030234314e-05
-1.1867302623482312e-06   -5.365230071808298e-06   -6.0189782030234314e-05
-1.1867302623482312e-06   -5.365230071808298e-06   -6.0189782030234314e-05
-1.1867302623482312e-06   -5.365230071808298e-06   -6.0189782030234314e-05
2.3605952497735824e-05   -3.5992325336583076e-06   -1.780904557387099e-05
2.3605952497735824e-05   -3.5992325336583076e-06   -1.780904557387099e-05
2.3605952497735824e-05   -3.5992325336583076e-06   -1.780904557387099e-05
2.3605952497735824e-05   -3.5992325336583076e-06   -1.780904557387099e-05
2.3586399394160283e-05   -3.6285382099526657e-06   -5.950007143318606e-05
2.3586399394160283e-05   -3.6285382099526657e-06   -5.950007143318606e-05
2.3586399394160283e-05   -3.6285382099526657e-06   -5.950007143318606e-05
2.3586399394160283e-05   -3.6285382099526657e-06   -5.950007143318606e-05
-1.4424568989891357e-06   -1.996786078166629e-06   -1.876436222367527e-05
-1.4424568989891357e-06   -1.996786078166629e-06   -1.876436222367527e-05
-1.4424568989891357e-06   -1.996786078166629e-06   -1.876436222367527e-05
-1.4424568989891357e-06   -1.996786078166629e-06   -1.876436222367527e-05
1.1055627188469225e-05   -3.5215492615713745e-06   -3.8679644459396344e-05
1.1055627188469225e-05   -3.5215492615713745e-06   -3.8679644459396344e-05
1.1055627188469225e-05   -3.5215492615713745e-06   -3.8679644459396344e-05
1.1055627188469225e-05   -3.5215492615713745e-06   -3.8679644459396344e-05
-1.4424568989891357e-06   -3.6285382099526657e-06   -6.047912271225759e-05
-1.4424568989891357e-06   -3.6285382099526657e-06   -6.047912271225759e-05
-1.4424568989891357e-06   -3.6285382099526657e-06   -6.047912271225759e-05
-1.4424568989891357e-06   -3.6285382099526657e-06   -6.047912271225759e-05
2.3586399394160283e-05   -1.996786078166629e-06   -1.778531094460354e-05
2.3586399394160283e-05   -1.996786078166629e-06   -1.778531094460354e-05
2.3586399394160283e-05   -1.996786078166629e-06   -1.778531094460354e-05
2.3586399394160283e-05   -1.996786078166629e-06   -1.778531094460354e-05
2.3695856919390165e-05   -1.9271155500518236e-06   -6.107534153360655e-05
2.3695856919390165e-05   -1.9271155500518236e-06   -6.107534153360655e-05
2.3695856919390165e-05   -1.9271155500518236e-06   -6.107534153360655e-05
2.3695856919390165e-05   -1.9271155500518236e-06   -6.107534153360655e-05
-1.6277450060101463e-06   -4.218445488059046e-07   -1.9772500925353768e-05
-1.6277450060101463e-06   -4.218445488059046e-07   -1.9772500925353768e-05
-1.6277450060101463e-06   -4.218445488059046e-07   -1.9772500925353768e-05
-1.6277450060101463e-06   -4.218445488059046e-07   -1.9772500925353768e-05
1.0715323536628003e-05   -2.1319634712023937e-06   -3.931821047631244e-05
1.0715323536628003e-05   -2.1319634712023937e-06   -3.931821047631244e-05
1.0715323536628003e-05   -2.1319634712023937e-06   -3.931821047631244e-05
1.0715323536628003e-05   -2.1319634712023937e-06   -3.931821047631244e-05
-1.627745006010142e-06   -1.9271155500518236e-06   -6.197850413435386e-05
-1.627745006010142e-06   -1.9271155500518236e-06   -6.197850413435386e-05
-1.627745006010142e-06   -1.9271155500518236e-06   -6.197850413435386e-05
-1.627745006010142e-06   -1.9271155500518236e-06   -6.197850413435386e-05
2.3695856919390165e-05   -4.218445488059046e-07   -1.8869338324605878e-05
2.3695856919390165e-05   -4.218445488059046e-07   -1.8869338324605878e-05
2.3695856919390165e-05   -4.218445488059046e-07   -1.8869338324605878e-05
2.3695856919390165e-05   -4.218445488059046e-07   -1.8869338324605878e-05
2.3512291941239996e-05   1.7764346352499823e-07   -6.285974727198609e-05
2.3512291941239996e-05   1.7764346352499823e-07   -6.285974727198609e-05
2.3512291941239996e-05   1.7764346352499823e-07   -6.285974727198609e-05
2.3512291941239996e-05   1.7764346352499823e-07   -6.285974727198609e-05
-1.918044663611558e-06   1.4199676658290927e-06   -2.1221247451949345e-05
-1.918044663611558e-06   1.4199676658290927e-06   -2.1221247451949345e-05
-1.918044663611558e-06   1.4199676658290927e-06   -2.1221247451949345e-05
-1.918044663611558e-06   1.4199676658290927e-06   -2.1221247451949345e-05
1.0595133379665696e-05   -6.448273025420133e-07   -4.08376672097218e-05
1.0595133379665696e-05   -6.448273025420133e-07   -4.08376672097218e-05
1.0595133379665696e-05   -6.448273025420133e-07   -4.08376672097218e-05
1.0595133379665696e-05   -6.448273025420133e-07   -4.08376672097218e-05
2.360595249773577e-05   -9.974276473019984e-06   -3.3681180577779026e-05
2.360595249773577e-05   -9.974276473019984e-06   -3.3681180577779026e-05
2.360595249773577e-05   -9.974276473019984e-06   -3.3681180577779026e-05
2.360595249773577e-05   -9.974276473019984e-06   -3.3681180577779026e-05
4.6829685747990586e-05   -6.5302563694992315e-06   7.091453568091482e-06
4.6829685747990586e-05   -6.5302563694992315e-06   7.091453568091482e-06
4.6829685747990586e-05   -6.5302563694992315e-06   7.091453568091482e-06
4.6829685747990586e-05   -6.5302563694992315e-06   7.091453568091482e-06
4.840391808769569e-05   -9.050780688785133e-06   -3.790534789500146e-05
4.840391808769569e-05   -9.050780688785133e-06   -3.790534789500146e-05
4.840391808769569e-05   -9.050780688785133e-06   -3.790534789500146e-05
4.840391808769569e-05   -9.050780688785133e-06   -3.790534789500146e-05
2.3586399394160242e-05   -5.607435104726909e-06   1.39117591045607e-06
2.3586399394160242e-05   -5.607435104726909e-06   1.39117591045607e-06
2.3586399394160242e-05   -5.607435104726909e-06   1.39117591045607e-06
2.3586399394160242e-05   -5.607435104726909e-06   1.39117591045607e-06
3.4084641892734204e-05   -7.698519678639253e-06   -1.4851244176153225e-05
3.4084641892734204e-05   -7.698519678639253e-06   -1.4851244176153225e-05
3.4084641892734204e-05   -7.698519678639253e-06   -1.4851244176153225e-05
3.4084641892734204e-05   -7.698519678639253e-06   -1.4851244176153225e-05
2.3586399394160228e-05   -9.050780688785187e-06   -3.9971355245436394e-05
2.3586399394160228e-05   -9.050780688785187e-06   -3.9971355245436394e-05
2.3586399394160228e-05   -9.050780688785187e-06   -3.9971355245436394e-05
2.3586399394160228e-05   -9.050780688785187e-06   -3.9971355245436394e-05
4.840391808769569e-05   -5.6074351047268e-06   3.457183260891167e-06
4.840391808769569e-05   -5.6074351047268e-06   3.457183260891167e-06
4.840391808769569e-05   -5.6074351047268e-06   3.457183260891167e-06
4.840391808769569e-05   -5.6074351047268e-06   3.457183260891167e-06
4.9613046757572424e-05   -8.071597003833804e-06   -4.2754200493070365e-05
4.9613046757572424e-05   -8.071597003833804e-06   -4.2754200493070365e-05
4.9613046757572424e-05   -8.071597003833804e-06   -4.2754200493070365e-05
4.9613046757572424e-05   -8.071597003833804e-06   -4.2754200493070365e-05
2.3695856919390084e-05   -4.8153074360563495e-06   -1.5126578367665139e-06
2.3695856919390084e-05   -4.8153074360563495e-06   -1.5126578367665139e-06
2.3695856919390084e-05   -4.8153074360563495e-06   -1.5126578367665139e-06
2.3695856919390084e-05   -4.8153074360563495e-06   -1.5126578367665139e-06
3.5239941935929794e-05   -7.103056719513963e-06   -1.9380149960924586e-05
3.5239941935929794e-05   -7.103056719513963e-06   -1.9380149960924586e-05
3.5239941935929794e-05   -7.103056719513963e-06   -1.9380149960924586e-05
3.5239941935929794e-05   -7.103056719513963e-06   -1.9380149960924586e-05
2.3695856919390124e-05   -8.071597003833804e-06   -4.470797423373679e-05
2.3695856919390124e-05   -8.071597003833804e-06   -4.470797423373679e-05
2.3695856919390124e-05   -8.071597003833804e-06   -4.470797423373679e-05
2.3695856919390124e-05   -8.071597003833804e-06   -4.470797423373679e-05
4.961304675757237e-05   -4.8153074360563495e-06   4.411159039003059e-07
4.961304675757237e-05   -4.8153074360563495e-06   4.411159039003059e-07
4.961304675757237e-05   -4.8153074360563495e-06   4.411159039003059e-07
4.961304675757237e-05   -4.8153074360563495e-06   4.411159039003059e-07
5.0900817485760824e-05   -5.964237077823098e-06   -5.100221234071769e-05
5.0900817485760824e-05   -5.964237077823098e-06   -5.100221234071769e-05
5.0900817485760824e-05   -5.964237077823098e-06   -5.100221234071769e-05
5.0900817485760824e-05   -5.964237077823098e-06   -5.100221234071769e-05
2.3512291941239915e-05   -3.1226618322874756e-06   -7.0596149138378e-06
2.3512291941239915e-05   -3.1226618322874756e-06   -7.0596149138378e-06
2.3512291941239915e-05   -3.1226618322874756e-06   -7.0596149138378e-06
2.3512291941239915e-05   -3.1226618322874756e-06   -7.0596149138378e-06
3.508676385984948e-05   -6.119856177962146e-06   -2.4552084837448703e-05
3.508676385984948e-05   -6.119856177962146e-06   -2.4552084837448703e-05
3.508676385984948e-05   -6.119856177962146e-06   -2.4552084837448703e-05
3.508676385984948e-05   -6.119856177962146e-06   -2.4552084837448703e-05
-5.626774209206985e-05   8.622344288886042e-06   -4.2792048561220305e-05
-5.626774209206985e-05   8.622344288886042e-06   -4.2792048561220305e-05
-5.626774209206985e-05   8.622344288886042e-06   -4.2792048561220305e-05
-5.626774209206985e-05   8.622344288886042e-06   -4.2792048561220305e-05
-3.830313731954433e-05   5.487372105998992e-06   -1.4732023916743273e-05
-3.830313731954433e-05   5.487372105998992e-06   -1.4732023916743273e-05
-3.830313731954433e-05   5.487372105998992e-06   -1.4732023916743273e-05
-3.830313731954433e-05   5.487372105998992e-06   -1.4732023916743273e-05
-3.816389699205661e-05   1.0429097408658347e-05   -3.6353151043164015e-05
-3.816389699205661e-05   1.0429097408658347e-05   -3.6353151043164015e-05
-3.816389699205661e-05   1.0429097408658347e-05   -3.6353151043164015e-05
-3.816389699205661e-05   1.0429097408658347e-05   -3.6353151043164015e-05
-5.458702898199143e-05   6.983422728755982e-06   -6.913859585331076e-06
-5.458702898199143e-05   6.983422728755982e-06   -6.913859585331076e-06
-5.458702898199143e-05   6.983422728755982e-06   -6.913859585331076e-06
-5.458702898199143e-05   6.983422728755982e-06   -6.913859585331076e-06
-4.484373984515563e-05   8.302358511298085e-06   -2.3944036282916097e-05
-4.484373984515563e-05   8.302358511298085e-06   -2.3944036282916097e-05
-4.484373984515563e-05   8.302358511298085e-06   -2.3944036282916097e-05
-4.484373984515563e-05   8.302358511298085e-06   -2.3944036282916097e-05
-5.458702898199143e-05   1.0429097408658347e-05   -3.4285746235222596e-05
-5.458702898199143e-05   1.0429097408658347e-05   -3.4285746235222596e-05
-5.458702898199143e-05   1.0429097408658347e-05   -3.4285746235222596e-05
-5.458702898199143e-05   1.0429097408658347e-05   -3.4285746235222596e-05
-3.816389699205666e-05   6.983422728755982e-06   -8.981264393272633e-06
-3.816389699205666e-05   6.983422728755982e-06   -8.981264393272633e-06
-3.816389699205666e-05   6.983422728755982e-06   -8.981264393272633e-06
-3.816389699205666e-05   6.983422728755982e-06   -8.981264393272633e-06
-3.787459588771536e-05   1.1222658166198051e-05   -3.1699638739719044e-05
-3.787459588771536e-05   1.1222658166198051e-05   -3.1699638739719044e-05
-3.787459588771536e-05   1.1222658166198051e-05   -3.1699638739719044e-05
-3.787459588771536e-05   1.1222658166198051e-05   -3.1699638739719044e-05
-5.3330265675492e-05   7.680180609696396e-06   -3.8147025595236745e-06
-5.3330265675492e-05   7.680180609696396e-06   -3.8147025595236745e-06
-5.3330265675492e-05   7.680180609696396e-06   -3.8147025595236745e-06
-5.3330265675492e-05   7.680180609696396e-06   -3.8147025595236745e-06
-4.484701709718795e-05   9.137091429054856e-06   -1.8827596681645622e-05
-4.484701709718795e-05   9.137091429054856e-06   -1.8827596681645622e-05
-4.484701709718795e-05   9.137091429054856e-06   -1.8827596681645622e-05
-4.484701709718795e-05   9.137091429054856e-06   -1.8827596681645622e-05
-5.3330265675492e-05   1.1222658166198051e-05   -2.9574152205817975e-05
-5.3330265675492e-05   1.1222658166198051e-05   -2.9574152205817975e-05
-5.3330265675492e-05   1.1222658166198051e-05   -2.9574152205817975e-05
-5.3330265675492e-05   1.1222658166198051e-05   -2.9574152205817975e-05
-3.787459588771544e-05   7.680180609696396e-06   -5.940189093424527e-06
-3.787459588771544e-05   7.680180609696396e-06   -5.940189093424527e-06
-3.787459588771544e-05   7.680180609696396e-06   -5.940189093424527e-06
-3.787459588771544e-05   7.680180609696396e-06   -5.940189093424527e-06
-3.775853629821275e-05   1.2002940581801245e-05   -2.5256885592073067e-05
-3.775853629821275e-05   1.2002940581801245e-05   -2.5256885592073067e-05
-3.775853629821275e-05   1.2002940581801245e-05   -2.5256885592073067e-05
-3.775853629821275e-05   1.2002940581801245e-05   -2.5256885592073067e-05
-5.168544764638062e-05   8.555894970977253e-06   2.286068803453601e-08
-5.168544764638062e-05   8.555894970977253e-06   2.286068803453601e-08
-5.168544764638062e-05   8.555894970977253e-06   2.286068803453601e-08
-5.168544764638062e-05   8.555894970977253e-06   2.286068803453601e-08
-4.352059672509488e-05   9.588843047238509e-06   -1.4204993026531746e-05
-4.352059672509488e-05   9.588843047238509e-06   -1.4204993026531746e-05
-4.352059672509488e-05   9.588843047238509e-06   -1.4204993026531746e-05
-4.352059672509488e-05   9.588843047238509e-06   -1.4204993026531746e-05
-3.830313731954425e-05   4.298344588742325e-06   -5.450831156895964e-05
-3.830313731954425e-05   4.298344588742325e-06   -5.450831156895964e-05
-3.830313731954425e-05   4.298344588742325e-06   -5.450831156895964e-05
-3.830313731954425e-05   4.298344588742325e-06   -5.450831156895964e-05
-2.2022801603872392e-05   2.8354753369070652e-06   -2.825214026060764e-05
-2.2022801603872392e-05   2.8354753369070652e-06   -2.825214026060764e-05
-2.2022801603872392e-05   2.8354753369070652e-06   -2.825214026060764e-05
-2.2022801603872392e-05   2.8354753369070652e-06   -2.825214026060764e-05
-2.203340886511002e-05   6.075054343914919e-06   -5.404096734760891e-05
-2.203340886511002e-05   6.075054343914919e-06   -5.404096734760891e-05
-2.203340886511002e-05   6.075054343914919e-06   -5.404096734760891e-05
-2.203340886511002e-05   6.075054343914919e-06   -5.404096734760891e-05
-3.816389699205661e-05   4.414698785861967e-06   -2.616060713453265e-05
-3.816389699205661e-05   4.414698785861967e-06   -2.616060713453265e-05
-3.816389699205661e-05   4.414698785861967e-06   -2.616060713453265e-05
-3.816389699205661e-05   4.414698785861967e-06   -2.616060713453265e-05
-2.9853090376901364e-05   4.700645441271453e-06   -4.018351948637062e-05
-2.9853090376901364e-05   4.700645441271453e-06   -4.018351948637062e-05
-2.9853090376901364e-05   4.700645441271453e-06   -4.018351948637062e-05
-2.9853090376901364e-05   4.700645441271453e-06   -4.018351948637062e-05
-3.816389699205658e-05   6.075054343915027e-06   -5.304475401277683e-05
-3.816389699205658e-05   6.075054343915027e-06   -5.304475401277683e-05
-3.816389699205658e-05   6.075054343915027e-06   -5.304475401277683e-05
-3.816389699205658e-05   6.075054343915027e-06   -5.304475401277683e-05
-2.203340886511002e-05   4.414698785861967e-06   -2.715682046936451e-05
-2.203340886511002e-05   4.414698785861967e-06   -2.715682046936451e-05
-2.203340886511002e-05   4.414698785861967e-06   -2.715682046936451e-05
-2.203340886511002e-05   4.414698785861967e-06   -2.715682046936451e-05
-2.2016961130293382e-05   7.653198731105834e-06   -5.282963666708039e-05
-2.2016961130293382e-05   7.653198731105834e-06   -5.282963666708039e-05
-2.2016961130293382e-05   7.653198731105834e-06   -5.282963666708039e-05
-2.2016961130293382e-05   7.653198731105834e-06   -5.282963666708039e-05
-3.787459588771536e-05   5.851395674339507e-06   -2.5319163570650615e-05
-3.787459588771536e-05   5.851395674339507e-06   -2.5319163570650615e-05
-3.787459588771536e-05   5.851395674339507e-06   -2.5319163570650615e-05
-3.787459588771536e-05   5.851395674339507e-06   -2.5319163570650615e-05
-2.9713827660616012e-05   5.997275990704998e-06   -3.9007972138968474e-05
-2.9713827660616012e-05   5.997275990704998e-06   -3.9007972138968474e-05
-2.9713827660616012e-05   5.997275990704998e-06   -3.9007972138968474e-05
-2.9713827660616012e-05   5.997275990704998e-06   -3.9007972138968474e-05
-3.787459588771536e-05   7.653198731105834e-06   -5.1748554833020626e-05
-3.787459588771536e-05   7.653198731105834e-06   -5.1748554833020626e-05
-3.787459588771536e-05   7.653198731105834e-06   -5.1748554833020626e-05
-3.787459588771536e-05   7.653198731105834e-06   -5.1748554833020626e-05
-2.2016961130293423e-05   5.851395674339507e-06   -2.6400245404710243e-05
-2.2016961130293423e-05   5.851395674339507e-06   -2.6400245404710243e-05
-2.2016961130293423e-05   5.851395674339507e-06   -2.6400245404710243e-05
-2.2016961130293423e-05   5.851395674339507e-06   -2.6400245404710243e-05
-2.2034342421071152e-05   9.331618266986553e-06   -5.3042474955093915e-05
-2.2034342421071152e-05   9.331618266986553e-06   -5.3042474955093915e-05
-2.2034342421071152e-05   9.331618266986553e-06   -5.3042474955093915e-05
-2.2034342421071152e-05   9.331618266986553e-06   -5.3042474955093915e-05
-3.77585362982128e-05   7.411659542988936e-06   -2.568350992545904e-05
-3.77585362982128e-05   7.411659542988936e-06   -2.568350992545904e-05
-3.77585362982128e-05   7.411659542988936e-06   -2.568350992545904e-05
-3.77585362982128e-05   7.411659542988936e-06   -2.568350992545904e-05
-2.9906074303231944e-05   7.279711588537236e-06   -3.869177781108931e-05
-2.9906074303231944e-05   7.279711588537236e-06   -3.869177781108931e-05
-2.9906074303231944e-05   7.279711588537236e-06   -3.869177781108931e-05
-2.9906074303231944e-05   7.279711588537236e-06   -3.869177781108931e-05
-2.202280160387235e-05   2.28643939531592e-07   -6.015510216281808e-05
-2.202280160387235e-05   2.28643939531592e-07   -6.015510216281808e-05
-2.202280160387235e-05   2.28643939531592e-07   -6.015510216281808e-05
-2.202280160387235e-05   2.28643939531592e-07   -6.015510216281808e-05
-5.970072376458828e-06   4.872264107646726e-07   -3.32454039677225e-05
-5.970072376458828e-06   4.872264107646726e-07   -3.32454039677225e-05
-5.970072376458828e-06   4.872264107646726e-07   -3.32454039677225e-05
-5.970072376458828e-06   4.872264107646726e-07   -3.32454039677225e-05
-5.981253995779671e-06   1.9772706806882702e-06   -5.949187911849095e-05
-5.981253995779671e-06   1.9772706806882702e-06   -5.949187911849095e-05
-5.981253995779671e-06   1.9772706806882702e-06   -5.949187911849095e-05
-5.981253995779671e-06   1.9772706806882702e-06   -5.949187911849095e-05
-2.2033408865109992e-05   2.0747150237380475e-06   -3.279675427543695e-05
-2.2033408865109992e-05   2.0747150237380475e-06   -3.279675427543695e-05
-2.2033408865109992e-05   2.0747150237380475e-06   -3.279675427543695e-05
-2.2033408865109992e-05   2.0747150237380475e-06   -3.279675427543695e-05
-1.3908937884586606e-05   1.3970600824953893e-06   -4.593094627823027e-05
-1.3908937884586606e-05   1.3970600824953893e-06   -4.593094627823027e-05
-1.3908937884586606e-05   1.3970600824953893e-06   -4.593094627823027e-05
-1.3908937884586606e-05   1.3970600824953893e-06   -4.593094627823027e-05
-2.2033408865109992e-05   1.9772706806882702e-06   -5.9550345724320765e-05
-2.2033408865109992e-05   1.9772706806882702e-06   -5.9550345724320765e-05
-2.2033408865109992e-05   1.9772706806882702e-06   -5.9550345724320765e-05
-2.2033408865109992e-05   1.9772706806882702e-06   -5.9550345724320765e-05
-5.981253995779671e-06   2.0747150237380475e-06   -3.273828766960703e-05
-5.981253995779671e-06   2.0747150237380475e-06   -3.273828766960703e-05
-5.981253995779671e-06   2.0747150237380475e-06   -3.273828766960703e-05
-5.981253995779671e-06   2.0747150237380475e-06   -3.273828766960703e-05
-5.960004959911911e-06   3.72065687824605e-06   -5.9643619550967236e-05
-5.960004959911911e-06   3.72065687824605e-06   -5.9643619550967236e-05
-5.960004959911911e-06   3.72065687824605e-06   -5.9643619550967236e-05
-5.960004959911911e-06   3.72065687824605e-06   -5.9643619550967236e-05
-2.2016961130293382e-05   3.6672738348592516e-06   -3.284999610763276e-05
-2.2016961130293382e-05   3.6672738348592516e-06   -3.284999610763276e-05
-2.2016961130293382e-05   3.6672738348592516e-06   -3.284999610763276e-05
-2.2016961130293382e-05   3.6672738348592516e-06   -3.284999610763276e-05
-1.4001877916294885e-05   2.7855994899949124e-06   -4.567946352404499e-05
-1.4001877916294885e-05   2.7855994899949124e-06   -4.567946352404499e-05
-1.4001877916294885e-05   2.7855994899949124e-06   -4.567946352404499e-05
-1.4001877916294885e-05   2.7855994899949124e-06   -4.567946352404499e-05
-2.2016961130293382e-05   3.72065687824605e-06   -5.961158972493517e-05
-2.2016961130293382e-05   3.72065687824605e-06   -5.961158972493517e-05
-2.2016961130293382e-05   3.72065687824605e-06   -5.961158972493517e-05
-2.2016961130293382e-05   3.72065687824605e-06   -5.961158972493517e-05
-5.96000495991192e-06   3.6672738348592516e-06   -3.288202593366475e-05
-5.96000495991192e-06   3.6672738348592516e-06   -3.288202593366475e-05
-5.96000495991192e-06   3.6672738348592516e-06   -3.288202593366475e-05
-5.96000495991192e-06   3.6672738348592516e-06   -3.288202593366475e-05
-5.969300476007992e-06   5.50460264782057e-06   -6.054575388631921e-05
-5.969300476007992e-06   5.50460264782057e-06   -6.054575388631921e-05
-5.969300476007992e-06   5.50460264782057e-06   -6.054575388631921e-05
-5.969300476007992e-06   5.50460264782057e-06   -6.054575388631921e-05
-2.203434242107114e-05   5.287677126046943e-06   -3.364052866481601e-05
-2.203434242107114e-05   5.287677126046943e-06   -3.364052866481601e-05
-2.203434242107114e-05   5.287677126046943e-06   -3.364052866481601e-05
-2.203434242107114e-05   5.287677126046943e-06   -3.364052866481601e-05
-1.4122087120081234e-05   4.192371620020648e-06   -4.617043752951685e-05
-1.4122087120081234e-05   4.192371620020648e-06   -4.617043752951685e-05
-1.4122087120081234e-05   4.192371620020648e-06   -4.617043752951685e-05
-1.4122087120081234e-05   4.192371620020648e-06   -4.617043752951685e-05
-5.970072376458817e-06   -3.599232533658416e-06   -5.326942515211831e-05
-5.970072376458817e-06   -3.599232533658416e-06   -5.326942515211831e-05
-5.970072376458817e-06   -3.599232533658416e-06   -5.326942515211831e-05
-5.970072376458817e-06   -3.599232533658416e-06   -5.326942515211831e-05
9.851123837274471e-06   -1.6606173492094128e-06   -2.573759568522669e-05
9.851123837274471e-06   -1.6606173492094128e-06   -2.573759568522669e-05
9.851123837274471e-06   -1.6606173492094128e-06   -2.573759568522669e-05
9.851123837274471e-06   -1.6606173492094128e-06   -2.573759568522669e-05
9.980377862208505e-06   -1.996786078166629e-06   -5.2060051131148834e-05
9.980377862208505e-06   -1.996786078166629e-06   -5.2060051131148834e-05
9.980377862208505e-06   -1.996786078166629e-06   -5.2060051131148834e-05
9.980377862208505e-06   -1.996786078166629e-06   -5.2060051131148834e-05
-5.981253995779671e-06   -1.656712783995075e-07   -2.6556000247695535e-05
-5.981253995779671e-06   -1.656712783995075e-07   -2.6556000247695535e-05
-5.981253995779671e-06   -1.656712783995075e-07   -2.6556000247695535e-05
-5.981253995779671e-06   -1.656712783995075e-07   -2.6556000247695535e-05
1.9790321319707584e-06   -1.7176403692600439e-06   -3.889196233942998e-05
1.9790321319707584e-06   -1.7176403692600439e-06   -3.889196233942998e-05
1.9790321319707584e-06   -1.7176403692600439e-06   -3.889196233942998e-05
1.9790321319707584e-06   -1.7176403692600439e-06   -3.889196233942998e-05
-5.981253995779671e-06   -1.996786078166629e-06   -5.315872001100924e-05
-5.981253995779671e-06   -1.996786078166629e-06   -5.315872001100924e-05
-5.981253995779671e-06   -1.996786078166629e-06   -5.315872001100924e-05
-5.981253995779671e-06   -1.996786078166629e-06   -5.315872001100924e-05
9.980377862208546e-06   -1.6567127839972433e-07   -2.5457331367835295e-05
9.980377862208546e-06   -1.6567127839972433e-07   -2.5457331367835295e-05
9.980377862208546e-06   -1.6567127839972433e-07   -2.5457331367835295e-05
9.980377862208546e-06   -1.6567127839972433e-07   -2.5457331367835295e-05
1.0284494095122467e-05   -4.218445488059046e-07   -5.315644563480722e-05
1.0284494095122467e-05   -4.218445488059046e-07   -5.315644563480722e-05
1.0284494095122467e-05   -4.218445488059046e-07   -5.315644563480722e-05
1.0284494095122467e-05   -4.218445488059046e-07   -5.315644563480722e-05
-5.96000495991192e-06   1.2728059860084816e-06   -2.7099070863971913e-05
-5.96000495991192e-06   1.2728059860084816e-06   -2.7099070863971913e-05
-5.96000495991192e-06   1.2728059860084816e-06   -2.7099070863971913e-05
-5.96000495991192e-06   1.2728059860084816e-06   -2.7099070863971913e-05
1.887616392224366e-06   -4.7407650707626415e-07   -3.91303102883482e-05
1.887616392224366e-06   -4.7407650707626415e-07   -3.91303102883482e-05
1.887616392224366e-06   -4.7407650707626415e-07   -3.91303102883482e-05
1.887616392224366e-06   -4.7407650707626415e-07   -3.91303102883482e-05
-5.960004959911915e-06   -4.218445488059046e-07   -5.417323595569576e-05
-5.960004959911915e-06   -4.218445488059046e-07   -5.417323595569576e-05
-5.960004959911915e-06   -4.218445488059046e-07   -5.417323595569576e-05
-5.960004959911915e-06   -4.218445488059046e-07   -5.417323595569576e-05
1.0284494095122508e-05   1.2728059860086984e-06   -2.6082280543083093e-05
1.0284494095122508e-05   1.2728059860086984e-06   -2.6082280543083093e-05
1.0284494095122508e-05   1.2728059860086984e-06   -2.6082280543083093e-05
1.0284494095122508e-05   1.2728059860086984e-06   -2.6082280543083093e-05
1.0433203193332751e-05   1.4199676658289842e-06   -5.4723645110188695e-05
1.0433203193332751e-05   1.4199676658289842e-06   -5.4723645110188695e-05
1.0433203193332751e-05   1.4199676658289842e-06   -5.4723645110188695e-05
1.0433203193332751e-05   1.4199676658289842e-06   -5.4723645110188695e-05
-5.969300476007982e-06   2.9218231411105248e-06   -2.8287252279789597e-05
-5.969300476007982e-06   2.9218231411105248e-06   -2.8287252279789597e-05
-5.969300476007982e-06   2.9218231411105248e-06   -2.8287252279789597e-05
-5.969300476007982e-06   2.9218231411105248e-06   -2.8287252279789597e-05
1.942826368486817e-06   8.564226748328848e-07   -4.023489007418099e-05
1.942826368486817e-06   8.564226748328848e-07   -4.023489007418099e-05
1.942826368486817e-06   8.564226748328848e-07   -4.023489007418099e-05
1.942826368486817e-06   8.564226748328848e-07   -4.023489007418099e-05
9.851123837274458e-06   -6.5302563694992315e-06   -2.927216896159862e-05
9.851123837274458e-06   -6.5302563694992315e-06   -2.927216896159862e-05
9.851123837274458e-06   -6.5302563694992315e-06   -2.927216896159862e-05
9.851123837274458e-06   -6.5302563694992315e-06   -2.927216896159862e-05
2.3910227616121433e-05   -3.0532681911709172e-06   -3.754136423189929e-06
2.3910227616121433e-05   -3.0532681911709172e-06   -3.754136423189929e-06
2.3910227616121433e-05   -3.0532681911709172e-06   -3.754136423189929e-06
2.3910227616121433e-05   -3.0532681911709172e-06   -3.754136423189929e-06
2.5577386739206268e-05   -5.6074351047268e-06   -3.074376934051641e-05
2.5577386739206268e-05   -5.6074351047268e-06   -3.074376934051641e-05
2.5577386739206268e-05   -5.6074351047268e-06   -3.074376934051641e-05
2.5577386739206268e-05   -5.6074351047268e-06   -3.074376934051641e-05
9.980377862208519e-06   -2.041110212105436e-06   -6.888549481093092e-06
9.980377862208519e-06   -2.041110212105436e-06   -6.888549481093092e-06
9.980377862208519e-06   -2.041110212105436e-06   -6.888549481093092e-06
9.980377862208519e-06   -2.041110212105436e-06   -6.888549481093092e-06
1.6590854609899126e-05   -4.174621946374411e-06   -1.6625903686682706e-05
1.6590854609899126e-05   -4.174621946374411e-06   -1.6625903686682706e-05
1.6590854609899126e-05   -4.174621946374411e-06   -1.6625903686682706e-05
1.6590854609899126e-05   -4.174621946374411e-06   -1.6625903686682706e-05
9.980377862208519e-06   -5.607435104726909e-06   -3.288356427608906e-05
9.980377862208519e-06   -5.607435104726909e-06   -3.288356427608906e-05
9.980377862208519e-06   -5.607435104726909e-06   -3.288356427608906e-05
9.980377862208519e-06   -5.607435104726909e-06   -3.288356427608906e-05
2.557738673920616e-05   -2.041110212105436e-06   -4.748754545520306e-06
2.557738673920616e-05   -2.041110212105436e-06   -4.748754545520306e-06
2.557738673920616e-05   -2.041110212105436e-06   -4.748754545520306e-06
2.557738673920616e-05   -2.041110212105436e-06   -4.748754545520306e-06
2.6860322528829514e-05   -4.8153074360563495e-06   -3.371577522908676e-05
2.6860322528829514e-05   -4.8153074360563495e-06   -3.371577522908676e-05
2.6860322528829514e-05   -4.8153074360563495e-06   -3.371577522908676e-05
2.6860322528829514e-05   -4.8153074360563495e-06   -3.371577522908676e-05
1.0284494095122508e-05   -1.3419909062548085e-06   -8.17338442412268e-06
1.0284494095122508e-05   -1.3419909062548085e-06   -8.17338442412268e-06
1.0284494095122508e-05   -1.3419909062548085e-06   -8.17338442412268e-06
1.0284494095122508e-05   -1.3419909062548085e-06   -8.17338442412268e-06
1.7610404627905836e-05   -3.6550315989644167e-06   -1.899541089646909e-05
1.7610404627905836e-05   -3.6550315989644167e-06   -1.899541089646909e-05
1.7610404627905836e-05   -3.6550315989644167e-06   -1.899541089646909e-05
1.7610404627905836e-05   -3.6550315989644167e-06   -1.899541089646909e-05
1.0284494095122494e-05   -4.8153074360563495e-06   -3.5799765146967636e-05
1.0284494095122494e-05   -4.8153074360563495e-06   -3.5799765146967636e-05
1.0284494095122494e-05   -4.8153074360563495e-06   -3.5799765146967636e-05
1.0284494095122494e-05   -4.8153074360563495e-06   -3.5799765146967636e-05
2.6860322528829433e-05   -1.3419909062548085e-06   -6.089394506241506e-06
2.6860322528829433e-05   -1.3419909062548085e-06   -6.089394506241506e-06
2.6860322528829433e-05   -1.3419909062548085e-06   -6.089394506241506e-06
2.6860322528829433e-05   -1.3419909062548085e-06   -6.089394506241506e-06
2.8564846029192903e-05   -3.122661832287584e-06   -3.9413979275388234e-05
2.8564846029192903e-05   -3.122661832287584e-06   -3.9413979275388234e-05
2.8564846029192903e-05   -3.122661832287584e-06   -3.9413979275388234e-05
2.8564846029192903e-05   -3.122661832287584e-06   -3.9413979275388234e-05
1.0433203193332778e-05   3.3051197831542034e-08   -1.1088002367025981e-05
1.0433203193332778e-05   3.3051197831542034e-08   -1.1088002367025981e-05
1.0433203193332778e-05   3.3051197831542034e-08   -1.1088002367025981e-05
1.0433203193332778e-05   3.3051197831542034e-08   -1.1088002367025981e-05
1.794876457260099e-05   -2.881092270198252e-06   -2.1865451918321864e-05
1.794876457260099e-05   -2.881092270198252e-06   -2.1865451918321864e-05
1.794876457260099e-05   -2.881092270198252e-06   -2.1865451918321864e-05
1.794876457260099e-05   -2.881092270198252e-06   -2.1865451918321864e-05
-3.408053810814054e-05   5.487372105998992e-06   -3.192577584883302e-05
-3.408053810814054e-05   5.487372105998992e-06   -3.192577584883302e-05
-3.408053810814054e-05   5.487372105998992e-06   -3.192577584883302e-05
-3.408053810814054e-05   5.487372105998992e-06   -3.192577584883302e-05
-2.5154239429709264e-05   2.2374268539928927e-06   -1.8998578535984605e-05
-2.5154239429709264e-05   2.2374268539928927e-06   -1.8998578535984605e-05
-2.5154239429709264e-05   2.2374268539928927e-06   -1.8998578535984605e-05
-2.5154239429709264e-05   2.2374268539928927e-06   -1.8998578535984605e-05
-2.4783711325776395e-05   6.983422728755982e-06   -2.8164239341215043e-05
-2.4783711325776395e-05   6.983422728755982e-06   -2.8164239341215043e-05
-2.4783711325776395e-05   6.983422728755982e-06   -2.8164239341215043e-05
-2.4783711325776395e-05   6.983422728755982e-06   -2.8164239341215043e-05
-3.222994766273544e-05   3.482657519529239e-06   -1.365338632074685e-05
-3.222994766273544e-05   3.482657519529239e-06   -1.365338632074685e-05
-3.222994766273544e-05   3.482657519529239e-06   -1.365338632074685e-05
-3.222994766273544e-05   3.482657519529239e-06   -1.365338632074685e-05
-2.7830781411346324e-05   4.921835324802129e-06   -2.1848836756227226e-05
-2.7830781411346324e-05   4.921835324802129e-06   -2.1848836756227226e-05
-2.7830781411346324e-05   4.921835324802129e-06   -2.1848836756227226e-05
-2.7830781411346324e-05   4.921835324802129e-06   -2.1848836756227226e-05
-3.222994766273544e-05   6.983422728755982e-06   -2.6063780215678954e-05
-3.222994766273544e-05   6.983422728755982e-06   -2.6063780215678954e-05
-3.222994766273544e-05   6.983422728755982e-06   -2.6063780215678954e-05
-3.222994766273544e-05   6.983422728755982e-06   -2.6063780215678954e-05
-2.478371132577642e-05   3.482657519529239e-06   -1.5753845446283047e-05
-2.478371132577642e-05   3.482657519529239e-06   -1.5753845446283047e-05
-2.478371132577642e-05   3.482657519529239e-06   -1.5753845446283047e-05
-2.478371132577642e-05   3.482657519529239e-06   -1.5753845446283047e-05
-2.425505284029482e-05   7.680180609696396e-06   -2.5149375088371955e-05
-2.425505284029482e-05   7.680180609696396e-06   -2.5149375088371955e-05
-2.425505284029482e-05   7.680180609696396e-06   -2.5149375088371955e-05
-2.425505284029482e-05   7.680180609696396e-06   -2.5149375088371955e-05
-3.075329840361953e-05   4.11150795296745e-06   -1.2177762222126604e-05
-3.075329840361953e-05   4.11150795296745e-06   -1.2177762222126604e-05
-3.075329840361953e-05   4.11150795296745e-06   -1.2177762222126604e-05
-3.075329840361953e-05   4.11150795296745e-06   -1.2177762222126604e-05
-2.7342436014928762e-05   5.593627507019788e-06   -1.8751804602376056e-05
-2.7342436014928762e-05   5.593627507019788e-06   -1.8751804602376056e-05
-2.7342436014928762e-05   5.593627507019788e-06   -1.8751804602376056e-05
-2.7342436014928762e-05   5.593627507019788e-06   -1.8751804602376056e-05
-3.075329840361948e-05   7.680180609696396e-06   -2.30081714943345e-05
-3.075329840361948e-05   7.680180609696396e-06   -2.30081714943345e-05
-3.075329840361948e-05   7.680180609696396e-06   -2.30081714943345e-05
-3.075329840361948e-05   7.680180609696396e-06   -2.30081714943345e-05
-2.4255052840294874e-05   4.11150795296745e-06   -1.4318965816164004e-05
-2.4255052840294874e-05   4.11150795296745e-06   -1.4318965816164004e-05
-2.4255052840294874e-05   4.11150795296745e-06   -1.4318965816164004e-05
-2.4255052840294874e-05   4.11150795296745e-06   -1.4318965816164004e-05
-2.389443625441592e-05   8.555894970977253e-06   -2.128105554454222e-05
-2.389443625441592e-05   8.555894970977253e-06   -2.128105554454222e-05
-2.389443625441592e-05   8.555894970977253e-06   -2.128105554454222e-05
-2.389443625441592e-05   8.555894970977253e-06   -2.128105554454222e-05
-2.8872875600919397e-05   5.107486783713236e-06   -1.091461172134415e-05
-2.8872875600919397e-05   5.107486783713236e-06   -1.091461172134415e-05
-2.8872875600919397e-05   5.107486783713236e-06   -1.091461172134415e-05
-2.8872875600919397e-05   5.107486783713236e-06   -1.091461172134415e-05
-2.606444228706464e-05   6.058898187515874e-06   -1.616618075338445e-05
-2.606444228706464e-05   6.058898187515874e-06   -1.616618075338445e-05
-2.606444228706464e-05   6.058898187515874e-06   -1.616618075338445e-05
-2.606444228706464e-05   6.058898187515874e-06   -1.616618075338445e-05
-2.5154239429709264e-05   2.835475336907282e-06   -4.65181377927998e-05
-2.5154239429709264e-05   2.835475336907282e-06   -4.65181377927998e-05
-2.5154239429709264e-05   2.835475336907282e-06   -4.65181377927998e-05
-2.5154239429709264e-05   2.835475336907282e-06   -4.65181377927998e-05
-1.7902711326151877e-05   1.2829117416648245e-06   -3.536379577734957e-05
-1.7902711326151877e-05   1.2829117416648245e-06   -3.536379577734957e-05
-1.7902711326151877e-05   1.2829117416648245e-06   -3.536379577734957e-05
-1.7902711326151877e-05   1.2829117416648245e-06   -3.536379577734957e-05
-1.765972286579267e-05   4.414698785861967e-06   -4.636604317197386e-05
-1.765972286579267e-05   4.414698785861967e-06   -4.636604317197386e-05
-1.765972286579267e-05   4.414698785861967e-06   -4.636604317197386e-05
-1.765972286579267e-05   4.414698785861967e-06   -4.636604317197386e-05
-2.478371132577642e-05   2.710596970030652e-06   -3.3470267982501766e-05
-2.478371132577642e-05   2.710596970030652e-06   -3.3470267982501766e-05
-2.478371132577642e-05   2.710596970030652e-06   -3.3470267982501766e-05
-2.478371132577642e-05   2.710596970030652e-06   -3.3470267982501766e-05
-2.1166722226687818e-05   3.0844466868966587e-06   -3.972289297777008e-05
-2.1166722226687818e-05   3.0844466868966587e-06   -3.972289297777008e-05
-2.1166722226687818e-05   3.0844466868966587e-06   -3.972289297777008e-05
-2.1166722226687818e-05   3.0844466868966587e-06   -3.972289297777008e-05
-2.4783711325776367e-05   4.414698785861967e-06   -4.5343582082474766e-05
-2.4783711325776367e-05   4.414698785861967e-06   -4.5343582082474766e-05
-2.4783711325776367e-05   4.414698785861967e-06   -4.5343582082474766e-05
-2.4783711325776367e-05   4.414698785861967e-06   -4.5343582082474766e-05
-1.765972286579267e-05   2.7105969700304353e-06   -3.4492729072000804e-05
-1.765972286579267e-05   2.7105969700304353e-06   -3.4492729072000804e-05
-1.765972286579267e-05   2.7105969700304353e-06   -3.4492729072000804e-05
-1.765972286579267e-05   2.7105969700304353e-06   -3.4492729072000804e-05
-1.7391416264971626e-05   5.851395674339507e-06   -4.56164675874082e-05
-1.7391416264971626e-05   5.851395674339507e-06   -4.56164675874082e-05
-1.7391416264971626e-05   5.851395674339507e-06   -4.56164675874082e-05
-1.7391416264971626e-05   5.851395674339507e-06   -4.56164675874082e-05
-2.42550528402949e-05   4.037865637989378e-06   -3.308895527339231e-05
-2.42550528402949e-05   4.037865637989378e-06   -3.308895527339231e-05
-2.42550528402949e-05   4.037865637989378e-06   -3.308895527339231e-05
-2.42550528402949e-05   4.037865637989378e-06   -3.308895527339231e-05
-2.0847389079577366e-05   4.238490654332426e-06   -3.888876988439381e-05
-2.0847389079577366e-05   4.238490654332426e-06   -3.888876988439381e-05
-2.0847389079577366e-05   4.238490654332426e-06   -3.888876988439381e-05
-2.0847389079577366e-05   4.238490654332426e-06   -3.888876988439381e-05
-2.425505284029482e-05   5.851395674339507e-06   -4.452834956559788e-05
-2.425505284029482e-05   5.851395674339507e-06   -4.452834956559788e-05
-2.425505284029482e-05   5.851395674339507e-06   -4.452834956559788e-05
-2.425505284029482e-05   5.851395674339507e-06   -4.452834956559788e-05
-1.73914162649716e-05   4.037865637989161e-06   -3.417707329520246e-05
-1.73914162649716e-05   4.037865637989161e-06   -3.417707329520246e-05
-1.73914162649716e-05   4.037865637989161e-06   -3.417707329520246e-05
-1.73914162649716e-05   4.037865637989161e-06   -3.417707329520246e-05
-1.7152658525640107e-05   7.411659542989153e-06   -4.605873032699102e-05
-1.7152658525640107e-05   7.411659542989153e-06   -4.605873032699102e-05
-1.7152658525640107e-05   7.411659542989153e-06   -4.605873032699102e-05
-1.7152658525640107e-05   7.411659542989153e-06   -4.605873032699102e-05
-2.3894436254415973e-05   5.512440317239969e-06   -3.368290257691473e-05
-2.3894436254415973e-05   5.512440317239969e-06   -3.368290257691473e-05
-2.3894436254415973e-05   5.512440317239969e-06   -3.368290257691473e-05
-2.3894436254415973e-05   5.512440317239969e-06   -3.368290257691473e-05
-2.0722181271946356e-05   5.407114721333369e-06   -3.8906798856820656e-05
-2.0722181271946356e-05   5.407114721333369e-06   -3.8906798856820656e-05
-2.0722181271946356e-05   5.407114721333369e-06   -3.8906798856820656e-05
-2.0722181271946356e-05   5.407114721333369e-06   -3.8906798856820656e-05
-1.7902711326151795e-05   4.872264107644558e-07   -5.259808913979976e-05
-1.7902711326151795e-05   4.872264107644558e-07   -5.259808913979976e-05
-1.7902711326151795e-05   4.872264107644558e-07   -5.259808913979976e-05
-1.7902711326151795e-05   4.872264107644558e-07   -5.259808913979976e-05
-1.0837465119494333e-05   7.34180535163706e-07   -4.06745063207312e-05
-1.0837465119494333e-05   7.34180535163706e-07   -4.06745063207312e-05
-1.0837465119494333e-05   7.34180535163706e-07   -4.06745063207312e-05
-1.0837465119494333e-05   7.34180535163706e-07   -4.06745063207312e-05
-1.0600565094993584e-05   2.0747150237380475e-06   -5.193799489907366e-05
-1.0600565094993584e-05   2.0747150237380475e-06   -5.193799489907366e-05
-1.0600565094993584e-05   2.0747150237380475e-06   -5.193799489907366e-05
-1.0600565094993584e-05   2.0747150237380475e-06   -5.193799489907366e-05
-1.765972286579267e-05   2.1880184886927546e-06   -4.0240714026714146e-05
-1.765972286579267e-05   2.1880184886927546e-06   -4.0240714026714146e-05
-1.765972286579267e-05   2.1880184886927546e-06   -4.0240714026714146e-05
-1.765972286579267e-05   2.1880184886927546e-06   -4.0240714026714146e-05
-1.415883547437493e-05   1.5732638728614343e-06   -4.570667357624617e-05
-1.415883547437493e-05   1.5732638728614343e-06   -4.570667357624617e-05
-1.415883547437493e-05   1.5732638728614343e-06   -4.570667357624617e-05
-1.415883547437493e-05   1.5732638728614343e-06   -4.570667357624617e-05
-1.7659722865792643e-05   2.0747150237380475e-06   -5.2005976978046356e-05
-1.7659722865792643e-05   2.0747150237380475e-06   -5.2005976978046356e-05
-1.7659722865792643e-05   2.0747150237380475e-06   -5.2005976978046356e-05
-1.7659722865792643e-05   2.0747150237380475e-06   -5.2005976978046356e-05
-1.0600565094993584e-05   2.1880184886927546e-06   -4.017273194774167e-05
-1.0600565094993584e-05   2.1880184886927546e-06   -4.017273194774167e-05
-1.0600565094993584e-05   2.1880184886927546e-06   -4.017273194774167e-05
-1.0600565094993584e-05   2.1880184886927546e-06   -4.017273194774167e-05
-1.0334191190342409e-05   3.6672738348592516e-06   -5.207381910683306e-05
-1.0334191190342409e-05   3.6672738348592516e-06   -5.207381910683306e-05
-1.0334191190342409e-05   3.6672738348592516e-06   -5.207381910683306e-05
-1.0334191190342409e-05   3.6672738348592516e-06   -5.207381910683306e-05
-1.73914162649716e-05   3.654605807354872e-06   -4.030417649928165e-05
-1.73914162649716e-05   3.654605807354872e-06   -4.030417649928165e-05
-1.73914162649716e-05   3.654605807354872e-06   -4.030417649928165e-05
-1.73914162649716e-05   3.654605807354872e-06   -4.030417649928165e-05
-1.39997273813259e-05   2.82215474769424e-06   -4.545752066956144e-05
-1.39997273813259e-05   2.82215474769424e-06   -4.545752066956144e-05
-1.39997273813259e-05   2.82215474769424e-06   -4.545752066956144e-05
-1.39997273813259e-05   2.82215474769424e-06   -4.545752066956144e-05
-1.7391416264971572e-05   3.6672738348592516e-06   -5.20662182903305e-05
-1.7391416264971572e-05   3.6672738348592516e-06   -5.20662182903305e-05
-1.7391416264971572e-05   3.6672738348592516e-06   -5.20662182903305e-05
-1.7391416264971572e-05   3.6672738348592516e-06   -5.20662182903305e-05
-1.0334191190342427e-05   3.654605807354872e-06   -4.0311777315784345e-05
-1.0334191190342427e-05   3.654605807354872e-06   -4.0311777315784345e-05
-1.0334191190342427e-05   3.654605807354872e-06   -4.0311777315784345e-05
-1.0334191190342427e-05   3.654605807354872e-06   -4.0311777315784345e-05
-1.009482946861019e-05   5.287677126046943e-06   -5.29503934457847e-05
-1.009482946861019e-05   5.287677126046943e-06   -5.29503934457847e-05
-1.009482946861019e-05   5.287677126046943e-06   -5.29503934457847e-05
-1.009482946861019e-05   5.287677126046943e-06   -5.29503934457847e-05
-1.715265852564012e-05   5.143311102988194e-06   -4.110072540356607e-05
-1.715265852564012e-05   5.143311102988194e-06   -4.110072540356607e-05
-1.715265852564012e-05   5.143311102988194e-06   -4.110072540356607e-05
-1.715265852564012e-05   5.143311102988194e-06   -4.110072540356607e-05
-1.3868036296380591e-05   4.087644599767718e-06   -4.594169588373331e-05
-1.3868036296380591e-05   4.087644599767718e-06   -4.594169588373331e-05
-1.3868036296380591e-05   4.087644599767718e-06   -4.594169588373331e-05
-1.3868036296380591e-05   4.087644599767718e-06   -4.594169588373331e-05
-1.0837465119494296e-05   -1.660617349209196e-06   -4.610527749333393e-05
-1.0837465119494296e-05   -1.660617349209196e-06   -4.610527749333393e-05
-1.0837465119494296e-05   -1.660617349209196e-06   -4.610527749333393e-05
-1.0837465119494296e-05   -1.660617349209196e-06   -4.610527749333393e-05
-3.983614763657738e-06   3.1188466372250416e-07   -3.34986923591807e-05
-3.983614763657738e-06   3.1188466372250416e-07   -3.34986923591807e-05
-3.983614763657738e-06   3.1188466372250416e-07   -3.34986923591807e-05
-3.983614763657738e-06   3.1188466372250416e-07   -3.34986923591807e-05
-3.6300263683552167e-06   -1.656712783995075e-07   -4.462433860074916e-05
-3.6300263683552167e-06   -1.656712783995075e-07   -4.462433860074916e-05
-3.6300263683552167e-06   -1.656712783995075e-07   -4.462433860074916e-05
-3.6300263683552167e-06   -1.656712783995075e-07   -4.462433860074916e-05
-1.0600565094993565e-05   1.719943515622038e-06   -3.413814293276449e-05
-1.0600565094993565e-05   1.719943515622038e-06   -3.413814293276449e-05
-1.0600565094993565e-05   1.719943515622038e-06   -3.413814293276449e-05
-1.0600565094993565e-05   1.719943515622038e-06   -3.413814293276449e-05
-7.189648532701401e-06   1.9847917661708694e-07   -3.891012526651593e-05
-7.189648532701401e-06   1.9847917661708694e-07   -3.891012526651593e-05
-7.189648532701401e-06   1.9847917661708694e-07   -3.891012526651593e-05
-7.189648532701401e-06   1.9847917661708694e-07   -3.891012526651593e-05
-1.0600565094993546e-05   -1.656712783995075e-07   -4.5755707477162e-05
-1.0600565094993546e-05   -1.656712783995075e-07   -4.5755707477162e-05
-1.0600565094993546e-05   -1.656712783995075e-07   -4.5755707477162e-05
-1.0600565094993546e-05   -1.656712783995075e-07   -4.5755707477162e-05
-3.6300263683552167e-06   1.719943515622038e-06   -3.3006774056351814e-05
-3.6300263683552167e-06   1.719943515622038e-06   -3.3006774056351814e-05
-3.6300263683552167e-06   1.719943515622038e-06   -3.3006774056351814e-05
-3.6300263683552167e-06   1.719943515622038e-06   -3.3006774056351814e-05
-3.105653303468389e-06   1.2728059860086984e-06   -4.5226318551887875e-05
-3.105653303468389e-06   1.2728059860086984e-06   -4.5226318551887875e-05
-3.105653303468389e-06   1.2728059860086984e-06   -4.5226318551887875e-05
-3.105653303468389e-06   1.2728059860086984e-06   -4.5226318551887875e-05
-1.0334191190342409e-05   3.0470484614290427e-06   -3.4243300892350035e-05
-1.0334191190342409e-05   3.0470484614290427e-06   -3.4243300892350035e-05
-1.0334191190342409e-05   3.0470484614290427e-06   -3.4243300892350035e-05
-1.0334191190342409e-05   3.0470484614290427e-06   -3.4243300892350035e-05
-6.975679258154916e-06   1.3351971774326794e-06   -3.8813710008931595e-05
-6.975679258154916e-06   1.3351971774326794e-06   -3.8813710008931595e-05
-6.975679258154916e-06   1.3351971774326794e-06   -3.8813710008931595e-05
-6.975679258154916e-06   1.3351971774326794e-06   -3.8813710008931595e-05
-1.0334191190342381e-05   1.2728059860086984e-06   -4.629086403713984e-05
-1.0334191190342381e-05   1.2728059860086984e-06   -4.629086403713984e-05
-1.0334191190342381e-05   1.2728059860086984e-06   -4.629086403713984e-05
-1.0334191190342381e-05   1.2728059860086984e-06   -4.629086403713984e-05
-3.1056533034684163e-06   3.047048461428826e-06   -3.3178755407097795e-05
-3.1056533034684163e-06   3.047048461428826e-06   -3.3178755407097795e-05
-3.1056533034684163e-06   3.047048461428826e-06   -3.3178755407097795e-05
-3.1056533034684163e-06   3.047048461428826e-06   -3.3178755407097795e-05
-2.7394341822068184e-06   2.9218231411105248e-06   -4.64912960022666e-05
-2.7394341822068184e-06   2.9218231411105248e-06   -4.64912960022666e-05
-2.7394341822068184e-06   2.9218231411105248e-06   -4.64912960022666e-05
-2.7394341822068184e-06   2.9218231411105248e-06   -4.64912960022666e-05
-1.009482946861019e-05   4.5479327168227585e-06   -3.520796960368818e-05
-1.009482946861019e-05   4.5479327168227585e-06   -3.520796960368818e-05
-1.009482946861019e-05   4.5479327168227585e-06   -3.520796960368818e-05
-1.009482946861019e-05   4.5479327168227585e-06   -3.520796960368818e-05
-6.7515831273450534e-06   2.5268724844825386e-06   -3.956741069972597e-05
-6.7515831273450534e-06   2.5268724844825386e-06   -3.956741069972597e-05
-6.7515831273450534e-06   2.5268724844825386e-06   -3.956741069972597e-05
-6.7515831273450534e-06   2.5268724844825386e-06   -3.956741069972597e-05
-3.983614763657724e-06   -3.0532681911709172e-06   -2.50245099305352e-05
-3.983614763657724e-06   -3.0532681911709172e-06   -2.50245099305352e-05
-3.983614763657724e-06   -3.0532681911709172e-06   -2.50245099305352e-05
-3.983614763657724e-06   -3.0532681911709172e-06   -2.50245099305352e-05
1.093731480984614e-06   4.303224211969943e-07   -1.4472111822043995e-05
1.093731480984614e-06   4.303224211969943e-07   -1.4472111822043995e-05
1.093731480984614e-06   4.303224211969943e-07   -1.4472111822043995e-05
1.093731480984614e-06   4.303224211969943e-07   -1.4472111822043995e-05
2.9555204165976887e-06   -2.0411102121052193e-06   -2.390511634797781e-05
2.9555204165976887e-06   -2.0411102121052193e-06   -2.390511634797781e-05
2.9555204165976887e-06   -2.0411102121052193e-06   -2.390511634797781e-05
2.9555204165976887e-06   -2.0411102121052193e-06   -2.390511634797781e-05
-3.6300263683552167e-06   1.5429570646100649e-06   -1.5079645405751692e-05
-3.6300263683552167e-06   1.5429570646100649e-06   -1.5079645405751692e-05
-3.6300263683552167e-06   1.5429570646100649e-06   -1.5079645405751692e-05
-3.6300263683552167e-06   1.5429570646100649e-06   -1.5079645405751692e-05
-8.68495302795881e-07   -6.297830793247292e-07   -1.8378553095323657e-05
-8.68495302795881e-07   -6.297830793247292e-07   -1.8378553095323657e-05
-8.68495302795881e-07   -6.297830793247292e-07   -1.8378553095323657e-05
-8.68495302795881e-07   -6.297830793247292e-07   -1.8378553095323657e-05
-3.630026368355203e-06   -2.041110212105436e-06   -2.6055556714006797e-05
-3.630026368355203e-06   -2.041110212105436e-06   -2.6055556714006797e-05
-3.630026368355203e-06   -2.041110212105436e-06   -2.6055556714006797e-05
-3.630026368355203e-06   -2.041110212105436e-06   -2.6055556714006797e-05
2.9555204165976887e-06   1.542957064609848e-06   -1.292920503972268e-05
2.9555204165976887e-06   1.542957064609848e-06   -1.292920503972268e-05
2.9555204165976887e-06   1.542957064609848e-06   -1.292920503972268e-05
2.9555204165976887e-06   1.542957064609848e-06   -1.292920503972268e-05
4.42549189163147e-06   -1.3419909062548085e-06   -2.5210916655723993e-05
4.42549189163147e-06   -1.3419909062548085e-06   -2.5210916655723993e-05
4.42549189163147e-06   -1.3419909062548085e-06   -2.5210916655723993e-05
4.42549189163147e-06   -1.3419909062548085e-06   -2.5210916655723993e-05
-3.1056533034684027e-06   2.1688520557509167e-06   -1.4765513774427324e-05
-3.1056533034684027e-06   2.1688520557509167e-06   -1.4765513774427324e-05
-3.1056533034684027e-06   2.1688520557509167e-06   -1.4765513774427324e-05
-3.1056533034684027e-06   2.1688520557509167e-06   -1.4765513774427324e-05
7.719697237963625e-08   -9.730665155973164e-08   -1.87105690097876e-05
7.719697237963625e-08   -9.730665155973164e-08   -1.87105690097876e-05
7.719697237963625e-08   -9.730665155973164e-08   -1.87105690097876e-05
7.719697237963625e-08   -9.730665155973164e-08   -1.87105690097876e-05
-3.105653303468389e-06   -1.3419909062548085e-06   -2.7317422432927407e-05
-3.105653303468389e-06   -1.3419909062548085e-06   -2.7317422432927407e-05
-3.105653303468389e-06   -1.3419909062548085e-06   -2.7317422432927407e-05
-3.105653303468389e-06   -1.3419909062548085e-06   -2.7317422432927407e-05
4.42549189163147e-06   2.1688520557509167e-06   -1.2659007997223911e-05
4.42549189163147e-06   2.1688520557509167e-06   -1.2659007997223911e-05
4.42549189163147e-06   2.1688520557509167e-06   -1.2659007997223911e-05
4.42549189163147e-06   2.1688520557509167e-06   -1.2659007997223911e-05
6.2797398055391615e-06   3.3051197831542034e-08   -2.8245287264937516e-05
6.2797398055391615e-06   3.3051197831542034e-08   -2.8245287264937516e-05
6.2797398055391615e-06   3.3051197831542034e-08   -2.8245287264937516e-05
6.2797398055391615e-06   3.3051197831542034e-08   -2.8245287264937516e-05
-2.739434182206832e-06   3.2795047140558344e-06   -1.5161202728428445e-05
-2.739434182206832e-06   3.2795047140558344e-06   -1.5161202728428445e-05
-2.739434182206832e-06   3.2795047140558344e-06   -1.5161202728428445e-05
-2.739434182206832e-06   3.2795047140558344e-06   -1.5161202728428445e-05
8.890449625552154e-07   5.111935871132678e-07   -1.954768129353333e-05
8.890449625552154e-07   5.111935871132678e-07   -1.954768129353333e-05
8.890449625552154e-07   5.111935871132678e-07   -1.954768129353333e-05
8.890449625552154e-07   5.111935871132678e-07   -1.954768129353333e-05
-1.1892297405920204e-05   2.2374268539928927e-06   -2.1295088856829723e-05
-1.1892297405920204e-05   2.2374268539928927e-06   -2.1295088856829723e-05
-1.1892297405920204e-05   2.2374268539928927e-06   -2.1295088856829723e-05
-1.1892297405920204e-05   2.2374268539928927e-06   -2.1295088856829723e-05
-1.2033539103444284e-05   -1.037781272014704e-06   -2.349561656164121e-05
-1.2033539103444284e-05   -1.037781272014704e-06   -2.349561656164121e-05
-1.2033539103444284e-05   -1.037781272014704e-06   -2.349561656164121e-05
-1.2033539103444284e-05   -1.037781272014704e-06   -2.349561656164121e-05
-1.1429715954457912e-05   3.4826575195290223e-06   -2.0007829694561807e-05
-1.1429715954457912e-05   3.4826575195290223e-06   -2.0007829694561807e-05
-1.1429715954457912e-05   3.4826575195290223e-06   -2.0007829694561807e-05
-1.1429715954457912e-05   3.4826575195290223e-06   -2.0007829694561807e-05
-9.818028698278867e-06   -3.007266196329052e-08   -2.05863370126313e-05
-9.818028698278867e-06   -3.007266196329052e-08   -2.05863370126313e-05
-9.818028698278867e-06   -3.007266196329052e-08   -2.05863370126313e-05
-9.818028698278867e-06   -3.007266196329052e-08   -2.05863370126313e-05
-1.0799694545312948e-05   1.5402244473274387e-06   -1.9892405533150008e-05
-1.0799694545312948e-05   1.5402244473274387e-06   -1.9892405533150008e-05
-1.0799694545312948e-05   1.5402244473274387e-06   -1.9892405533150008e-05
-1.0799694545312948e-05   1.5402244473274387e-06   -1.9892405533150008e-05
-9.818028698278867e-06   3.4826575195290223e-06   -1.790019158566644e-05
-9.818028698278867e-06   3.4826575195290223e-06   -1.790019158566644e-05
-9.818028698278867e-06   3.4826575195290223e-06   -1.790019158566644e-05
-9.818028698278867e-06   3.4826575195290223e-06   -1.790019158566644e-05
-1.1429715954457912e-05   -3.007266196350736e-08   -2.2693975121527044e-05
-1.1429715954457912e-05   -3.007266196350736e-08   -2.2693975121527044e-05
-1.1429715954457912e-05   -3.007266196350736e-08   -2.2693975121527044e-05
-1.1429715954457912e-05   -3.007266196350736e-08   -2.2693975121527044e-05
-1.0668252189748983e-05   4.111507952967233e-06   -1.8567583559797422e-05
-1.0668252189748983e-05   4.111507952967233e-06   -1.8567583559797422e-05
-1.0668252189748983e-05   4.111507952967233e-06   -1.8567583559797422e-05
-1.0668252189748983e-05   4.111507952967233e-06   -1.8567583559797422e-05
-8.102088360716596e-06   5.396253873156398e-07   -2.0701393735460065e-05
-8.102088360716596e-06   5.396253873156398e-07   -2.0701393735460065e-05
-8.102088360716596e-06   5.396253873156398e-07   -2.0701393735460065e-05
-8.102088360716596e-06   5.396253873156398e-07   -2.0701393735460065e-05
-9.817071594244711e-06   2.05739817511286e-06   -1.875375201892569e-05
-9.817071594244711e-06   2.05739817511286e-06   -1.875375201892569e-05
-9.817071594244711e-06   2.05739817511286e-06   -1.875375201892569e-05
-9.817071594244711e-06   2.05739817511286e-06   -1.875375201892569e-05
-8.102088360716542e-06   4.111507952967233e-06   -1.642445402040614e-05
-8.102088360716542e-06   4.111507952967233e-06   -1.642445402040614e-05
-8.102088360716542e-06   4.111507952967233e-06   -1.642445402040614e-05
-8.102088360716542e-06   4.111507952967233e-06   -1.642445402040614e-05
-1.0668252189748983e-05   5.396253873156398e-07   -2.2844523274851076e-05
-1.0668252189748983e-05   5.396253873156398e-07   -2.2844523274851076e-05
-1.0668252189748983e-05   5.396253873156398e-07   -2.2844523274851076e-05
-1.0668252189748983e-05   5.396253873156398e-07   -2.2844523274851076e-05
-1.007381803124044e-05   5.1074867837130195e-06   -1.7227685462405887e-05
-1.007381803124044e-05   5.1074867837130195e-06   -1.7227685462405887e-05
-1.007381803124044e-05   5.1074867837130195e-06   -1.7227685462405887e-05
-1.007381803124044e-05   5.1074867837130195e-06   -1.7227685462405887e-05
-5.983454000929394e-06   1.6759718811129413e-06   -2.1986049904697443e-05
-5.983454000929394e-06   1.6759718811129413e-06   -2.1986049904697443e-05
-5.983454000929394e-06   1.6759718811129413e-06   -2.1986049904697443e-05
-5.983454000929394e-06   1.6759718811129413e-06   -2.1986049904697443e-05
-8.588431262435993e-06   2.5525769068333523e-06   -1.817038415095212e-05
-8.588431262435993e-06   2.5525769068333523e-06   -1.817038415095212e-05
-8.588431262435993e-06   2.5525769068333523e-06   -1.817038415095212e-05
-8.588431262435993e-06   2.5525769068333523e-06   -1.817038415095212e-05
-1.203353910344423e-05   1.2829117416650413e-06   -3.869389281665374e-05
-1.203353910344423e-05   1.2829117416650413e-06   -3.869389281665374e-05
-1.203353910344423e-05   1.2829117416650413e-06   -3.869389281665374e-05
-1.203353910344423e-05   1.2829117416650413e-06   -3.869389281665374e-05
-1.3850678368310755e-05   -2.259501109243625e-07   -4.2627775369651565e-05
-1.3850678368310755e-05   -2.259501109243625e-07   -4.2627775369651565e-05
-1.3850678368310755e-05   -2.259501109243625e-07   -4.2627775369651565e-05
-1.3850678368310755e-05   -2.259501109243625e-07   -4.2627775369651565e-05
-1.3362400984701306e-05   2.7105969700304353e-06   -3.872343338166633e-05
-1.3362400984701306e-05   2.7105969700304353e-06   -3.872343338166633e-05
-1.3362400984701306e-05   2.7105969700304353e-06   -3.872343338166633e-05
-1.3362400984701306e-05   2.7105969700304353e-06   -3.872343338166633e-05
-1.1429715954457966e-05   1.0452950518879522e-06   -4.0945393947852985e-05
-1.1429715954457966e-05   1.0452950518879522e-06   -4.0945393947852985e-05
-1.1429715954457966e-05   1.0452950518879522e-06   -4.0945393947852985e-05
-1.1429715954457966e-05   1.0452950518879522e-06   -4.0945393947852985e-05
-1.2521480944796478e-05   1.4818897203468847e-06   -3.9387742431698145e-05
-1.2521480944796478e-05   1.4818897203468847e-06   -3.9387742431698145e-05
-1.2521480944796478e-05   1.4818897203468847e-06   -3.9387742431698145e-05
-1.2521480944796478e-05   1.4818897203468847e-06   -3.9387742431698145e-05
-1.1429715954457912e-05   2.710596970030652e-06   -3.772425223078058e-05
-1.1429715954457912e-05   2.710596970030652e-06   -3.772425223078058e-05
-1.1429715954457912e-05   2.710596970030652e-06   -3.772425223078058e-05
-1.1429715954457912e-05   2.710596970030652e-06   -3.772425223078058e-05
-1.336240098470128e-05   1.045295051888169e-06   -4.1944575098738736e-05
-1.336240098470128e-05   1.045295051888169e-06   -4.1944575098738736e-05
-1.336240098470128e-05   1.045295051888169e-06   -4.1944575098738736e-05
-1.336240098470128e-05   1.045295051888169e-06   -4.1944575098738736e-05
-1.2854605737304035e-05   4.037865637989161e-06   -3.839889848972233e-05
-1.2854605737304035e-05   4.037865637989161e-06   -3.839889848972233e-05
-1.2854605737304035e-05   4.037865637989161e-06   -3.839889848972233e-05
-1.2854605737304035e-05   4.037865637989161e-06   -3.839889848972233e-05
-1.0668252189748983e-05   2.268989850161404e-06   -4.098149559628362e-05
-1.0668252189748983e-05   2.268989850161404e-06   -4.098149559628362e-05
-1.0668252189748983e-05   2.268989850161404e-06   -4.098149559628362e-05
-1.0668252189748983e-05   2.268989850161404e-06   -4.098149559628362e-05
-1.2032162072414553e-05   2.506473939706917e-06   -3.8850802912235446e-05
-1.2032162072414553e-05   2.506473939706917e-06   -3.8850802912235446e-05
-1.2032162072414553e-05   2.506473939706917e-06   -3.8850802912235446e-05
-1.2032162072414553e-05   2.506473939706917e-06   -3.8850802912235446e-05
-1.0668252189748983e-05   4.037865637989378e-06   -3.733757301702535e-05
-1.0668252189748983e-05   4.037865637989378e-06   -3.733757301702535e-05
-1.0668252189748983e-05   4.037865637989378e-06   -3.733757301702535e-05
-1.0668252189748983e-05   4.037865637989378e-06   -3.733757301702535e-05
-1.285460573730398e-05   2.268989850161187e-06   -4.204282106898044e-05
-1.285460573730398e-05   2.268989850161187e-06   -4.204282106898044e-05
-1.285460573730398e-05   2.268989850161187e-06   -4.204282106898044e-05
-1.285460573730398e-05   2.268989850161187e-06   -4.204282106898044e-05
-1.2376214573906879e-05   5.512440317239969e-06   -3.903474737628008e-05
-1.2376214573906879e-05   5.512440317239969e-06   -3.903474737628008e-05
-1.2376214573906879e-05   5.512440317239969e-06   -3.903474737628008e-05
-1.2376214573906879e-05   5.512440317239969e-06   -3.903474737628008e-05
-1.007381803124044e-05   3.666080366136531e-06   -4.176425897672848e-05
-1.007381803124044e-05   3.666080366136531e-06   -4.176425897672848e-05
-1.007381803124044e-05   3.666080366136531e-06   -4.176425897672848e-05
-1.007381803124044e-05   3.666080366136531e-06   -4.176425897672848e-05
-1.1601488394080508e-05   3.580993823382086e-06   -3.916708977967577e-05
-1.1601488394080508e-05   3.580993823382086e-06   -3.916708977967577e-05
-1.1601488394080508e-05   3.580993823382086e-06   -3.916708977967577e-05
-1.1601488394080508e-05   3.580993823382086e-06   -3.916708977967577e-05
-1.38506783683107e-05   7.341805351634891e-07   -4.505809294622857e-05
-1.38506783683107e-05   7.341805351634891e-07   -4.505809294622857e-05
-1.38506783683107e-05   7.341805351634891e-07   -4.505809294622857e-05
-1.38506783683107e-05   7.341805351634891e-07   -4.505809294622857e-05
-1.576609781449393e-05   1.052636240232458e-06   -4.805938526682607e-05
-1.576609781449393e-05   1.052636240232458e-06   -4.805938526682607e-05
-1.576609781449393e-05   1.052636240232458e-06   -4.805938526682607e-05
-1.576609781449393e-05   1.052636240232458e-06   -4.805938526682607e-05
-1.5286143464972997e-05   2.1880184886927546e-06   -4.4364464044849066e-05
-1.5286143464972997e-05   2.1880184886927546e-06   -4.4364464044849066e-05
-1.5286143464972997e-05   2.1880184886927546e-06   -4.4364464044849066e-05
-1.5286143464972997e-05   2.1880184886927546e-06   -4.4364464044849066e-05
-1.336240098470128e-05   2.3662756412441612e-06   -4.767765580349919e-05
-1.336240098470128e-05   2.3662756412441612e-06   -4.767765580349919e-05
-1.336240098470128e-05   2.3662756412441612e-06   -4.767765580349919e-05
-1.336240098470128e-05   2.3662756412441612e-06   -4.767765580349919e-05
-1.4478652398373264e-05   1.7897943789977819e-06   -4.547134802336539e-05
-1.4478652398373264e-05   1.7897943789977819e-06   -4.547134802336539e-05
-1.4478652398373264e-05   1.7897943789977819e-06   -4.547134802336539e-05
-1.4478652398373264e-05   1.7897943789977819e-06   -4.547134802336539e-05
-1.3362400984701252e-05   2.1880184886927546e-06   -4.447141833638e-05
-1.3362400984701252e-05   2.1880184886927546e-06   -4.447141833638e-05
-1.3362400984701252e-05   2.1880184886927546e-06   -4.447141833638e-05
-1.3362400984701252e-05   2.1880184886927546e-06   -4.447141833638e-05
-1.528614346497302e-05   2.3662756412441612e-06   -4.7570701511968666e-05
-1.528614346497302e-05   2.3662756412441612e-06   -4.7570701511968666e-05
-1.528614346497302e-05   2.3662756412441612e-06   -4.7570701511968666e-05
-1.528614346497302e-05   2.3662756412441612e-06   -4.7570701511968666e-05
-1.4781479528161584e-05   3.654605807354872e-06   -4.4493461071531265e-05
-1.4781479528161584e-05   3.654605807354872e-06   -4.4493461071531265e-05
-1.4781479528161584e-05   3.654605807354872e-06   -4.4493461071531265e-05
-1.4781479528161584e-05   3.654605807354872e-06   -4.4493461071531265e-05
-1.2854605737304035e-05   3.7088401778054194e-06   -4.773745801189743e-05
-1.2854605737304035e-05   3.7088401778054194e-06   -4.773745801189743e-05
-1.2854605737304035e-05   3.7088401778054194e-06   -4.773745801189743e-05
-1.2854605737304035e-05   3.7088401778054194e-06   -4.773745801189743e-05
-1.407567695777476e-05   2.913322928017447e-06   -4.522502896124061e-05
-1.407567695777476e-05   2.913322928017447e-06   -4.522502896124061e-05
-1.407567695777476e-05   2.913322928017447e-06   -4.522502896124061e-05
-1.407567695777476e-05   2.913322928017447e-06   -4.522502896124061e-05
-1.285460573730398e-05   3.654605807354872e-06   -4.4526001693801485e-05
-1.285460573730398e-05   3.654605807354872e-06   -4.4526001693801485e-05
-1.285460573730398e-05   3.654605807354872e-06   -4.4526001693801485e-05
-1.285460573730398e-05   3.654605807354872e-06   -4.4526001693801485e-05
-1.4781479528161584e-05   3.7088401778054194e-06   -4.770491738962702e-05
-1.4781479528161584e-05   3.7088401778054194e-06   -4.770491738962702e-05
-1.4781479528161584e-05   3.7088401778054194e-06   -4.770491738962702e-05
-1.4781479528161584e-05   3.7088401778054194e-06   -4.770491738962702e-05
-1.4305476536633885e-05   5.143311102988194e-06   -4.5357047963501436e-05
-1.4305476536633885e-05   5.143311102988194e-06   -4.5357047963501436e-05
-1.4305476536633885e-05   5.143311102988194e-06   -4.5357047963501436e-05
-1.4305476536633885e-05   5.143311102988194e-06   -4.5357047963501436e-05
-1.2376214573906879e-05   5.069962276288724e-06   -4.852847527202664e-05
-1.2376214573906879e-05   5.069962276288724e-06   -4.852847527202664e-05
-1.2376214573906879e-05   5.069962276288724e-06   -4.852847527202664e-05
-1.2376214573906879e-05   5.069962276288724e-06   -4.852847527202664e-05
-1.37046525753583e-05   4.052562781503089e-06   -4.570397223940294e-05
-1.37046525753583e-05   4.052562781503089e-06   -4.570397223940294e-05
-1.37046525753583e-05   4.052562781503089e-06   -4.570397223940294e-05
-1.37046525753583e-05   4.052562781503089e-06   -4.570397223940294e-05
-1.5766097814493875e-05   3.11884663722721e-07   -3.887470676939588e-05
-1.5766097814493875e-05   3.11884663722721e-07   -3.887470676939588e-05
-1.5766097814493875e-05   3.11884663722721e-07   -3.887470676939588e-05
-1.5766097814493875e-05   3.11884663722721e-07   -3.887470676939588e-05
-1.778730795743879e-05   2.3402488388696296e-06   -4.102637183588261e-05
-1.778730795743879e-05   2.3402488388696296e-06   -4.102637183588261e-05
-1.778730795743879e-05   2.3402488388696296e-06   -4.102637183588261e-05
-1.778730795743879e-05   2.3402488388696296e-06   -4.102637183588261e-05
-1.7206844355306645e-05   1.7199435156222548e-06   -3.716694179473415e-05
-1.7206844355306645e-05   1.7199435156222548e-06   -3.716694179473415e-05
-1.7206844355306645e-05   1.7199435156222548e-06   -3.716694179473415e-05
-1.7206844355306645e-05   1.7199435156222548e-06   -3.716694179473415e-05
-1.5286143464972997e-05   3.658165574185572e-06   -4.1531043180427996e-05
-1.5286143464972997e-05   3.658165574185572e-06   -4.1531043180427996e-05
-1.5286143464972997e-05   3.658165574185572e-06   -4.1531043180427996e-05
-1.5286143464972997e-05   3.658165574185572e-06   -4.1531043180427996e-05
-1.6384029688276036e-05   2.1544921334892136e-06   -3.879902874383913e-05
-1.6384029688276036e-05   2.1544921334892136e-06   -3.879902874383913e-05
-1.6384029688276036e-05   2.1544921334892136e-06   -3.879902874383913e-05
-1.6384029688276036e-05   2.1544921334892136e-06   -3.879902874383913e-05
-1.528614346497297e-05   1.719943515622038e-06   -3.832987502987205e-05
-1.528614346497297e-05   1.719943515622038e-06   -3.832987502987205e-05
-1.528614346497297e-05   1.719943515622038e-06   -3.832987502987205e-05
-1.528614346497297e-05   1.719943515622038e-06   -3.832987502987205e-05
-1.7206844355306645e-05   3.658165574185572e-06   -4.036810994529033e-05
-1.7206844355306645e-05   3.658165574185572e-06   -4.036810994529033e-05
-1.7206844355306645e-05   3.658165574185572e-06   -4.036810994529033e-05
-1.7206844355306645e-05   3.658165574185572e-06   -4.036810994529033e-05
-1.6457326201923134e-05   3.047048461428826e-06   -3.732871947702331e-05
-1.6457326201923134e-05   3.047048461428826e-06   -3.732871947702331e-05
-1.6457326201923134e-05   3.047048461428826e-06   -3.732871947702331e-05
-1.6457326201923134e-05   3.047048461428826e-06   -3.732871947702331e-05
-1.478147952816156e-05   4.874157079884887e-06   -4.1218062437699356e-05
-1.478147952816156e-05   4.874157079884887e-06   -4.1218062437699356e-05
-1.478147952816156e-05   4.874157079884887e-06   -4.1218062437699356e-05
-1.478147952816156e-05   4.874157079884887e-06   -4.1218062437699356e-05
-1.586530531225417e-05   3.199932501471393e-06   -3.840715138383067e-05
-1.586530531225417e-05   3.199932501471393e-06   -3.840715138383067e-05
-1.586530531225417e-05   3.199932501471393e-06   -3.840715138383067e-05
-1.586530531225417e-05   3.199932501471393e-06   -3.840715138383067e-05
-1.478147952816152e-05   3.047048461428826e-06   -3.8424984648096684e-05
-1.478147952816152e-05   3.047048461428826e-06   -3.8424984648096684e-05
-1.478147952816152e-05   3.047048461428826e-06   -3.8424984648096684e-05
-1.478147952816152e-05   3.047048461428826e-06   -3.8424984648096684e-05
-1.645732620192316e-05   4.874157079884887e-06   -4.012179726662593e-05
-1.645732620192316e-05   4.874157079884887e-06   -4.012179726662593e-05
-1.645732620192316e-05   4.874157079884887e-06   -4.012179726662593e-05
-1.645732620192316e-05   4.874157079884887e-06   -4.012179726662593e-05
-1.586835291606179e-05   4.5479327168227585e-06   -3.8364104231398076e-05
-1.586835291606179e-05   4.5479327168227585e-06   -3.8364104231398076e-05
-1.586835291606179e-05   4.5479327168227585e-06   -3.8364104231398076e-05
-1.586835291606179e-05   4.5479327168227585e-06   -3.8364104231398076e-05
-1.4305476536633885e-05   6.237213247473365e-06   -4.198246651550135e-05
-1.4305476536633885e-05   6.237213247473365e-06   -4.198246651550135e-05
-1.4305476536633885e-05   6.237213247473365e-06   -4.198246651550135e-05
-1.4305476536633885e-05   6.237213247473365e-06   -4.198246651550135e-05
-1.5476257963417417e-05   4.268617995557269e-06   -3.885000698637892e-05
-1.5476257963417417e-05   4.268617995557269e-06   -3.885000698637892e-05
-1.5476257963417417e-05   4.268617995557269e-06   -3.885000698637892e-05
-1.5476257963417417e-05   4.268617995557269e-06   -3.885000698637892e-05
-1.7787307957438722e-05   4.303224211969943e-07   -2.072126209459182e-05
-1.7787307957438722e-05   4.303224211969943e-07   -2.072126209459182e-05
-1.7787307957438722e-05   4.303224211969943e-07   -2.072126209459182e-05
-1.7787307957438722e-05   4.303224211969943e-07   -2.072126209459182e-05
-2.1530745462929496e-05   3.931443586624667e-06   -2.485965190448646e-05
-2.1530745462929496e-05   3.931443586624667e-06   -2.485965190448646e-05
-2.1530745462929496e-05   3.931443586624667e-06   -2.485965190448646e-05
-2.1530745462929496e-05   3.931443586624667e-06   -2.485965190448646e-05
-1.9473062053260935e-05   1.5429570646100649e-06   -1.7089990963713728e-05
-1.9473062053260935e-05   1.5429570646100649e-06   -1.7089990963713728e-05
-1.9473062053260935e-05   1.5429570646100649e-06   -1.7089990963713728e-05
-1.9473062053260935e-05   1.5429570646100649e-06   -1.7089990963713728e-05
-1.7206844355306604e-05   5.125994031977528e-06   -2.3016842640724555e-05
-1.7206844355306604e-05   5.125994031977528e-06   -2.3016842640724555e-05
-1.7206844355306604e-05   5.125994031977528e-06   -2.3016842640724555e-05
-1.7206844355306604e-05   5.125994031977528e-06   -2.3016842640724555e-05
-1.8230532864460415e-05   2.902554182830858e-06   -1.9976631215980526e-05
-1.8230532864460415e-05   2.902554182830858e-06   -1.9976631215980526e-05
-1.8230532864460415e-05   2.902554182830858e-06   -1.9976631215980526e-05
-1.8230532864460415e-05   2.902554182830858e-06   -1.9976631215980526e-05
-1.7206844355306577e-05   1.5429570646100649e-06   -1.9239813144134054e-05
-1.7206844355306577e-05   1.5429570646100649e-06   -1.9239813144134054e-05
-1.7206844355306577e-05   1.5429570646100649e-06   -1.9239813144134054e-05
-1.7206844355306577e-05   1.5429570646100649e-06   -1.9239813144134054e-05
-1.947306205326088e-05   5.125994031977745e-06   -2.0867020460304175e-05
-1.947306205326088e-05   5.125994031977745e-06   -2.0867020460304175e-05
-1.947306205326088e-05   5.125994031977745e-06   -2.0867020460304175e-05
-1.947306205326088e-05   5.125994031977745e-06   -2.0867020460304175e-05
-1.7799424036262033e-05   2.1688520557509167e-06   -1.6813008064042343e-05
-1.7799424036262033e-05   2.1688520557509167e-06   -1.6813008064042343e-05
-1.7799424036262033e-05   2.1688520557509167e-06   -1.6813008064042343e-05
-1.7799424036262033e-05   2.1688520557509167e-06   -1.6813008064042343e-05
-1.6457326201923134e-05   5.672968356268621e-06   -2.115230756825082e-05
-1.6457326201923134e-05   5.672968356268621e-06   -2.115230756825082e-05
-1.6457326201923134e-05   5.672968356268621e-06   -2.115230756825082e-05
-1.6457326201923134e-05   5.672968356268621e-06   -2.115230756825082e-05
-1.7350870779969352e-05   3.4552881941034286e-06   -1.8332458507541586e-05
-1.7350870779969352e-05   3.4552881941034286e-06   -1.8332458507541586e-05
-1.7350870779969352e-05   3.4552881941034286e-06   -1.8332458507541586e-05
-1.7350870779969352e-05   3.4552881941034286e-06   -1.8332458507541586e-05
-1.645732620192312e-05   2.1688520557509167e-06   -1.8915477844352836e-05
-1.645732620192312e-05   2.1688520557509167e-06   -1.8915477844352836e-05
-1.645732620192312e-05   2.1688520557509167e-06   -1.8915477844352836e-05
-1.645732620192312e-05   2.1688520557509167e-06   -1.8915477844352836e-05
-1.7799424036262033e-05   5.672968356268621e-06   -1.90498377879403e-05
-1.7799424036262033e-05   5.672968356268621e-06   -1.90498377879403e-05
-1.7799424036262033e-05   5.672968356268621e-06   -1.90498377879403e-05
-1.7799424036262033e-05   5.672968356268621e-06   -1.90498377879403e-05
-1.575313998026552e-05   3.279504714056051e-06   -1.7347952169592e-05
-1.575313998026552e-05   3.279504714056051e-06   -1.7347952169592e-05
-1.575313998026552e-05   3.279504714056051e-06   -1.7347952169592e-05
-1.575313998026552e-05   3.279504714056051e-06   -1.7347952169592e-05
-1.5868352916061763e-05   6.521256267345453e-06   -1.9100981541904995e-05
-1.5868352916061763e-05   6.521256267345453e-06   -1.9100981541904995e-05
-1.5868352916061763e-05   6.521256267345453e-06   -1.9100981541904995e-05
-1.5868352916061763e-05   6.521256267345453e-06   -1.9100981541904995e-05
-1.6059216983251418e-05   3.902627258751739e-06   -1.7211697358099592e-05
-1.6059216983251418e-05   3.902627258751739e-06   -1.7211697358099592e-05
-1.6059216983251418e-05   3.902627258751739e-06   -1.7211697358099592e-05
-1.6059216983251418e-05   3.902627258751739e-06   -1.7211697358099592e-05
1.0486315916090143e-05   -1.037781272014704e-06   -1.0799487338764317e-05
1.0486315916090143e-05   -1.037781272014704e-06   -1.0799487338764317e-05
1.0486315916090143e-05   -1.037781272014704e-06   -1.0799487338764317e-05
1.0486315916090143e-05   -1.037781272014704e-06   -1.0799487338764317e-05
1.0725096570657561e-06   -4.3730776812227895e-06   -2.8490342282663198e-05
1.0725096570657561e-06   -4.3730776812227895e-06   -2.8490342282663198e-05
1.0725096570657561e-06   -4.3730776812227895e-06   -2.8490342282663198e-05
1.0725096570657561e-06   -4.3730776812227895e-06   -2.8490342282663198e-05
1.9005923646344953e-06   -3.007266196329052e-08   -1.1927089244715468e-05
1.9005923646344953e-06   -3.007266196329052e-08   -1.1927089244715468e-05
1.9005923646344953e-06   -3.007266196329052e-08   -1.1927089244715468e-05
1.9005923646344953e-06   -3.007266196329052e-08   -1.1927089244715468e-05
1.279610558707438e-05   -3.593270076307324e-06   -2.794835950017591e-05
1.279610558707438e-05   -3.593270076307324e-06   -2.794835950017591e-05
1.279610558707438e-05   -3.593270076307324e-06   -2.794835950017591e-05
1.279610558707438e-05   -3.593270076307324e-06   -2.794835950017591e-05
6.319543495910947e-06   -1.8238434318054893e-06   -1.821574533493757e-05
6.319543495910947e-06   -1.8238434318054893e-06   -1.821574533493757e-05
6.319543495910947e-06   -1.8238434318054893e-06   -1.821574533493757e-05
6.319543495910947e-06   -1.8238434318054893e-06   -1.821574533493757e-05
1.2796105587074434e-05   -3.007266196329052e-08   -9.789170796109309e-06
1.2796105587074434e-05   -3.007266196329052e-08   -9.789170796109309e-06
1.2796105587074434e-05   -3.007266196329052e-08   -9.789170796109309e-06
1.2796105587074434e-05   -3.007266196329052e-08   -9.789170796109309e-06
1.9005923646344953e-06   -3.5932700763068905e-06   -3.0086277948782178e-05
1.9005923646344953e-06   -3.5932700763068905e-06   -3.0086277948782178e-05
1.9005923646344953e-06   -3.5932700763068905e-06   -3.0086277948782178e-05
1.9005923646344953e-06   -3.5932700763068905e-06   -3.0086277948782178e-05
2.876569413080832e-06   5.396253873156398e-07   -1.2017130721762425e-05
2.876569413080832e-06   5.396253873156398e-07   -1.2017130721762425e-05
2.876569413080832e-06   5.396253873156398e-07   -1.2017130721762425e-05
2.876569413080832e-06   5.396253873156398e-07   -1.2017130721762425e-05
1.474912517424352e-05   -3.073802186270673e-06   -2.963666711288163e-05
1.474912517424352e-05   -3.073802186270673e-06   -2.963666711288163e-05
1.474912517424352e-05   -3.073802186270673e-06   -2.963666711288163e-05
1.474912517424352e-05   -3.073802186270673e-06   -2.963666711288163e-05
7.785168063420122e-06   -1.4597195846541115e-06   -1.8998521489147e-05
7.785168063420122e-06   -1.4597195846541115e-06   -1.8998521489147e-05
7.785168063420122e-06   -1.4597195846541115e-06   -1.8998521489147e-05
7.785168063420122e-06   -1.4597195846541115e-06   -1.8998521489147e-05
1.4749125174243574e-05   5.396253873156398e-07   -9.849074177610594e-06
1.4749125174243574e-05   5.396253873156398e-07   -9.849074177610594e-06
1.4749125174243574e-05   5.396253873156398e-07   -9.849074177610594e-06
1.4749125174243574e-05   5.396253873156398e-07   -9.849074177610594e-06
2.876569413080832e-06   -3.073802186270673e-06   -3.180472365703368e-05
2.876569413080832e-06   -3.073802186270673e-06   -3.180472365703368e-05
2.876569413080832e-06   -3.073802186270673e-06   -3.180472365703368e-05
2.876569413080832e-06   -3.073802186270673e-06   -3.180472365703368e-05
3.6804862939173984e-06   1.6759718811129413e-06   -1.3164142888559245e-05
3.6804862939173984e-06   1.6759718811129413e-06   -1.3164142888559245e-05
3.6804862939173984e-06   1.6759718811129413e-06   -1.3164142888559245e-05
3.6804862939173984e-06   1.6759718811129413e-06   -1.3164142888559245e-05
1.7095136678724177e-05   -1.764466682803098e-06   -3.345763039155425e-05
1.7095136678724177e-05   -1.764466682803098e-06   -3.345763039155425e-05
1.7095136678724177e-05   -1.764466682803098e-06   -3.345763039155425e-05
1.7095136678724177e-05   -1.764466682803098e-06   -3.345763039155425e-05
8.952227566983654e-06   -9.25374827419681e-07   -2.038957031855117e-05
8.952227566983654e-06   -9.25374827419681e-07   -2.038957031855117e-05
8.952227566983654e-06   -9.25374827419681e-07   -2.038957031855117e-05
8.952227566983654e-06   -9.25374827419681e-07   -2.038957031855117e-05
1.0725096570657561e-06   -2.259501109243625e-07   -3.102750688074624e-05
1.0725096570657561e-06   -2.259501109243625e-07   -3.102750688074624e-05
1.0725096570657561e-06   -2.259501109243625e-07   -3.102750688074624e-05
1.0725096570657561e-06   -2.259501109243625e-07   -3.102750688074624e-05
-9.92112782310654e-06   -1.7314809382332902e-06   -5.025355451075209e-05
-9.92112782310654e-06   -1.7314809382332902e-06   -5.025355451075209e-05
-9.92112782310654e-06   -1.7314809382332902e-06   -5.025355451075209e-05
-9.92112782310654e-06   -1.7314809382332902e-06   -5.025355451075209e-05
-9.194387216901223e-06   1.0452950518879522e-06   -3.120336470094007e-05
-9.194387216901223e-06   1.0452950518879522e-06   -3.120336470094007e-05
-9.194387216901223e-06   1.0452950518879522e-06   -3.120336470094007e-05
-9.194387216901223e-06   1.0452950518879522e-06   -3.120336470094007e-05
1.9005923646344953e-06   -6.62799331276314e-07   -4.867014070693439e-05
1.9005923646344953e-06   -6.62799331276314e-07   -4.867014070693439e-05
1.9005923646344953e-06   -6.62799331276314e-07   -4.867014070693439e-05
1.9005923646344953e-06   -6.62799331276314e-07   -4.867014070693439e-05
-3.942222563329891e-06   -6.664298131267912e-08   -3.9289809636971964e-05
-3.942222563329891e-06   -6.664298131267912e-08   -3.9289809636971964e-05
-3.942222563329891e-06   -6.664298131267912e-08   -3.9289809636971964e-05
-3.942222563329891e-06   -6.664298131267912e-08   -3.9289809636971964e-05
1.9005923646344953e-06   1.0452950518879522e-06   -3.0178508071041247e-05
1.9005923646344953e-06   1.0452950518879522e-06   -3.0178508071041247e-05
1.9005923646344953e-06   1.0452950518879522e-06   -3.0178508071041247e-05
1.9005923646344953e-06   1.0452950518879522e-06   -3.0178508071041247e-05
-9.194387216901223e-06   -6.627993312767477e-07   -4.969499733683321e-05
-9.194387216901223e-06   -6.627993312767477e-07   -4.969499733683321e-05
-9.194387216901223e-06   -6.627993312767477e-07   -4.969499733683321e-05
-9.194387216901223e-06   -6.627993312767477e-07   -4.969499733683321e-05
-8.46351707878401e-06   2.268989850161404e-06   -3.125023998967096e-05
-8.46351707878401e-06   2.268989850161404e-06   -3.125023998967096e-05
-8.46351707878401e-06   2.268989850161404e-06   -3.125023998967096e-05
-8.46351707878401e-06   2.268989850161404e-06   -3.125023998967096e-05
2.876569413080832e-06   4.420949393678028e-07   -4.9054247196303176e-05
2.876569413080832e-06   4.420949393678028e-07   -4.9054247196303176e-05
2.876569413080832e-06   4.420949393678028e-07   -4.9054247196303176e-05
2.876569413080832e-06   4.420949393678028e-07   -4.9054247196303176e-05
-3.2982978422641386e-06   8.107977554701502e-07   -3.8984023460389276e-05
-3.2982978422641386e-06   8.107977554701502e-07   -3.8984023460389276e-05
-3.2982978422641386e-06   8.107977554701502e-07   -3.8984023460389276e-05
-3.2982978422641386e-06   8.107977554701502e-07   -3.8984023460389276e-05
2.876569413080832e-06   2.268989850161404e-06   -3.0154103043194972e-05
2.876569413080832e-06   2.268989850161404e-06   -3.0154103043194972e-05
2.876569413080832e-06   2.268989850161404e-06   -3.0154103043194972e-05
2.876569413080832e-06   2.268989850161404e-06   -3.0154103043194972e-05
-8.46351707878401e-06   4.420949393682365e-07   -5.015038414277911e-05
-8.46351707878401e-06   4.420949393682365e-07   -5.015038414277911e-05
-8.46351707878401e-06   4.420949393682365e-07   -5.015038414277911e-05
-8.46351707878401e-06   4.420949393682365e-07   -5.015038414277911e-05
-7.765060194534515e-06   3.666080366136531e-06   -3.203288368189153e-05
-7.765060194534515e-06   3.666080366136531e-06   -3.203288368189153e-05
-7.765060194534515e-06   3.666080366136531e-06   -3.203288368189153e-05
-7.765060194534515e-06   3.666080366136531e-06   -3.203288368189153e-05
3.6804862939173984e-06   1.7503459280340632e-06   -4.9959353833116805e-05
3.6804862939173984e-06   1.7503459280340632e-06   -4.9959353833116805e-05
3.6804862939173984e-06   1.7503459280340632e-06   -4.9959353833116805e-05
3.6804862939173984e-06   1.7503459280340632e-06   -4.9959353833116805e-05
-2.5815219005351393e-06   1.7832082142574604e-06   -3.954239088076384e-05
-2.5815219005351393e-06   1.7832082142574604e-06   -3.954239088076384e-05
-2.5815219005351393e-06   1.7832082142574604e-06   -3.954239088076384e-05
-2.5815219005351393e-06   1.7832082142574604e-06   -3.954239088076384e-05
-9.92112782310654e-06   1.052636240232458e-06   -3.755350869734755e-05
-9.92112782310654e-06   1.052636240232458e-06   -3.755350869734755e-05
-9.92112782310654e-06   1.052636240232458e-06   -3.755350869734755e-05
-9.92112782310654e-06   1.052636240232458e-06   -3.755350869734755e-05
-2.0819978734827726e-05   1.3270317875432695e-06   -5.555362288849584e-05
-2.0819978734827726e-05   1.3270317875432695e-06   -5.555362288849584e-05
-2.0819978734827726e-05   1.3270317875432695e-06   -5.555362288849584e-05
-2.0819978734827726e-05   1.3270317875432695e-06   -5.555362288849584e-05
-2.0087993613229203e-05   2.3662756412441612e-06   -3.688175426992397e-05
-2.0087993613229203e-05   2.3662756412441612e-06   -3.688175426992397e-05
-2.0087993613229203e-05   2.3662756412441612e-06   -3.688175426992397e-05
-2.0087993613229203e-05   2.3662756412441612e-06   -3.688175426992397e-05
-9.19438721690125e-06   2.457427534205501e-06   -5.5092456066247776e-05
-9.19438721690125e-06   2.457427534205501e-06   -5.5092456066247776e-05
-9.19438721690125e-06   2.457427534205501e-06   -5.5092456066247776e-05
-9.19438721690125e-06   2.457427534205501e-06   -5.5092456066247776e-05
-1.4918963716943577e-05   2.031481849078861e-06   -4.529592782176776e-05
-1.4918963716943577e-05   2.031481849078861e-06   -4.529592782176776e-05
-1.4918963716943577e-05   2.031481849078861e-06   -4.529592782176776e-05
-1.4918963716943577e-05   2.031481849078861e-06   -4.529592782176776e-05
-9.19438721690125e-06   2.366275641244378e-06   -3.693644540570104e-05
-9.19438721690125e-06   2.366275641244378e-06   -3.693644540570104e-05
-9.19438721690125e-06   2.366275641244378e-06   -3.693644540570104e-05
-9.19438721690125e-06   2.366275641244378e-06   -3.693644540570104e-05
-2.0087993613229203e-05   2.4574275342059346e-06   -5.503776493047071e-05
-2.0087993613229203e-05   2.4574275342059346e-06   -5.503776493047071e-05
-2.0087993613229203e-05   2.4574275342059346e-06   -5.503776493047071e-05
-2.0087993613229203e-05   2.4574275342059346e-06   -5.503776493047071e-05
-1.9344361190631948e-05   3.7088401778054194e-06   -3.697757847422175e-05
-1.9344361190631948e-05   3.7088401778054194e-06   -3.697757847422175e-05
-1.9344361190631948e-05   3.7088401778054194e-06   -3.697757847422175e-05
-1.9344361190631948e-05   3.7088401778054194e-06   -3.697757847422175e-05
-8.46351707878401e-06   3.65433760841612e-06   -5.5079617119000845e-05
-8.46351707878401e-06   3.65433760841612e-06   -5.5079617119000845e-05
-8.46351707878401e-06   3.65433760841612e-06   -5.5079617119000845e-05
-8.46351707878401e-06   3.65433760841612e-06   -5.5079617119000845e-05
-1.4274676560402832e-05   3.018009120857746e-06   -4.501255422376853e-05
-1.4274676560402832e-05   3.018009120857746e-06   -4.501255422376853e-05
-1.4274676560402832e-05   3.018009120857746e-06   -4.501255422376853e-05
-1.4274676560402832e-05   3.018009120857746e-06   -4.501255422376853e-05
-8.46351707878401e-06   3.7088401778054194e-06   -3.694487693258765e-05
-8.46351707878401e-06   3.7088401778054194e-06   -3.694487693258765e-05
-8.46351707878401e-06   3.7088401778054194e-06   -3.694487693258765e-05
-8.46351707878401e-06   3.7088401778054194e-06   -3.694487693258765e-05
-1.9344361190631914e-05   3.6543376084156864e-06   -5.511231866063473e-05
-1.9344361190631914e-05   3.6543376084156864e-06   -5.511231866063473e-05
-1.9344361190631914e-05   3.6543376084156864e-06   -5.511231866063473e-05
-1.9344361190631914e-05   3.6543376084156864e-06   -5.511231866063473e-05
-1.8635241731224105e-05   5.069962276288724e-06   -3.780810886375315e-05
-1.8635241731224105e-05   5.069962276288724e-06   -3.780810886375315e-05
-1.8635241731224105e-05   5.069962276288724e-06   -3.780810886375315e-05
-1.8635241731224105e-05   5.069962276288724e-06   -3.780810886375315e-05
-7.765060194534542e-06   4.871920847580088e-06   -5.580625323434364e-05
-7.765060194534542e-06   4.871920847580088e-06   -5.580625323434364e-05
-7.765060194534542e-06   4.871920847580088e-06   -5.580625323434364e-05
-7.765060194534542e-06   4.871920847580088e-06   -5.580625323434364e-05
-1.3675184929328126e-05   4.0195010741973965e-06   -4.544459347899236e-05
-1.3675184929328126e-05   4.0195010741973965e-06   -4.544459347899236e-05
-1.3675184929328126e-05   4.0195010741973965e-06   -4.544459347899236e-05
-1.3675184929328126e-05   4.0195010741973965e-06   -4.544459347899236e-05
-2.081997873482776e-05   2.3402488388696296e-06   -3.15728764431057e-05
-2.081997873482776e-05   2.3402488388696296e-06   -3.15728764431057e-05
-2.081997873482776e-05   2.3402488388696296e-06   -3.15728764431057e-05
-2.081997873482776e-05   2.3402488388696296e-06   -3.15728764431057e-05
-3.158657056420056e-05   4.2948539520637485e-06   -4.834443309081047e-05
-3.158657056420056e-05   4.2948539520637485e-06   -4.834443309081047e-05
-3.158657056420056e-05   4.2948539520637485e-06   -4.834443309081047e-05
-3.158657056420056e-05   4.2948539520637485e-06   -4.834443309081047e-05
-3.0750403207917726e-05   3.658165574185572e-06   -2.9736144238361097e-05
-3.0750403207917726e-05   3.658165574185572e-06   -2.9736144238361097e-05
-3.0750403207917726e-05   3.658165574185572e-06   -2.9736144238361097e-05
-3.0750403207917726e-05   3.658165574185572e-06   -2.9736144238361097e-05
-2.0087993613229203e-05   5.501418407556635e-06   -4.861277859619766e-05
-2.0087993613229203e-05   5.501418407556635e-06   -4.861277859619766e-05
-2.0087993613229203e-05   5.501418407556635e-06   -4.861277859619766e-05
-2.0087993613229203e-05   5.501418407556635e-06   -4.861277859619766e-05
-2.5632494948442855e-05   4.1056617578983864e-06   -3.853448904771336e-05
-2.5632494948442855e-05   4.1056617578983864e-06   -3.853448904771336e-05
-2.5632494948442855e-05   4.1056617578983864e-06   -3.853448904771336e-05
-2.5632494948442855e-05   4.1056617578983864e-06   -3.853448904771336e-05
-2.008799361322924e-05   3.658165574185355e-06   -3.084209593838365e-05
-2.008799361322924e-05   3.658165574185355e-06   -3.084209593838365e-05
-2.008799361322924e-05   3.658165574185355e-06   -3.084209593838365e-05
-2.008799361322924e-05   3.658165574185355e-06   -3.084209593838365e-05
-3.075040320791778e-05   5.501418407556635e-06   -4.750682689617534e-05
-3.075040320791778e-05   5.501418407556635e-06   -4.750682689617534e-05
-3.075040320791778e-05   5.501418407556635e-06   -4.750682689617534e-05
-3.075040320791778e-05   5.501418407556635e-06   -4.750682689617534e-05
-2.9749808908749502e-05   4.874157079884887e-06   -2.946218130281679e-05
-2.9749808908749502e-05   4.874157079884887e-06   -2.946218130281679e-05
-2.9749808908749502e-05   4.874157079884887e-06   -2.946218130281679e-05
-2.9749808908749502e-05   4.874157079884887e-06   -2.946218130281679e-05
-1.9344361190631948e-05   6.5883941123465704e-06   -4.783313638582317e-05
-1.9344361190631948e-05   6.5883941123465704e-06   -4.783313638582317e-05
-1.9344361190631948e-05   6.5883941123465704e-06   -4.783313638582317e-05
-1.9344361190631948e-05   6.5883941123465704e-06   -4.783313638582317e-05
-2.4790044631509458e-05   5.058155108117815e-06   -3.783885391515744e-05
-2.4790044631509458e-05   5.058155108117815e-06   -3.783885391515744e-05
-2.4790044631509458e-05   5.058155108117815e-06   -3.783885391515744e-05
-2.4790044631509458e-05   5.058155108117815e-06   -3.783885391515744e-05
-1.9344361190631928e-05   4.874157079884887e-06   -3.0490723522293714e-05
-1.9344361190631928e-05   4.874157079884887e-06   -3.0490723522293714e-05
-1.9344361190631928e-05   4.874157079884887e-06   -3.0490723522293714e-05
-1.9344361190631928e-05   4.874157079884887e-06   -3.0490723522293714e-05
-2.9749808908749502e-05   6.5883941123465704e-06   -4.680459416634623e-05
-2.9749808908749502e-05   6.5883941123465704e-06   -4.680459416634623e-05
-2.9749808908749502e-05   6.5883941123465704e-06   -4.680459416634623e-05
-2.9749808908749502e-05   6.5883941123465704e-06   -4.680459416634623e-05
-2.8916044565576143e-05   6.237213247473365e-06   -3.0277483365583882e-05
-2.8916044565576143e-05   6.237213247473365e-06   -3.0277483365583882e-05
-2.8916044565576143e-05   6.237213247473365e-06   -3.0277483365583882e-05
-2.8916044565576143e-05   6.237213247473365e-06   -3.0277483365583882e-05
-1.8635241731224105e-05   7.804892323513835e-06   -4.835276220179482e-05
-1.8635241731224105e-05   7.804892323513835e-06   -4.835276220179482e-05
-1.8635241731224105e-05   7.804892323513835e-06   -4.835276220179482e-05
-1.8635241731224105e-05   7.804892323513835e-06   -4.835276220179482e-05
-2.4225059472242946e-05   5.996875833544444e-06   -3.795158940611521e-05
-2.4225059472242946e-05   5.996875833544444e-06   -3.795158940611521e-05
-2.4225059472242946e-05   5.996875833544444e-06   -3.795158940611521e-05
-2.4225059472242946e-05   5.996875833544444e-06   -3.795158940611521e-05
-3.158657056420056e-05   3.931443586624667e-06   -1.6334066143049598e-05
-3.158657056420056e-05   3.931443586624667e-06   -1.6334066143049598e-05
-3.158657056420056e-05   3.931443586624667e-06   -1.6334066143049598e-05
-3.158657056420056e-05   3.931443586624667e-06   -1.6334066143049598e-05
-4.385445152149385e-05   7.3834188422934426e-06   -3.470934925180408e-05
-4.385445152149385e-05   7.3834188422934426e-06   -3.470934925180408e-05
-4.385445152149385e-05   7.3834188422934426e-06   -3.470934925180408e-05
-4.385445152149385e-05   7.3834188422934426e-06   -3.470934925180408e-05
-4.155999532997167e-05   5.125994031977745e-06   -1.0278984662394222e-05
-4.155999532997167e-05   5.125994031977745e-06   -1.0278984662394222e-05
-4.155999532997167e-05   5.125994031977745e-06   -1.0278984662394222e-05
-4.155999532997167e-05   5.125994031977745e-06   -1.0278984662394222e-05
-3.0750403207917726e-05   8.63581448431322e-06   -3.0400863803885497e-05
-3.0750403207917726e-05   8.63581448431322e-06   -3.0400863803885497e-05
-3.0750403207917726e-05   8.63581448431322e-06   -3.0400863803885497e-05
-3.0750403207917726e-05   8.63581448431322e-06   -3.0400863803885497e-05
-3.543502090242845e-05   6.412781030242128e-06   -2.125934757392535e-05
-3.543502090242845e-05   6.412781030242128e-06   -2.125934757392535e-05
-3.543502090242845e-05   6.412781030242128e-06   -2.125934757392535e-05
-3.543502090242845e-05   6.412781030242128e-06   -2.125934757392535e-05
-3.075040320791775e-05   5.125994031977745e-06   -1.2384876933795377e-05
-3.075040320791775e-05   5.125994031977745e-06   -1.2384876933795377e-05
-3.075040320791775e-05   5.125994031977745e-06   -1.2384876933795377e-05
-3.075040320791775e-05   5.125994031977745e-06   -1.2384876933795377e-05
-4.155999532997153e-05   8.63581448431322e-06   -2.8294971532484342e-05
-4.155999532997153e-05   8.63581448431322e-06   -2.8294971532484342e-05
-4.155999532997153e-05   8.63581448431322e-06   -2.8294971532484342e-05
-4.155999532997153e-05   8.63581448431322e-06   -2.8294971532484342e-05
-3.966358461380312e-05   5.672968356268621e-06   -8.445789524480995e-06
-3.966358461380312e-05   5.672968356268621e-06   -8.445789524480995e-06
-3.966358461380312e-05   5.672968356268621e-06   -8.445789524480995e-06
-3.966358461380312e-05   5.672968356268621e-06   -8.445789524480995e-06
-2.9749808908749448e-05   9.084471822869752e-06   -2.7015651112864632e-05
-2.9749808908749448e-05   9.084471822869752e-06   -2.7015651112864632e-05
-2.9749808908749448e-05   9.084471822869752e-06   -2.7015651112864632e-05
-2.9749808908749448e-05   9.084471822869752e-06   -2.7015651112864632e-05
-3.459267056323771e-05   6.975600291821236e-06   -1.7678892103421384e-05
-3.459267056323771e-05   6.975600291821236e-06   -1.7678892103421384e-05
-3.459267056323771e-05   6.975600291821236e-06   -1.7678892103421384e-05
-3.459267056323771e-05   6.975600291821236e-06   -1.7678892103421384e-05
-2.9749808908749502e-05   5.672968356268621e-06   -1.0492691604441868e-05
-2.9749808908749502e-05   5.672968356268621e-06   -1.0492691604441868e-05
-2.9749808908749502e-05   5.672968356268621e-06   -1.0492691604441868e-05
-2.9749808908749502e-05   5.672968356268621e-06   -1.0492691604441868e-05
-3.9663584613803036e-05   9.084471822870185e-06   -2.496874903290384e-05
-3.9663584613803036e-05   9.084471822870185e-06   -2.496874903290384e-05
-3.9663584613803036e-05   9.084471822870185e-06   -2.496874903290384e-05
-3.9663584613803036e-05   9.084471822870185e-06   -2.496874903290384e-05
-3.742160933551062e-05   6.521256267345453e-06   -6.529765583295128e-06
-3.742160933551062e-05   6.521256267345453e-06   -6.529765583295128e-06
-3.742160933551062e-05   6.521256267345453e-06   -6.529765583295128e-06
-3.742160933551062e-05   6.521256267345453e-06   -6.529765583295128e-06
-2.8916044565576143e-05   9.654258145816354e-06   -2.2585507993601924e-05
-2.8916044565576143e-05   9.654258145816354e-06   -2.2585507993601924e-05
-2.8916044565576143e-05   9.654258145816354e-06   -2.2585507993601924e-05
-2.8916044565576143e-05   9.654258145816354e-06   -2.2585507993601924e-05
-3.281103762921954e-05   7.247685404677181e-06   -1.4649909242846204e-05
-3.281103762921954e-05   7.247685404677181e-06   -1.4649909242846204e-05
-3.281103762921954e-05   7.247685404677181e-06   -1.4649909242846204e-05
-3.281103762921954e-05   7.247685404677181e-06   -1.4649909242846204e-05
3.332803346326309e-05   -4.373077681222356e-06   -2.8321525671155465e-07
3.332803346326309e-05   -4.373077681222356e-06   -2.8321525671155465e-07
3.332803346326309e-05   -4.373077681222356e-06   -2.8321525671155465e-07
3.332803346326309e-05   -4.373077681222356e-06   -2.8321525671155465e-07
1.4209336243422156e-05   -7.892663779740603e-06   -3.425946228222381e-05
1.4209336243422156e-05   -7.892663779740603e-06   -3.425946228222381e-05
1.4209336243422156e-05   -7.892663779740603e-06   -3.425946228222381e-05
1.4209336243422156e-05   -7.892663779740603e-06   -3.425946228222381e-05
1.5219535484303212e-05   -3.5932700763068905e-06   -3.7930993803817273e-06
1.5219535484303212e-05   -3.5932700763068905e-06   -3.7930993803817273e-06
1.5219535484303212e-05   -3.5932700763068905e-06   -3.7930993803817273e-06
1.5219535484303212e-05   -3.5932700763068905e-06   -3.7930993803817273e-06
3.585481695154199e-05   -7.3397268764126625e-06   -3.5937361079049464e-05
3.585481695154199e-05   -7.3397268764126625e-06   -3.5937361079049464e-05
3.585481695154199e-05   -7.3397268764126625e-06   -3.5937361079049464e-05
3.585481695154199e-05   -7.3397268764126625e-06   -3.5937361079049464e-05
2.3659020347623948e-05   -5.2003991869368875e-06   -1.689463001953832e-05
2.3659020347623948e-05   -5.2003991869368875e-06   -1.689463001953832e-05
2.3659020347623948e-05   -5.2003991869368875e-06   -1.689463001953832e-05
2.3659020347623948e-05   -5.2003991869368875e-06   -1.689463001953832e-05
3.5854816951542046e-05   -3.5932700763068905e-06   -1.5452253003180472e-06
3.5854816951542046e-05   -3.5932700763068905e-06   -1.5452253003180472e-06
3.5854816951542046e-05   -3.5932700763068905e-06   -1.5452253003180472e-06
3.5854816951542046e-05   -3.5932700763068905e-06   -1.5452253003180472e-06
1.5219535484303157e-05   -7.3397268764126625e-06   -3.818523515911293e-05
1.5219535484303157e-05   -7.3397268764126625e-06   -3.818523515911293e-05
1.5219535484303157e-05   -7.3397268764126625e-06   -3.818523515911293e-05
1.5219535484303157e-05   -7.3397268764126625e-06   -3.818523515911293e-05
1.6338436781577315e-05   -3.073802186270673e-06   -5.330999233341691e-06
1.6338436781577315e-05   -3.073802186270673e-06   -5.330999233341691e-06
1.6338436781577315e-05   -3.073802186270673e-06   -5.330999233341691e-06
1.6338436781577315e-05   -3.073802186270673e-06   -5.330999233341691e-06
3.7978195807462293e-05   -6.865171372543756e-06   -3.9122442764719686e-05
3.7978195807462293e-05   -6.865171372543756e-06   -3.9122442764719686e-05
3.7978195807462293e-05   -6.865171372543756e-06   -3.9122442764719686e-05
3.7978195807462293e-05   -6.865171372543756e-06   -3.9122442764719686e-05
2.5556936160540768e-05   -4.989206892089346e-06   -1.954592204145625e-05
2.5556936160540768e-05   -4.989206892089346e-06   -1.954592204145625e-05
2.5556936160540768e-05   -4.989206892089346e-06   -1.954592204145625e-05
2.5556936160540768e-05   -4.989206892089346e-06   -1.954592204145625e-05
3.797819580746235e-05   -3.073802186270673e-06   -3.0561777215778844e-06
3.797819580746235e-05   -3.073802186270673e-06   -3.0561777215778844e-06
3.797819580746235e-05   -3.073802186270673e-06   -3.0561777215778844e-06
3.797819580746235e-05   -3.073802186270673e-06   -3.0561777215778844e-06
1.6338436781577315e-05   -6.865171372543756e-06   -4.139726427648349e-05
1.6338436781577315e-05   -6.865171372543756e-06   -4.139726427648349e-05
1.6338436781577315e-05   -6.865171372543756e-06   -4.139726427648349e-05
1.6338436781577315e-05   -6.865171372543756e-06   -4.139726427648349e-05
1.72639058425667e-05   -1.764466682803098e-06   -8.882555094101097e-06
1.72639058425667e-05   -1.764466682803098e-06   -8.882555094101097e-06
1.72639058425667e-05   -1.764466682803098e-06   -8.882555094101097e-06
1.72639058425667e-05   -1.764466682803098e-06   -8.882555094101097e-06
4.044357107684275e-05   -5.363708103018044e-06   -4.535578563243201e-05
4.044357107684275e-05   -5.363708103018044e-06   -4.535578563243201e-05
4.044357107684275e-05   -5.363708103018044e-06   -4.535578563243201e-05
4.044357107684275e-05   -5.363708103018044e-06   -4.535578563243201e-05
2.658742534609566e-05   -4.403267025754852e-06   -2.2838474060879108e-05
2.658742534609566e-05   -4.403267025754852e-06   -2.2838474060879108e-05
2.658742534609566e-05   -4.403267025754852e-06   -2.2838474060879108e-05
2.658742534609566e-05   -4.403267025754852e-06   -2.2838474060879108e-05
1.4209336243422156e-05   -1.7314809382337239e-06   -2.32548606475258e-05
1.4209336243422156e-05   -1.7314809382337239e-06   -2.32548606475258e-05
1.4209336243422156e-05   -1.7314809382337239e-06   -2.32548606475258e-05
1.4209336243422156e-05   -1.7314809382337239e-06   -2.32548606475258e-05
-6.0346994632163e-06   -3.6995461341129965e-06   -5.817575927611761e-05
-6.0346994632163e-06   -3.6995461341129965e-06   -5.817575927611761e-05
-6.0346994632163e-06   -3.6995461341129965e-06   -5.817575927611761e-05
-6.0346994632163e-06   -3.6995461341129965e-06   -5.817575927611761e-05
-5.094375030345025e-06   -6.62799331276314e-07   -2.373881294466941e-05
-5.094375030345025e-06   -6.62799331276314e-07   -2.373881294466941e-05
-5.094375030345025e-06   -6.62799331276314e-07   -2.373881294466941e-05
-5.094375030345025e-06   -6.62799331276314e-07   -2.373881294466941e-05
1.5219535484303157e-05   -2.9325506748353533e-06   -5.623347966294753e-05
1.5219535484303157e-05   -2.9325506748353533e-06   -5.623347966294753e-05
1.5219535484303157e-05   -2.9325506748353533e-06   -5.623347966294753e-05
1.5219535484303157e-05   -2.9325506748353533e-06   -5.623347966294753e-05
4.6255257724446964e-06   -1.7894480654470288e-06   -3.9262658375483015e-05
4.6255257724446964e-06   -1.7894480654470288e-06   -3.9262658375483015e-05
4.6255257724446964e-06   -1.7894480654470288e-06   -3.9262658375483015e-05
4.6255257724446964e-06   -1.7894480654470288e-06   -3.9262658375483015e-05
1.5219535484303157e-05   -6.62799331276314e-07   -2.237696213853394e-05
1.5219535484303157e-05   -6.62799331276314e-07   -2.237696213853394e-05
1.5219535484303157e-05   -6.62799331276314e-07   -2.237696213853394e-05
1.5219535484303157e-05   -6.62799331276314e-07   -2.237696213853394e-05
-5.094375030345025e-06   -2.9325506748353533e-06   -5.759533046908278e-05
-5.094375030345025e-06   -2.9325506748353533e-06   -5.759533046908278e-05
-5.094375030345025e-06   -2.9325506748353533e-06   -5.759533046908278e-05
-5.094375030345025e-06   -2.9325506748353533e-06   -5.759533046908278e-05
-4.1965443168792064e-06   4.420949393678028e-07   -2.4042725583590984e-05
-4.1965443168792064e-06   4.420949393678028e-07   -2.4042725583590984e-05
-4.1965443168792064e-06   4.420949393678028e-07   -2.4042725583590984e-05
-4.1965443168792064e-06   4.420949393678028e-07   -2.4042725583590984e-05
1.6338436781577315e-05   -1.9949097455986865e-06   -5.680549127003886e-05
1.6338436781577315e-05   -1.9949097455986865e-06   -5.680549127003886e-05
1.6338436781577315e-05   -1.9949097455986865e-06   -5.680549127003886e-05
1.6338436781577315e-05   -1.9949097455986865e-06   -5.680549127003886e-05
5.372106643358033e-06   -1.111296899185179e-06   -3.905844208085382e-05
5.372106643358033e-06   -1.111296899185179e-06   -3.905844208085382e-05
5.372106643358033e-06   -1.111296899185179e-06   -3.905844208085382e-05
5.372106643358033e-06   -1.111296899185179e-06   -3.905844208085382e-05
1.6338436781577315e-05   4.420949393678028e-07   -2.2580522772611133e-05
1.6338436781577315e-05   4.420949393678028e-07   -2.2580522772611133e-05
1.6338436781577315e-05   4.420949393678028e-07   -2.2580522772611133e-05
1.6338436781577315e-05   4.420949393678028e-07   -2.2580522772611133e-05
-4.1965443168792064e-06   -1.9949097455986865e-06   -5.8267694081018655e-05
-4.1965443168792064e-06   -1.9949097455986865e-06   -5.8267694081018655e-05
-4.1965443168792064e-06   -1.9949097455986865e-06   -5.8267694081018655e-05
-4.1965443168792064e-06   -1.9949097455986865e-06   -5.8267694081018655e-05
-3.3530601477354182e-06   1.7503459280344968e-06   -2.485943825216862e-05
-3.3530601477354182e-06   1.7503459280344968e-06   -2.485943825216862e-05
-3.3530601477354182e-06   1.7503459280344968e-06   -2.485943825216862e-05
-3.3530601477354182e-06   1.7503459280344968e-06   -2.485943825216862e-05
1.72639058425667e-05   -8.153588300567442e-07   -5.768162538115102e-05
1.72639058425667e-05   -8.153588300567442e-07   -5.768162538115102e-05
1.72639058425667e-05   -8.153588300567442e-07   -5.768162538115102e-05
1.72639058425667e-05   -8.153588300567442e-07   -5.768162538115102e-05
6.302681808819101e-06   -2.750799434265462e-07   -3.9737085990217526e-05
6.302681808819101e-06   -2.750799434265462e-07   -3.9737085990217526e-05
6.302681808819101e-06   -2.750799434265462e-07   -3.9737085990217526e-05
6.302681808819101e-06   -2.750799434265462e-07   -3.9737085990217526e-05
-6.0346994632163e-06   1.3270317875437032e-06   -2.990040547118421e-05
-6.0346994632163e-06   1.3270317875437032e-06   -2.990040547118421e-05
-6.0346994632163e-06   1.3270317875437032e-06   -2.990040547118421e-05
-6.0346994632163e-06   1.3270317875437032e-06   -2.990040547118421e-05
-2.5922186518030716e-05   6.66742919883459e-07   -6.34423905498038e-05
-2.5922186518030716e-05   6.66742919883459e-07   -6.34423905498038e-05
-2.5922186518030716e-05   6.66742919883459e-07   -6.34423905498038e-05
-2.5922186518030716e-05   6.66742919883459e-07   -6.34423905498038e-05
-2.4910015102757177e-05   2.4574275342059346e-06   -2.9693948216364058e-05
-2.4910015102757177e-05   2.4574275342059346e-06   -2.9693948216364058e-05
-2.4910015102757177e-05   2.4574275342059346e-06   -2.9693948216364058e-05
-2.4910015102757177e-05   2.4574275342059346e-06   -2.9693948216364058e-05
-5.094375030345025e-06   1.5279666304053585e-06   -6.216233846143742e-05
-5.094375030345025e-06   1.5279666304053585e-06   -6.216233846143742e-05
-5.094375030345025e-06   1.5279666304053585e-06   -6.216233846143742e-05
-5.094375030345025e-06   1.5279666304053585e-06   -6.216233846143742e-05
-1.538413802406581e-05   1.8192238762223742e-06   -4.5187487819392546e-05
-1.538413802406581e-05   1.8192238762223742e-06   -4.5187487819392546e-05
-1.538413802406581e-05   1.8192238762223742e-06   -4.5187487819392546e-05
-1.538413802406581e-05   1.8192238762223742e-06   -4.5187487819392546e-05
-5.094375030345025e-06   2.457427534205501e-06   -2.9136271674083973e-05
-5.094375030345025e-06   2.457427534205501e-06   -2.9136271674083973e-05
-5.094375030345025e-06   2.457427534205501e-06   -2.9136271674083973e-05
-5.094375030345025e-06   2.457427534205501e-06   -2.9136271674083973e-05
-2.4910015102757177e-05   1.5279666304053585e-06   -6.272001500371772e-05
-2.4910015102757177e-05   1.5279666304053585e-06   -6.272001500371772e-05
-2.4910015102757177e-05   1.5279666304053585e-06   -6.272001500371772e-05
-2.4910015102757177e-05   1.5279666304053585e-06   -6.272001500371772e-05
-2.393384225814388e-05   3.65433760841612e-06   -2.9649192416510107e-05
-2.393384225814388e-05   3.65433760841612e-06   -2.9649192416510107e-05
-2.393384225814388e-05   3.65433760841612e-06   -2.9649192416510107e-05
-2.393384225814388e-05   3.65433760841612e-06   -2.9649192416510107e-05
-4.1965443168792335e-06   2.525614513919968e-06   -6.186745512858744e-05
-4.1965443168792335e-06   2.525614513919968e-06   -6.186745512858744e-05
-4.1965443168792335e-06   2.525614513919968e-06   -6.186745512858744e-05
-4.1965443168792335e-06   2.525614513919968e-06   -6.186745512858744e-05
-1.451302985864065e-05   2.6254519926117645e-06   -4.473321504619974e-05
-1.451302985864065e-05   2.6254519926117645e-06   -4.473321504619974e-05
-1.451302985864065e-05   2.6254519926117645e-06   -4.473321504619974e-05
-1.451302985864065e-05   2.6254519926117645e-06   -4.473321504619974e-05
-4.1965443168792335e-06   3.65433760841612e-06   -2.8971958559812936e-05
-4.1965443168792335e-06   3.65433760841612e-06   -2.8971958559812936e-05
-4.1965443168792335e-06   3.65433760841612e-06   -2.8971958559812936e-05
-4.1965443168792335e-06   3.65433760841612e-06   -2.8971958559812936e-05
-2.393384225814388e-05   2.5256145139204017e-06   -6.254468898528494e-05
-2.393384225814388e-05   2.5256145139204017e-06   -6.254468898528494e-05
-2.393384225814388e-05   2.5256145139204017e-06   -6.254468898528494e-05
-2.393384225814388e-05   2.5256145139204017e-06   -6.254468898528494e-05
-2.3031791460125835e-05   4.871920847579654e-06   -3.0346021280910516e-05
-2.3031791460125835e-05   4.871920847579654e-06   -3.0346021280910516e-05
-2.3031791460125835e-05   4.871920847579654e-06   -3.0346021280910516e-05
-2.3031791460125835e-05   4.871920847579654e-06   -3.0346021280910516e-05
-3.3530601477354453e-06   3.5567136969522767e-06   -6.235478251118473e-05
-3.3530601477354453e-06   3.5567136969522767e-06   -6.235478251118473e-05
-3.3530601477354453e-06   3.5567136969522767e-06   -6.235478251118473e-05
-3.3530601477354453e-06   3.5567136969522767e-06   -6.235478251118473e-05
-1.3734642125247401e-05   3.4527276180401807e-06   -4.498975423465135e-05
-1.3734642125247401e-05   3.4527276180401807e-06   -4.498975423465135e-05
-1.3734642125247401e-05   3.4527276180401807e-06   -4.498975423465135e-05
-1.3734642125247401e-05   3.4527276180401807e-06   -4.498975423465135e-05
-2.5922186518030757e-05   4.2948539520637485e-06   -2.426015206201046e-05
-2.5922186518030757e-05   4.2948539520637485e-06   -2.426015206201046e-05
-2.5922186518030757e-05   4.2948539520637485e-06   -2.426015206201046e-05
-2.5922186518030757e-05   4.2948539520637485e-06   -2.426015206201046e-05
-4.543754699894825e-05   5.189132432930135e-06   -5.62491857750199e-05
-4.543754699894825e-05   5.189132432930135e-06   -5.62491857750199e-05
-4.543754699894825e-05   5.189132432930135e-06   -5.62491857750199e-05
-4.543754699894825e-05   5.189132432930135e-06   -5.62491857750199e-05
-4.42177981621225e-05   5.501418407556635e-06   -2.279988762107668e-05
-4.42177981621225e-05   5.501418407556635e-06   -2.279988762107668e-05
-4.42177981621225e-05   5.501418407556635e-06   -2.279988762107668e-05
-4.42177981621225e-05   5.501418407556635e-06   -2.279988762107668e-05
-2.4910015102757217e-05   6.2832088425805385e-06   -5.5448600314366646e-05
-2.4910015102757217e-05   6.2832088425805385e-06   -5.5448600314366646e-05
-2.4910015102757217e-05   6.2832088425805385e-06   -5.5448600314366646e-05
-2.4910015102757217e-05   6.2832088425805385e-06   -5.5448600314366646e-05
-3.486520519980467e-05   5.546170046499821e-06   -3.841439354163891e-05
-3.486520519980467e-05   5.546170046499821e-06   -3.841439354163891e-05
-3.486520519980467e-05   5.546170046499821e-06   -3.841439354163891e-05
-3.486520519980467e-05   5.546170046499821e-06   -3.841439354163891e-05
-2.4910015102757217e-05   5.501418407556635e-06   -2.326896188209102e-05
-2.4910015102757217e-05   5.501418407556635e-06   -2.326896188209102e-05
-2.4910015102757217e-05   5.501418407556635e-06   -2.326896188209102e-05
-2.4910015102757217e-05   5.501418407556635e-06   -2.326896188209102e-05
-4.421779816212258e-05   6.2832088425805385e-06   -5.497952605335249e-05
-4.421779816212258e-05   6.2832088425805385e-06   -5.497952605335249e-05
-4.421779816212258e-05   6.2832088425805385e-06   -5.497952605335249e-05
-4.421779816212258e-05   6.2832088425805385e-06   -5.497952605335249e-05
-4.286860603692068e-05   6.5883941123465704e-06   -2.1987752792406974e-05
-4.286860603692068e-05   6.5883941123465704e-06   -2.1987752792406974e-05
-4.286860603692068e-05   6.5883941123465704e-06   -2.1987752792406974e-05
-4.286860603692068e-05   6.5883941123465704e-06   -2.1987752792406974e-05
-2.393384225814393e-05   7.22548969449982e-06   -5.392794977299334e-05
-2.393384225814393e-05   7.22548969449982e-06   -5.392794977299334e-05
-2.393384225814393e-05   7.22548969449982e-06   -5.392794977299334e-05
-2.393384225814393e-05   7.22548969449982e-06   -5.392794977299334e-05
-3.363197300207354e-05   6.3977539242286025e-06   -3.726775707094826e-05
-3.363197300207354e-05   6.3977539242286025e-06   -3.726775707094826e-05
-3.363197300207354e-05   6.3977539242286025e-06   -3.726775707094826e-05
-3.363197300207354e-05   6.3977539242286025e-06   -3.726775707094826e-05
-2.3933842258143915e-05   6.5883941123465704e-06   -2.2370010141698534e-05
-2.3933842258143915e-05   6.5883941123465704e-06   -2.2370010141698534e-05
-2.3933842258143915e-05   6.5883941123465704e-06   -2.2370010141698534e-05
-2.3933842258143915e-05   6.5883941123465704e-06   -2.2370010141698534e-05
-4.286860603692068e-05   7.22548969449982e-06   -5.3545692423701604e-05
-4.286860603692068e-05   7.22548969449982e-06   -5.3545692423701604e-05
-4.286860603692068e-05   7.22548969449982e-06   -5.3545692423701604e-05
-4.286860603692068e-05   7.22548969449982e-06   -5.3545692423701604e-05
-4.1728405211073006e-05   7.804892323513835e-06   -2.2495692434123258e-05
-4.1728405211073006e-05   7.804892323513835e-06   -2.2495692434123258e-05
-4.1728405211073006e-05   7.804892323513835e-06   -2.2495692434123258e-05
-4.1728405211073006e-05   7.804892323513835e-06   -2.2495692434123258e-05
-2.303179146012587e-05   8.268247251869663e-06   -5.39347283093818e-05
-2.303179146012587e-05   8.268247251869663e-06   -5.39347283093818e-05
-2.303179146012587e-05   8.268247251869663e-06   -5.39347283093818e-05
-2.303179146012587e-05   8.268247251869663e-06   -5.39347283093818e-05
-3.2863657886864595e-05   7.182280619398487e-06   -3.689670428533439e-05
-3.2863657886864595e-05   7.182280619398487e-06   -3.689670428533439e-05
-3.2863657886864595e-05   7.182280619398487e-06   -3.689670428533439e-05
-3.2863657886864595e-05   7.182280619398487e-06   -3.689670428533439e-05
-4.543754699894825e-05   7.3834188422934426e-06   -1.2159686287885763e-05
-4.543754699894825e-05   7.3834188422934426e-06   -1.2159686287885763e-05
-4.543754699894825e-05   7.3834188422934426e-06   -1.2159686287885763e-05
-4.543754699894825e-05   7.3834188422934426e-06   -1.2159686287885763e-05
-6.598831450745165e-05   1.0203921083019613e-05   -4.471866412428943e-05
-6.598831450745165e-05   1.0203921083019613e-05   -4.471866412428943e-05
-6.598831450745165e-05   1.0203921083019613e-05   -4.471866412428943e-05
-6.598831450745165e-05   1.0203921083019613e-05   -4.471866412428943e-05
-6.319029216188443e-05   8.63581448431322e-06   -3.8808925730542555e-06
-6.319029216188443e-05   8.63581448431322e-06   -3.8808925730542555e-06
-6.319029216188443e-05   8.63581448431322e-06   -3.8808925730542555e-06
-6.319029216188443e-05   8.63581448431322e-06   -3.8808925730542555e-06
-4.42177981621225e-05   1.1657534410534475e-05   -3.731474786172369e-05
-4.42177981621225e-05   1.1657534410534475e-05   -3.731474786172369e-05
-4.42177981621225e-05   1.1657534410534475e-05   -3.731474786172369e-05
-4.42177981621225e-05   1.1657534410534475e-05   -3.731474786172369e-05
-5.244651311813887e-05   9.72137125266996e-06   -2.243852504031109e-05
-5.244651311813887e-05   9.72137125266996e-06   -2.243852504031109e-05
-5.244651311813887e-05   9.72137125266996e-06   -2.243852504031109e-05
-5.244651311813887e-05   9.72137125266996e-06   -2.243852504031109e-05
-4.4217798162122536e-05   8.63581448431322e-06   -5.693924528786618e-06
-4.4217798162122536e-05   8.63581448431322e-06   -5.693924528786618e-06
-4.4217798162122536e-05   8.63581448431322e-06   -5.693924528786618e-06
-4.4217798162122536e-05   8.63581448431322e-06   -5.693924528786618e-06
-6.319029216188432e-05   1.1657534410534041e-05   -3.5501715905990805e-05
-6.319029216188432e-05   1.1657534410534041e-05   -3.5501715905990805e-05
-6.319029216188432e-05   1.1657534410534041e-05   -3.5501715905990805e-05
-6.319029216188432e-05   1.1657534410534041e-05   -3.5501715905990805e-05
-6.088775187085277e-05   9.084471822870185e-06   -4.2567670713940416e-07
-6.088775187085277e-05   9.084471822870185e-06   -4.2567670713940416e-07
-6.088775187085277e-05   9.084471822870185e-06   -4.2567670713940416e-07
-6.088775187085277e-05   9.084471822870185e-06   -4.2567670713940416e-07
-4.286860603692068e-05   1.2039693542514364e-05   -3.2230719462145745e-05
-4.286860603692068e-05   1.2039693542514364e-05   -3.2230719462145745e-05
-4.286860603692068e-05   1.2039693542514364e-05   -3.2230719462145745e-05
-4.286860603692068e-05   1.2039693542514364e-05   -3.2230719462145745e-05
-5.149054346036484e-05   1.029970646017949e-05   -1.6816831507003886e-05
-5.149054346036484e-05   1.029970646017949e-05   -1.6816831507003886e-05
-5.149054346036484e-05   1.029970646017949e-05   -1.6816831507003886e-05
-5.149054346036484e-05   1.029970646017949e-05   -1.6816831507003886e-05
-4.286860603692068e-05   9.084471822870185e-06   -2.1988097389255643e-06
-4.286860603692068e-05   9.084471822870185e-06   -2.1988097389255643e-06
-4.286860603692068e-05   9.084471822870185e-06   -2.1988097389255643e-06
-4.286860603692068e-05   9.084471822870185e-06   -2.1988097389255643e-06
-6.088775187085255e-05   1.203969354251393e-05   -3.045758643035936e-05
-6.088775187085255e-05   1.203969354251393e-05   -3.045758643035936e-05
-6.088775187085255e-05   1.203969354251393e-05   -3.045758643035936e-05
-6.088775187085255e-05   1.203969354251393e-05   -3.045758643035936e-05
-5.84045936161975e-05   9.654258145816354e-06   3.960334217548503e-06
-5.84045936161975e-05   9.654258145816354e-06   3.960334217548503e-06
-5.84045936161975e-05   9.654258145816354e-06   3.960334217548503e-06
-5.84045936161975e-05   9.654258145816354e-06   3.960334217548503e-06
-4.1728405211073006e-05   1.2369891294321256e-05   -2.5462693013428606e-05
-4.1728405211073006e-05   1.2369891294321256e-05   -2.5462693013428606e-05
-4.1728405211073006e-05   1.2369891294321256e-05   -2.5462693013428606e-05
-4.1728405211073006e-05   1.2369891294321256e-05   -2.5462693013428606e-05
-4.915782286608902e-05   1.039427116898738e-05   -1.1894958179868597e-05
-4.915782286608902e-05   1.039427116898738e-05   -1.1894958179868597e-05
-4.915782286608902e-05   1.039427116898738e-05   -1.1894958179868597e-05
-4.915782286608902e-05   1.039427116898738e-05   -1.1894958179868597e-05
5.6587995127515254e-05   -7.892663779740603e-06   1.1185735538138137e-05
5.6587995127515254e-05   -7.892663779740603e-06   1.1185735538138137e-05
5.6587995127515254e-05   -7.892663779740603e-06   1.1185735538138137e-05
5.6587995127515254e-05   -7.892663779740603e-06   1.1185735538138137e-05
2.727804116205905e-05   -1.1691758666019202e-05   -3.994364466938902e-05
2.727804116205905e-05   -1.1691758666019202e-05   -3.994364466938902e-05
2.727804116205905e-05   -1.1691758666019202e-05   -3.994364466938902e-05
2.727804116205905e-05   -1.1691758666019202e-05   -3.994364466938902e-05
2.8397806842037104e-05   -7.3397268764126625e-06   5.376740481581512e-06
2.8397806842037104e-05   -7.3397268764126625e-06   5.376740481581512e-06
2.8397806842037104e-05   -7.3397268764126625e-06   5.376740481581512e-06
2.8397806842037104e-05   -7.3397268764126625e-06   5.376740481581512e-06
5.918462503538282e-05   -1.1418119475422196e-05   -4.3487587614589025e-05
5.918462503538282e-05   -1.1418119475422196e-05   -4.3487587614589025e-05
5.918462503538282e-05   -1.1418119475422196e-05   -4.3487587614589025e-05
5.918462503538282e-05   -1.1418119475422196e-05   -4.3487587614589025e-05
4.1119844734918e-05   -8.642979403379256e-06   -1.5044704490373563e-05
4.1119844734918e-05   -8.642979403379256e-06   -1.5044704490373563e-05
4.1119844734918e-05   -8.642979403379256e-06   -1.5044704490373563e-05
4.1119844734918e-05   -8.642979403379256e-06   -1.5044704490373563e-05
5.9184625035382874e-05   -7.3397268764126625e-06   7.823776040987232e-06
5.9184625035382874e-05   -7.3397268764126625e-06   7.823776040987232e-06
5.9184625035382874e-05   -7.3397268764126625e-06   7.823776040987232e-06
5.9184625035382874e-05   -7.3397268764126625e-06   7.823776040987232e-06
2.839780684203705e-05   -1.1418119475422196e-05   -4.593462317399491e-05
2.839780684203705e-05   -1.1418119475422196e-05   -4.593462317399491e-05
2.839780684203705e-05   -1.1418119475422196e-05   -4.593462317399491e-05
2.839780684203705e-05   -1.1418119475422196e-05   -4.593462317399491e-05
2.951165003754302e-05   -6.865171372543756e-06   2.536140839053125e-06
2.951165003754302e-05   -6.865171372543756e-06   2.536140839053125e-06
2.951165003754302e-05   -6.865171372543756e-06   2.536140839053125e-06
2.951165003754302e-05   -6.865171372543756e-06   2.536140839053125e-06
6.117819542948466e-05   -1.1021915182145292e-05   -4.7747388528422165e-05
6.117819542948466e-05   -1.1021915182145292e-05   -4.7747388528422165e-05
6.117819542948466e-05   -1.1021915182145292e-05   -4.7747388528422165e-05
6.117819542948466e-05   -1.1021915182145292e-05   -4.7747388528422165e-05
4.330620805112099e-05   -8.614563222362082e-06   -1.9405154073685784e-05
4.330620805112099e-05   -8.614563222362082e-06   -1.9405154073685784e-05
4.330620805112099e-05   -8.614563222362082e-06   -1.9405154073685784e-05
4.330620805112099e-05   -8.614563222362082e-06   -1.9405154073685784e-05
6.117819542948466e-05   -6.865171372543756e-06   5.0301871248141766e-06
6.117819542948466e-05   -6.865171372543756e-06   5.0301871248141766e-06
6.117819542948466e-05   -6.865171372543756e-06   5.0301871248141766e-06
6.117819542948466e-05   -6.865171372543756e-06   5.0301871248141766e-06
2.951165003754302e-05   -1.1021915182145292e-05   -5.0241434814183054e-05
2.951165003754302e-05   -1.1021915182145292e-05   -5.0241434814183054e-05
2.951165003754302e-05   -1.1021915182145292e-05   -5.0241434814183054e-05
2.951165003754302e-05   -1.1021915182145292e-05   -5.0241434814183054e-05
3.0268690379557872e-05   -5.3637081030184774e-06   -3.1878160056805424e-06
3.0268690379557872e-05   -5.3637081030184774e-06   -3.1878160056805424e-06
3.0268690379557872e-05   -5.3637081030184774e-06   -3.1878160056805424e-06
3.0268690379557872e-05   -5.3637081030184774e-06   -3.1878160056805424e-06
6.328609662615967e-05   -9.47580469127119e-06   -5.574956846373199e-05
6.328609662615967e-05   -9.47580469127119e-06   -5.574956846373199e-05
6.328609662615967e-05   -9.47580469127119e-06   -5.574956846373199e-05
6.328609662615967e-05   -9.47580469127119e-06   -5.574956846373199e-05
4.391986432140695e-05   -7.952835171210274e-06   -2.438629633451459e-05
4.391986432140695e-05   -7.952835171210274e-06   -2.438629633451459e-05
4.391986432140695e-05   -7.952835171210274e-06   -2.438629633451459e-05
4.391986432140695e-05   -7.952835171210274e-06   -2.438629633451459e-05
2.7278041162059105e-05   -3.6995461341129965e-06   -1.382917926999504e-05
2.7278041162059105e-05   -3.6995461341129965e-06   -1.382917926999504e-05
2.7278041162059105e-05   -3.6995461341129965e-06   -1.382917926999504e-05
2.7278041162059105e-05   -3.6995461341129965e-06   -1.382917926999504e-05
-1.636909300904276e-06   -7.5854337136952235e-06   -6.435229592268344e-05
-1.636909300904276e-06   -7.5854337136952235e-06   -6.435229592268344e-05
-1.636909300904276e-06   -7.5854337136952235e-06   -6.435229592268344e-05
-1.636909300904276e-06   -7.5854337136952235e-06   -6.435229592268344e-05
-4.87169561941335e-07   -2.9325506748353533e-06   -1.5246073828143695e-05
-4.87169561941335e-07   -2.9325506748353533e-06   -1.5246073828143695e-05
-4.87169561941335e-07   -2.9325506748353533e-06   -1.5246073828143695e-05
-4.87169561941335e-07   -2.9325506748353533e-06   -1.5246073828143695e-05
2.8397806842037104e-05   -7.223500351319183e-06   -6.081313136221722e-05
2.8397806842037104e-05   -7.223500351319183e-06   -6.081313136221722e-05
2.8397806842037104e-05   -7.223500351319183e-06   -6.081313136221722e-05
2.8397806842037104e-05   -7.223500351319183e-06   -6.081313136221722e-05
1.3428543561960153e-05   -4.5887598748789796e-06   -3.744520351461975e-05
1.3428543561960153e-05   -4.5887598748789796e-06   -3.744520351461975e-05
1.3428543561960153e-05   -4.5887598748789796e-06   -3.744520351461975e-05
1.3428543561960153e-05   -4.5887598748789796e-06   -3.744520351461975e-05
2.8397806842037077e-05   -2.9325506748353533e-06   -1.2671504022253094e-05
2.8397806842037077e-05   -2.9325506748353533e-06   -1.2671504022253094e-05
2.8397806842037077e-05   -2.9325506748353533e-06   -1.2671504022253094e-05
2.8397806842037077e-05   -2.9325506748353533e-06   -1.2671504022253094e-05
-4.87169561941335e-07   -7.223500351319183e-06   -6.338770116810777e-05
-4.87169561941335e-07   -7.223500351319183e-06   -6.338770116810777e-05
-4.87169561941335e-07   -7.223500351319183e-06   -6.338770116810777e-05
-4.87169561941335e-07   -7.223500351319183e-06   -6.338770116810777e-05
5.259128129364023e-07   -1.9949097455986865e-06   -1.5604402069297352e-05
5.259128129364023e-07   -1.9949097455986865e-06   -1.5604402069297352e-05
5.259128129364023e-07   -1.9949097455986865e-06   -1.5604402069297352e-05
5.259128129364023e-07   -1.9949097455986865e-06   -1.5604402069297352e-05
2.951165003754302e-05   -6.548769603590375e-06   -6.118164819551326e-05
2.951165003754302e-05   -6.548769603590375e-06   -6.118164819551326e-05
2.951165003754302e-05   -6.548769603590375e-06   -6.118164819551326e-05
2.951165003754302e-05   -6.548769603590375e-06   -6.118164819551326e-05
1.4211935595228627e-05   -4.2135779375921875e-06   -3.7083239124587357e-05
1.4211935595228627e-05   -4.2135779375921875e-06   -3.7083239124587357e-05
1.4211935595228627e-05   -4.2135779375921875e-06   -3.7083239124587357e-05
1.4211935595228627e-05   -4.2135779375921875e-06   -3.7083239124587357e-05
2.951165003754302e-05   -1.994909745598253e-06   -1.2872086154502296e-05
2.951165003754302e-05   -1.994909745598253e-06   -1.2872086154502296e-05
2.951165003754302e-05   -1.994909745598253e-06   -1.2872086154502296e-05
2.951165003754302e-05   -1.994909745598253e-06   -1.2872086154502296e-05
5.259128129364023e-07   -6.548769603589941e-06   -6.391396411030859e-05
5.259128129364023e-07   -6.548769603589941e-06   -6.391396411030859e-05
5.259128129364023e-07   -6.548769603589941e-06   -6.391396411030859e-05
5.259128129364023e-07   -6.548769603589941e-06   -6.391396411030859e-05
1.2475019417009956e-06   -8.153588300563105e-07   -1.6218205382665437e-05
1.2475019417009956e-06   -8.153588300563105e-07   -1.6218205382665437e-05
1.2475019417009956e-06   -8.153588300563105e-07   -1.6218205382665437e-05
1.2475019417009956e-06   -8.153588300563105e-07   -1.6218205382665437e-05
3.0268690379557927e-05   -5.588849630715556e-06   -6.172275829869825e-05
3.0268690379557927e-05   -5.588849630715556e-06   -6.172275829869825e-05
3.0268690379557927e-05   -5.588849630715556e-06   -6.172275829869825e-05
3.0268690379557927e-05   -5.588849630715556e-06   -6.172275829869825e-05
1.5148577035597362e-05   -3.551903216785293e-06   -3.7744737240456654e-05
1.5148577035597362e-05   -3.551903216785293e-06   -3.7744737240456654e-05
1.5148577035597362e-05   -3.551903216785293e-06   -3.7744737240456654e-05
1.5148577035597362e-05   -3.551903216785293e-06   -3.7744737240456654e-05
-1.636909300904276e-06   6.66742919883459e-07   -2.1031169770835108e-05
-1.636909300904276e-06   6.66742919883459e-07   -2.1031169770835108e-05
-1.636909300904276e-06   6.66742919883459e-07   -2.1031169770835108e-05
-1.636909300904276e-06   6.66742919883459e-07   -2.1031169770835108e-05
-3.0124677373755623e-05   -3.996702918540682e-06   -7.130885072864201e-05
-3.0124677373755623e-05   -3.996702918540682e-06   -7.130885072864201e-05
-3.0124677373755623e-05   -3.996702918540682e-06   -7.130885072864201e-05
-3.0124677373755623e-05   -3.996702918540682e-06   -7.130885072864201e-05
-2.8745321547713257e-05   1.5279666304057922e-06   -2.2872243233108304e-05
-2.8745321547713257e-05   1.5279666304057922e-06   -2.2872243233108304e-05
-2.8745321547713257e-05   1.5279666304057922e-06   -2.2872243233108304e-05
-2.8745321547713257e-05   1.5279666304057922e-06   -2.2872243233108304e-05
-4.87169561941335e-07   -3.5706357239448892e-06   -6.69100017967845e-05
-4.87169561941335e-07   -3.5706357239448892e-06   -6.69100017967845e-05
-4.87169561941335e-07   -3.5706357239448892e-06   -6.69100017967845e-05
-4.87169561941335e-07   -3.5706357239448892e-06   -6.69100017967845e-05
-1.5066972674186686e-05   -7.817140826446231e-07   -4.428368292782247e-05
-1.5066972674186686e-05   -7.817140826446231e-07   -4.428368292782247e-05
-1.5066972674186686e-05   -7.817140826446231e-07   -4.428368292782247e-05
-1.5066972674186686e-05   -7.817140826446231e-07   -4.428368292782247e-05
-4.87169561941335e-07   1.5279666304053585e-06   -1.9813081820498112e-05
-4.87169561941335e-07   1.5279666304053585e-06   -1.9813081820498112e-05
-4.87169561941335e-07   1.5279666304053585e-06   -1.9813081820498112e-05
-4.87169561941335e-07   1.5279666304053585e-06   -1.9813081820498112e-05
-2.8745321547713257e-05   -3.5706357239448892e-06   -6.996916320939502e-05
-2.8745321547713257e-05   -3.5706357239448892e-06   -6.996916320939502e-05
-2.8745321547713257e-05   -3.5706357239448892e-06   -6.996916320939502e-05
-2.8745321547713257e-05   -3.5706357239448892e-06   -6.996916320939502e-05
-2.7479819013853955e-05   2.525614513919968e-06   -2.2463172490064893e-05
-2.7479819013853955e-05   2.525614513919968e-06   -2.2463172490064893e-05
-2.7479819013853955e-05   2.525614513919968e-06   -2.2463172490064893e-05
-2.7479819013853955e-05   2.525614513919968e-06   -2.2463172490064893e-05
5.259128129364023e-07   -2.9060677747441525e-06   -6.588038282818364e-05
5.259128129364023e-07   -2.9060677747441525e-06   -6.588038282818364e-05
5.259128129364023e-07   -2.9060677747441525e-06   -6.588038282818364e-05
5.259128129364023e-07   -2.9060677747441525e-06   -6.588038282818364e-05
-1.3943244436720104e-05   -2.9342346130264985e-07   -4.333270733348777e-05
-1.3943244436720104e-05   -2.9342346130264985e-07   -4.333270733348777e-05
-1.3943244436720104e-05   -2.9342346130264985e-07   -4.333270733348777e-05
-1.3943244436720104e-05   -2.9342346130264985e-07   -4.333270733348777e-05
5.259128129364023e-07   2.525614513919968e-06   -1.9204163116866247e-05
5.259128129364023e-07   2.525614513919968e-06   -1.9204163116866247e-05
5.259128129364023e-07   2.525614513919968e-06   -1.9204163116866247e-05
5.259128129364023e-07   2.525614513919968e-06   -1.9204163116866247e-05
-2.7479819013853996e-05   -2.9060677747445862e-06   -6.913939220138244e-05
-2.7479819013853996e-05   -2.9060677747445862e-06   -6.913939220138244e-05
-2.7479819013853996e-05   -2.9060677747445862e-06   -6.913939220138244e-05
-2.7479819013853996e-05   -2.9060677747445862e-06   -6.913939220138244e-05
-2.6626439251084194e-05   3.5567136969522767e-06   -2.2851594969640126e-05
-2.6626439251084194e-05   3.5567136969522767e-06   -2.2851594969640126e-05
-2.6626439251084194e-05   3.5567136969522767e-06   -2.2851594969640126e-05
-2.6626439251084194e-05   3.5567136969522767e-06   -2.2851594969640126e-05
1.2475019417009956e-06   -2.276045156040206e-06   -6.580850831248687e-05
1.2475019417009956e-06   -2.276045156040206e-06   -6.580850831248687e-05
1.2475019417009956e-06   -2.276045156040206e-06   -6.580850831248687e-05
1.2475019417009956e-06   -2.276045156040206e-06   -6.580850831248687e-05
-1.3141454141381647e-05   2.5494567897858117e-07   -4.334550934169423e-05
-1.3141454141381647e-05   2.5494567897858117e-07   -4.334550934169423e-05
-1.3141454141381647e-05   2.5494567897858117e-07   -4.334550934169423e-05
-1.3141454141381647e-05   2.5494567897858117e-07   -4.334550934169423e-05
-3.0124677373755555e-05   5.189132432930569e-06   -1.7172599587625403e-05
-3.0124677373755555e-05   5.189132432930569e-06   -1.7172599587625403e-05
-3.0124677373755555e-05   5.189132432930569e-06   -1.7172599587625403e-05
-3.0124677373755555e-05   5.189132432930569e-06   -1.7172599587625403e-05
-5.900785053441024e-05   9.852325192857316e-07   -6.783356147023662e-05
-5.900785053441024e-05   9.852325192857316e-07   -6.783356147023662e-05
-5.900785053441024e-05   9.852325192857316e-07   -6.783356147023662e-05
-5.900785053441024e-05   9.852325192857316e-07   -6.783356147023662e-05
-5.704432649353173e-05   6.283208842580972e-06   -1.830581000985187e-05
-5.704432649353173e-05   6.283208842580972e-06   -1.830581000985187e-05
-5.704432649353173e-05   6.283208842580972e-06   -1.830581000985187e-05
-5.704432649353173e-05   6.283208842580972e-06   -1.830581000985187e-05
-2.8745321547713216e-05   1.774906399089858e-06   -6.276583678678835e-05
-2.8745321547713216e-05   1.774906399089858e-06   -6.276583678678835e-05
-2.8745321547713216e-05   1.774906399089858e-06   -6.276583678678835e-05
-2.8745321547713216e-05   1.774906399089858e-06   -6.276583678678835e-05
-4.327592608259558e-05   3.934673477433686e-06   -3.98440228089903e-05
-4.327592608259558e-05   3.934673477433686e-06   -3.98440228089903e-05
-4.327592608259558e-05   3.934673477433686e-06   -3.98440228089903e-05
-4.327592608259558e-05   3.934673477433686e-06   -3.98440228089903e-05
-2.8745321547713216e-05   6.283208842580972e-06   -1.5600828543757203e-05
-2.8745321547713216e-05   6.283208842580972e-06   -1.5600828543757203e-05
-2.8745321547713216e-05   6.283208842580972e-06   -1.5600828543757203e-05
-2.8745321547713216e-05   6.283208842580972e-06   -1.5600828543757203e-05
-5.704432649353183e-05   1.774906399089858e-06   -6.547081825288297e-05
-5.704432649353183e-05   1.774906399089858e-06   -6.547081825288297e-05
-5.704432649353183e-05   1.774906399089858e-06   -6.547081825288297e-05
-5.704432649353183e-05   1.774906399089858e-06   -6.547081825288297e-05
-5.5146807501768865e-05   7.22548969449982e-06   -1.6680500943232028e-05
-5.5146807501768865e-05   7.22548969449982e-06   -1.6680500943232028e-05
-5.5146807501768865e-05   7.22548969449982e-06   -1.6680500943232028e-05
-5.5146807501768865e-05   7.22548969449982e-06   -1.6680500943232028e-05
-2.7479819013853996e-05   2.502043585402361e-06   -5.995808075763185e-05
-2.7479819013853996e-05   2.502043585402361e-06   -5.995808075763185e-05
-2.7479819013853996e-05   2.502043585402361e-06   -5.995808075763185e-05
-2.7479819013853996e-05   2.502043585402361e-06   -5.995808075763185e-05
-4.150221731668133e-05   4.621713357701694e-06   -3.785921878296538e-05
-4.150221731668133e-05   4.621713357701694e-06   -3.785921878296538e-05
-4.150221731668133e-05   4.621713357701694e-06   -3.785921878296538e-05
-4.150221731668133e-05   4.621713357701694e-06   -3.785921878296538e-05
-2.7479819013853928e-05   7.22548969449982e-06   -1.3846433277773336e-05
-2.7479819013853928e-05   7.22548969449982e-06   -1.3846433277773336e-05
-2.7479819013853928e-05   7.22548969449982e-06   -1.3846433277773336e-05
-2.7479819013853928e-05   7.22548969449982e-06   -1.3846433277773336e-05
-5.514680750176897e-05   2.5020435854027946e-06   -6.279214842309054e-05
-5.514680750176897e-05   2.5020435854027946e-06   -6.279214842309054e-05
-5.514680750176897e-05   2.5020435854027946e-06   -6.279214842309054e-05
-5.514680750176897e-05   2.5020435854027946e-06   -6.279214842309054e-05
-5.370652231717949e-05   8.268247251869663e-06   -1.673284229631992e-05
-5.370652231717949e-05   8.268247251869663e-06   -1.673284229631992e-05
-5.370652231717949e-05   8.268247251869663e-06   -1.673284229631992e-05
-5.370652231717949e-05   8.268247251869663e-06   -1.673284229631992e-05
-2.662643925108425e-05   3.1175375537705573e-06   -5.877588825428629e-05
-2.662643925108425e-05   3.1175375537705573e-06   -5.877588825428629e-05
-2.662643925108425e-05   3.1175375537705573e-06   -5.877588825428629e-05
-2.662643925108425e-05   3.1175375537705573e-06   -5.877588825428629e-05
-4.050662980385801e-05   5.101136342009274e-06   -3.683239660593981e-05
-4.050662980385801e-05   5.101136342009274e-06   -3.683239660593981e-05
-4.050662980385801e-05   5.101136342009274e-06   -3.683239660593981e-05
-4.050662980385801e-05   5.101136342009274e-06   -3.683239660593981e-05
-5.900785053441024e-05   1.0203921083019613e-05   -9.856719229517233e-06
-5.900785053441024e-05   1.0203921083019613e-05   -9.856719229517233e-06
-5.900785053441024e-05   1.0203921083019613e-05   -9.856719229517233e-06
-5.900785053441024e-05   1.0203921083019613e-05   -9.856719229517233e-06
-8.917939851527747e-05   9.62764909546521e-06   -6.0488395723495673e-05
-8.917939851527747e-05   9.62764909546521e-06   -6.0488395723495673e-05
-8.917939851527747e-05   9.62764909546521e-06   -6.0488395723495673e-05
-8.917939851527747e-05   9.62764909546521e-06   -6.0488395723495673e-05
-8.531069019993268e-05   1.1657534410534475e-05   -3.1823339772716307e-07
-8.531069019993268e-05   1.1657534410534475e-05   -3.1823339772716307e-07
-8.531069019993268e-05   1.1657534410534475e-05   -3.1823339772716307e-07
-8.531069019993268e-05   1.1657534410534475e-05   -3.1823339772716307e-07
-5.704432649353164e-05   1.219553177802743e-05   -4.775163799555859e-05
-5.704432649353164e-05   1.219553177802743e-05   -4.775163799555859e-05
-5.704432649353164e-05   1.219553177802743e-05   -4.775163799555859e-05
-5.704432649353164e-05   1.219553177802743e-05   -4.775163799555859e-05
-6.950272715052324e-05   1.1500179227023205e-05   -2.6570425369970216e-05
-6.950272715052324e-05   1.1500179227023205e-05   -2.6570425369970216e-05
-6.950272715052324e-05   1.1500179227023205e-05   -2.6570425369970216e-05
-6.950272715052324e-05   1.1500179227023205e-05   -2.6570425369970216e-05
-5.7044326493531787e-05   1.1657534410534475e-05   -6.410318182229792e-07
-5.7044326493531787e-05   1.1657534410534475e-05   -6.410318182229792e-07
-5.7044326493531787e-05   1.1657534410534475e-05   -6.410318182229792e-07
-5.7044326493531787e-05   1.1657534410534475e-05   -6.410318182229792e-07
-8.531069019993268e-05   1.219553177802743e-05   -4.7428839575062434e-05
-8.531069019993268e-05   1.219553177802743e-05   -4.7428839575062434e-05
-8.531069019993268e-05   1.219553177802743e-05   -4.7428839575062434e-05
-8.531069019993268e-05   1.219553177802743e-05   -4.7428839575062434e-05
-8.210127937814405e-05   1.203969354251393e-05   5.074031113352657e-06
-8.210127937814405e-05   1.203969354251393e-05   5.074031113352657e-06
-8.210127937814405e-05   1.203969354251393e-05   5.074031113352657e-06
-8.210127937814405e-05   1.203969354251393e-05   5.074031113352657e-06
-5.5146807501768865e-05   1.2772292034229134e-05   -4.0289647775635005e-05
-5.5146807501768865e-05   1.2772292034229134e-05   -4.0289647775635005e-05
-5.5146807501768865e-05   1.2772292034229134e-05   -4.0289647775635005e-05
-5.5146807501768865e-05   1.2772292034229134e-05   -4.0289647775635005e-05
-6.803389729680008e-05   1.2336428533287792e-05   -1.854964668335094e-05
-6.803389729680008e-05   1.2336428533287792e-05   -1.854964668335094e-05
-6.803389729680008e-05   1.2336428533287792e-05   -1.854964668335094e-05
-6.803389729680008e-05   1.2336428533287792e-05   -1.854964668335094e-05
-5.514680750176897e-05   1.203969354251393e-05   4.634472018323838e-06
-5.514680750176897e-05   1.203969354251393e-05   4.634472018323838e-06
-5.514680750176897e-05   1.203969354251393e-05   4.634472018323838e-06
-5.514680750176897e-05   1.203969354251393e-05   4.634472018323838e-06
-8.21012793781439e-05   1.2772292034229134e-05   -3.9850088680605956e-05
-8.21012793781439e-05   1.2772292034229134e-05   -3.9850088680605956e-05
-8.21012793781439e-05   1.2772292034229134e-05   -3.9850088680605956e-05
-8.21012793781439e-05   1.2772292034229134e-05   -3.9850088680605956e-05
-7.87454697170632e-05   1.2369891294321256e-05   1.22983171519527e-05
-7.87454697170632e-05   1.2369891294321256e-05   1.22983171519527e-05
-7.87454697170632e-05   1.2369891294321256e-05   1.22983171519527e-05
-7.87454697170632e-05   1.2369891294321256e-05   1.22983171519527e-05
-5.370652231717949e-05   1.3765119809876214e-05   -3.0270398957186826e-05
-5.370652231717949e-05   1.3765119809876214e-05   -3.0270398957186826e-05
-5.370652231717949e-05   1.3765119809876214e-05   -3.0270398957186826e-05
-5.370652231717949e-05   1.3765119809876214e-05   -3.0270398957186826e-05
-6.479588293454224e-05   1.2618397599568551e-05   -1.1100097935398288e-05
-6.479588293454224e-05   1.2618397599568551e-05   -1.1100097935398288e-05
-6.479588293454224e-05   1.2618397599568551e-05   -1.1100097935398288e-05
-6.479588293454224e-05   1.2618397599568551e-05   -1.1100097935398288e-05
7.781795953451103e-05   -1.1691758666019202e-05   2.6521205492882095e-05
7.781795953451103e-05   -1.1691758666019202e-05   2.6521205492882095e-05
7.781795953451103e-05   -1.1691758666019202e-05   2.6521205492882095e-05
7.781795953451103e-05   -1.1691758666019202e-05   2.6521205492882095e-05
3.9124128507568085e-05   -1.4790076379459817e-05   -3.982750351342072e-05
3.9124128507568085e-05   -1.4790076379459817e-05   -3.982750351342072e-05
3.9124128507568085e-05   -1.4790076379459817e-05   -3.982750351342072e-05
3.9124128507568085e-05   -1.4790076379459817e-05   -3.982750351342072e-05
4.0082766402686174e-05   -1.1418119475422196e-05   1.9017263186880354e-05
4.0082766402686174e-05   -1.1418119475422196e-05   1.9017263186880354e-05
4.0082766402686174e-05   -1.1418119475422196e-05   1.9017263186880354e-05
4.0082766402686174e-05   -1.1418119475422196e-05   1.9017263186880354e-05
7.976061762776545e-05   -1.5160038267135727e-05   -4.486733757989023e-05
7.976061762776545e-05   -1.5160038267135727e-05   -4.486733757989023e-05
7.976061762776545e-05   -1.5160038267135727e-05   -4.486733757989023e-05
7.976061762776545e-05   -1.5160038267135727e-05   -4.486733757989023e-05
5.6838874604795664e-05   -1.1942978870713248e-05   -8.594668179460335e-06
5.6838874604795664e-05   -1.1942978870713248e-05   -8.594668179460335e-06
5.6838874604795664e-05   -1.1942978870713248e-05   -8.594668179460335e-06
5.6838874604795664e-05   -1.1942978870713248e-05   -8.594668179460335e-06
7.976061762776545e-05   -1.1418119475422196e-05   2.126241446190856e-05
7.976061762776545e-05   -1.1418119475422196e-05   2.126241446190856e-05
7.976061762776545e-05   -1.1418119475422196e-05   2.126241446190856e-05
7.976061762776545e-05   -1.1418119475422196e-05   2.126241446190856e-05
4.0082766402686174e-05   -1.5160038267135727e-05   -4.711248885491833e-05
4.0082766402686174e-05   -1.5160038267135727e-05   -4.711248885491833e-05
4.0082766402686174e-05   -1.5160038267135727e-05   -4.711248885491833e-05
4.0082766402686174e-05   -1.5160038267135727e-05   -4.711248885491833e-05
4.089311571721084e-05   -1.1021915182145292e-05   1.5002093983177648e-05
4.089311571721084e-05   -1.1021915182145292e-05   1.5002093983177648e-05
4.089311571721084e-05   -1.1021915182145292e-05   1.5002093983177648e-05
4.089311571721084e-05   -1.1021915182145292e-05   1.5002093983177648e-05
8.097157859944304e-05   -1.5023227910315046e-05   -4.939455651697391e-05
8.097157859944304e-05   -1.5023227910315046e-05   -4.939455651697391e-05
8.097157859944304e-05   -1.5023227910315046e-05   -4.939455651697391e-05
8.097157859944304e-05   -1.5023227910315046e-05   -4.939455651697391e-05
5.8845073587848254e-05   -1.2320859159282039e-05   -1.413846941493587e-05
5.8845073587848254e-05   -1.2320859159282039e-05   -1.413846941493587e-05
5.8845073587848254e-05   -1.2320859159282039e-05   -1.413846941493587e-05
5.8845073587848254e-05   -1.2320859159282039e-05   -1.413846941493587e-05
8.097157859944304e-05   -1.1021915182145292e-05   1.7402881620079587e-05
8.097157859944304e-05   -1.1021915182145292e-05   1.7402881620079587e-05
8.097157859944304e-05   -1.1021915182145292e-05   1.7402881620079587e-05
8.097157859944304e-05   -1.1021915182145292e-05   1.7402881620079587e-05
4.089311571721084e-05   -1.5023227910315046e-05   -5.1795344153876067e-05
4.089311571721084e-05   -1.5023227910315046e-05   -5.1795344153876067e-05
4.089311571721084e-05   -1.5023227910315046e-05   -5.1795344153876067e-05
4.089311571721084e-05   -1.5023227910315046e-05   -5.1795344153876067e-05
4.1740144150161876e-05   -9.475804691270757e-06   7.2081380545368536e-06
4.1740144150161876e-05   -9.475804691270757e-06   7.2081380545368536e-06
4.1740144150161876e-05   -9.475804691270757e-06   7.2081380545368536e-06
4.1740144150161876e-05   -9.475804691270757e-06   7.2081380545368536e-06
8.216392577086346e-05   -1.4189014861847819e-05   -5.733690521095313e-05
8.216392577086346e-05   -1.4189014861847819e-05   -5.733690521095313e-05
8.216392577086346e-05   -1.4189014861847819e-05   -5.733690521095313e-05
8.216392577086346e-05   -1.4189014861847819e-05   -5.733690521095313e-05
5.887685236435799e-05   -1.1858343434537327e-05   -1.9923519056497144e-05
5.887685236435799e-05   -1.1858343434537327e-05   -1.9923519056497144e-05
5.887685236435799e-05   -1.1858343434537327e-05   -1.9923519056497144e-05
5.887685236435799e-05   -1.1858343434537327e-05   -1.9923519056497144e-05
3.9124128507568085e-05   -7.5854337136952235e-06   2.5850961592726457e-06
3.9124128507568085e-05   -7.5854337136952235e-06   2.5850961592726457e-06
3.9124128507568085e-05   -7.5854337136952235e-06   2.5850961592726457e-06
3.9124128507568085e-05   -7.5854337136952235e-06   2.5850961592726457e-06
4.6642772650001385e-06   -1.4859449884324551e-05   -5.9212398947384786e-05
4.6642772650001385e-06   -1.4859449884324551e-05   -5.9212398947384786e-05
4.6642772650001385e-06   -1.4859449884324551e-05   -5.9212398947384786e-05
4.6642772650001385e-06   -1.4859449884324551e-05   -5.9212398947384786e-05
5.781828226465767e-06   -7.2235003513196165e-06   -3.9761761225698064e-07
5.781828226465767e-06   -7.2235003513196165e-06   -3.9761761225698064e-07
5.781828226465767e-06   -7.2235003513196165e-06   -3.9761761225698064e-07
5.781828226465767e-06   -7.2235003513196165e-06   -3.9761761225698064e-07
4.008276640268623e-05   -1.478412136951112e-05   -5.302947529504254e-05
4.008276640268623e-05   -1.478412136951112e-05   -5.302947529504254e-05
4.008276640268623e-05   -1.478412136951112e-05   -5.302947529504254e-05
4.008276640268623e-05   -1.478412136951112e-05   -5.302947529504254e-05
2.2501073158410665e-05   -1.002365848487563e-05   -2.658293095203143e-05
2.2501073158410665e-05   -1.002365848487563e-05   -2.658293095203143e-05
2.2501073158410665e-05   -1.002365848487563e-05   -2.658293095203143e-05
2.2501073158410665e-05   -1.002365848487563e-05   -2.658293095203143e-05
4.008276640268612e-05   -7.223500351319183e-06   4.138754998658095e-06
4.008276640268612e-05   -7.223500351319183e-06   4.138754998658095e-06
4.008276640268612e-05   -7.223500351319183e-06   4.138754998658095e-06
4.008276640268612e-05   -7.223500351319183e-06   4.138754998658095e-06
5.781828226465767e-06   -1.478412136951112e-05   -5.756584790595756e-05
5.781828226465767e-06   -1.478412136951112e-05   -5.756584790595756e-05
5.781828226465767e-06   -1.478412136951112e-05   -5.756584790595756e-05
5.781828226465767e-06   -1.478412136951112e-05   -5.756584790595756e-05
6.790635197029558e-06   -6.548769603590375e-06   -7.609892249916747e-07
6.790635197029558e-06   -6.548769603590375e-06   -7.609892249916747e-07
6.790635197029558e-06   -6.548769603590375e-06   -7.609892249916747e-07
6.790635197029558e-06   -6.548769603590375e-06   -7.609892249916747e-07
4.089311571721084e-05   -1.4586885981655254e-05   -5.277558693178846e-05
4.089311571721084e-05   -1.4586885981655254e-05   -5.277558693178846e-05
4.089311571721084e-05   -1.4586885981655254e-05   -5.277558693178846e-05
4.089311571721084e-05   -1.4586885981655254e-05   -5.277558693178846e-05
2.3136396157285677e-05   -1.0135075601129181e-05   -2.5852140560227665e-05
2.3136396157285677e-05   -1.0135075601129181e-05   -2.5852140560227665e-05
2.3136396157285677e-05   -1.0135075601129181e-05   -2.5852140560227665e-05
2.3136396157285677e-05   -1.0135075601129181e-05   -2.5852140560227665e-05
4.089311571721084e-05   -6.548769603589941e-06   4.061880601847166e-06
4.089311571721084e-05   -6.548769603589941e-06   4.061880601847166e-06
4.089311571721084e-05   -6.548769603589941e-06   4.061880601847166e-06
4.089311571721084e-05   -6.548769603589941e-06   4.061880601847166e-06
6.790635197029558e-06   -1.4586885981655254e-05   -5.759845675862708e-05
6.790635197029558e-06   -1.4586885981655254e-05   -5.759845675862708e-05
6.790635197029558e-06   -1.4586885981655254e-05   -5.759845675862708e-05
6.790635197029558e-06   -1.4586885981655254e-05   -5.759845675862708e-05
8.296032534761834e-06   -5.588849630715556e-06   -1.459716463729152e-06
8.296032534761834e-06   -5.588849630715556e-06   -1.459716463729152e-06
8.296032534761834e-06   -5.588849630715556e-06   -1.459716463729152e-06
8.296032534761834e-06   -5.588849630715556e-06   -1.459716463729152e-06
4.174014415016185e-05   -1.4192054024467302e-05   -5.20379798531447e-05
4.174014415016185e-05   -1.4192054024467302e-05   -5.20379798531447e-05
4.174014415016185e-05   -1.4192054024467302e-05   -5.20379798531447e-05
4.174014415016185e-05   -1.4192054024467302e-05   -5.20379798531447e-05
2.4345849565336563e-05   -9.97923894777283e-06   -2.5575177924452852e-05
2.4345849565336563e-05   -9.97923894777283e-06   -2.5575177924452852e-05
2.4345849565336563e-05   -9.97923894777283e-06   -2.5575177924452852e-05
2.4345849565336563e-05   -9.97923894777283e-06   -2.5575177924452852e-05
4.6642772650001385e-06   -3.996702918541116e-06   -5.937800846008562e-06
4.6642772650001385e-06   -3.996702918541116e-06   -5.937800846008562e-06
4.6642772650001385e-06   -3.996702918541116e-06   -5.937800846008562e-06
4.6642772650001385e-06   -3.996702918541116e-06   -5.937800846008562e-06
-2.944018868872761e-05   -1.7948816901014984e-05   -7.114984582503908e-05
-2.944018868872761e-05   -1.7948816901014984e-05   -7.114984582503908e-05
-2.944018868872761e-05   -1.7948816901014984e-05   -7.114984582503908e-05
-2.944018868872761e-05   -1.7948816901014984e-05   -7.114984582503908e-05
-2.769962932507451e-05   -3.5706357239448892e-06   -1.2785874653962722e-05
-2.769962932507451e-05   -3.5706357239448892e-06   -1.2785874653962722e-05
-2.769962932507451e-05   -3.5706357239448892e-06   -1.2785874653962722e-05
-2.769962932507451e-05   -3.5706357239448892e-06   -1.2785874653962722e-05
5.781828226465767e-06   -1.8347229745659718e-05   -5.972234749350089e-05
5.781828226465767e-06   -1.8347229745659718e-05   -5.972234749350089e-05
5.781828226465767e-06   -1.8347229745659718e-05   -5.972234749350089e-05
5.781828226465767e-06   -1.8347229745659718e-05   -5.972234749350089e-05
-1.1278725236375426e-05   -1.015414969915418e-05   -3.6203939750002376e-05
-1.1278725236375426e-05   -1.015414969915418e-05   -3.6203939750002376e-05
-1.1278725236375426e-05   -1.015414969915418e-05   -3.6203939750002376e-05
-1.1278725236375426e-05   -1.015414969915418e-05   -3.6203939750002376e-05
5.781828226465767e-06   -3.5706357239448892e-06   -3.919918240933825e-06
5.781828226465767e-06   -3.5706357239448892e-06   -3.919918240933825e-06
5.781828226465767e-06   -3.5706357239448892e-06   -3.919918240933825e-06
5.781828226465767e-06   -3.5706357239448892e-06   -3.919918240933825e-06
-2.7699629325074563e-05   -1.8347229745659718e-05   -6.858830390653e-05
-2.7699629325074563e-05   -1.8347229745659718e-05   -6.858830390653e-05
-2.7699629325074563e-05   -1.8347229745659718e-05   -6.858830390653e-05
-2.7699629325074563e-05   -1.8347229745659718e-05   -6.858830390653e-05
-2.6200025653107175e-05   -2.9060677747445862e-06   -1.1941669663612662e-05
-2.6200025653107175e-05   -2.9060677747445862e-06   -1.1941669663612662e-05
-2.6200025653107175e-05   -2.9060677747445862e-06   -1.1941669663612662e-05
-2.6200025653107175e-05   -2.9060677747445862e-06   -1.1941669663612662e-05
6.790635197029558e-06   -1.826317064265422e-05   -5.7711842693094454e-05
6.790635197029558e-06   -1.826317064265422e-05   -5.7711842693094454e-05
6.790635197029558e-06   -1.826317064265422e-05   -5.7711842693094454e-05
6.790635197029558e-06   -1.826317064265422e-05   -5.7711842693094454e-05
-1.0042638782652407e-05   -1.0385533297877989e-05   -3.438296846715728e-05
-1.0042638782652407e-05   -1.0385533297877989e-05   -3.438296846715728e-05
-1.0042638782652407e-05   -1.0385533297877989e-05   -3.438296846715728e-05
-1.0042638782652407e-05   -1.0385533297877989e-05   -3.438296846715728e-05
6.790635197029558e-06   -2.9060677747445862e-06   -2.7274079428664475e-06
6.790635197029558e-06   -2.9060677747445862e-06   -2.7274079428664475e-06
6.790635197029558e-06   -2.9060677747445862e-06   -2.7274079428664475e-06
6.790635197029558e-06   -2.9060677747445862e-06   -2.7274079428664475e-06
-2.620002565310727e-05   -1.8263170642654654e-05   -6.692610441384078e-05
-2.620002565310727e-05   -1.8263170642654654e-05   -6.692610441384078e-05
-2.620002565310727e-05   -1.8263170642654654e-05   -6.692610441384078e-05
-2.620002565310727e-05   -1.8263170642654654e-05   -6.692610441384078e-05
-2.3612831383590163e-05   -2.276045156040206e-06   -1.1890651009720385e-05
-2.3612831383590163e-05   -2.276045156040206e-06   -1.1890651009720385e-05
-2.3612831383590163e-05   -2.276045156040206e-06   -1.1890651009720385e-05
-2.3612831383590163e-05   -2.276045156040206e-06   -1.1890651009720385e-05
8.296032534761834e-06   -1.76248435103713e-05   -5.586281186104194e-05
8.296032534761834e-06   -1.76248435103713e-05   -5.586281186104194e-05
8.296032534761834e-06   -1.76248435103713e-05   -5.586281186104194e-05
8.296032534761834e-06   -1.76248435103713e-05   -5.586281186104194e-05
-8.436393698585477e-06   -1.0156826784145367e-05   -3.245624484119879e-05
-8.436393698585477e-06   -1.0156826784145367e-05   -3.245624484119879e-05
-8.436393698585477e-06   -1.0156826784145367e-05   -3.245624484119879e-05
-8.436393698585477e-06   -1.0156826784145367e-05   -3.245624484119879e-05
-2.9440188688727582e-05   9.852325192857316e-07   -8.311440028900899e-06
-2.9440188688727582e-05   9.852325192857316e-07   -8.311440028900899e-06
-2.9440188688727582e-05   9.852325192857316e-07   -8.311440028900899e-06
-2.9440188688727582e-05   9.852325192857316e-07   -8.311440028900899e-06
-6.749899597052472e-05   -2.2402030664994774e-05   -8.577514340913088e-05
-6.749899597052472e-05   -2.2402030664994774e-05   -8.577514340913088e-05
-6.749899597052472e-05   -2.2402030664994774e-05   -8.577514340913088e-05
-6.749899597052472e-05   -2.2402030664994774e-05   -8.577514340913088e-05
-6.542208854901118e-05   1.7749063990894244e-06   -2.165043092242861e-05
-6.542208854901118e-05   1.7749063990894244e-06   -2.165043092242861e-05
-6.542208854901118e-05   1.7749063990894244e-06   -2.165043092242861e-05
-6.542208854901118e-05   1.7749063990894244e-06   -2.165043092242861e-05
-2.769962932507451e-05   -2.50048980860308e-05   -6.845331360458398e-05
-2.769962932507451e-05   -2.50048980860308e-05   -6.845331360458398e-05
-2.769962932507451e-05   -2.50048980860308e-05   -6.845331360458398e-05
-2.769962932507451e-05   -2.50048980860308e-05   -6.845331360458398e-05
-4.683047866040322e-05   -1.1404256170046562e-05   -4.472894986195966e-05
-4.683047866040322e-05   -1.1404256170046562e-05   -4.472894986195966e-05
-4.683047866040322e-05   -1.1404256170046562e-05   -4.472894986195966e-05
-4.683047866040322e-05   -1.1404256170046562e-05   -4.472894986195966e-05
-2.769962932507451e-05   1.774906399089858e-06   -5.582548231356215e-06
-2.769962932507451e-05   1.774906399089858e-06   -5.582548231356215e-06
-2.769962932507451e-05   1.774906399089858e-06   -5.582548231356215e-06
-2.769962932507451e-05   1.774906399089858e-06   -5.582548231356215e-06
-6.542208854901118e-05   -2.50048980860308e-05   -8.452119629565632e-05
-6.542208854901118e-05   -2.50048980860308e-05   -8.452119629565632e-05
-6.542208854901118e-05   -2.50048980860308e-05   -8.452119629565632e-05
-6.542208854901118e-05   -2.50048980860308e-05   -8.452119629565632e-05
-6.343098706849504e-05   2.502043585402361e-06   -1.934930959892299e-05
-6.343098706849504e-05   2.502043585402361e-06   -1.934930959892299e-05
-6.343098706849504e-05   2.502043585402361e-06   -1.934930959892299e-05
-6.343098706849504e-05   2.502043585402361e-06   -1.934930959892299e-05
-2.620002565310723e-05   -2.514620871303273e-05   -6.481196057884163e-05
-2.620002565310723e-05   -2.514620871303273e-05   -6.481196057884163e-05
-2.620002565310723e-05   -2.514620871303273e-05   -6.481196057884163e-05
-2.620002565310723e-05   -2.514620871303273e-05   -6.481196057884163e-05
-4.4805452759773265e-05   -1.1444535694647272e-05   -4.202391921209617e-05
-4.4805452759773265e-05   -1.1444535694647272e-05   -4.202391921209617e-05
-4.4805452759773265e-05   -1.1444535694647272e-05   -4.202391921209617e-05
-4.4805452759773265e-05   -1.1444535694647272e-05   -4.202391921209617e-05
-2.6200025653107202e-05   2.502043585402361e-06   -2.7603582198620653e-06
-2.6200025653107202e-05   2.502043585402361e-06   -2.7603582198620653e-06
-2.6200025653107202e-05   2.502043585402361e-06   -2.7603582198620653e-06
-2.6200025653107202e-05   2.502043585402361e-06   -2.7603582198620653e-06
-6.343098706849514e-05   -2.5146208713032296e-05   -8.140091195790278e-05
-6.343098706849514e-05   -2.5146208713032296e-05   -8.140091195790278e-05
-6.343098706849514e-05   -2.5146208713032296e-05   -8.140091195790278e-05
-6.343098706849514e-05   -2.5146208713032296e-05   -8.140091195790278e-05
-6.016872875756621e-05   3.117537553770991e-06   -1.7004553499290823e-05
-6.016872875756621e-05   3.117537553770991e-06   -1.7004553499290823e-05
-6.016872875756621e-05   3.117537553770991e-06   -1.7004553499290823e-05
-6.016872875756621e-05   3.117537553770991e-06   -1.7004553499290823e-05
-2.361283138359023e-05   -2.29594255455063e-05   -6.228487126301786e-05
-2.361283138359023e-05   -2.29594255455063e-05   -6.228487126301786e-05
-2.361283138359023e-05   -2.29594255455063e-05   -6.228487126301786e-05
-2.361283138359023e-05   -2.29594255455063e-05   -6.228487126301786e-05
-4.2804383632768184e-05   -1.0115909864849906e-05   -3.8005060256114144e-05
-4.2804383632768184e-05   -1.0115909864849906e-05   -3.8005060256114144e-05
-4.2804383632768184e-05   -1.0115909864849906e-05   -3.8005060256114144e-05
-4.2804383632768184e-05   -1.0115909864849906e-05   -3.8005060256114144e-05
-6.749899597052472e-05   9.627649095465644e-06   -1.4652869000195785e-05
-6.749899597052472e-05   9.627649095465644e-06   -1.4652869000195785e-05
-6.749899597052472e-05   9.627649095465644e-06   -1.4652869000195785e-05
-6.749899597052472e-05   9.627649095465644e-06   -1.4652869000195785e-05
-0.00011626157991697459   0.0   -0.00010170043170155854
-0.00011626157991697459   0.0   -0.00010170043170155854
-0.00011626157991697459   0.0   -0.00010170043170155854
-0.00011626157991697459   0.0   -0.00010170043170155854
-0.00011322116702368283   1.2195531778027863e-05   -1.1248569731920873e-05
-0.00011322116702368283   1.2195531778027863e-05   -1.1248569731920873e-05
-0.00011322116702368283   1.2195531778027863e-05   -1.1248569731920873e-05
-0.00011322116702368283   1.2195531778027863e-05   -1.1248569731920873e-05
-6.542208854901107e-05   0.0   -8.359638145622367e-05
-6.542208854901107e-05   0.0   -8.359638145622367e-05
-6.542208854901107e-05   0.0   -8.359638145622367e-05
-6.542208854901107e-05   0.0   -8.359638145622367e-05
-8.675094614322228e-05   3.723130510638068e-06   -5.028216377225478e-05
-8.675094614322228e-05   3.723130510638068e-06   -5.028216377225478e-05
-8.675094614322228e-05   3.723130510638068e-06   -5.028216377225478e-05
-8.675094614322228e-05   3.723130510638068e-06   -5.028216377225478e-05
-6.542208854901113e-05   1.2195531778027863e-05   -3.9312506651038946e-06
-6.542208854901113e-05   1.2195531778027863e-05   -3.9312506651038946e-06
-6.542208854901113e-05   1.2195531778027863e-05   -3.9312506651038946e-06
-6.542208854901113e-05   1.2195531778027863e-05   -3.9312506651038946e-06
-0.00011322116702368262   0.0   -9.091370052304037e-05
-0.00011322116702368262   0.0   -9.091370052304037e-05
-0.00011322116702368262   0.0   -9.091370052304037e-05
-0.00011322116702368262   0.0   -9.091370052304037e-05
-0.0001106500800016368   1.2772292034229134e-05   -4.510184172005225e-06
-0.0001106500800016368   1.2772292034229134e-05   -4.510184172005225e-06
-0.0001106500800016368   1.2772292034229134e-05   -4.510184172005225e-06
-0.0001106500800016368   1.2772292034229134e-05   -4.510184172005225e-06
-6.343098706849514e-05   0.0   -7.55452971733707e-05
-6.343098706849514e-05   0.0   -7.55452971733707e-05
-6.343098706849514e-05   0.0   -7.55452971733707e-05
-6.343098706849514e-05   0.0   -7.55452971733707e-05
-8.584123272127313e-05   5.904657444681313e-06   -4.173768221888156e-05
-8.584123272127313e-05   5.904657444681313e-06   -4.173768221888156e-05
-8.584123272127313e-05   5.904657444681313e-06   -4.173768221888156e-05
-8.584123272127313e-05   5.904657444681313e-06   -4.173768221888156e-05
-6.343098706849514e-05   1.27722920342287e-05   3.1531910485323427e-06
-6.343098706849514e-05   1.27722920342287e-05   3.1531910485323427e-06
-6.343098706849514e-05   1.27722920342287e-05   3.1531910485323427e-06
-6.343098706849514e-05   1.27722920342287e-05   3.1531910485323427e-06
-0.00011065008000163663   0.0   -8.32086723939079e-05
-0.00011065008000163663   0.0   -8.32086723939079e-05
-0.00011065008000163663   0.0   -8.32086723939079e-05
-0.00011065008000163663   0.0   -8.32086723939079e-05
-0.00010552120853085645   1.3765119809876214e-05   6.332289730742388e-06
-0.00010552120853085645   1.3765119809876214e-05   6.332289730742388e-06
-0.00010552120853085645   1.3765119809876214e-05   6.332289730742388e-06
-0.00010552120853085645   1.3765119809876214e-05   6.332289730742388e-06
-6.0168728757566334e-05   0.0   -6.0996104672149105e-05
-6.0168728757566334e-05   0.0   -6.0996104672149105e-05
-6.0168728757566334e-05   0.0   -6.0996104672149105e-05
-6.0168728757566334e-05   0.0   -6.0996104672149105e-05
-8.136807988655623e-05   7.284571731895964e-06   -3.0034595829636353e-05
-8.136807988655623e-05   7.284571731895964e-06   -3.0034595829636353e-05
-8.136807988655623e-05   7.284571731895964e-06   -3.0034595829636353e-05
-8.136807988655623e-05   7.284571731895964e-06   -3.0034595829636353e-05
8.609372845996965e-05   -1.4790076379459817e-05   5.140324189875298e-05
8.609372845996965e-05   -1.4790076379459817e-05   5.140324189875298e-05
8.609372845996965e-05   -1.4790076379459817e-05   5.140324189875298e-05
8.609372845996965e-05   -1.4790076379459817e-05   5.140324189875298e-05
4.467674037409564e-05   -1.1390551123313664e-05   -1.558535642401577e-05
4.467674037409564e-05   -1.1390551123313664e-05   -1.558535642401577e-05
4.467674037409564e-05   -1.1390551123313664e-05   -1.558535642401577e-05
4.467674037409564e-05   -1.1390551123313664e-05   -1.558535642401577e-05
4.355107382600929e-05   -1.5160038267135727e-05   4.5406030873497774e-05
4.355107382600929e-05   -1.5160038267135727e-05   4.5406030873497774e-05
4.355107382600929e-05   -1.5160038267135727e-05   4.5406030873497774e-05
4.355107382600929e-05   -1.5160038267135727e-05   4.5406030873497774e-05
8.517056093375852e-05   -1.2524683609807085e-05   -2.554099376714784e-05
8.517056093375852e-05   -1.2524683609807085e-05   -2.554099376714784e-05
8.517056093375852e-05   -1.2524683609807085e-05   -2.554099376714784e-05
8.517056093375852e-05   -1.2524683609807085e-05   -2.554099376714784e-05
6.221890268011836e-05   -1.2740793003035e-05   1.2841435624855939e-05
6.221890268011836e-05   -1.2740793003035e-05   1.2841435624855939e-05
6.221890268011836e-05   -1.2740793003035e-05   1.2841435624855939e-05
6.221890268011836e-05   -1.2740793003035e-05   1.2841435624855939e-05
8.517056093375852e-05   -1.5160038267135727e-05   4.382481807910102e-05
8.517056093375852e-05   -1.5160038267135727e-05   4.382481807910102e-05
8.517056093375852e-05   -1.5160038267135727e-05   4.382481807910102e-05
8.517056093375852e-05   -1.5160038267135727e-05   4.382481807910102e-05
4.355107382600929e-05   -1.2524683609807085e-05   -2.3959780972750708e-05
4.355107382600929e-05   -1.2524683609807085e-05   -2.3959780972750708e-05
4.355107382600929e-05   -1.2524683609807085e-05   -2.3959780972750708e-05
4.355107382600929e-05   -1.2524683609807085e-05   -2.3959780972750708e-05
4.253292640717067e-05   -1.5023227910315046e-05   4.077071064697343e-05
4.253292640717067e-05   -1.5023227910315046e-05   4.077071064697343e-05
4.253292640717067e-05   -1.5023227910315046e-05   4.077071064697343e-05
4.253292640717067e-05   -1.5023227910315046e-05   4.077071064697343e-05
8.410349723118291e-05   -1.2629500723193056e-05   -2.994981037198678e-05
8.410349723118291e-05   -1.2629500723193056e-05   -2.994981037198678e-05
8.410349723118291e-05   -1.2629500723193056e-05   -2.994981037198678e-05
8.410349723118291e-05   -1.2629500723193056e-05   -2.994981037198678e-05
6.216964475724824e-05   -1.2964225634341797e-05   6.80744536459357e-06
6.216964475724824e-05   -1.2964225634341797e-05   6.80744536459357e-06
6.216964475724824e-05   -1.2964225634341797e-05   6.80744536459357e-06
6.216964475724824e-05   -1.2964225634341797e-05   6.80744536459357e-06
8.410349723118306e-05   -1.502322791031548e-05   3.9334474334700234e-05
8.410349723118306e-05   -1.502322791031548e-05   3.9334474334700234e-05
8.410349723118306e-05   -1.502322791031548e-05   3.9334474334700234e-05
8.410349723118306e-05   -1.502322791031548e-05   3.9334474334700234e-05
4.253292640717067e-05   -1.2629500723193056e-05   -2.8513574059713586e-05
4.253292640717067e-05   -1.2629500723193056e-05   -2.8513574059713586e-05
4.253292640717067e-05   -1.2629500723193056e-05   -2.8513574059713586e-05
4.253292640717067e-05   -1.2629500723193056e-05   -2.8513574059713586e-05
4.12908443174262e-05   -1.4189014861847819e-05   3.3229477854415396e-05
4.12908443174262e-05   -1.4189014861847819e-05   3.3229477854415396e-05
4.12908443174262e-05   -1.4189014861847819e-05   3.3229477854415396e-05
4.12908443174262e-05   -1.4189014861847819e-05   3.3229477854415396e-05
8.243165249084103e-05   -1.2367532899488099e-05   -3.643142494535843e-05
8.243165249084103e-05   -1.2367532899488099e-05   -3.643142494535843e-05
8.243165249084103e-05   -1.2367532899488099e-05   -3.643142494535843e-05
8.243165249084103e-05   -1.2367532899488099e-05   -3.643142494535843e-05
6.0045502394625425e-05   -1.2327872953877064e-05   8.550292476340636e-07
6.0045502394625425e-05   -1.2327872953877064e-05   8.550292476340636e-07
6.0045502394625425e-05   -1.2327872953877064e-05   8.550292476340636e-07
6.0045502394625425e-05   -1.2327872953877064e-05   8.550292476340636e-07
4.467674037409564e-05   -1.4859449884324551e-05   3.84224713208545e-05
4.467674037409564e-05   -1.4859449884324551e-05   3.84224713208545e-05
4.467674037409564e-05   -1.4859449884324551e-05   3.84224713208545e-05
4.467674037409564e-05   -1.4859449884324551e-05   3.84224713208545e-05
9.539916493419979e-06   -7.050321691724672e-06   -1.5453424898044825e-05
9.539916493419979e-06   -7.050321691724672e-06   -1.5453424898044825e-05
9.539916493419979e-06   -7.050321691724672e-06   -1.5453424898044825e-05
9.539916493419979e-06   -7.050321691724672e-06   -1.5453424898044825e-05
7.758358387128204e-06   -1.478412136951112e-05   4.387249986983295e-05
7.758358387128204e-06   -1.478412136951112e-05   4.387249986983295e-05
7.758358387128204e-06   -1.478412136951112e-05   4.387249986983295e-05
7.758358387128204e-06   -1.478412136951112e-05   4.387249986983295e-05
4.355107382600929e-05   -7.478362308745504e-06   -2.0165481298094635e-05
4.355107382600929e-05   -7.478362308745504e-06   -2.0165481298094635e-05
4.355107382600929e-05   -7.478362308745504e-06   -2.0165481298094635e-05
4.355107382600929e-05   -7.478362308745504e-06   -2.0165481298094635e-05
2.634510070517943e-05   -1.0634404404345765e-05   1.0404765827314857e-05
2.634510070517943e-05   -1.0634404404345765e-05   1.0404765827314857e-05
2.634510070517943e-05   -1.0634404404345765e-05   1.0404765827314857e-05
2.634510070517943e-05   -1.0634404404345765e-05   1.0404765827314857e-05
4.355107382600934e-05   -1.478412136951112e-05   3.948904443337384e-05
4.355107382600934e-05   -1.478412136951112e-05   3.948904443337384e-05
4.355107382600934e-05   -1.478412136951112e-05   3.948904443337384e-05
4.355107382600934e-05   -1.478412136951112e-05   3.948904443337384e-05
7.758358387128204e-06   -7.478362308745504e-06   -1.5782025861635308e-05
7.758358387128204e-06   -7.478362308745504e-06   -1.5782025861635308e-05
7.758358387128204e-06   -7.478362308745504e-06   -1.5782025861635308e-05
7.758358387128204e-06   -7.478362308745504e-06   -1.5782025861635308e-05
6.4881665201831095e-06   -1.4586885981655254e-05   4.394102693012613e-05
6.4881665201831095e-06   -1.4586885981655254e-05   4.394102693012613e-05
6.4881665201831095e-06   -1.4586885981655254e-05   4.394102693012613e-05
6.4881665201831095e-06   -1.4586885981655254e-05   4.394102693012613e-05
4.253292640717067e-05   -7.669287546546548e-06   -2.0284131942584785e-05
4.253292640717067e-05   -7.669287546546548e-06   -2.0284131942584785e-05
4.253292640717067e-05   -7.669287546546548e-06   -2.0284131942584785e-05
4.253292640717067e-05   -7.669287546546548e-06   -2.0284131942584785e-05
2.4818544358543544e-05   -1.0416974332309783e-05   1.088845020991928e-05
2.4818544358543544e-05   -1.0416974332309783e-05   1.088845020991928e-05
2.4818544358543544e-05   -1.0416974332309783e-05   1.088845020991928e-05
2.4818544358543544e-05   -1.0416974332309783e-05   1.088845020991928e-05
4.253292640717075e-05   -1.458688598165482e-05   3.979046786906147e-05
4.253292640717075e-05   -1.458688598165482e-05   3.979046786906147e-05
4.253292640717075e-05   -1.458688598165482e-05   3.979046786906147e-05
4.253292640717075e-05   -1.458688598165482e-05   3.979046786906147e-05
6.4881665201831095e-06   -7.669287546546548e-06   -1.6133572881519773e-05
6.4881665201831095e-06   -7.669287546546548e-06   -1.6133572881519773e-05
6.4881665201831095e-06   -7.669287546546548e-06   -1.6133572881519773e-05
6.4881665201831095e-06   -7.669287546546548e-06   -1.6133572881519773e-05
5.075094676240021e-06   -1.4192054024467302e-05   4.537311843867209e-05
5.075094676240021e-06   -1.4192054024467302e-05   4.537311843867209e-05
5.075094676240021e-06   -1.4192054024467302e-05   4.537311843867209e-05
5.075094676240021e-06   -1.4192054024467302e-05   4.537311843867209e-05
4.1290844317426174e-05   -7.4974054842967194e-06   -1.9003253420740387e-05
4.1290844317426174e-05   -7.4974054842967194e-06   -1.9003253420740387e-05
4.1290844317426174e-05   -7.4974054842967194e-06   -1.9003253420740387e-05
4.1290844317426174e-05   -7.4974054842967194e-06   -1.9003253420740387e-05
2.3884470433446217e-05   -9.960760894332614e-06   1.148538296524761e-05
2.3884470433446217e-05   -9.960760894332614e-06   1.148538296524761e-05
2.3884470433446217e-05   -9.960760894332614e-06   1.148538296524761e-05
2.3884470433446217e-05   -9.960760894332614e-06   1.148538296524761e-05
9.539916493420006e-06   -1.7948816901014984e-05   3.954176974824467e-05
9.539916493420006e-06   -1.7948816901014984e-05   3.954176974824467e-05
9.539916493420006e-06   -1.7948816901014984e-05   3.954176974824467e-05
9.539916493420006e-06   -1.7948816901014984e-05   3.954176974824467e-05
-2.4211750115441687e-05   -2.975921001399824e-06   -7.72727039342262e-06
-2.4211750115441687e-05   -2.975921001399824e-06   -7.72727039342262e-06
-2.4211750115441687e-05   -2.975921001399824e-06   -7.72727039342262e-06
-2.4211750115441687e-05   -2.975921001399824e-06   -7.72727039342262e-06
-2.6983364238462073e-05   -1.8347229745659718e-05   5.083867765478785e-05
-2.6983364238462073e-05   -1.8347229745659718e-05   5.083867765478785e-05
-2.6983364238462073e-05   -1.8347229745659718e-05   5.083867765478785e-05
-2.6983364238462073e-05   -1.8347229745659718e-05   5.083867765478785e-05
7.758358387128232e-06   -3.142767458163241e-06   -1.61868707603605e-05
7.758358387128232e-06   -3.142767458163241e-06   -1.61868707603605e-05
7.758358387128232e-06   -3.142767458163241e-06   -1.61868707603605e-05
7.758358387128232e-06   -3.142767458163241e-06   -1.61868707603605e-05
-8.171268877765539e-06   -1.0262975053316765e-05   1.4634632571554297e-05
-8.171268877765539e-06   -1.0262975053316765e-05   1.4634632571554297e-05
-8.171268877765539e-06   -1.0262975053316765e-05   1.4634632571554297e-05
-8.171268877765539e-06   -1.0262975053316765e-05   1.4634632571554297e-05
7.758358387128204e-06   -1.8347229745659718e-05   4.171600028228962e-05
7.758358387128204e-06   -1.8347229745659718e-05   4.171600028228962e-05
7.758358387128204e-06   -1.8347229745659718e-05   4.171600028228962e-05
7.758358387128204e-06   -1.8347229745659718e-05   4.171600028228962e-05
-2.698336423846202e-05   -3.142767458163241e-06   -7.064193387862783e-06
-2.698336423846202e-05   -3.142767458163241e-06   -7.064193387862783e-06
-2.698336423846202e-05   -3.142767458163241e-06   -7.064193387862783e-06
-2.698336423846202e-05   -3.142767458163241e-06   -7.064193387862783e-06
-2.8676972120992368e-05   -1.8263170642654654e-05   5.277736482740304e-05
-2.8676972120992368e-05   -1.8263170642654654e-05   5.277736482740304e-05
-2.8676972120992368e-05   -1.8263170642654654e-05   5.277736482740304e-05
-2.8676972120992368e-05   -1.8263170642654654e-05   5.277736482740304e-05
6.4881665201831095e-06   -3.3469642564138563e-06   -1.478092340630047e-05
6.4881665201831095e-06   -3.3469642564138563e-06   -1.478092340630047e-05
6.4881665201831095e-06   -3.3469642564138563e-06   -1.478092340630047e-05
6.4881665201831095e-06   -3.3469642564138563e-06   -1.478092340630047e-05
-1.0047448585562014e-05   -1.0231447188145757e-05   1.690912486231413e-05
-1.0047448585562014e-05   -1.0231447188145757e-05   1.690912486231413e-05
-1.0047448585562014e-05   -1.0231447188145757e-05   1.690912486231413e-05
-1.0047448585562014e-05   -1.0231447188145757e-05   1.690912486231413e-05
6.4881665201830824e-06   -1.826317064265422e-05   4.382764099565865e-05
6.4881665201830824e-06   -1.826317064265422e-05   4.382764099565865e-05
6.4881665201830824e-06   -1.826317064265422e-05   4.382764099565865e-05
6.4881665201830824e-06   -1.826317064265422e-05   4.382764099565865e-05
-2.8676972120992328e-05   -3.3469642564138563e-06   -5.831199574555862e-06
-2.8676972120992328e-05   -3.3469642564138563e-06   -5.831199574555862e-06
-2.8676972120992328e-05   -3.3469642564138563e-06   -5.831199574555862e-06
-2.8676972120992328e-05   -3.3469642564138563e-06   -5.831199574555862e-06
-3.066939148812122e-05   -1.76248435103713e-05   5.528826913920974e-05
-3.066939148812122e-05   -1.76248435103713e-05   5.528826913920974e-05
-3.066939148812122e-05   -1.76248435103713e-05   5.528826913920974e-05
-3.066939148812122e-05   -1.76248435103713e-05   5.528826913920974e-05
5.075094676240048e-06   -3.3280767233983925e-06   -1.2863934540242937e-05
5.075094676240048e-06   -3.3280767233983925e-06   -1.2863934540242937e-05
5.075094676240048e-06   -3.3280767233983925e-06   -1.2863934540242937e-05
5.075094676240048e-06   -3.3280767233983925e-06   -1.2863934540242937e-05
-1.1575009623381793e-05   -9.825713791851345e-06   1.8784821533532163e-05
-1.1575009623381793e-05   -9.825713791851345e-06   1.8784821533532163e-05
-1.1575009623381793e-05   -9.825713791851345e-06   1.8784821533532163e-05
-1.1575009623381793e-05   -9.825713791851345e-06   1.8784821533532163e-05
-2.421175011544174e-05   -2.2402030664994774e-05   4.7932567614490445e-05
-2.421175011544174e-05   -2.2402030664994774e-05   4.7932567614490445e-05
-2.421175011544174e-05   -2.2402030664994774e-05   4.7932567614490445e-05
-2.421175011544174e-05   -2.2402030664994774e-05   4.7932567614490445e-05
-6.265838589697683e-05   3.168091971827297e-06   -8.0308510597496e-07
-6.265838589697683e-05   3.168091971827297e-06   -8.0308510597496e-07
-6.265838589697683e-05   3.168091971827297e-06   -8.0308510597496e-07
-6.265838589697683e-05   3.168091971827297e-06   -8.0308510597496e-07
-6.598744201864512e-05   -2.50048980860308e-05   6.776221934492554e-05
-6.598744201864512e-05   -2.50048980860308e-05   6.776221934492554e-05
-6.598744201864512e-05   -2.50048980860308e-05   6.776221934492554e-05
-6.598744201864512e-05   -2.50048980860308e-05   6.776221934492554e-05
-2.698336423846202e-05   2.9760208942889235e-06   -1.4033128343571278e-05
-2.698336423846202e-05   2.9760208942889235e-06   -1.4033128343571278e-05
-2.698336423846202e-05   2.9760208942889235e-06   -1.4033128343571278e-05
-2.698336423846202e-05   2.9760208942889235e-06   -1.4033128343571278e-05
-4.43307620796471e-05   -9.314404565139486e-06   2.2253456667394186e-05
-4.43307620796471e-05   -9.314404565139486e-06   2.2253456667394186e-05
-4.43307620796471e-05   -9.314404565139486e-06   2.2253456667394186e-05
-4.43307620796471e-05   -9.314404565139486e-06   2.2253456667394186e-05
-2.6983364238462073e-05   -2.50048980860308e-05   5.097366795673371e-05
-2.6983364238462073e-05   -2.50048980860308e-05   5.097366795673371e-05
-2.6983364238462073e-05   -2.50048980860308e-05   5.097366795673371e-05
-2.6983364238462073e-05   -2.50048980860308e-05   5.097366795673371e-05
-6.598744201864512e-05   2.9760208942889235e-06   2.7554230446205034e-06
-6.598744201864512e-05   2.9760208942889235e-06   2.7554230446205034e-06
-6.598744201864512e-05   2.9760208942889235e-06   2.7554230446205034e-06
-6.598744201864512e-05   2.9760208942889235e-06   2.7554230446205034e-06
-6.80168469699832e-05   -2.5146208713032296e-05   7.155362995252268e-05
-6.80168469699832e-05   -2.5146208713032296e-05   7.155362995252268e-05
-6.80168469699832e-05   -2.5146208713032296e-05   7.155362995252268e-05
-6.80168469699832e-05   -2.5146208713032296e-05   7.155362995252268e-05
-2.8676972120992328e-05   2.6239934371682407e-06   -1.0674949419249178e-05
-2.8676972120992328e-05   2.6239934371682407e-06   -1.0674949419249178e-05
-2.8676972120992328e-05   2.6239934371682407e-06   -1.0674949419249178e-05
-2.8676972120992328e-05   2.6239934371682407e-06   -1.0674949419249178e-05
-4.649450126293666e-05   -1.0718930462168524e-05   2.7026686823593314e-05
-4.649450126293666e-05   -1.0718930462168524e-05   2.7026686823593314e-05
-4.649450126293666e-05   -1.0718930462168524e-05   2.7026686823593314e-05
-4.649450126293666e-05   -1.0718930462168524e-05   2.7026686823593314e-05
-2.86769721209923e-05   -2.514620871303273e-05   5.4891508662402184e-05
-2.86769721209923e-05   -2.514620871303273e-05   5.4891508662402184e-05
-2.86769721209923e-05   -2.514620871303273e-05   5.4891508662402184e-05
-2.86769721209923e-05   -2.514620871303273e-05   5.4891508662402184e-05
-6.801684696998307e-05   2.6239934371682407e-06   5.9871718708708836e-06
-6.801684696998307e-05   2.6239934371682407e-06   5.9871718708708836e-06
-6.801684696998307e-05   2.6239934371682407e-06   5.9871718708708836e-06
-6.801684696998307e-05   2.6239934371682407e-06   5.9871718708708836e-06
-7.020308287716049e-05   -2.29594255455063e-05   7.318655424333074e-05
-7.020308287716049e-05   -2.29594255455063e-05   7.318655424333074e-05
-7.020308287716049e-05   -2.29594255455063e-05   7.318655424333074e-05
-7.020308287716049e-05   -2.29594255455063e-05   7.318655424333074e-05
-3.0669391488121096e-05   2.225683610324828e-06   -7.81399689856637e-06
-3.0669391488121096e-05   2.225683610324828e-06   -7.81399689856637e-06
-3.0669391488121096e-05   2.225683610324828e-06   -7.81399689856637e-06
-3.0669391488121096e-05   2.225683610324828e-06   -7.81399689856637e-06
-4.8722501905801885e-05   -1.0800072459813369e-05   3.0089974106318248e-05
-4.8722501905801885e-05   -1.0800072459813369e-05   3.0089974106318248e-05
-4.8722501905801885e-05   -1.0800072459813369e-05   3.0089974106318248e-05
-4.8722501905801885e-05   -1.0800072459813369e-05   3.0089974106318248e-05
-6.265838589697661e-05   0.0   5.312594236143455e-05
-6.265838589697661e-05   0.0   5.312594236143455e-05
-6.265838589697661e-05   0.0   5.312594236143455e-05
-6.265838589697661e-05   0.0   5.312594236143455e-05
-0.00011039229888372896   1.4470367581778318e-05   -1.774835873408578e-05
-0.00011039229888372896   1.4470367581778318e-05   -1.774835873408578e-05
-0.00011039229888372896   1.4470367581778318e-05   -1.774835873408578e-05
-0.00011039229888372896   1.4470367581778318e-05   -1.774835873408578e-05
-0.00011498635573201962   0.0   7.706469527542204e-05
-0.00011498635573201962   0.0   7.706469527542204e-05
-0.00011498635573201962   0.0   7.706469527542204e-05
-0.00011498635573201962   0.0   7.706469527542204e-05
-6.598744201864501e-05   1.3962768485106889e-05   -1.2977822004600192e-05
-6.598744201864501e-05   1.3962768485106889e-05   -1.2977822004600192e-05
-6.598744201864501e-05   1.3962768485106889e-05   -1.2977822004600192e-05
-6.598744201864501e-05   1.3962768485106889e-05   -1.2977822004600192e-05
-8.473148272472762e-05   8.585382734515711e-06   2.1488677289225526e-05
-8.473148272472762e-05   8.585382734515711e-06   2.1488677289225526e-05
-8.473148272472762e-05   8.585382734515711e-06   2.1488677289225526e-05
-8.473148272472762e-05   8.585382734515711e-06   2.1488677289225526e-05
-6.598744201864496e-05   0.0   6.868703418435782e-05
-6.598744201864496e-05   0.0   6.868703418435782e-05
-6.598744201864496e-05   0.0   6.868703418435782e-05
-6.598744201864496e-05   0.0   6.868703418435782e-05
-0.00011498635573201984   1.3962768485106889e-05   -4.6001609135359715e-06
-0.00011498635573201984   1.3962768485106889e-05   -4.6001609135359715e-06
-0.00011498635573201984   1.3962768485106889e-05   -4.6001609135359715e-06
-0.00011498635573201984   1.3962768485106889e-05   -4.6001609135359715e-06
-0.00011730043107719115   0.0   8.557129257136318e-05
-0.00011730043107719115   0.0   8.557129257136318e-05
-0.00011730043107719115   0.0   8.557129257136318e-05
-0.00011730043107719115   0.0   8.557129257136318e-05
-6.801684696998307e-05   1.3603413057181827e-05   -4.730062108293054e-06
-6.801684696998307e-05   1.3603413057181827e-05   -4.730062108293054e-06
-6.801684696998307e-05   1.3603413057181827e-05   -4.730062108293054e-06
-6.801684696998307e-05   1.3603413057181827e-05   -4.730062108293054e-06
-8.915909222310233e-05   7.167869975794293e-06   3.4368339162406175e-05
-8.915909222310233e-05   7.167869975794293e-06   3.4368339162406175e-05
-8.915909222310233e-05   7.167869975794293e-06   3.4368339162406175e-05
-8.915909222310233e-05   7.167869975794293e-06   3.4368339162406175e-05
-6.801684696998307e-05   0.0   7.740924473705426e-05
-6.801684696998307e-05   0.0   7.740924473705426e-05
-6.801684696998307e-05   0.0   7.740924473705426e-05
-6.801684696998307e-05   0.0   7.740924473705426e-05
-0.00011730043107719157   1.360341305718226e-05   3.4319857260163567e-06
-0.00011730043107719157   1.360341305718226e-05   3.4319857260163567e-06
-0.00011730043107719157   1.360341305718226e-05   3.4319857260163567e-06
-0.00011730043107719157   1.360341305718226e-05   3.4319857260163567e-06
-0.00011987868148144508   0.0   9.69154171898553e-05
-0.00011987868148144508   0.0   9.69154171898553e-05
-0.00011987868148144508   0.0   9.69154171898553e-05
-0.00011987868148144508   0.0   9.69154171898553e-05
-7.020308287716049e-05   1.1323197493482654e-05   7.328834353291123e-06
-7.020308287716049e-05   1.1323197493482654e-05   7.328834353291123e-06
-7.020308287716049e-05   1.1323197493482654e-05   7.328834353291123e-06
-7.020308287716049e-05   1.1323197493482654e-05   7.328834353291123e-06
-8.99064397326689e-05   5.029242341096987e-06   4.394413553723635e-05
-8.99064397326689e-05   5.029242341096987e-06   4.394413553723635e-05
-8.99064397326689e-05   5.029242341096987e-06   4.394413553723635e-05
-8.99064397326689e-05   5.029242341096987e-06   4.394413553723635e-05
7.569620544363499e-05   -1.1390551123313664e-05   5.37654672673857e-05
7.569620544363499e-05   -1.1390551123313664e-05   5.37654672673857e-05
7.569620544363499e-05   -1.1390551123313664e-05   5.37654672673857e-05
7.569620544363499e-05   -1.1390551123313664e-05   5.37654672673857e-05
3.8289835054165504e-05   -8.585551177537395e-06   -6.895483414264382e-06
3.8289835054165504e-05   -8.585551177537395e-06   -6.895483414264382e-06
3.8289835054165504e-05   -8.585551177537395e-06   -6.895483414264382e-06
3.8289835054165504e-05   -8.585551177537395e-06   -6.895483414264382e-06
3.727774864058532e-05   -1.2524683609807085e-05   4.6935812174752484e-05
3.727774864058532e-05   -1.2524683609807085e-05   4.6935812174752484e-05
3.727774864058532e-05   -1.2524683609807085e-05   4.6935812174752484e-05
3.727774864058532e-05   -1.2524683609807085e-05   4.6935812174752484e-05
7.388855512982227e-05   -9.732130215262761e-06   -1.5757730677368767e-05
7.388855512982227e-05   -9.732130215262761e-06   -1.5757730677368767e-05
7.388855512982227e-05   -9.732130215262761e-06   -1.5757730677368767e-05
7.388855512982227e-05   -9.732130215262761e-06   -1.5757730677368767e-05
5.378222906830147e-05   -1.0135807794285981e-05   1.799501930591302e-05
5.378222906830147e-05   -1.0135807794285981e-05   1.799501930591302e-05
5.378222906830147e-05   -1.0135807794285981e-05   1.799501930591302e-05
5.378222906830147e-05   -1.0135807794285981e-05   1.799501930591302e-05
7.388855512982215e-05   -1.2524683609807085e-05   4.526028013802615e-05
7.388855512982215e-05   -1.2524683609807085e-05   4.526028013802615e-05
7.388855512982215e-05   -1.2524683609807085e-05   4.526028013802615e-05
7.388855512982215e-05   -1.2524683609807085e-05   4.526028013802615e-05
3.7277748640585385e-05   -9.732130215262761e-06   -1.4082198640642243e-05
3.7277748640585385e-05   -9.732130215262761e-06   -1.4082198640642243e-05
3.7277748640585385e-05   -9.732130215262761e-06   -1.4082198640642243e-05
3.7277748640585385e-05   -9.732130215262761e-06   -1.4082198640642243e-05
3.597358218590532e-05   -1.2629500723193056e-05   4.213284710330423e-05
3.597358218590532e-05   -1.2629500723193056e-05   4.213284710330423e-05
3.597358218590532e-05   -1.2629500723193056e-05   4.213284710330423e-05
3.597358218590532e-05   -1.2629500723193056e-05   4.213284710330423e-05
7.20606900585821e-05   -9.902905246735646e-06   -1.9648289970364844e-05
7.20606900585821e-05   -9.902905246735646e-06   -1.9648289970364844e-05
7.20606900585821e-05   -9.902905246735646e-06   -1.9648289970364844e-05
7.20606900585821e-05   -9.902905246735646e-06   -1.9648289970364844e-05
5.327342788651585e-05   -1.0578728663913298e-05   1.206930770005193e-05
5.327342788651585e-05   -1.0578728663913298e-05   1.206930770005193e-05
5.327342788651585e-05   -1.0578728663913298e-05   1.206930770005193e-05
5.327342788651585e-05   -1.0578728663913298e-05   1.206930770005193e-05
7.20606900585821e-05   -1.2629500723193056e-05   4.049688981742992e-05
7.20606900585821e-05   -1.2629500723193056e-05   4.049688981742992e-05
7.20606900585821e-05   -1.2629500723193056e-05   4.049688981742992e-05
7.20606900585821e-05   -1.2629500723193056e-05   4.049688981742992e-05
3.597358218590532e-05   -9.902905246735646e-06   -1.801233268449061e-05
3.597358218590532e-05   -9.902905246735646e-06   -1.801233268449061e-05
3.597358218590532e-05   -9.902905246735646e-06   -1.801233268449061e-05
3.597358218590532e-05   -9.902905246735646e-06   -1.801233268449061e-05
3.4605403222705074e-05   -1.2367532899488099e-05   3.500970298636217e-05
3.4605403222705074e-05   -1.2367532899488099e-05   3.500970298636217e-05
3.4605403222705074e-05   -1.2367532899488099e-05   3.500970298636217e-05
3.4605403222705074e-05   -1.2367532899488099e-05   3.500970298636217e-05
6.97726963312807e-05   -9.841810656449103e-06   -2.511788554042057e-05
6.97726963312807e-05   -9.841810656449103e-06   -2.511788554042057e-05
6.97726963312807e-05   -9.841810656449103e-06   -2.511788554042057e-05
6.97726963312807e-05   -9.841810656449103e-06   -2.511788554042057e-05
5.0896259586263274e-05   -1.0302319575061954e-05   6.619147719110082e-06
5.0896259586263274e-05   -1.0302319575061954e-05   6.619147719110082e-06
5.0896259586263274e-05   -1.0302319575061954e-05   6.619147719110082e-06
5.0896259586263274e-05   -1.0302319575061954e-05   6.619147719110082e-06
3.828983505416557e-05   -7.050321691724672e-06   5.089492184526235e-05
3.828983505416557e-05   -7.050321691724672e-06   5.089492184526235e-05
3.828983505416557e-05   -7.050321691724672e-06   5.089492184526235e-05
3.828983505416557e-05   -7.050321691724672e-06   5.089492184526235e-05
4.21197236534924e-06   -3.031170314801452e-06   -3.490025143277958e-06
4.21197236534924e-06   -3.031170314801452e-06   -3.490025143277958e-06
4.21197236534924e-06   -3.031170314801452e-06   -3.490025143277958e-06
4.21197236534924e-06   -3.031170314801452e-06   -3.490025143277958e-06
3.2067451348200666e-06   -7.478362308745937e-06   5.302854837146943e-05
3.2067451348200666e-06   -7.478362308745937e-06   5.302854837146943e-05
3.2067451348200666e-06   -7.478362308745937e-06   5.302854837146943e-05
3.2067451348200666e-06   -7.478362308745937e-06   5.302854837146943e-05
3.7277748640585385e-05   -3.6476347719774545e-06   -6.054893993533709e-06
3.7277748640585385e-05   -3.6476347719774545e-06   -6.054893993533709e-06
3.7277748640585385e-05   -3.6476347719774545e-06   -6.054893993533709e-06
3.7277748640585385e-05   -3.6476347719774545e-06   -6.054893993533709e-06
2.0547895639957542e-05   -4.929668632463937e-06   2.2597414657138338e-05
2.0547895639957542e-05   -4.929668632463937e-06   2.2597414657138338e-05
2.0547895639957542e-05   -4.929668632463937e-06   2.2597414657138338e-05
2.0547895639957542e-05   -4.929668632463937e-06   2.2597414657138338e-05
3.727774864058537e-05   -7.478362308745937e-06   5.073011184940856e-05
3.727774864058537e-05   -7.478362308745937e-06   5.073011184940856e-05
3.727774864058537e-05   -7.478362308745937e-06   5.073011184940856e-05
3.727774864058537e-05   -7.478362308745937e-06   5.073011184940856e-05
3.2067451348200666e-06   -3.6476347719774545e-06   -3.7564574714727544e-06
3.2067451348200666e-06   -3.6476347719774545e-06   -3.7564574714727544e-06
3.2067451348200666e-06   -3.6476347719774545e-06   -3.7564574714727544e-06
3.2067451348200666e-06   -3.6476347719774545e-06   -3.7564574714727544e-06
1.923363824691269e-06   -7.669287546546548e-06   5.253247055080914e-05
1.923363824691269e-06   -7.669287546546548e-06   5.253247055080914e-05
1.923363824691269e-06   -7.669287546546548e-06   5.253247055080914e-05
1.923363824691269e-06   -7.669287546546548e-06   5.253247055080914e-05
3.597358218590532e-05   -4.052318662586818e-06   -6.3880747149236406e-06
3.597358218590532e-05   -4.052318662586818e-06   -6.3880747149236406e-06
3.597358218590532e-05   -4.052318662586818e-06   -6.3880747149236406e-06
3.597358218590532e-05   -4.052318662586818e-06   -6.3880747149236406e-06
1.927345819403245e-05   -5.1632536803509e-06   2.2112026282190746e-05
1.927345819403245e-05   -5.1632536803509e-06   2.2112026282190746e-05
1.927345819403245e-05   -5.1632536803509e-06   2.2112026282190746e-05
1.927345819403245e-05   -5.1632536803509e-06   2.2112026282190746e-05
3.597358218590527e-05   -7.669287546546982e-06   5.036228922043295e-05
3.597358218590527e-05   -7.669287546546982e-06   5.036228922043295e-05
3.597358218590527e-05   -7.669287546546982e-06   5.036228922043295e-05
3.597358218590527e-05   -7.669287546546982e-06   5.036228922043295e-05
1.923363824691269e-06   -4.052318662586818e-06   -4.2178933845476996e-06
1.923363824691269e-06   -4.052318662586818e-06   -4.2178933845476996e-06
1.923363824691269e-06   -4.052318662586818e-06   -4.2178933845476996e-06
1.923363824691269e-06   -4.052318662586818e-06   -4.2178933845476996e-06
5.056092085218005e-07   -7.497405484297153e-06   5.3307627677088524e-05
5.056092085218005e-07   -7.497405484297153e-06   5.3307627677088524e-05
5.056092085218005e-07   -7.497405484297153e-06   5.3307627677088524e-05
5.056092085218005e-07   -7.497405484297153e-06   5.3307627677088524e-05
3.460540322270505e-05   -4.226334911756283e-06   -5.488004690074852e-06
3.460540322270505e-05   -4.226334911756283e-06   -5.488004690074852e-06
3.460540322270505e-05   -4.226334911756283e-06   -5.488004690074852e-06
3.460540322270505e-05   -4.226334911756283e-06   -5.488004690074852e-06
1.823456071185511e-05   -5.114911731100846e-06   2.232987891961631e-05
1.823456071185511e-05   -5.114911731100846e-06   2.232987891961631e-05
1.823456071185511e-05   -5.114911731100846e-06   2.232987891961631e-05
1.823456071185511e-05   -5.114911731100846e-06   2.232987891961631e-05
4.21197236534924e-06   -2.975921001399824e-06   5.204882963626904e-05
4.21197236534924e-06   -2.975921001399824e-06   5.204882963626904e-05
4.21197236534924e-06   -2.975921001399824e-06   5.204882963626904e-05
4.21197236534924e-06   -2.975921001399824e-06   5.204882963626904e-05
-2.8800671482357505e-05   2.6900500055141233e-06   4.273391609067173e-07
-2.8800671482357505e-05   2.6900500055141233e-06   4.273391609067173e-07
-2.8800671482357505e-05   2.6900500055141233e-06   4.273391609067173e-07
-2.8800671482357505e-05   2.6900500055141233e-06   4.273391609067173e-07
-2.9933212120749242e-05   -3.142767458163241e-06   5.583998162871995e-05
-2.9933212120749242e-05   -3.142767458163241e-06   5.583998162871995e-05
-2.9933212120749242e-05   -3.142767458163241e-06   5.583998162871995e-05
-2.9933212120749242e-05   -3.142767458163241e-06   5.583998162871995e-05
3.2067451348200666e-06   2.21769613512968e-06   -2.60955861987135e-06
3.2067451348200666e-06   2.21769613512968e-06   -2.60955861987135e-06
3.2067451348200666e-06   2.21769613512968e-06   -2.60955861987135e-06
3.2067451348200666e-06   2.21769613512968e-06   -2.60955861987135e-06
-1.2805192891308785e-05   -5.401475382639867e-08   2.5440031290383642e-05
-1.2805192891308785e-05   -5.401475382639867e-08   2.5440031290383642e-05
-1.2805192891308785e-05   -5.401475382639867e-08   2.5440031290383642e-05
-1.2805192891308785e-05   -5.401475382639867e-08   2.5440031290383642e-05
3.2067451348200666e-06   -3.142767458163241e-06   5.262370347274437e-05
3.2067451348200666e-06   -3.142767458163241e-06   5.262370347274437e-05
3.2067451348200666e-06   -3.142767458163241e-06   5.262370347274437e-05
3.2067451348200666e-06   -3.142767458163241e-06   5.262370347274437e-05
-2.9933212120749242e-05   2.2176961351292462e-06   6.067195361043106e-07
-2.9933212120749242e-05   2.2176961351292462e-06   6.067195361043106e-07
-2.9933212120749242e-05   2.2176961351292462e-06   6.067195361043106e-07
-2.9933212120749242e-05   2.2176961351292462e-06   6.067195361043106e-07
-3.145193632622106e-05   -3.3469642564138563e-06   5.696008927580658e-05
-3.145193632622106e-05   -3.3469642564138563e-06   5.696008927580658e-05
-3.145193632622106e-05   -3.3469642564138563e-06   5.696008927580658e-05
-3.145193632622106e-05   -3.3469642564138563e-06   5.696008927580658e-05
1.923363824691269e-06   1.7779844932162316e-06   -1.7403802254919271e-06
1.923363824691269e-06   1.7779844932162316e-06   -1.7403802254919271e-06
1.923363824691269e-06   1.7779844932162316e-06   -1.7403802254919271e-06
1.923363824691269e-06   1.7779844932162316e-06   -1.7403802254919271e-06
-1.3922445322123029e-05   -1.8718400356283749e-07   2.5848402783932808e-05
-1.3922445322123029e-05   -1.8718400356283749e-07   2.5848402783932808e-05
-1.3922445322123029e-05   -1.8718400356283749e-07   2.5848402783932808e-05
-1.3922445322123029e-05   -1.8718400356283749e-07   2.5848402783932808e-05
1.923363824691269e-06   -3.3469642564138563e-06   5.3885120026028657e-05
1.923363824691269e-06   -3.3469642564138563e-06   5.3885120026028657e-05
1.923363824691269e-06   -3.3469642564138563e-06   5.3885120026028657e-05
1.923363824691269e-06   -3.3469642564138563e-06   5.3885120026028657e-05
-3.1451936326221006e-05   1.7779844932162316e-06   1.334589024286131e-06
-3.1451936326221006e-05   1.7779844932162316e-06   1.334589024286131e-06
-3.1451936326221006e-05   1.7779844932162316e-06   1.334589024286131e-06
-3.1451936326221006e-05   1.7779844932162316e-06   1.334589024286131e-06
-3.3070037117781566e-05   -3.328076723397959e-06   5.830368339589543e-05
-3.3070037117781566e-05   -3.328076723397959e-06   5.830368339589543e-05
-3.3070037117781566e-05   -3.328076723397959e-06   5.830368339589543e-05
-3.3070037117781566e-05   -3.328076723397959e-06   5.830368339589543e-05
5.056092085218276e-07   1.4611332139541008e-06   -5.292531103546507e-07
5.056092085218276e-07   1.4611332139541008e-06   -5.292531103546507e-07
5.056092085218276e-07   1.4611332139541008e-06   -5.292531103546507e-07
5.056092085218276e-07   1.4611332139541008e-06   -5.292531103546507e-07
-1.5347407547550775e-05   -2.8296517888895534e-07   2.6938900518805905e-05
-1.5347407547550775e-05   -2.8296517888895534e-07   2.6938900518805905e-05
-1.5347407547550775e-05   -2.8296517888895534e-07   2.6938900518805905e-05
-1.5347407547550775e-05   -2.8296517888895534e-07   2.6938900518805905e-05
-2.8800671482357397e-05   3.1680919718268634e-06   4.7030523945772174e-05
-2.8800671482357397e-05   3.1680919718268634e-06   4.7030523945772174e-05
-2.8800671482357397e-05   3.1680919718268634e-06   4.7030523945772174e-05
-2.8800671482357397e-05   3.1680919718268634e-06   4.7030523945772174e-05
-6.113782508419742e-05   8.768369601688808e-06   -3.5045654793778268e-06
-6.113782508419742e-05   8.768369601688808e-06   -3.5045654793778268e-06
-6.113782508419742e-05   8.768369601688808e-06   -3.5045654793778268e-06
-6.113782508419742e-05   8.768369601688808e-06   -3.5045654793778268e-06
-6.27880900856408e-05   2.9760208942889235e-06   5.206215644743993e-05
-6.27880900856408e-05   2.9760208942889235e-06   5.206215644743993e-05
-6.27880900856408e-05   2.9760208942889235e-06   5.206215644743993e-05
-6.27880900856408e-05   2.9760208942889235e-06   5.206215644743993e-05
-2.9933212120749134e-05   8.294537185003347e-06   -5.887083268474574e-06
-2.9933212120749134e-05   8.294537185003347e-06   -5.887083268474574e-06
-2.9933212120749134e-05   8.294537185003347e-06   -5.887083268474574e-06
-2.9933212120749134e-05   8.294537185003347e-06   -5.887083268474574e-06
-4.530426779592672e-05   5.9036585509132655e-06   2.1165870037275153e-05
-4.530426779592672e-05   5.9036585509132655e-06   2.1165870037275153e-05
-4.530426779592672e-05   5.9036585509132655e-06   2.1165870037275153e-05
-4.530426779592672e-05   5.9036585509132655e-06   2.1165870037275153e-05
-2.9933212120749215e-05   2.976020894289357e-06   4.8871046673011186e-05
-2.9933212120749215e-05   2.976020894289357e-06   4.8871046673011186e-05
-2.9933212120749215e-05   2.976020894289357e-06   4.8871046673011186e-05
-2.9933212120749215e-05   2.976020894289357e-06   4.8871046673011186e-05
-6.27880900856407e-05   8.294537185003347e-06   -2.6959734940460497e-06
-6.27880900856407e-05   8.294537185003347e-06   -2.6959734940460497e-06
-6.27880900856407e-05   8.294537185003347e-06   -2.6959734940460497e-06
-6.27880900856407e-05   8.294537185003347e-06   -2.6959734940460497e-06
-6.481022427547842e-05   2.6239934371682407e-06   5.525589236269647e-05
-6.481022427547842e-05   2.6239934371682407e-06   5.525589236269647e-05
-6.481022427547842e-05   2.6239934371682407e-06   5.525589236269647e-05
-6.481022427547842e-05   2.6239934371682407e-06   5.525589236269647e-05
-3.1451936326221006e-05   7.856581656473516e-06   -3.480807150982486e-06
-3.1451936326221006e-05   7.856581656473516e-06   -3.480807150982486e-06
-3.1451936326221006e-05   7.856581656473516e-06   -3.480807150982486e-06
-3.1451936326221006e-05   7.856581656473516e-06   -3.480807150982486e-06
-4.653401239123184e-05   5.793751332461121e-06   2.2893684485109827e-05
-4.653401239123184e-05   5.793751332461121e-06   2.2893684485109827e-05
-4.653401239123184e-05   5.793751332461121e-06   2.2893684485109827e-05
-4.653401239123184e-05   5.793751332461121e-06   2.2893684485109827e-05
-3.145193632622098e-05   2.6239934371682407e-06   5.211633943111283e-05
-3.145193632622098e-05   2.6239934371682407e-06   5.211633943111283e-05
-3.145193632622098e-05   2.6239934371682407e-06   5.211633943111283e-05
-3.145193632622098e-05   2.6239934371682407e-06   5.211633943111283e-05
-6.481022427547842e-05   7.856581656473516e-06   -3.4125421939927743e-07
-6.481022427547842e-05   7.856581656473516e-06   -3.4125421939927743e-07
-6.481022427547842e-05   7.856581656473516e-06   -3.4125421939927743e-07
-6.481022427547842e-05   7.856581656473516e-06   -3.4125421939927743e-07
-6.695011842321828e-05   2.2256836103243943e-06   5.7801034732363806e-05
-6.695011842321828e-05   2.2256836103243943e-06   5.7801034732363806e-05
-6.695011842321828e-05   2.2256836103243943e-06   5.7801034732363806e-05
-6.695011842321828e-05   2.2256836103243943e-06   5.7801034732363806e-05
-3.307003711778146e-05   7.268139888617561e-06   -1.691241210339796e-06
-3.307003711778146e-05   7.268139888617561e-06   -1.691241210339796e-06
-3.307003711778146e-05   7.268139888617561e-06   -1.691241210339796e-06
-3.307003711778146e-05   7.268139888617561e-06   -1.691241210339796e-06
-4.858041005146938e-05   5.438147599094809e-06   2.5257375719521893e-05
-4.858041005146938e-05   5.438147599094809e-06   2.5257375719521893e-05
-4.858041005146938e-05   5.438147599094809e-06   2.5257375719521893e-05
-4.858041005146938e-05   5.438147599094809e-06   2.5257375719521893e-05
-6.113782508419742e-05   1.4470367581778318e-05   2.4763196346511227e-05
-6.113782508419742e-05   1.4470367581778318e-05   2.4763196346511227e-05
-6.113782508419742e-05   1.4470367581778318e-05   2.4763196346511227e-05
-6.113782508419742e-05   1.4470367581778318e-05   2.4763196346511227e-05
-9.210196733298875e-05   1.4260198949922389e-05   -2.6969808580587853e-05
-9.210196733298875e-05   1.4260198949922389e-05   -2.6969808580587853e-05
-9.210196733298875e-05   1.4260198949922389e-05   -2.6969808580587853e-05
-9.210196733298875e-05   1.4260198949922389e-05   -2.6969808580587853e-05
-9.506392306296983e-05   1.3962768485106889e-05   3.66706916126551e-05
-9.506392306296983e-05   1.3962768485106889e-05   3.66706916126551e-05
-9.506392306296983e-05   1.3962768485106889e-05   3.66706916126551e-05
-9.506392306296983e-05   1.3962768485106889e-05   3.66706916126551e-05
-6.27880900856407e-05   1.4532402175833261e-05   -1.7464143563996216e-05
-6.27880900856407e-05   1.4532402175833261e-05   -1.7464143563996216e-05
-6.27880900856407e-05   1.4532402175833261e-05   -1.7464143563996216e-05
-6.27880900856407e-05   1.4532402175833261e-05   -1.7464143563996216e-05
-7.46424863471243e-05   1.4532848181730406e-05   2.2929159349380137e-06
-7.46424863471243e-05   1.4532848181730406e-05   2.2929159349380137e-06
-7.46424863471243e-05   1.4532848181730406e-05   2.2929159349380137e-06
-7.46424863471243e-05   1.4532848181730406e-05   2.2929159349380137e-06
-6.278809008564064e-05   1.3962768485106455e-05   3.6328911398219015e-05
-6.278809008564064e-05   1.3962768485106455e-05   3.6328911398219015e-05
-6.278809008564064e-05   1.3962768485106455e-05   3.6328911398219015e-05
-6.278809008564064e-05   1.3962768485106455e-05   3.6328911398219015e-05
-9.506392306296983e-05   1.4532402175833261e-05   -1.712236334956035e-05
-9.506392306296983e-05   1.4532402175833261e-05   -1.712236334956035e-05
-9.506392306296983e-05   1.4532402175833261e-05   -1.712236334956035e-05
-9.506392306296983e-05   1.4532402175833261e-05   -1.712236334956035e-05
-9.796859732590126e-05   1.3603413057181827e-05   4.5032968139278786e-05
-9.796859732590126e-05   1.3603413057181827e-05   4.5032968139278786e-05
-9.796859732590126e-05   1.3603413057181827e-05   4.5032968139278786e-05
-9.796859732590126e-05   1.3603413057181827e-05   4.5032968139278786e-05
-6.481022427547831e-05   1.442726265009223e-05   -1.0725296700505856e-05
-6.481022427547831e-05   1.442726265009223e-05   -1.0725296700505856e-05
-6.481022427547831e-05   1.442726265009223e-05   -1.0725296700505856e-05
-6.481022427547831e-05   1.442726265009223e-05   -1.0725296700505856e-05
-7.803583457787188e-05   1.4529501588974019e-05   1.125604377348816e-05
-7.803583457787188e-05   1.4529501588974019e-05   1.125604377348816e-05
-7.803583457787188e-05   1.4529501588974019e-05   1.125604377348816e-05
-7.803583457787188e-05   1.4529501588974019e-05   1.125604377348816e-05
-6.481022427547831e-05   1.3603413057181827e-05   4.453865838353259e-05
-6.481022427547831e-05   1.3603413057181827e-05   4.453865838353259e-05
-6.481022427547831e-05   1.3603413057181827e-05   4.453865838353259e-05
-6.481022427547831e-05   1.3603413057181827e-05   4.453865838353259e-05
-9.796859732590126e-05   1.4427262650091796e-05   -1.023098694475982e-05
-9.796859732590126e-05   1.4427262650091796e-05   -1.023098694475982e-05
-9.796859732590126e-05   1.4427262650091796e-05   -1.023098694475982e-05
-9.796859732590126e-05   1.4427262650091796e-05   -1.023098694475982e-05
-0.00010139400544427579   1.1323197493482654e-05   5.90068378151648e-05
-0.00010139400544427579   1.1323197493482654e-05   5.90068378151648e-05
-0.00010139400544427579   1.1323197493482654e-05   5.90068378151648e-05
-0.00010139400544427579   1.1323197493482654e-05   5.90068378151648e-05
-6.695011842321804e-05   1.3279926367553135e-05   4.2632212229312596e-07
-6.695011842321804e-05   1.3279926367553135e-05   4.2632212229312596e-07
-6.695011842321804e-05   1.3279926367553135e-05   4.2632212229312596e-07
-6.695011842321804e-05   1.3279926367553135e-05   4.2632212229312596e-07
-7.925679761537017e-05   1.3838684678063335e-05   2.0602199122907823e-05
-7.925679761537017e-05   1.3838684678063335e-05   2.0602199122907823e-05
-7.925679761537017e-05   1.3838684678063335e-05   2.0602199122907823e-05
-7.925679761537017e-05   1.3838684678063335e-05   2.0602199122907823e-05
6.136052322194579e-05   -8.585551177536961e-06   4.7374439519546176e-05
6.136052322194579e-05   -8.585551177536961e-06   4.7374439519546176e-05
6.136052322194579e-05   -8.585551177536961e-06   4.7374439519546176e-05
6.136052322194579e-05   -8.585551177536961e-06   4.7374439519546176e-05
3.038398501594569e-05   -6.290580352408433e-06   -2.8761416620433876e-06
3.038398501594569e-05   -6.290580352408433e-06   -2.8761416620433876e-06
3.038398501594569e-05   -6.290580352408433e-06   -2.8761416620433876e-06
3.038398501594569e-05   -6.290580352408433e-06   -2.8761416620433876e-06
2.921823512830435e-05   -9.732130215262761e-06   4.1200494711374214e-05
2.921823512830435e-05   -9.732130215262761e-06   4.1200494711374214e-05
2.921823512830435e-05   -9.732130215262761e-06   4.1200494711374214e-05
2.921823512830435e-05   -9.732130215262761e-06   4.1200494711374214e-05
5.921634729713397e-05   -7.300113153075032e-06   -1.0255569140654357e-05
5.921634729713397e-05   -7.300113153075032e-06   -1.0255569140654357e-05
5.921634729713397e-05   -7.300113153075032e-06   -1.0255569140654357e-05
5.921634729713397e-05   -7.300113153075032e-06   -1.0255569140654357e-05
4.2982413151432624e-05   -7.895555748508795e-06   1.715825332610811e-05
4.2982413151432624e-05   -7.895555748508795e-06   1.715825332610811e-05
4.2982413151432624e-05   -7.895555748508795e-06   1.715825332610811e-05
4.2982413151432624e-05   -7.895555748508795e-06   1.715825332610811e-05
5.9216347297133865e-05   -9.732130215263195e-06   3.9741284474061316e-05
5.9216347297133865e-05   -9.732130215263195e-06   3.9741284474061316e-05
5.9216347297133865e-05   -9.732130215263195e-06   3.9741284474061316e-05
5.9216347297133865e-05   -9.732130215263195e-06   3.9741284474061316e-05
2.9218235128304458e-05   -7.300113153075032e-06   -8.796358903341442e-06
2.9218235128304458e-05   -7.300113153075032e-06   -8.796358903341442e-06
2.9218235128304458e-05   -7.300113153075032e-06   -8.796358903341442e-06
2.9218235128304458e-05   -7.300113153075032e-06   -8.796358903341442e-06
2.7923010164204395e-05   -9.90290524673608e-06   3.6925648219604664e-05
2.7923010164204395e-05   -9.90290524673608e-06   3.6925648219604664e-05
2.7923010164204395e-05   -9.90290524673608e-06   3.6925648219604664e-05
2.7923010164204395e-05   -9.90290524673608e-06   3.6925648219604664e-05
5.727503242238945e-05   -7.503171871926697e-06   -1.3434228902256027e-05
5.727503242238945e-05   -7.503171871926697e-06   -1.3434228902256027e-05
5.727503242238945e-05   -7.503171871926697e-06   -1.3434228902256027e-05
5.727503242238945e-05   -7.503171871926697e-06   -1.3434228902256027e-05
4.217388726760133e-05   -8.286682767858888e-06   1.2204452893283132e-05
4.217388726760133e-05   -8.286682767858888e-06   1.2204452893283132e-05
4.217388726760133e-05   -8.286682767858888e-06   1.2204452893283132e-05
4.217388726760133e-05   -8.286682767858888e-06   1.2204452893283132e-05
5.727503242238925e-05   -9.902905246735646e-06   3.548580819471908e-05
5.727503242238925e-05   -9.902905246735646e-06   3.548580819471908e-05
5.727503242238925e-05   -9.902905246735646e-06   3.548580819471908e-05
5.727503242238925e-05   -9.902905246735646e-06   3.548580819471908e-05
2.7923010164204436e-05   -7.503171871926697e-06   -1.199438887737039e-05
2.7923010164204436e-05   -7.503171871926697e-06   -1.199438887737039e-05
2.7923010164204436e-05   -7.503171871926697e-06   -1.199438887737039e-05
2.7923010164204436e-05   -7.503171871926697e-06   -1.199438887737039e-05
2.6677398628397194e-05   -9.841810656449103e-06   3.096645198295291e-05
2.6677398628397194e-05   -9.841810656449103e-06   3.096645198295291e-05
2.6677398628397194e-05   -9.841810656449103e-06   3.096645198295291e-05
2.6677398628397194e-05   -9.841810656449103e-06   3.096645198295291e-05
5.507661844773522e-05   -7.586515260273648e-06   -1.7718758286982442e-05
5.507661844773522e-05   -7.586515260273648e-06   -1.7718758286982442e-05
5.507661844773522e-05   -7.586515260273648e-06   -1.7718758286982442e-05
5.507661844773522e-05   -7.586515260273648e-06   -1.7718758286982442e-05
3.999933585306349e-05   -8.147155704925097e-06   7.746430304261939e-06
3.999933585306349e-05   -8.147155704925097e-06   7.746430304261939e-06
3.999933585306349e-05   -8.147155704925097e-06   7.746430304261939e-06
3.999933585306349e-05   -8.147155704925097e-06   7.746430304261939e-06
3.038398501594569e-05   -3.0311703148018856e-06   4.9745389459456566e-05
3.038398501594569e-05   -3.0311703148018856e-06   4.9745389459456566e-05
3.038398501594569e-05   -3.0311703148018856e-06   4.9745389459456566e-05
3.038398501594569e-05   -3.0311703148018856e-06   4.9745389459456566e-05
1.308062125048617e-06   -1.2026937703363792e-06   2.382603901307208e-06
1.308062125048617e-06   -1.2026937703363792e-06   2.382603901307208e-06
1.308062125048617e-06   -1.2026937703363792e-06   2.382603901307208e-06
1.308062125048617e-06   -1.2026937703363792e-06   2.382603901307208e-06
1.8912991413600247e-07   -3.647634771977021e-06   5.0265064789304205e-05
1.8912991413600247e-07   -3.647634771977021e-06   5.0265064789304205e-05
1.8912991413600247e-07   -3.647634771977021e-06   5.0265064789304205e-05
1.8912991413600247e-07   -3.647634771977021e-06   5.0265064789304205e-05
2.9218235128304458e-05   -1.9188590539417558e-06   8.459573348688047e-07
2.9218235128304458e-05   -1.9188590539417558e-06   8.459573348688047e-07
2.9218235128304458e-05   -1.9188590539417558e-06   8.459573348688047e-07
2.9218235128304458e-05   -1.9188590539417558e-06   8.459573348688047e-07
1.5089592602031083e-05   -2.359215149044802e-06   2.4657908535719508e-05
1.5089592602031083e-05   -2.359215149044802e-06   2.4657908535719508e-05
1.5089592602031083e-05   -2.359215149044802e-06   2.4657908535719508e-05
1.5089592602031083e-05   -2.359215149044802e-06   2.4657908535719508e-05
2.9218235128304444e-05   -3.6476347719774545e-06   4.922779935848283e-05
2.9218235128304444e-05   -3.6476347719774545e-06   4.922779935848283e-05
2.9218235128304444e-05   -3.6476347719774545e-06   4.922779935848283e-05
2.9218235128304444e-05   -3.6476347719774545e-06   4.922779935848283e-05
1.8912991413600247e-07   -1.9188590539417558e-06   1.8832227656900586e-06
1.8912991413600247e-07   -1.9188590539417558e-06   1.8832227656900586e-06
1.8912991413600247e-07   -1.9188590539417558e-06   1.8832227656900586e-06
1.8912991413600247e-07   -1.9188590539417558e-06   1.8832227656900586e-06
-9.739175205121552e-07   -4.052318662586818e-06   4.951054241242032e-05
-9.739175205121552e-07   -4.052318662586818e-06   4.951054241242032e-05
-9.739175205121552e-07   -4.052318662586818e-06   4.951054241242032e-05
-9.739175205121552e-07   -4.052318662586818e-06   4.951054241242032e-05
2.7923010164204436e-05   -2.451258290504972e-06   3.8836004797729643e-07
2.7923010164204436e-05   -2.451258290504972e-06   3.8836004797729643e-07
2.7923010164204436e-05   -2.451258290504972e-06   3.8836004797729643e-07
2.7923010164204436e-05   -2.451258290504972e-06   3.8836004797729643e-07
1.3805453337565886e-05   -2.7346200991941114e-06   2.4087638510922305e-05
1.3805453337565886e-05   -2.7346200991941114e-06   2.4087638510922305e-05
1.3805453337565886e-05   -2.7346200991941114e-06   2.4087638510922305e-05
1.3805453337565886e-05   -2.7346200991941114e-06   2.4087638510922305e-05
2.7923010164204395e-05   -4.052318662586818e-06   4.8549906189171606e-05
2.7923010164204395e-05   -4.052318662586818e-06   4.8549906189171606e-05
2.7923010164204395e-05   -4.052318662586818e-06   4.8549906189171606e-05
2.7923010164204395e-05   -4.052318662586818e-06   4.8549906189171606e-05
-9.739175205121552e-07   -2.451258290504972e-06   1.3489962712262982e-06
-9.739175205121552e-07   -2.451258290504972e-06   1.3489962712262982e-06
-9.739175205121552e-07   -2.451258290504972e-06   1.3489962712262982e-06
-9.739175205121552e-07   -2.451258290504972e-06   1.3489962712262982e-06
-2.184727014861959e-06   -4.22633491175585e-06   4.989366823845314e-05
-2.184727014861959e-06   -4.22633491175585e-06   4.989366823845314e-05
-2.184727014861959e-06   -4.22633491175585e-06   4.989366823845314e-05
-2.184727014861959e-06   -4.22633491175585e-06   4.989366823845314e-05
2.667739862839726e-05   -2.8717203267932152e-06   9.773567487100283e-07
2.667739862839726e-05   -2.8717203267932152e-06   9.773567487100283e-07
2.667739862839726e-05   -2.8717203267932152e-06   9.773567487100283e-07
2.667739862839726e-05   -2.8717203267932152e-06   9.773567487100283e-07
1.2839318762828094e-05   -2.93668393542678e-06   2.407980135650631e-05
1.2839318762828094e-05   -2.93668393542678e-06   2.407980135650631e-05
1.2839318762828094e-05   -2.93668393542678e-06   2.407980135650631e-05
1.2839318762828094e-05   -2.93668393542678e-06   2.407980135650631e-05
1.308062125048617e-06   2.6900500055141233e-06   5.136025708617144e-05
1.308062125048617e-06   2.6900500055141233e-06   5.136025708617144e-05
1.308062125048617e-06   2.6900500055141233e-06   5.136025708617144e-05
1.308062125048617e-06   2.6900500055141233e-06   5.136025708617144e-05
-2.6917541605639108e-05   3.9078593841732415e-06   5.048269828887217e-06
-2.6917541605639108e-05   3.9078593841732415e-06   5.048269828887217e-06
-2.6917541605639108e-05   3.9078593841732415e-06   5.048269828887217e-06
-2.6917541605639108e-05   3.9078593841732415e-06   5.048269828887217e-06
-2.80865625354928e-05   2.2176961351292462e-06   5.2068224499529376e-05
-2.80865625354928e-05   2.2176961351292462e-06   5.2068224499529376e-05
-2.80865625354928e-05   2.2176961351292462e-06   5.2068224499529376e-05
-2.80865625354928e-05   2.2176961351292462e-06   5.2068224499529376e-05
1.8912991413600247e-07   3.311464232835966e-06   4.285809558190887e-06
1.8912991413600247e-07   3.311464232835966e-06   4.285809558190887e-06
1.8912991413600247e-07   3.311464232835966e-06   4.285809558190887e-06
1.8912991413600247e-07   3.311464232835966e-06   4.285809558190887e-06
-1.3397479922762183e-05   3.0667062412867256e-06   2.7077014081283907e-05
-1.3397479922762183e-05   3.0667062412867256e-06   2.7077014081283907e-05
-1.3397479922762183e-05   3.0667062412867256e-06   2.7077014081283907e-05
-1.3397479922762183e-05   3.0667062412867256e-06   2.7077014081283907e-05
1.8912991413600247e-07   2.2176961351292462e-06   5.1411963640905474e-05
1.8912991413600247e-07   2.2176961351292462e-06   5.1411963640905474e-05
1.8912991413600247e-07   2.2176961351292462e-06   5.1411963640905474e-05
1.8912991413600247e-07   2.2176961351292462e-06   5.1411963640905474e-05
-2.80865625354928e-05   3.311464232835966e-06   4.942070416814924e-06
-2.80865625354928e-05   3.311464232835966e-06   4.942070416814924e-06
-2.80865625354928e-05   3.311464232835966e-06   4.942070416814924e-06
-2.80865625354928e-05   3.311464232835966e-06   4.942070416814924e-06
-2.932113667317339e-05   1.7779844932166652e-06   5.25606715128617e-05
-2.932113667317339e-05   1.7779844932166652e-06   5.25606715128617e-05
-2.932113667317339e-05   1.7779844932166652e-06   5.25606715128617e-05
-2.932113667317339e-05   1.7779844932166652e-06   5.25606715128617e-05
-9.739175205121281e-07   2.732344395526068e-06   4.742690317040716e-06
-9.739175205121281e-07   2.732344395526068e-06   4.742690317040716e-06
-9.739175205121281e-07   2.732344395526068e-06   4.742690317040716e-06
-9.739175205121281e-07   2.732344395526068e-06   4.742690317040716e-06
-1.4483524553612749e-05   2.7259890243978326e-06   2.726251526155197e-05
-1.4483524553612749e-05   2.7259890243978326e-06   2.726251526155197e-05
-1.4483524553612749e-05   2.7259890243978326e-06   2.726251526155197e-05
-1.4483524553612749e-05   2.7259890243978326e-06   2.726251526155197e-05
-9.739175205121552e-07   1.7779844932166652e-06   5.1988055571476014e-05
-9.739175205121552e-07   1.7779844932166652e-06   5.1988055571476014e-05
-9.739175205121552e-07   1.7779844932166652e-06   5.1988055571476014e-05
-9.739175205121552e-07   1.7779844932166652e-06   5.1988055571476014e-05
-2.9321136673173443e-05   2.732344395526068e-06   5.315306258426482e-06
-2.9321136673173443e-05   2.732344395526068e-06   5.315306258426482e-06
-2.9321136673173443e-05   2.732344395526068e-06   5.315306258426482e-06
-2.9321136673173443e-05   2.732344395526068e-06   5.315306258426482e-06
-3.059518095267639e-05   1.4611332139541008e-06   5.33431954891177e-05
-3.059518095267639e-05   1.4611332139541008e-06   5.33431954891177e-05
-3.059518095267639e-05   1.4611332139541008e-06   5.33431954891177e-05
-3.059518095267639e-05   1.4611332139541008e-06   5.33431954891177e-05
-2.184727014861986e-06   2.2168299047362755e-06   5.539020911624282e-06
-2.184727014861986e-06   2.2168299047362755e-06   5.539020911624282e-06
-2.184727014861986e-06   2.2168299047362755e-06   5.539020911624282e-06
-2.184727014861986e-06   2.2168299047362755e-06   5.539020911624282e-06
-1.5658793225295484e-05   2.399519864680101e-06   2.7886183953048185e-05
-1.5658793225295484e-05   2.399519864680101e-06   2.7886183953048185e-05
-1.5658793225295484e-05   2.399519864680101e-06   2.7886183953048185e-05
-1.5658793225295484e-05   2.399519864680101e-06   2.7886183953048185e-05
-2.6917541605639216e-05   8.768369601688808e-06   4.479887149516572e-05
-2.6917541605639216e-05   8.768369601688808e-06   4.479887149516572e-05
-2.6917541605639216e-05   8.768369601688808e-06   4.479887149516572e-05
-2.6917541605639216e-05   8.768369601688808e-06   4.479887149516572e-05
-5.4249493931302165e-05   8.879239577589803e-06   -6.878603953986741e-07
-5.4249493931302165e-05   8.879239577589803e-06   -6.878603953986741e-07
-5.4249493931302165e-05   8.879239577589803e-06   -6.878603953986741e-07
-5.4249493931302165e-05   8.879239577589803e-06   -6.878603953986741e-07
-5.5606707971226764e-05   8.294537185003347e-06   4.5583286041387706e-05
-5.5606707971226764e-05   8.294537185003347e-06   4.5583286041387706e-05
-5.5606707971226764e-05   8.294537185003347e-06   4.5583286041387706e-05
-5.5606707971226764e-05   8.294537185003347e-06   4.5583286041387706e-05
-2.808656253549288e-05   8.309311095732255e-06   -2.9248736460591026e-07
-2.808656253549288e-05   8.309311095732255e-06   -2.9248736460591026e-07
-2.808656253549288e-05   8.309311095732255e-06   -2.9248736460591026e-07
-2.808656253549288e-05   8.309311095732255e-06   -2.9248736460591026e-07
-4.103087398188627e-05   8.542768830346013e-06   2.1141290405281548e-05
-4.103087398188627e-05   8.542768830346013e-06   2.1141290405281548e-05
-4.103087398188627e-05   8.542768830346013e-06   2.1141290405281548e-05
-4.103087398188627e-05   8.542768830346013e-06   2.1141290405281548e-05
-2.808656253549288e-05   8.294537185003347e-06   4.557442169495049e-05
-2.808656253549288e-05   8.294537185003347e-06   4.557442169495049e-05
-2.808656253549288e-05   8.294537185003347e-06   4.557442169495049e-05
-2.808656253549288e-05   8.294537185003347e-06   4.557442169495049e-05
-5.560670797122668e-05   8.309311095732255e-06   -2.8362301816853286e-07
-5.560670797122668e-05   8.309311095732255e-06   -2.8362301816853286e-07
-5.560670797122668e-05   8.309311095732255e-06   -2.8362301816853286e-07
-5.560670797122668e-05   8.309311095732255e-06   -2.8362301816853286e-07
-5.711115327407764e-05   7.856581656473516e-06   4.7701881871532867e-05
-5.711115327407764e-05   7.856581656473516e-06   4.7701881871532867e-05
-5.711115327407764e-05   7.856581656473516e-06   4.7701881871532867e-05
-5.711115327407764e-05   7.856581656473516e-06   4.7701881871532867e-05
-2.9321136673173443e-05   7.784259213038883e-06   1.4285810027531653e-06
-2.9321136673173443e-05   7.784259213038883e-06   1.4285810027531653e-06
-2.9321136673173443e-05   7.784259213038883e-06   1.4285810027531653e-06
-2.9321136673173443e-05   7.784259213038883e-06   1.4285810027531653e-06
-4.201285709008616e-05   8.220662860393066e-06   2.231960617586203e-05
-4.201285709008616e-05   8.220662860393066e-06   2.231960617586203e-05
-4.201285709008616e-05   8.220662860393066e-06   2.231960617586203e-05
-4.201285709008616e-05   8.220662860393066e-06   2.231960617586203e-05
-2.9321136673173443e-05   7.856581656473516e-06   4.77452753375933e-05
-2.9321136673173443e-05   7.856581656473516e-06   4.77452753375933e-05
-2.9321136673173443e-05   7.856581656473516e-06   4.77452753375933e-05
-2.9321136673173443e-05   7.856581656473516e-06   4.77452753375933e-05
-5.71111532740775e-05   7.784259213038883e-06   1.3851875366925701e-06
-5.71111532740775e-05   7.784259213038883e-06   1.3851875366925701e-06
-5.71111532740775e-05   7.784259213038883e-06   1.3851875366925701e-06
-5.71111532740775e-05   7.784259213038883e-06   1.3851875366925701e-06
-5.854508851181362e-05   7.268139888617128e-06   4.923282175206718e-05
-5.854508851181362e-05   7.268139888617128e-06   4.923282175206718e-05
-5.854508851181362e-05   7.268139888617128e-06   4.923282175206718e-05
-5.854508851181362e-05   7.268139888617128e-06   4.923282175206718e-05
-3.0595180952676496e-05   7.143373764193026e-06   2.7245021614930617e-06
-3.0595180952676496e-05   7.143373764193026e-06   2.7245021614930617e-06
-3.0595180952676496e-05   7.143373764193026e-06   2.7245021614930617e-06
-3.0595180952676496e-05   7.143373764193026e-06   2.7245021614930617e-06
-4.357339194733289e-05   7.802758770273505e-06   2.395922281560759e-05
-4.357339194733289e-05   7.802758770273505e-06   2.395922281560759e-05
-4.357339194733289e-05   7.802758770273505e-06   2.395922281560759e-05
-4.357339194733289e-05   7.802758770273505e-06   2.395922281560759e-05
-5.4249493931302084e-05   1.4260198949922389e-05   2.1526251558609674e-05
-5.4249493931302084e-05   1.4260198949922389e-05   2.1526251558609674e-05
-5.4249493931302084e-05   1.4260198949922389e-05   2.1526251558609674e-05
-5.4249493931302084e-05   1.4260198949922389e-05   2.1526251558609674e-05
-8.021204839218807e-05   1.2779750077566987e-05   -2.263294186628036e-05
-8.021204839218807e-05   1.2779750077566987e-05   -2.263294186628036e-05
-8.021204839218807e-05   1.2779750077566987e-05   -2.263294186628036e-05
-8.021204839218807e-05   1.2779750077566987e-05   -2.263294186628036e-05
-8.234925404288835e-05   1.4532402175833261e-05   2.9844026201659123e-05
-8.234925404288835e-05   1.4532402175833261e-05   2.9844026201659123e-05
-8.234925404288835e-05   1.4532402175833261e-05   2.9844026201659123e-05
-8.234925404288835e-05   1.4532402175833261e-05   2.9844026201659123e-05
-5.5606707971226764e-05   1.2913919226202782e-05   -1.375579414799867e-05
-5.5606707971226764e-05   1.2913919226202782e-05   -1.375579414799867e-05
-5.5606707971226764e-05   1.2913919226202782e-05   -1.375579414799867e-05
-5.5606707971226764e-05   1.2913919226202782e-05   -1.375579414799867e-05
-6.549683162490476e-05   1.354293953711224e-05   2.3503330882523226e-06
-6.549683162490476e-05   1.354293953711224e-05   2.3503330882523226e-06
-6.549683162490476e-05   1.354293953711224e-05   2.3503330882523226e-06
-6.549683162490476e-05   1.354293953711224e-05   2.3503330882523226e-06
-5.5606707971226656e-05   1.4532402175833261e-05   3.081511597143754e-05
-5.5606707971226656e-05   1.4532402175833261e-05   3.081511597143754e-05
-5.5606707971226656e-05   1.4532402175833261e-05   3.081511597143754e-05
-5.5606707971226656e-05   1.4532402175833261e-05   3.081511597143754e-05
-8.234925404288862e-05   1.2913919226202782e-05   -1.4726883917777142e-05
-8.234925404288862e-05   1.2913919226202782e-05   -1.4726883917777142e-05
-8.234925404288862e-05   1.2913919226202782e-05   -1.4726883917777142e-05
-8.234925404288862e-05   1.2913919226202782e-05   -1.4726883917777142e-05
-8.443645704846994e-05   1.442726265009223e-05   3.632432114242029e-05
-8.443645704846994e-05   1.442726265009223e-05   3.632432114242029e-05
-8.443645704846994e-05   1.442726265009223e-05   3.632432114242029e-05
-8.443645704846994e-05   1.442726265009223e-05   3.632432114242029e-05
-5.711115327407764e-05   1.2771398903416338e-05   -8.22433356689517e-06
-5.711115327407764e-05   1.2771398903416338e-05   -8.22433356689517e-06
-5.711115327407764e-05   1.2771398903416338e-05   -8.22433356689517e-06
-5.711115327407764e-05   1.2771398903416338e-05   -8.22433356689517e-06
-6.812034341849608e-05   1.378961702391433e-05   9.513385801504406e-06
-6.812034341849608e-05   1.378961702391433e-05   9.513385801504406e-06
-6.812034341849608e-05   1.378961702391433e-05   9.513385801504406e-06
-6.812034341849608e-05   1.378961702391433e-05   9.513385801504406e-06
-5.711115327407764e-05   1.442726265009223e-05   3.7317839390426126e-05
-5.711115327407764e-05   1.442726265009223e-05   3.7317839390426126e-05
-5.711115327407764e-05   1.442726265009223e-05   3.7317839390426126e-05
-5.711115327407764e-05   1.442726265009223e-05   3.7317839390426126e-05
-8.443645704847021e-05   1.2771398903416338e-05   -9.217851814900683e-06
-8.443645704847021e-05   1.2771398903416338e-05   -9.217851814900683e-06
-8.443645704847021e-05   1.2771398903416338e-05   -9.217851814900683e-06
-8.443645704847021e-05   1.2771398903416338e-05   -9.217851814900683e-06
-8.687439264280073e-05   1.3279926367553568e-05   4.7428338543273676e-05
-8.687439264280073e-05   1.3279926367553568e-05   4.7428338543273676e-05
-8.687439264280073e-05   1.3279926367553568e-05   4.7428338543273676e-05
-8.687439264280073e-05   1.3279926367553568e-05   4.7428338543273676e-05
-5.854508851181362e-05   1.1785638410137089e-05   1.1094044327449493e-06
-5.854508851181362e-05   1.1785638410137089e-05   1.1094044327449493e-06
-5.854508851181362e-05   1.1785638410137089e-05   1.1094044327449493e-06
-5.854508851181362e-05   1.1785638410137089e-05   1.1094044327449493e-06
-6.879021269924945e-05   1.3383009749559725e-05   1.7226188608152277e-05
-6.879021269924945e-05   1.3383009749559725e-05   1.7226188608152277e-05
-6.879021269924945e-05   1.3383009749559725e-05   1.7226188608152277e-05
-6.879021269924945e-05   1.3383009749559725e-05   1.7226188608152277e-05
4.654905851601156e-05   -6.290580352408433e-06   3.953074390939792e-05
4.654905851601156e-05   -6.290580352408433e-06   3.953074390939792e-05
4.654905851601156e-05   -6.290580352408433e-06   3.953074390939792e-05
4.654905851601156e-05   -6.290580352408433e-06   3.953074390939792e-05
2.1917074709374775e-05   -4.153298271959878e-06   -2.4019318672777526e-07
2.1917074709374775e-05   -4.153298271959878e-06   -2.4019318672777526e-07
2.1917074709374775e-05   -4.153298271959878e-06   -2.4019318672777526e-07
2.1917074709374775e-05   -4.153298271959878e-06   -2.4019318672777526e-07
2.0876186050208607e-05   -7.300113153075032e-06   3.4737611782321596e-05
2.0876186050208607e-05   -7.300113153075032e-06   3.4737611782321596e-05
2.0876186050208607e-05   -7.300113153075032e-06   3.4737611782321596e-05
2.0876186050208607e-05   -7.300113153075032e-06   3.4737611782321596e-05
4.4535398183550585e-05   -5.042489906194412e-06   -6.0489823880431e-06
4.4535398183550585e-05   -5.042489906194412e-06   -6.0489823880431e-06
4.4535398183550585e-05   -5.042489906194412e-06   -6.0489823880431e-06
4.4535398183550585e-05   -5.042489906194412e-06   -6.0489823880431e-06
3.1894869278002976e-05   -5.740309622229503e-06   1.5437257617490797e-05
3.1894869278002976e-05   -5.740309622229503e-06   1.5437257617490797e-05
3.1894869278002976e-05   -5.740309622229503e-06   1.5437257617490797e-05
3.1894869278002976e-05   -5.740309622229503e-06   1.5437257617490797e-05
4.4535398183550585e-05   -7.3001131530745986e-06   3.338303783419357e-05
4.4535398183550585e-05   -7.3001131530745986e-06   3.338303783419357e-05
4.4535398183550585e-05   -7.3001131530745986e-06   3.338303783419357e-05
4.4535398183550585e-05   -7.3001131530745986e-06   3.338303783419357e-05
2.0876186050208654e-05   -5.042489906194412e-06   -4.694408439914668e-06
2.0876186050208654e-05   -5.042489906194412e-06   -4.694408439914668e-06
2.0876186050208654e-05   -5.042489906194412e-06   -4.694408439914668e-06
2.0876186050208654e-05   -5.042489906194412e-06   -4.694408439914668e-06
1.972754659326207e-05   -7.503171871927131e-06   3.1368048485260445e-05
1.972754659326207e-05   -7.503171871927131e-06   3.1368048485260445e-05
1.972754659326207e-05   -7.503171871927131e-06   3.1368048485260445e-05
1.972754659326207e-05   -7.503171871927131e-06   3.1368048485260445e-05
4.277095253499673e-05   -5.280264110767412e-06   -8.371372740992794e-06
4.277095253499673e-05   -5.280264110767412e-06   -8.371372740992794e-06
4.277095253499673e-05   -5.280264110767412e-06   -8.371372740992794e-06
4.277095253499673e-05   -5.280264110767412e-06   -8.371372740992794e-06
3.105872588066073e-05   -6.100948892873333e-06   1.164141588549765e-05
3.105872588066073e-05   -6.100948892873333e-06   1.164141588549765e-05
3.105872588066073e-05   -6.100948892873333e-06   1.164141588549765e-05
3.105872588066073e-05   -6.100948892873333e-06   1.164141588549765e-05
4.2770952534996665e-05   -7.503171871926697e-06   3.0034303828564918e-05
4.2770952534996665e-05   -7.503171871926697e-06   3.0034303828564918e-05
4.2770952534996665e-05   -7.503171871926697e-06   3.0034303828564918e-05
4.2770952534996665e-05   -7.503171871926697e-06   3.0034303828564918e-05
1.9727546593262103e-05   -5.280264110767412e-06   -7.0376280842973475e-06
1.9727546593262103e-05   -5.280264110767412e-06   -7.0376280842973475e-06
1.9727546593262103e-05   -5.280264110767412e-06   -7.0376280842973475e-06
1.9727546593262103e-05   -5.280264110767412e-06   -7.0376280842973475e-06
1.866707248317957e-05   -7.586515260273648e-06   2.680662838078023e-05
1.866707248317957e-05   -7.586515260273648e-06   2.680662838078023e-05
1.866707248317957e-05   -7.586515260273648e-06   2.680662838078023e-05
1.866707248317957e-05   -7.586515260273648e-06   2.680662838078023e-05
4.080000590084085e-05   -5.503533658353637e-06   -1.1331382943140648e-05
4.080000590084085e-05   -5.503533658353637e-06   -1.1331382943140648e-05
4.080000590084085e-05   -5.503533658353637e-06   -1.1331382943140648e-05
4.080000590084085e-05   -5.503533658353637e-06   -1.1331382943140648e-05
2.9218534056181847e-05   -6.066577403401885e-06   8.308896378321018e-06
2.9218534056181847e-05   -6.066577403401885e-06   8.308896378321018e-06
2.9218534056181847e-05   -6.066577403401885e-06   8.308896378321018e-06
2.9218534056181847e-05   -6.066577403401885e-06   8.308896378321018e-06
2.19170747093747e-05   -1.2026937703359455e-06   4.4974772794337996e-05
2.19170747093747e-05   -1.2026937703359455e-06   4.4974772794337996e-05
2.19170747093747e-05   -1.2026937703359455e-06   4.4974772794337996e-05
2.19170747093747e-05   -1.2026937703359455e-06   4.4974772794337996e-05
-1.3992259905284466e-06   -1.9157022909839505e-08   6.824393676288726e-06
-1.3992259905284466e-06   -1.9157022909839505e-08   6.824393676288726e-06
-1.3992259905284466e-06   -1.9157022909839505e-08   6.824393676288726e-06
-1.3992259905284466e-06   -1.9157022909839505e-08   6.824393676288726e-06
-2.377667718010272e-06   -1.9188590539417558e-06   4.505544099750003e-05
-2.377667718010272e-06   -1.9188590539417558e-06   4.505544099750003e-05
-2.377667718010272e-06   -1.9188590539417558e-06   4.505544099750003e-05
-2.377667718010272e-06   -1.9188590539417558e-06   4.505544099750003e-05
2.0876186050208654e-05   -7.930040923278397e-07   5.623505073500571e-06
2.0876186050208654e-05   -7.930040923278397e-07   5.623505073500571e-06
2.0876186050208654e-05   -7.930040923278397e-07   5.623505073500571e-06
2.0876186050208654e-05   -7.930040923278397e-07   5.623505073500571e-06
9.596147471036804e-06   -1.0114528410441574e-06   2.4554638621349795e-05
9.596147471036804e-06   -1.0114528410441574e-06   2.4554638621349795e-05
9.596147471036804e-06   -1.0114528410441574e-06   2.4554638621349795e-05
9.596147471036804e-06   -1.0114528410441574e-06   2.4554638621349795e-05
2.0876186050208593e-05   -1.9188590539417558e-06   4.4379928020532155e-05
2.0876186050208593e-05   -1.9188590539417558e-06   4.4379928020532155e-05
2.0876186050208593e-05   -1.9188590539417558e-06   4.4379928020532155e-05
2.0876186050208593e-05   -1.9188590539417558e-06   4.4379928020532155e-05
-2.377667718010272e-06   -7.930040923278397e-07   6.299018050468647e-06
-2.377667718010272e-06   -7.930040923278397e-07   6.299018050468647e-06
-2.377667718010272e-06   -7.930040923278397e-07   6.299018050468647e-06
-2.377667718010272e-06   -7.930040923278397e-07   6.299018050468647e-06
-3.3768700701163534e-06   -2.451258290504972e-06   4.4379516907703696e-05
-3.3768700701163534e-06   -2.451258290504972e-06   4.4379516907703696e-05
-3.3768700701163534e-06   -2.451258290504972e-06   4.4379516907703696e-05
-3.3768700701163534e-06   -2.451258290504972e-06   4.4379516907703696e-05
1.9727546593262103e-05   -1.4033924620121888e-06   5.243436304977191e-06
1.9727546593262103e-05   -1.4033924620121888e-06   5.243436304977191e-06
1.9727546593262103e-05   -1.4033924620121888e-06   5.243436304977191e-06
1.9727546593262103e-05   -1.4033924620121888e-06   5.243436304977191e-06
8.499041288441813e-06   -1.4892437617893169e-06   2.400912259287863e-05
8.499041288441813e-06   -1.4892437617893169e-06   2.400912259287863e-05
8.499041288441813e-06   -1.4892437617893169e-06   2.400912259287863e-05
8.499041288441813e-06   -1.4892437617893169e-06   2.400912259287863e-05
1.972754659326207e-05   -2.4512582905054058e-06   4.375079741060798e-05
1.972754659326207e-05   -2.4512582905054058e-06   4.375079741060798e-05
1.972754659326207e-05   -2.4512582905054058e-06   4.375079741060798e-05
1.972754659326207e-05   -2.4512582905054058e-06   4.375079741060798e-05
-3.3768700701163534e-06   -1.4033924620121888e-06   5.872155802072931e-06
-3.3768700701163534e-06   -1.4033924620121888e-06   5.872155802072931e-06
-3.3768700701163534e-06   -1.4033924620121888e-06   5.872155802072931e-06
-3.3768700701163534e-06   -1.4033924620121888e-06   5.872155802072931e-06
-4.3814584458127224e-06   -2.8717203267932152e-06   4.469107789212756e-05
-4.3814584458127224e-06   -2.8717203267932152e-06   4.469107789212756e-05
-4.3814584458127224e-06   -2.8717203267932152e-06   4.469107789212756e-05
-4.3814584458127224e-06   -2.8717203267932152e-06   4.469107789212756e-05
1.8667072483179583e-05   -1.9692008045258877e-06   5.7353479637801025e-06
1.8667072483179583e-05   -1.9692008045258877e-06   5.7353479637801025e-06
1.8667072483179583e-05   -1.9692008045258877e-06   5.7353479637801025e-06
1.8667072483179583e-05   -1.9692008045258877e-06   5.7353479637801025e-06
7.660622282610238e-06   -1.843417265397218e-06   2.4003961507919054e-05
7.660622282610238e-06   -1.843417265397218e-06   2.4003961507919054e-05
7.660622282610238e-06   -1.843417265397218e-06   2.4003961507919054e-05
7.660622282610238e-06   -1.843417265397218e-06   2.4003961507919054e-05
-1.3992259905284466e-06   3.9078593841732415e-06   4.7619875143178675e-05
-1.3992259905284466e-06   3.9078593841732415e-06   4.7619875143178675e-05
-1.3992259905284466e-06   3.9078593841732415e-06   4.7619875143178675e-05
-1.3992259905284466e-06   3.9078593841732415e-06   4.7619875143178675e-05
-2.4226398124332866e-05   4.021453539365671e-06   9.642744746620304e-06
-2.4226398124332866e-05   4.021453539365671e-06   9.642744746620304e-06
-2.4226398124332866e-05   4.021453539365671e-06   9.642744746620304e-06
-2.4226398124332866e-05   4.021453539365671e-06   9.642744746620304e-06
-2.5209968771081146e-05   3.311464232835966e-06   4.7475768552578514e-05
-2.5209968771081146e-05   3.311464232835966e-06   4.7475768552578514e-05
-2.5209968771081146e-05   3.311464232835966e-06   4.7475768552578514e-05
-2.5209968771081146e-05   3.311464232835966e-06   4.7475768552578514e-05
-2.377667718010272e-06   3.3410321704650976e-06   9.404192701549264e-06
-2.377667718010272e-06   3.3410321704650976e-06   9.404192701549264e-06
-2.377667718010272e-06   3.3410321704650976e-06   9.404192701549264e-06
-2.377667718010272e-06   3.3410321704650976e-06   9.404192701549264e-06
-1.33378714578154e-05   3.5820009747010266e-06   2.752661765201671e-05
-1.33378714578154e-05   3.5820009747010266e-06   2.752661765201671e-05
-1.33378714578154e-05   3.5820009747010266e-06   2.752661765201671e-05
-1.33378714578154e-05   3.5820009747010266e-06   2.752661765201671e-05
-2.377667718010272e-06   3.311464232835532e-06   4.745802779000099e-05
-2.377667718010272e-06   3.311464232835532e-06   4.745802779000099e-05
-2.377667718010272e-06   3.311464232835532e-06   4.745802779000099e-05
-2.377667718010272e-06   3.311464232835532e-06   4.745802779000099e-05
-2.5209968771081146e-05   3.3410321704650976e-06   9.421933464127084e-06
-2.5209968771081146e-05   3.3410321704650976e-06   9.421933464127084e-06
-2.5209968771081146e-05   3.3410321704650976e-06   9.421933464127084e-06
-2.5209968771081146e-05   3.3410321704650976e-06   9.421933464127084e-06
-2.6218176228081172e-05   2.732344395526068e-06   4.773663751407196e-05
-2.6218176228081172e-05   2.732344395526068e-06   4.773663751407196e-05
-2.6218176228081172e-05   2.732344395526068e-06   4.773663751407196e-05
-2.6218176228081172e-05   2.732344395526068e-06   4.773663751407196e-05
-3.3768700701163805e-06   2.671388663116111e-06   9.704367356910164e-06
-3.3768700701163805e-06   2.671388663116111e-06   9.704367356910164e-06
-3.3768700701163805e-06   2.671388663116111e-06   9.704367356910164e-06
-3.3768700701163805e-06   2.671388663116111e-06   9.704367356910164e-06
-1.4251206498655994e-05   3.1243138776029106e-06   2.7556506275784728e-05
-1.4251206498655994e-05   3.1243138776029106e-06   2.7556506275784728e-05
-1.4251206498655994e-05   3.1243138776029106e-06   2.7556506275784728e-05
-1.4251206498655994e-05   3.1243138776029106e-06   2.7556506275784728e-05
-3.3768700701163805e-06   2.732344395526068e-06   4.777321095351841e-05
-3.3768700701163805e-06   2.732344395526068e-06   4.777321095351841e-05
-3.3768700701163805e-06   2.732344395526068e-06   4.777321095351841e-05
-3.3768700701163805e-06   2.732344395526068e-06   4.777321095351841e-05
-2.6218176228081172e-05   2.671388663116111e-06   9.667793917463984e-06
-2.6218176228081172e-05   2.671388663116111e-06   9.667793917463984e-06
-2.6218176228081172e-05   2.671388663116111e-06   9.667793917463984e-06
-2.6218176228081172e-05   2.671388663116111e-06   9.667793917463984e-06
-2.7226051163069644e-05   2.2168299047362755e-06   4.8331425998556074e-05
-2.7226051163069644e-05   2.2168299047362755e-06   4.8331425998556074e-05
-2.7226051163069644e-05   2.2168299047362755e-06   4.8331425998556074e-05
-2.7226051163069644e-05   2.2168299047362755e-06   4.8331425998556074e-05
-4.3814584458127224e-06   2.0359177288899015e-06   1.036565210863597e-05
-4.3814584458127224e-06   2.0359177288899015e-06   1.036565210863597e-05
-4.3814584458127224e-06   2.0359177288899015e-06   1.036565210863597e-05
-4.3814584458127224e-06   2.0359177288899015e-06   1.036565210863597e-05
-1.520732199787085e-05   2.6782701912139023e-06   2.802334655133945e-05
-1.520732199787085e-05   2.6782701912139023e-06   2.802334655133945e-05
-1.520732199787085e-05   2.6782701912139023e-06   2.802334655133945e-05
-1.520732199787085e-05   2.6782701912139023e-06   2.802334655133945e-05
-2.422639812433284e-05   8.87923957758937e-06   4.1885379426467645e-05
-2.422639812433284e-05   8.87923957758937e-06   4.1885379426467645e-05
-2.422639812433284e-05   8.87923957758937e-06   4.1885379426467645e-05
-2.422639812433284e-05   8.87923957758937e-06   4.1885379426467645e-05
-4.6545452250416094e-05   7.909208139443569e-06   4.1049370201077726e-06
-4.6545452250416094e-05   7.909208139443569e-06   4.1049370201077726e-06
-4.6545452250416094e-05   7.909208139443569e-06   4.1049370201077726e-06
-4.6545452250416094e-05   7.909208139443569e-06   4.1049370201077726e-06
-4.760367715589864e-05   8.309311095732255e-06   4.160992428585441e-05
-4.760367715589864e-05   8.309311095732255e-06   4.160992428585441e-05
-4.760367715589864e-05   8.309311095732255e-06   4.160992428585441e-05
-4.760367715589864e-05   8.309311095732255e-06   4.160992428585441e-05
-2.52099687710812e-05   7.257166953560015e-06   4.9183634631291915e-06
-2.52099687710812e-05   7.257166953560015e-06   4.9183634631291915e-06
-2.52099687710812e-05   7.257166953560015e-06   4.9183634631291915e-06
-2.52099687710812e-05   7.257166953560015e-06   4.9183634631291915e-06
-3.5777883388604515e-05   7.983745354174683e-06   2.2095607451965652e-05
-3.5777883388604515e-05   7.983745354174683e-06   2.2095607451965652e-05
-3.5777883388604515e-05   7.983745354174683e-06   2.2095607451965652e-05
-3.5777883388604515e-05   7.983745354174683e-06   2.2095607451965652e-05
-2.5209968771081146e-05   8.309311095732689e-06   4.224121077115806e-05
-2.5209968771081146e-05   8.309311095732689e-06   4.224121077115806e-05
-2.5209968771081146e-05   8.309311095732689e-06   4.224121077115806e-05
-2.5209968771081146e-05   8.309311095732689e-06   4.224121077115806e-05
-4.760367715589864e-05   7.257166953560015e-06   4.2870769778255435e-06
-4.760367715589864e-05   7.257166953560015e-06   4.2870769778255435e-06
-4.760367715589864e-05   7.257166953560015e-06   4.2870769778255435e-06
-4.760367715589864e-05   7.257166953560015e-06   4.2870769778255435e-06
-4.876881363893241e-05   7.784259213038883e-06   4.316936192043505e-05
-4.876881363893241e-05   7.784259213038883e-06   4.316936192043505e-05
-4.876881363893241e-05   7.784259213038883e-06   4.316936192043505e-05
-4.876881363893241e-05   7.784259213038883e-06   4.316936192043505e-05
-2.6218176228081253e-05   6.650008649765771e-06   6.265516573646904e-06
-2.6218176228081253e-05   6.650008649765771e-06   6.265516573646904e-06
-2.6218176228081253e-05   6.650008649765771e-06   6.265516573646904e-06
-2.6218176228081253e-05   6.650008649765771e-06   6.265516573646904e-06
-3.653832597289277e-05   7.567285467356775e-06   2.29154000577792e-05
-3.653832597289277e-05   7.567285467356775e-06   2.29154000577792e-05
-3.653832597289277e-05   7.567285467356775e-06   2.29154000577792e-05
-3.653832597289277e-05   7.567285467356775e-06   2.29154000577792e-05
-2.62181762280812e-05   7.784259213038883e-06   4.384991225839913e-05
-2.62181762280812e-05   7.784259213038883e-06   4.384991225839913e-05
-2.62181762280812e-05   7.784259213038883e-06   4.384991225839913e-05
-2.62181762280812e-05   7.784259213038883e-06   4.384991225839913e-05
-4.876881363893241e-05   6.650008649765771e-06   5.584966235682928e-06
-4.876881363893241e-05   6.650008649765771e-06   5.584966235682928e-06
-4.876881363893241e-05   6.650008649765771e-06   5.584966235682928e-06
-4.876881363893241e-05   6.650008649765771e-06   5.584966235682928e-06
-4.983439498362351e-05   7.143373764193026e-06   4.434345677645094e-05
-4.983439498362351e-05   7.143373764193026e-06   4.434345677645094e-05
-4.983439498362351e-05   7.143373764193026e-06   4.434345677645094e-05
-4.983439498362351e-05   7.143373764193026e-06   4.434345677645094e-05
-2.7226051163069725e-05   5.943319668351259e-06   7.3829161996995e-06
-2.7226051163069725e-05   5.943319668351259e-06   7.3829161996995e-06
-2.7226051163069725e-05   5.943319668351259e-06   7.3829161996995e-06
-2.7226051163069725e-05   5.943319668351259e-06   7.3829161996995e-06
-3.774651043980811e-05   7.0979503479823465e-06   2.422423658648661e-05
-3.774651043980811e-05   7.0979503479823465e-06   2.422423658648661e-05
-3.774651043980811e-05   7.0979503479823465e-06   2.422423658648661e-05
-3.774651043980811e-05   7.0979503479823465e-06   2.422423658648661e-05
-4.6545452250416094e-05   1.2779750077566987e-05   2.0246548416111374e-05
-4.6545452250416094e-05   1.2779750077566987e-05   2.0246548416111374e-05
-4.6545452250416094e-05   1.2779750077566987e-05   2.0246548416111374e-05
-4.6545452250416094e-05   1.2779750077566987e-05   2.0246548416111374e-05
-6.773047468940064e-05   1.0895047413970235e-05   -1.6192643913687612e-05
-6.773047468940064e-05   1.0895047413970235e-05   -1.6192643913687612e-05
-6.773047468940064e-05   1.0895047413970235e-05   -1.6192643913687612e-05
-6.773047468940064e-05   1.0895047413970235e-05   -1.6192643913687612e-05
-6.963182955656814e-05   1.2913919226202348e-05   2.6892833202789464e-05
-6.963182955656814e-05   1.2913919226202348e-05   2.6892833202789464e-05
-6.963182955656814e-05   1.2913919226202348e-05   2.6892833202789464e-05
-6.963182955656814e-05   1.2913919226202348e-05   2.6892833202789464e-05
-4.760367715589864e-05   1.0839052637478044e-05   -8.575834178425478e-06
-4.760367715589864e-05   1.0839052637478044e-05   -8.575834178425478e-06
-4.760367715589864e-05   1.0839052637478044e-05   -8.575834178425478e-06
-4.760367715589864e-05   1.0839052637478044e-05   -8.575834178425478e-06
-5.567609434668956e-05   1.1683887094109287e-05   4.371293798914426e-06
-5.567609434668956e-05   1.1683887094109287e-05   4.371293798914426e-06
-5.567609434668956e-05   1.1683887094109287e-05   4.371293798914426e-06
-5.567609434668956e-05   1.1683887094109287e-05   4.371293798914426e-06
-4.7603677155898586e-05   1.2913919226202348e-05   2.8137753156024436e-05
-4.7603677155898586e-05   1.2913919226202348e-05   2.8137753156024436e-05
-4.7603677155898586e-05   1.2913919226202348e-05   2.8137753156024436e-05
-4.7603677155898586e-05   1.2913919226202348e-05   2.8137753156024436e-05
-6.963182955656825e-05   1.0839052637478044e-05   -9.820754131659908e-06
-6.963182955656825e-05   1.0839052637478044e-05   -9.820754131659908e-06
-6.963182955656825e-05   1.0839052637478044e-05   -9.820754131659908e-06
-6.963182955656825e-05   1.0839052637478044e-05   -9.820754131659908e-06
-7.133464852604319e-05   1.2771398903415904e-05   3.2267602640688106e-05
-7.133464852604319e-05   1.2771398903415904e-05   3.2267602640688106e-05
-7.133464852604319e-05   1.2771398903415904e-05   3.2267602640688106e-05
-7.133464852604319e-05   1.2771398903415904e-05   3.2267602640688106e-05
-4.876881363893241e-05   1.0617668609817776e-05   -4.049883995004369e-06
-4.876881363893241e-05   1.0617668609817776e-05   -4.049883995004369e-06
-4.876881363893241e-05   1.0617668609817776e-05   -4.049883995004369e-06
-4.876881363893241e-05   1.0617668609817776e-05   -4.049883995004369e-06
-5.7859302600983987e-05   1.1812366302067605e-05   1.0384112326400786e-05
-5.7859302600983987e-05   1.1812366302067605e-05   1.0384112326400786e-05
-5.7859302600983987e-05   1.1812366302067605e-05   1.0384112326400786e-05
-5.7859302600983987e-05   1.1812366302067605e-05   1.0384112326400786e-05
-4.876881363893241e-05   1.2771398903416338e-05   3.3559840816847417e-05
-4.876881363893241e-05   1.2771398903416338e-05   3.3559840816847417e-05
-4.876881363893241e-05   1.2771398903416338e-05   3.3559840816847417e-05
-4.876881363893241e-05   1.2771398903416338e-05   3.3559840816847417e-05
-7.13346485260433e-05   1.0617668609817776e-05   -5.342122171163354e-06
-7.13346485260433e-05   1.0617668609817776e-05   -5.342122171163354e-06
-7.13346485260433e-05   1.0617668609817776e-05   -5.342122171163354e-06
-7.13346485260433e-05   1.0617668609817776e-05   -5.342122171163354e-06
-7.329169101976215e-05   1.1785638410137089e-05   4.151722555826784e-05
-7.329169101976215e-05   1.1785638410137089e-05   4.151722555826784e-05
-7.329169101976215e-05   1.1785638410137089e-05   4.151722555826784e-05
-7.329169101976215e-05   1.1785638410137089e-05   4.151722555826784e-05
-4.983439498362351e-05   9.642316469988914e-06   3.7077253287924e-06
-4.983439498362351e-05   9.642316469988914e-06   3.7077253287924e-06
-4.983439498362351e-05   9.642316469988914e-06   3.7077253287924e-06
-4.983439498362351e-05   9.642316469988914e-06   3.7077253287924e-06
-5.8329692248455095e-05   1.1408116827705574e-05   1.680707388888262e-05
-5.8329692248455095e-05   1.1408116827705574e-05   1.680707388888262e-05
-5.8329692248455095e-05   1.1408116827705574e-05   1.680707388888262e-05
-5.8329692248455095e-05   1.1408116827705574e-05   1.680707388888262e-05
3.2039820019099474e-05   -4.153298271960312e-06   3.215969192510806e-05
3.2039820019099474e-05   -4.153298271960312e-06   3.215969192510806e-05
3.2039820019099474e-05   -4.153298271960312e-06   3.215969192510806e-05
3.2039820019099474e-05   -4.153298271960312e-06   3.215969192510806e-05
1.3292617264352039e-05   -2.0371648110388205e-06   2.184034077081995e-06
1.3292617264352039e-05   -2.0371648110388205e-06   2.184034077081995e-06
1.3292617264352039e-05   -2.0371648110388205e-06   2.184034077081995e-06
1.3292617264352039e-05   -2.0371648110388205e-06   2.184034077081995e-06
1.2455854891214848e-05   -5.042489906194412e-06   2.8918046625165707e-05
1.2455854891214848e-05   -5.042489906194412e-06   2.8918046625165707e-05
1.2455854891214848e-05   -5.042489906194412e-06   2.8918046625165707e-05
1.2455854891214848e-05   -5.042489906194412e-06   2.8918046625165707e-05
3.0259215377322384e-05   -2.831957463621422e-06   -2.0805403172239126e-06
3.0259215377322384e-05   -2.831957463621422e-06   -2.0805403172239126e-06
3.0259215377322384e-05   -2.831957463621422e-06   -2.0805403172239126e-06
3.0259215377322384e-05   -2.831957463621422e-06   -2.0805403172239126e-06
2.0916470286697478e-05   -3.601023037751172e-06   1.3952140844962773e-05
2.0916470286697478e-05   -3.601023037751172e-06   1.3952140844962773e-05
2.0916470286697478e-05   -3.601023037751172e-06   1.3952140844962773e-05
2.0916470286697478e-05   -3.601023037751172e-06   1.3952140844962773e-05
3.025921537732243e-05   -5.042489906194412e-06   2.7591727159622216e-05
3.025921537732243e-05   -5.042489906194412e-06   2.7591727159622216e-05
3.025921537732243e-05   -5.042489906194412e-06   2.7591727159622216e-05
3.025921537732243e-05   -5.042489906194412e-06   2.7591727159622216e-05
1.24558548912148e-05   -2.831957463621422e-06   -7.542208516802054e-07
1.24558548912148e-05   -2.831957463621422e-06   -7.542208516802054e-07
1.24558548912148e-05   -2.831957463621422e-06   -7.542208516802054e-07
1.24558548912148e-05   -2.831957463621422e-06   -7.542208516802054e-07
1.1516333255108293e-05   -5.280264110767412e-06   2.651026129662213e-05
1.1516333255108293e-05   -5.280264110767412e-06   2.651026129662213e-05
1.1516333255108293e-05   -5.280264110767412e-06   2.651026129662213e-05
1.1516333255108293e-05   -5.280264110767412e-06   2.651026129662213e-05
2.8730979808918e-05   -3.105878025264682e-06   -3.4854479443622514e-06
2.8730979808918e-05   -3.105878025264682e-06   -3.4854479443622514e-06
2.8730979808918e-05   -3.105878025264682e-06   -3.4854479443622514e-06
2.8730979808918e-05   -3.105878025264682e-06   -3.4854479443622514e-06
2.012293090427346e-05   -3.9380335278079055e-06   1.1360593531571845e-05
2.012293090427346e-05   -3.9380335278079055e-06   1.1360593531571845e-05
2.012293090427346e-05   -3.9380335278079055e-06   1.1360593531571845e-05
2.012293090427346e-05   -3.9380335278079055e-06   1.1360593531571845e-05
2.8730979808918053e-05   -5.280264110767412e-06   2.5205629645320407e-05
2.8730979808918053e-05   -5.280264110767412e-06   2.5205629645320407e-05
2.8730979808918053e-05   -5.280264110767412e-06   2.5205629645320407e-05
2.8730979808918053e-05   -5.280264110767412e-06   2.5205629645320407e-05
1.1516333255108279e-05   -3.105878025264682e-06   -2.1808162930603368e-06
1.1516333255108279e-05   -3.105878025264682e-06   -2.1808162930603368e-06
1.1516333255108279e-05   -3.105878025264682e-06   -2.1808162930603368e-06
1.1516333255108279e-05   -3.105878025264682e-06   -2.1808162930603368e-06
1.067426968528135e-05   -5.503533658353637e-06   2.338604662367413e-05
1.067426968528135e-05   -5.503533658353637e-06   2.338604662367413e-05
1.067426968528135e-05   -5.503533658353637e-06   2.338604662367413e-05
1.067426968528135e-05   -5.503533658353637e-06   2.338604662367413e-05
2.699813404223162e-05   -3.4689885979721086e-06   -5.041121007471602e-06
2.699813404223162e-05   -3.4689885979721086e-06   -5.041121007471602e-06
2.699813404223162e-05   -3.4689885979721086e-06   -5.041121007471602e-06
2.699813404223162e-05   -3.4689885979721086e-06   -5.041121007471602e-06
1.8657382556230114e-05   -4.00476753907239e-06   9.181598833857751e-06
1.8657382556230114e-05   -4.00476753907239e-06   9.181598833857751e-06
1.8657382556230114e-05   -4.00476753907239e-06   9.181598833857751e-06
1.8657382556230114e-05   -4.00476753907239e-06   9.181598833857751e-06
1.3292617264352087e-05   -1.9157022909405824e-08   3.978383681622162e-05
1.3292617264352087e-05   -1.9157022909405824e-08   3.978383681622162e-05
1.3292617264352087e-05   -1.9157022909405824e-08   3.978383681622162e-05
1.3292617264352087e-05   -1.9157022909405824e-08   3.978383681622162e-05
-4.302171887114866e-06   1.0542961686810584e-06   1.1103260145397783e-05
-4.302171887114866e-06   1.0542961686810584e-06   1.1103260145397783e-05
-4.302171887114866e-06   1.0542961686810584e-06   1.1103260145397783e-05
-4.302171887114866e-06   1.0542961686810584e-06   1.1103260145397783e-05
-5.0709155630616215e-06   -7.930040923278397e-07   3.986123657513576e-05
-5.0709155630616215e-06   -7.930040923278397e-07   3.986123657513576e-05
-5.0709155630616215e-06   -7.930040923278397e-07   3.986123657513576e-05
-5.0709155630616215e-06   -7.930040923278397e-07   3.986123657513576e-05
1.24558548912148e-05   2.4912330192977325e-07   1.0024676048120565e-05
1.24558548912148e-05   2.4912330192977325e-07   1.0024676048120565e-05
1.24558548912148e-05   2.4912330192977325e-07   1.0024676048120565e-05
1.24558548912148e-05   2.4912330192977325e-07   1.0024676048120565e-05
3.968518291841943e-06   5.378746037541099e-08   2.428743855200841e-05
3.968518291841943e-06   5.378746037541099e-08   2.428743855200841e-05
3.968518291841943e-06   5.378746037541099e-08   2.428743855200841e-05
3.968518291841943e-06   5.378746037541099e-08   2.428743855200841e-05
1.2455854891214834e-05   -7.930040923282734e-07   3.923596013858115e-05
1.2455854891214834e-05   -7.930040923282734e-07   3.923596013858115e-05
1.2455854891214834e-05   -7.930040923282734e-07   3.923596013858115e-05
1.2455854891214834e-05   -7.930040923282734e-07   3.923596013858115e-05
-5.070915563061649e-06   2.4912330192977325e-07   1.0649952484675061e-05
-5.070915563061649e-06   2.4912330192977325e-07   1.0649952484675061e-05
-5.070915563061649e-06   2.4912330192977325e-07   1.0649952484675061e-05
-5.070915563061649e-06   2.4912330192977325e-07   1.0649952484675061e-05
-5.856834825780817e-06   -1.4033924620121888e-06   3.938728424690541e-05
-5.856834825780817e-06   -1.4033924620121888e-06   3.938728424690541e-05
-5.856834825780817e-06   -1.4033924620121888e-06   3.938728424690541e-05
-5.856834825780817e-06   -1.4033924620121888e-06   3.938728424690541e-05
1.1516333255108279e-05   -4.1012819366461825e-07   9.836045551081799e-06
1.1516333255108279e-05   -4.1012819366461825e-07   9.836045551081799e-06
1.1516333255108279e-05   -4.1012819366461825e-07   9.836045551081799e-06
1.1516333255108279e-05   -4.1012819366461825e-07   9.836045551081799e-06
3.12361188353292e-06   -4.834888836097173e-07   2.3867930917675527e-05
3.12361188353292e-06   -4.834888836097173e-07   2.3867930917675527e-05
3.12361188353292e-06   -4.834888836097173e-07   2.3867930917675527e-05
3.12361188353292e-06   -4.834888836097173e-07   2.3867930917675527e-05
1.1516333255108313e-05   -1.4033924620121888e-06   3.8791325685896914e-05
1.1516333255108313e-05   -1.4033924620121888e-06   3.8791325685896914e-05
1.1516333255108313e-05   -1.4033924620121888e-06   3.8791325685896914e-05
1.1516333255108313e-05   -1.4033924620121888e-06   3.8791325685896914e-05
-5.856834825780817e-06   -4.1012819366461825e-07   1.0432004112090332e-05
-5.856834825780817e-06   -4.1012819366461825e-07   1.0432004112090332e-05
-5.856834825780817e-06   -4.1012819366461825e-07   1.0432004112090332e-05
-5.856834825780817e-06   -4.1012819366461825e-07   1.0432004112090332e-05
-6.636101453225021e-06   -1.9692008045258877e-06   3.9748326510803894e-05
-6.636101453225021e-06   -1.9692008045258877e-06   3.9748326510803894e-05
-6.636101453225021e-06   -1.9692008045258877e-06   3.9748326510803894e-05
-6.636101453225021e-06   -1.9692008045258877e-06   3.9748326510803894e-05
1.0674269685281302e-05   -1.0603042355904896e-06   1.0352370005265662e-05
1.0674269685281302e-05   -1.0603042355904896e-06   1.0352370005265662e-05
1.0674269685281302e-05   -1.0603042355904896e-06   1.0352370005265662e-05
1.0674269685281302e-05   -1.0603042355904896e-06   1.0352370005265662e-05
2.4556369770202556e-06   -9.319100460650036e-07   2.3973054671985196e-05
2.4556369770202556e-06   -9.319100460650036e-07   2.3973054671985196e-05
2.4556369770202556e-06   -9.319100460650036e-07   2.3973054671985196e-05
2.4556369770202556e-06   -9.319100460650036e-07   2.3973054671985196e-05
-4.302171887114866e-06   4.021453539365671e-06   4.317810330839184e-05
-4.302171887114866e-06   4.021453539365671e-06   4.317810330839184e-05
-4.302171887114866e-06   4.021453539365671e-06   4.317810330839184e-05
-4.302171887114866e-06   4.021453539365671e-06   4.317810330839184e-05
-2.1608133720680498e-05   3.956077200068658e-06   1.429560778220412e-05
-2.1608133720680498e-05   3.956077200068658e-06   1.429560778220412e-05
-2.1608133720680498e-05   3.956077200068658e-06   1.429560778220412e-05
-2.1608133720680498e-05   3.956077200068658e-06   1.429560778220412e-05
-2.2366418905005528e-05   3.3410321704650976e-06   4.2896173273209316e-05
-2.2366418905005528e-05   3.3410321704650976e-06   4.2896173273209316e-05
-2.2366418905005528e-05   3.3410321704650976e-06   4.2896173273209316e-05
-2.2366418905005528e-05   3.3410321704650976e-06   4.2896173273209316e-05
-5.0709155630616215e-06   3.223968915453193e-06   1.4140572322976876e-05
-5.0709155630616215e-06   3.223968915453193e-06   1.4140572322976876e-05
-5.0709155630616215e-06   3.223968915453193e-06   1.4140572322976876e-05
-5.0709155630616215e-06   3.223968915453193e-06   1.4140572322976876e-05
-1.3370133932704014e-05   3.545852649608234e-06   2.7779472698555123e-05
-1.3370133932704014e-05   3.545852649608234e-06   2.7779472698555123e-05
-1.3370133932704014e-05   3.545852649608234e-06   2.7779472698555123e-05
-1.3370133932704014e-05   3.545852649608234e-06   2.7779472698555123e-05
-5.0709155630616215e-06   3.3410321704650976e-06   4.296641122621646e-05
-5.0709155630616215e-06   3.3410321704650976e-06   4.296641122621646e-05
-5.0709155630616215e-06   3.3410321704650976e-06   4.296641122621646e-05
-5.0709155630616215e-06   3.3410321704650976e-06   4.296641122621646e-05
-2.2366418905005528e-05   3.223968915453193e-06   1.4070334369969896e-05
-2.2366418905005528e-05   3.223968915453193e-06   1.4070334369969896e-05
-2.2366418905005528e-05   3.223968915453193e-06   1.4070334369969896e-05
-2.2366418905005528e-05   3.223968915453193e-06   1.4070334369969896e-05
-2.3143001671163687e-05   2.671388663116111e-06   4.3116809195964736e-05
-2.3143001671163687e-05   2.671388663116111e-06   4.3116809195964736e-05
-2.3143001671163687e-05   2.671388663116111e-06   4.3116809195964736e-05
-2.3143001671163687e-05   2.671388663116111e-06   4.3116809195964736e-05
-5.85683482578079e-06   2.5002443201529827e-06   1.4409217726104565e-05
-5.85683482578079e-06   2.5002443201529827e-06   1.4409217726104565e-05
-5.85683482578079e-06   2.5002443201529827e-06   1.4409217726104565e-05
-5.85683482578079e-06   2.5002443201529827e-06   1.4409217726104565e-05
-1.4064745695169871e-05   3.0142839417407474e-06   2.778064540213444e-05
-1.4064745695169871e-05   3.0142839417407474e-06   2.778064540213444e-05
-1.4064745695169871e-05   3.0142839417407474e-06   2.778064540213444e-05
-1.4064745695169871e-05   3.0142839417407474e-06   2.778064540213444e-05
-5.856834825780817e-06   2.671388663116111e-06   4.3219495801742266e-05
-5.856834825780817e-06   2.671388663116111e-06   4.3219495801742266e-05
-5.856834825780817e-06   2.671388663116111e-06   4.3219495801742266e-05
-5.856834825780817e-06   2.671388663116111e-06   4.3219495801742266e-05
-2.3143001671163687e-05   2.5002443201529827e-06   1.430653112032671e-05
-2.3143001671163687e-05   2.5002443201529827e-06   1.430653112032671e-05
-2.3143001671163687e-05   2.5002443201529827e-06   1.430653112032671e-05
-2.3143001671163687e-05   2.5002443201529827e-06   1.430653112032671e-05
-2.39106040763589e-05   2.0359177288899015e-06   4.369762414227962e-05
-2.39106040763589e-05   2.0359177288899015e-06   4.369762414227962e-05
-2.39106040763589e-05   2.0359177288899015e-06   4.369762414227962e-05
-2.39106040763589e-05   2.0359177288899015e-06   4.369762414227962e-05
-6.636101453224994e-06   1.803426395523798e-06   1.5046281237076492e-05
-6.636101453224994e-06   1.803426395523798e-06   1.5046281237076492e-05
-6.636101453224994e-06   1.803426395523798e-06   1.5046281237076492e-05
-6.636101453224994e-06   1.803426395523798e-06   1.5046281237076492e-05
-1.4791224111993721e-05   2.49516198234977e-06   2.8223110982928215e-05
-1.4791224111993721e-05   2.49516198234977e-06   2.8223110982928215e-05
-1.4791224111993721e-05   2.49516198234977e-06   2.8223110982928215e-05
-1.4791224111993721e-05   2.49516198234977e-06   2.8223110982928215e-05
-2.1608133720680498e-05   7.909208139443569e-06   3.81830886411888e-05
-2.1608133720680498e-05   7.909208139443569e-06   3.81830886411888e-05
-2.1608133720680498e-05   7.909208139443569e-06   3.81830886411888e-05
-2.1608133720680498e-05   7.909208139443569e-06   3.81830886411888e-05
-3.862009143024484e-05   6.7786866923868e-06   9.151512923680953e-06
-3.862009143024484e-05   6.7786866923868e-06   9.151512923680953e-06
-3.862009143024484e-05   6.7786866923868e-06   9.151512923680953e-06
-3.862009143024484e-05   6.7786866923868e-06   9.151512923680953e-06
-3.9433308765373526e-05   7.257166953560015e-06   3.767620186839022e-05
-3.9433308765373526e-05   7.257166953560015e-06   3.767620186839022e-05
-3.9433308765373526e-05   7.257166953560015e-06   3.767620186839022e-05
-3.9433308765373526e-05   7.257166953560015e-06   3.767620186839022e-05
-2.2366418905005447e-05   6.063164613858297e-06   9.947786838264742e-06
-2.2366418905005447e-05   6.063164613858297e-06   9.947786838264742e-06
-2.2366418905005447e-05   6.063164613858297e-06   9.947786838264742e-06
-2.2366418905005447e-05   6.063164613858297e-06   9.947786838264742e-06
-3.042089412088288e-05   6.883484340993156e-06   2.2879720361780598e-05
-3.042089412088288e-05   6.883484340993156e-06   2.2879720361780598e-05
-3.042089412088288e-05   6.883484340993156e-06   2.2879720361780598e-05
-3.042089412088288e-05   6.883484340993156e-06   2.2879720361780598e-05
-2.2366418905005528e-05   7.257166953560448e-06   3.839260327221142e-05
-2.2366418905005528e-05   7.257166953560448e-06   3.839260327221142e-05
-2.2366418905005528e-05   7.257166953560448e-06   3.839260327221142e-05
-2.2366418905005528e-05   7.257166953560448e-06   3.839260327221142e-05
-3.943330876537347e-05   6.0631646138587306e-06   9.231385434443646e-06
-3.943330876537347e-05   6.0631646138587306e-06   9.231385434443646e-06
-3.943330876537347e-05   6.0631646138587306e-06   9.231385434443646e-06
-3.943330876537347e-05   6.0631646138587306e-06   9.231385434443646e-06
-4.0348693241333805e-05   6.650008649765771e-06   3.896539955686065e-05
-4.0348693241333805e-05   6.650008649765771e-06   3.896539955686065e-05
-4.0348693241333805e-05   6.650008649765771e-06   3.896539955686065e-05
-4.0348693241333805e-05   6.650008649765771e-06   3.896539955686065e-05
-2.3143001671163606e-05   5.4014548242875375e-06   1.1038379235197551e-05
-2.3143001671163606e-05   5.4014548242875375e-06   1.1038379235197551e-05
-2.3143001671163606e-05   5.4014548242875375e-06   1.1038379235197551e-05
-2.3143001671163606e-05   5.4014548242875375e-06   1.1038379235197551e-05
-3.098495535407253e-05   6.395916041380088e-06   2.3511625309791074e-05
-3.098495535407253e-05   6.395916041380088e-06   2.3511625309791074e-05
-3.098495535407253e-05   6.395916041380088e-06   2.3511625309791074e-05
-3.098495535407253e-05   6.395916041380088e-06   2.3511625309791074e-05
-2.3143001671163633e-05   6.650008649765771e-06   3.971453185214755e-05
-2.3143001671163633e-05   6.650008649765771e-06   3.971453185214755e-05
-2.3143001671163633e-05   6.650008649765771e-06   3.971453185214755e-05
-2.3143001671163633e-05   6.650008649765771e-06   3.971453185214755e-05
-4.034869324133375e-05   5.401454824287104e-06   1.02892469399106e-05
-4.034869324133375e-05   5.401454824287104e-06   1.02892469399106e-05
-4.034869324133375e-05   5.401454824287104e-06   1.02892469399106e-05
-4.034869324133375e-05   5.401454824287104e-06   1.02892469399106e-05
-4.116282007025077e-05   5.943319668351259e-06   4.005470662397448e-05
-4.116282007025077e-05   5.943319668351259e-06   4.005470662397448e-05
-4.116282007025077e-05   5.943319668351259e-06   4.005470662397448e-05
-4.116282007025077e-05   5.943319668351259e-06   4.005470662397448e-05
-2.391060407635882e-05   4.66210481022333e-06   1.2069742215698213e-05
-2.391060407635882e-05   4.66210481022333e-06   1.2069742215698213e-05
-2.391060407635882e-05   4.66210481022333e-06   1.2069742215698213e-05
-2.391060407635882e-05   4.66210481022333e-06   1.2069742215698213e-05
-3.1901988909514286e-05   5.883137687823312e-06   2.4656097211064572e-05
-3.1901988909514286e-05   5.883137687823312e-06   2.4656097211064572e-05
-3.1901988909514286e-05   5.883137687823312e-06   2.4656097211064572e-05
-3.1901988909514286e-05   5.883137687823312e-06   2.4656097211064572e-05
-3.862009143024484e-05   1.0895047413969801e-05   1.8338016437317558e-05
-3.862009143024484e-05   1.0895047413969801e-05   1.8338016437317558e-05
-3.862009143024484e-05   1.0895047413969801e-05   1.8338016437317558e-05
-3.862009143024484e-05   1.0895047413969801e-05   1.8338016437317558e-05
-5.4561567123338804e-05   8.886271242609586e-06   -9.436375420655212e-06
-5.4561567123338804e-05   8.886271242609586e-06   -9.436375420655212e-06
-5.4561567123338804e-05   8.886271242609586e-06   -9.436375420655212e-06
-5.4561567123338804e-05   8.886271242609586e-06   -9.436375420655212e-06
-5.626117401618926e-05   1.0839052637478044e-05   2.3503324380319936e-05
-5.626117401618926e-05   1.0839052637478044e-05   2.3503324380319936e-05
-5.626117401618926e-05   1.0839052637478044e-05   2.3503324380319936e-05
-5.626117401618926e-05   1.0839052637478044e-05   2.3503324380319936e-05
-3.943330876537336e-05   8.65577541777924e-06   -3.2331513725537614e-06
-3.943330876537336e-05   8.65577541777924e-06   -3.2331513725537614e-06
-3.943330876537336e-05   8.65577541777924e-06   -3.2331513725537614e-06
-3.943330876537336e-05   8.65577541777924e-06   -3.2331513725537614e-06
-4.5449651147257077e-05   9.640968933893618e-06   6.2029698209178745e-06
-4.5449651147257077e-05   9.640968933893618e-06   6.2029698209178745e-06
-4.5449651147257077e-05   9.640968933893618e-06   6.2029698209178745e-06
-4.5449651147257077e-05   9.640968933893618e-06   6.2029698209178745e-06
-3.943330876537347e-05   1.0839052637478044e-05   2.4813290712139306e-05
-3.943330876537347e-05   1.0839052637478044e-05   2.4813290712139306e-05
-3.943330876537347e-05   1.0839052637478044e-05   2.4813290712139306e-05
-3.943330876537347e-05   1.0839052637478044e-05   2.4813290712139306e-05
-5.6261174016189366e-05   8.655775417778806e-06   -4.543117704373131e-06
-5.6261174016189366e-05   8.655775417778806e-06   -4.543117704373131e-06
-5.6261174016189366e-05   8.655775417778806e-06   -4.543117704373131e-06
-5.6261174016189366e-05   8.655775417778806e-06   -4.543117704373131e-06
-5.774452953180657e-05   1.0617668609817776e-05   2.7985149817582938e-05
-5.774452953180657e-05   1.0617668609817776e-05   2.7985149817582938e-05
-5.774452953180657e-05   1.0617668609817776e-05   2.7985149817582938e-05
-5.774452953180657e-05   1.0617668609817776e-05   2.7985149817582938e-05
-4.0348693241333696e-05   8.375336095500525e-06   3.374888420520092e-07
-4.0348693241333696e-05   8.375336095500525e-06   3.374888420520092e-07
-4.0348693241333696e-05   8.375336095500525e-06   3.374888420520092e-07
-4.0348693241333696e-05   8.375336095500525e-06   3.374888420520092e-07
-4.724790015182373e-05   9.646523776057122e-06   1.107345441786966e-05
-4.724790015182373e-05   9.646523776057122e-06   1.107345441786966e-05
-4.724790015182373e-05   9.646523776057122e-06   1.107345441786966e-05
-4.724790015182373e-05   9.646523776057122e-06   1.107345441786966e-05
-4.0348693241333805e-05   1.0617668609817776e-05   2.9330549326173246e-05
-4.0348693241333805e-05   1.0617668609817776e-05   2.9330549326173246e-05
-4.0348693241333805e-05   1.0617668609817776e-05   2.9330549326173246e-05
-4.0348693241333805e-05   1.0617668609817776e-05   2.9330549326173246e-05
-5.774452953180657e-05   8.375336095500525e-06   -1.0079106665382984e-06
-5.774452953180657e-05   8.375336095500525e-06   -1.0079106665382984e-06
-5.774452953180657e-05   8.375336095500525e-06   -1.0079106665382984e-06
-5.774452953180657e-05   8.375336095500525e-06   -1.0079106665382984e-06
-5.9465636097742595e-05   9.642316469988914e-06   3.5775317956143445e-05
-5.9465636097742595e-05   9.642316469988914e-06   3.5775317956143445e-05
-5.9465636097742595e-05   9.642316469988914e-06   3.5775317956143445e-05
-5.9465636097742595e-05   9.642316469988914e-06   3.5775317956143445e-05
-4.116282007025066e-05   7.435266045940567e-06   6.594854831418933e-06
-4.116282007025066e-05   7.435266045940567e-06   6.594854831418933e-06
-4.116282007025066e-05   7.435266045940567e-06   6.594854831418933e-06
-4.116282007025066e-05   7.435266045940567e-06   6.594854831418933e-06
-4.7652335163159945e-05   9.237217769383303e-06   1.6329542285535526e-05
-4.7652335163159945e-05   9.237217769383303e-06   1.6329542285535526e-05
-4.7652335163159945e-05   9.237217769383303e-06   1.6329542285535526e-05
-4.7652335163159945e-05   9.237217769383303e-06   1.6329542285535526e-05
1.7756893600122376e-05   -2.0371648110388205e-06   2.5283285867468228e-05
1.7756893600122376e-05   -2.0371648110388205e-06   2.5283285867468228e-05
1.7756893600122376e-05   -2.0371648110388205e-06   2.5283285867468228e-05
1.7756893600122376e-05   -2.0371648110388205e-06   2.5283285867468228e-05
4.6290013219908186e-06   5.5528470288904175e-08   4.659081372712344e-06
4.6290013219908186e-06   5.5528470288904175e-08   4.659081372712344e-06
4.6290013219908186e-06   5.5528470288904175e-08   4.659081372712344e-06
4.6290013219908186e-06   5.5528470288904175e-08   4.659081372712344e-06
4.003703067838935e-06   -2.831957463621422e-06   2.3578038555176423e-05
4.003703067838935e-06   -2.831957463621422e-06   2.3578038555176423e-05
4.003703067838935e-06   -2.831957463621422e-06   2.3578038555176423e-05
4.003703067838935e-06   -2.831957463621422e-06   2.3578038555176423e-05
1.6211697924116094e-05   -6.563107802707961e-07   1.9259924513710636e-06
1.6211697924116094e-05   -6.563107802707961e-07   1.9259924513710636e-06
1.6211697924116094e-05   -6.563107802707961e-07   1.9259924513710636e-06
1.6211697924116094e-05   -6.563107802707961e-07   1.9259924513710636e-06
1.0020852299840901e-05   -1.4682504694057616e-06   1.2731232305311473e-05
1.0020852299840901e-05   -1.4682504694057616e-06   1.2731232305311473e-05
1.0020852299840901e-05   -1.4682504694057616e-06   1.2731232305311473e-05
1.0020852299840901e-05   -1.4682504694057616e-06   1.2731232305311473e-05
1.621169792411612e-05   -2.831957463621422e-06   2.2272650545166394e-05
1.621169792411612e-05   -2.831957463621422e-06   2.2272650545166394e-05
1.621169792411612e-05   -2.831957463621422e-06   2.2272650545166394e-05
1.621169792411612e-05   -2.831957463621422e-06   2.2272650545166394e-05
4.003703067838928e-06   -6.563107802707961e-07   3.2313804613813904e-06
4.003703067838928e-06   -6.563107802707961e-07   3.2313804613813904e-06
4.003703067838928e-06   -6.563107802707961e-07   3.2313804613813904e-06
4.003703067838928e-06   -6.563107802707961e-07   3.2313804613813904e-06
3.275277835974064e-06   -3.1058780252642484e-06   2.213235247505263e-05
3.275277835974064e-06   -3.1058780252642484e-06   2.213235247505263e-05
3.275277835974064e-06   -3.1058780252642484e-06   2.213235247505263e-05
3.275277835974064e-06   -3.1058780252642484e-06   2.213235247505263e-05
1.490375738621172e-05   -9.63686090751795e-07   1.4662380639490226e-06
1.490375738621172e-05   -9.63686090751795e-07   1.4662380639490226e-06
1.490375738621172e-05   -9.63686090751795e-07   1.4662380639490226e-06
1.490375738621172e-05   -9.63686090751795e-07   1.4662380639490226e-06
9.273001434252112e-06   -1.778926009001272e-06   1.1339975268165022e-05
9.273001434252112e-06   -1.778926009001272e-06   1.1339975268165022e-05
9.273001434252112e-06   -1.778926009001272e-06   1.1339975268165022e-05
9.273001434252112e-06   -1.778926009001272e-06   1.1339975268165022e-05
1.4903757386211747e-05   -3.1058780252642484e-06   2.0847037314345026e-05
1.4903757386211747e-05   -3.1058780252642484e-06   2.0847037314345026e-05
1.4903757386211747e-05   -3.1058780252642484e-06   2.0847037314345026e-05
1.4903757386211747e-05   -3.1058780252642484e-06   2.0847037314345026e-05
3.2752778359740506e-06   -9.63686090751795e-07   2.751553224656679e-06
3.2752778359740506e-06   -9.63686090751795e-07   2.751553224656679e-06
3.2752778359740506e-06   -9.63686090751795e-07   2.751553224656679e-06
3.2752778359740506e-06   -9.63686090751795e-07   2.751553224656679e-06
2.6443211743055724e-06   -3.4689885979721086e-06   2.0464410153806954e-05
2.6443211743055724e-06   -3.4689885979721086e-06   2.0464410153806954e-05
2.6443211743055724e-06   -3.4689885979721086e-06   2.0464410153806954e-05
2.6443211743055724e-06   -3.4689885979721086e-06   2.0464410153806954e-05
1.3372675731296432e-05   -1.4765554314805779e-06   1.3883593255944874e-06
1.3372675731296432e-05   -1.4765554314805779e-06   1.3883593255944874e-06
1.3372675731296432e-05   -1.4765554314805779e-06   1.3883593255944874e-06
1.3372675731296432e-05   -1.4765554314805779e-06   1.3883593255944874e-06
8.174188187818803e-06   -1.9400362441771186e-06   1.0330593719008654e-05
8.174188187818803e-06   -1.9400362441771186e-06   1.0330593719008654e-05
8.174188187818803e-06   -1.9400362441771186e-06   1.0330593719008654e-05
8.174188187818803e-06   -1.9400362441771186e-06   1.0330593719008654e-05
4.629001321990825e-06   1.0542961686806247e-06   3.4814055989626546e-05
4.629001321990825e-06   1.0542961686806247e-06   3.4814055989626546e-05
4.629001321990825e-06   1.0542961686806247e-06   3.4814055989626546e-05
4.629001321990825e-06   1.0542961686806247e-06   3.4814055989626546e-05
-7.333465991196252e-06   2.0009267557904303e-06   1.5444588819913925e-05
-7.333465991196252e-06   2.0009267557904303e-06   1.5444588819913925e-05
-7.333465991196252e-06   2.0009267557904303e-06   1.5444588819913925e-05
-7.333465991196252e-06   2.0009267557904303e-06   1.5444588819913925e-05
-7.882601573357497e-06   2.4912330192977325e-07   3.492502162726757e-05
-7.882601573357497e-06   2.4912330192977325e-07   3.492502162726757e-05
-7.882601573357497e-06   2.4912330192977325e-07   3.492502162726757e-05
-7.882601573357497e-06   2.4912330192977325e-07   3.492502162726757e-05
4.003703067838928e-06   1.1959335890804508e-06   1.454642771965015e-05
4.003703067838928e-06   1.1959335890804508e-06   1.454642771965015e-05
4.003703067838928e-06   1.1959335890804508e-06   1.454642771965015e-05
4.003703067838928e-06   1.1959335890804508e-06   1.454642771965015e-05
-1.7351233358913736e-06   1.045078906141035e-06   2.4201651202298202e-05
-1.7351233358913736e-06   1.045078906141035e-06   2.4201651202298202e-05
-1.7351233358913736e-06   1.045078906141035e-06   2.4201651202298202e-05
-1.7351233358913736e-06   1.045078906141035e-06   2.4201651202298202e-05
4.003703067838932e-06   2.4912330192933957e-07   3.435693545497686e-05
4.003703067838932e-06   2.4912330192933957e-07   3.435693545497686e-05
4.003703067838932e-06   2.4912330192933957e-07   3.435693545497686e-05
4.003703067838932e-06   2.4912330192933957e-07   3.435693545497686e-05
-7.882601573357497e-06   1.1959335890804508e-06   1.5114513891940603e-05
-7.882601573357497e-06   1.1959335890804508e-06   1.5114513891940603e-05
-7.882601573357497e-06   1.1959335890804508e-06   1.5114513891940603e-05
-7.882601573357497e-06   1.1959335890804508e-06   1.5114513891940603e-05
-8.447699558916324e-06   -4.1012819366461825e-07   3.4703244173904914e-05
-8.447699558916324e-06   -4.1012819366461825e-07   3.4703244173904914e-05
-8.447699558916324e-06   -4.1012819366461825e-07   3.4703244173904914e-05
-8.447699558916324e-06   -4.1012819366461825e-07   3.4703244173904914e-05
3.2752778359740506e-06   5.132548975188365e-07   1.4610918661044368e-05
3.2752778359740506e-06   5.132548975188365e-07   1.4610918661044368e-05
3.2752778359740506e-06   5.132548975188365e-07   1.4610918661044368e-05
3.2752778359740506e-06   5.132548975188365e-07   1.4610918661044368e-05
-2.32109520802911e-06   4.83357493490013e-07   2.3956145510133835e-05
-2.32109520802911e-06   4.83357493490013e-07   2.3956145510133835e-05
-2.32109520802911e-06   4.83357493490013e-07   2.3956145510133835e-05
-2.32109520802911e-06   4.83357493490013e-07   2.3956145510133835e-05
3.275277835974064e-06   -4.1012819366461825e-07   3.4149214319195015e-05
3.275277835974064e-06   -4.1012819366461825e-07   3.4149214319195015e-05
3.275277835974064e-06   -4.1012819366461825e-07   3.4149214319195015e-05
3.275277835974064e-06   -4.1012819366461825e-07   3.4149214319195015e-05
-8.447699558916351e-06   5.132548975188365e-07   1.5164948515754458e-05
-8.447699558916351e-06   5.132548975188365e-07   1.5164948515754458e-05
-8.447699558916351e-06   5.132548975188365e-07   1.5164948515754458e-05
-8.447699558916351e-06   5.132548975188365e-07   1.5164948515754458e-05
-9.00428334848653e-06   -1.0603042355904896e-06   3.5162393786969e-05
-9.00428334848653e-06   -1.0603042355904896e-06   3.5162393786969e-05
-9.00428334848653e-06   -1.0603042355904896e-06   3.5162393786969e-05
-9.00428334848653e-06   -1.0603042355904896e-06   3.5162393786969e-05
2.6443211743055656e-06   -1.8493814116790977e-07   1.5222833258995424e-05
2.6443211743055656e-06   -1.8493814116790977e-07   1.5222833258995424e-05
2.6443211743055656e-06   -1.8493814116790977e-07   1.5222833258995424e-05
2.6443211743055656e-06   -1.8493814116790977e-07   1.5222833258995424e-05
-2.817583208986237e-06   -2.123206723153928e-08   2.4227783586787182e-05
-2.817583208986237e-06   -2.123206723153928e-08   2.4227783586787182e-05
-2.817583208986237e-06   -2.123206723153928e-08   2.4227783586787182e-05
-2.817583208986237e-06   -2.123206723153928e-08   2.4227783586787182e-05
-7.333465991196252e-06   3.956077200068658e-06   3.8613607782277256e-05
-7.333465991196252e-06   3.956077200068658e-06   3.8613607782277256e-05
-7.333465991196252e-06   3.956077200068658e-06   3.8613607782277256e-05
-7.333465991196252e-06   3.956077200068658e-06   3.8613607782277256e-05
-1.9095005320106503e-05   3.7278572546219167e-06   1.8874110266825506e-05
-1.9095005320106503e-05   3.7278572546219167e-06   1.8874110266825506e-05
-1.9095005320106503e-05   3.7278572546219167e-06   1.8874110266825506e-05
-1.9095005320106503e-05   3.7278572546219167e-06   1.8874110266825506e-05
-1.9621738242777938e-05   3.223968915453193e-06   3.82724112989116e-05
-1.9621738242777938e-05   3.223968915453193e-06   3.82724112989116e-05
-1.9621738242777938e-05   3.223968915453193e-06   3.82724112989116e-05
-1.9621738242777938e-05   3.223968915453193e-06   3.82724112989116e-05
-7.88260157335747e-06   2.9852519710237436e-06   1.885041368320222e-05
-7.88260157335747e-06   2.9852519710237436e-06   1.885041368320222e-05
-7.88260157335747e-06   2.9852519710237436e-06   1.885041368320222e-05
-7.88260157335747e-06   2.9852519710237436e-06   1.885041368320222e-05
-1.3508211407820049e-05   3.3907184628272427e-06   2.7983150178892088e-05
-1.3508211407820049e-05   3.3907184628272427e-06   2.7983150178892088e-05
-1.3508211407820049e-05   3.3907184628272427e-06   2.7983150178892088e-05
-1.3508211407820049e-05   3.3907184628272427e-06   2.7983150178892088e-05
-7.882601573357497e-06   3.223968915453193e-06   3.841564146556944e-05
-7.882601573357497e-06   3.223968915453193e-06   3.841564146556944e-05
-7.882601573357497e-06   3.223968915453193e-06   3.841564146556944e-05
-7.882601573357497e-06   3.223968915453193e-06   3.841564146556944e-05
-1.9621738242777938e-05   2.9852519710235267e-06   1.8707183516544486e-05
-1.9621738242777938e-05   2.9852519710235267e-06   1.8707183516544486e-05
-1.9621738242777938e-05   2.9852519710235267e-06   1.8707183516544486e-05
-1.9621738242777938e-05   2.9852519710235267e-06   1.8707183516544486e-05
-2.016580212534032e-05   2.5002443201529827e-06   3.852817252605802e-05
-2.016580212534032e-05   2.5002443201529827e-06   3.852817252605802e-05
-2.016580212534032e-05   2.5002443201529827e-06   3.852817252605802e-05
-2.016580212534032e-05   2.5002443201529827e-06   3.852817252605802e-05
-8.447699558916324e-06   2.246435550384406e-06   1.9150286843879383e-05
-8.447699558916324e-06   2.246435550384406e-06   1.9150286843879383e-05
-8.447699558916324e-06   2.246435550384406e-06   1.9150286843879383e-05
-8.447699558916324e-06   2.246435550384406e-06   1.9150286843879383e-05
-1.3977320679125634e-05   2.8256570287006795e-06   2.8018789157238026e-05
-1.3977320679125634e-05   2.8256570287006795e-06   2.8018789157238026e-05
-1.3977320679125634e-05   2.8256570287006795e-06   2.8018789157238026e-05
-1.3977320679125634e-05   2.8256570287006795e-06   2.8018789157238026e-05
-8.447699558916351e-06   2.5002443201529827e-06   3.8680457787919256e-05
-8.447699558916351e-06   2.5002443201529827e-06   3.8680457787919256e-05
-8.447699558916351e-06   2.5002443201529827e-06   3.8680457787919256e-05
-8.447699558916351e-06   2.5002443201529827e-06   3.8680457787919256e-05
-2.016580212534032e-05   2.246435550384406e-06   1.899800158201826e-05
-2.016580212534032e-05   2.246435550384406e-06   1.899800158201826e-05
-2.016580212534032e-05   2.246435550384406e-06   1.899800158201826e-05
-2.016580212534032e-05   2.246435550384406e-06   1.899800158201826e-05
-2.0701410147824046e-05   1.803426395523798e-06   3.915223669693482e-05
-2.0701410147824046e-05   1.803426395523798e-06   3.915223669693482e-05
-2.0701410147824046e-05   1.803426395523798e-06   3.915223669693482e-05
-2.0701410147824046e-05   1.803426395523798e-06   3.915223669693482e-05
-9.004283348486503e-06   1.538875761383264e-06   1.9815755745190074e-05
-9.004283348486503e-06   1.538875761383264e-06   1.9815755745190074e-05
-9.004283348486503e-06   1.538875761383264e-06   1.9815755745190074e-05
-9.004283348486503e-06   1.538875761383264e-06   1.9815755745190074e-05
-1.4476227403169566e-05   2.271852642572736e-06   2.8495876374282027e-05
-1.4476227403169566e-05   2.271852642572736e-06   2.8495876374282027e-05
-1.4476227403169566e-05   2.271852642572736e-06   2.8495876374282027e-05
-1.4476227403169566e-05   2.271852642572736e-06   2.8495876374282027e-05
-1.9095005320106503e-05   6.7786866923868e-06   3.4010893824720084e-05
-1.9095005320106503e-05   6.7786866923868e-06   3.4010893824720084e-05
-1.9095005320106503e-05   6.7786866923868e-06   3.4010893824720084e-05
-1.9095005320106503e-05   6.7786866923868e-06   3.4010893824720084e-05
-3.0640018926998604e-05   5.534203079286424e-06   1.4022514312039499e-05
-3.0640018926998604e-05   5.534203079286424e-06   1.4022514312039499e-05
-3.0640018926998604e-05   5.534203079286424e-06   1.4022514312039499e-05
-3.0640018926998604e-05   5.534203079286424e-06   1.4022514312039499e-05
-3.121396851141103e-05   6.063164613858297e-06   3.338301017525723e-05
-3.121396851141103e-05   6.063164613858297e-06   3.338301017525723e-05
-3.121396851141103e-05   6.063164613858297e-06   3.338301017525723e-05
-3.121396851141103e-05   6.063164613858297e-06   3.338301017525723e-05
-1.9621738242777884e-05   4.785075293942511e-06   1.4829479986151631e-05
-1.9621738242777884e-05   4.785075293942511e-06   1.4829479986151631e-05
-1.9621738242777884e-05   4.785075293942511e-06   1.4829479986151631e-05
-1.9621738242777884e-05   4.785075293942511e-06   1.4829479986151631e-05
-2.5082125869016464e-05   5.696686370954777e-06   2.3383159383676914e-05
-2.5082125869016464e-05   5.696686370954777e-06   2.3383159383676914e-05
-2.5082125869016464e-05   5.696686370954777e-06   2.3383159383676914e-05
-2.5082125869016464e-05   5.696686370954777e-06   2.3383159383676914e-05
-1.9621738242777938e-05   6.063164613858297e-06   3.414986376720688e-05
-1.9621738242777938e-05   6.063164613858297e-06   3.414986376720688e-05
-1.9621738242777938e-05   6.063164613858297e-06   3.414986376720688e-05
-1.9621738242777938e-05   6.063164613858297e-06   3.414986376720688e-05
-3.121396851141098e-05   4.7850752939427275e-06   1.4062626394202257e-05
-3.121396851141098e-05   4.7850752939427275e-06   1.4062626394202257e-05
-3.121396851141098e-05   4.7850752939427275e-06   1.4062626394202257e-05
-3.121396851141098e-05   4.7850752939427275e-06   1.4062626394202257e-05
-3.189390163438669e-05   5.4014548242875375e-06   3.448174674045793e-05
-3.189390163438669e-05   5.4014548242875375e-06   3.448174674045793e-05
-3.189390163438669e-05   5.4014548242875375e-06   3.448174674045793e-05
-3.189390163438669e-05   5.4014548242875375e-06   3.448174674045793e-05
-2.0165802125340264e-05   4.104331656835892e-06   1.5713188125851584e-05
-2.0165802125340264e-05   4.104331656835892e-06   1.5713188125851584e-05
-2.0165802125340264e-05   4.104331656835892e-06   1.5713188125851584e-05
-2.0165802125340264e-05   4.104331656835892e-06   1.5713188125851584e-05
-2.5454620074386264e-05   5.1666570184600615e-06   2.3890489490620607e-05
-2.5454620074386264e-05   5.1666570184600615e-06   2.3890489490620607e-05
-2.5454620074386264e-05   5.1666570184600615e-06   2.3890489490620607e-05
-2.5454620074386264e-05   5.1666570184600615e-06   2.3890489490620607e-05
-2.016580212534032e-05   5.4014548242875375e-06   3.52600206409287e-05
-2.016580212534032e-05   5.4014548242875375e-06   3.52600206409287e-05
-2.016580212534032e-05   5.4014548242875375e-06   3.52600206409287e-05
-2.016580212534032e-05   5.4014548242875375e-06   3.52600206409287e-05
-3.189390163438658e-05   4.104331656835892e-06   1.4934914225380597e-05
-3.189390163438658e-05   4.104331656835892e-06   1.4934914225380597e-05
-3.189390163438658e-05   4.104331656835892e-06   1.4934914225380597e-05
-3.189390163438658e-05   4.104331656835892e-06   1.4934914225380597e-05
-3.247764003662325e-05   4.66210481022333e-06   3.554425303420924e-05
-3.247764003662325e-05   4.66210481022333e-06   3.554425303420924e-05
-3.247764003662325e-05   4.66210481022333e-06   3.554425303420924e-05
-3.247764003662325e-05   4.66210481022333e-06   3.554425303420924e-05
-2.0701410147823992e-05   3.377205741278552e-06   1.668814266091135e-05
-2.0701410147823992e-05   3.377205741278552e-06   1.668814266091135e-05
-2.0701410147823992e-05   3.377205741278552e-06   1.668814266091135e-05
-2.0701410147823992e-05   3.377205741278552e-06   1.668814266091135e-05
-2.609406133164969e-05   4.636251952401353e-06   2.492046690728139e-05
-2.609406133164969e-05   4.636251952401353e-06   2.492046690728139e-05
-2.609406133164969e-05   4.636251952401353e-06   2.492046690728139e-05
-2.609406133164969e-05   4.636251952401353e-06   2.492046690728139e-05
-3.064001892699866e-05   8.88627124261002e-06   1.5881581015339714e-05
-3.064001892699866e-05   8.88627124261002e-06   1.5881581015339714e-05
-3.064001892699866e-05   8.88627124261002e-06   1.5881581015339714e-05
-3.064001892699866e-05   8.88627124261002e-06   1.5881581015339714e-05
-4.104091058688183e-05   6.803177555805015e-06   -2.7030946298816803e-06
-4.104091058688183e-05   6.803177555805015e-06   -2.7030946298816803e-06
-4.104091058688183e-05   6.803177555805015e-06   -2.7030946298816803e-06
-4.104091058688183e-05   6.803177555805015e-06   -2.7030946298816803e-06
-4.251180179803548e-05   8.655775417778806e-06   1.9576156793592097e-05
-4.251180179803548e-05   8.655775417778806e-06   1.9576156793592097e-05
-4.251180179803548e-05   8.655775417778806e-06   1.9576156793592097e-05
-4.251180179803548e-05   8.655775417778806e-06   1.9576156793592097e-05
-3.121396851141092e-05   6.4185811266665414e-06   2.0887512238858567e-06
-3.121396851141092e-05   6.4185811266665414e-06   2.0887512238858567e-06
-3.121396851141092e-05   6.4185811266665414e-06   2.0887512238858567e-06
-3.121396851141092e-05   6.4185811266665414e-06   2.0887512238858567e-06
-3.5028123565418006e-05   7.550428709019938e-06   7.76656776448688e-06
-3.5028123565418006e-05   7.550428709019938e-06   7.76656776448688e-06
-3.5028123565418006e-05   7.550428709019938e-06   7.76656776448688e-06
-3.5028123565418006e-05   7.550428709019938e-06   7.76656776448688e-06
-3.121396851141098e-05   8.655775417778806e-06   2.0918473368259716e-05
-3.121396851141098e-05   8.655775417778806e-06   2.0918473368259716e-05
-3.121396851141098e-05   8.655775417778806e-06   2.0918473368259716e-05
-3.121396851141098e-05   8.655775417778806e-06   2.0918473368259716e-05
-4.2511801798035586e-05   6.418581126666758e-06   7.464346492182922e-07
-4.2511801798035586e-05   6.418581126666758e-06   7.464346492182922e-07
-4.2511801798035586e-05   6.418581126666758e-06   7.464346492182922e-07
-4.2511801798035586e-05   6.418581126666758e-06   7.464346492182922e-07
-4.3778696546902906e-05   8.375336095500525e-06   2.3163556739613485e-05
-4.3778696546902906e-05   8.375336095500525e-06   2.3163556739613485e-05
-4.3778696546902906e-05   8.375336095500525e-06   2.3163556739613485e-05
-4.3778696546902906e-05   8.375336095500525e-06   2.3163556739613485e-05
-3.189390163438658e-05   6.097949590524315e-06   4.72199712173865e-06
-3.189390163438658e-05   6.097949590524315e-06   4.72199712173865e-06
-3.189390163438658e-05   6.097949590524315e-06   4.72199712173865e-06
-3.189390163438658e-05   6.097949590524315e-06   4.72199712173865e-06
-3.643929905221917e-05   7.450254463496706e-06   1.1486276561010209e-05
-3.643929905221917e-05   7.450254463496706e-06   1.1486276561010209e-05
-3.643929905221917e-05   7.450254463496706e-06   1.1486276561010209e-05
-3.643929905221917e-05   7.450254463496706e-06   1.1486276561010209e-05
-3.189390163438663e-05   8.375336095500525e-06   2.4529988642599124e-05
-3.189390163438663e-05   8.375336095500525e-06   2.4529988642599124e-05
-3.189390163438663e-05   8.375336095500525e-06   2.4529988642599124e-05
-3.189390163438663e-05   8.375336095500525e-06   2.4529988642599124e-05
-4.377869654690312e-05   6.097949590524315e-06   3.3555652187529567e-06
-4.377869654690312e-05   6.097949590524315e-06   3.3555652187529567e-06
-4.377869654690312e-05   6.097949590524315e-06   3.3555652187529567e-06
-4.377869654690312e-05   6.097949590524315e-06   3.3555652187529567e-06
-4.529549762175738e-05   7.435266045940567e-06   2.9513144708018463e-05
-4.529549762175738e-05   7.435266045940567e-06   2.9513144708018463e-05
-4.529549762175738e-05   7.435266045940567e-06   2.9513144708018463e-05
-4.529549762175738e-05   7.435266045940567e-06   2.9513144708018463e-05
-3.247764003662314e-05   5.227016284626651e-06   9.474998589583186e-06
-3.247764003662314e-05   5.227016284626651e-06   9.474998589583186e-06
-3.247764003662314e-05   5.227016284626651e-06   9.474998589583186e-06
-3.247764003662314e-05   5.227016284626651e-06   9.474998589583186e-06
-3.679335999020331e-05   7.05420990893533e-06   1.5571549004298976e-05
-3.679335999020331e-05   7.05420990893533e-06   1.5571549004298976e-05
-3.679335999020331e-05   7.05420990893533e-06   1.5571549004298976e-05
-3.679335999020331e-05   7.05420990893533e-06   1.5571549004298976e-05
3.4921833076325683e-06   5.5528470289121015e-08   1.8845280784267988e-05
3.4921833076325683e-06   5.5528470289121015e-08   1.8845280784267988e-05
3.4921833076325683e-06   5.5528470289121015e-08   1.8845280784267988e-05
3.4921833076325683e-06   5.5528470289121015e-08   1.8845280784267988e-05
-4.000056304941889e-06   2.0630601046977594e-06   7.562733743955805e-06
-4.000056304941889e-06   2.0630601046977594e-06   7.562733743955805e-06
-4.000056304941889e-06   2.0630601046977594e-06   7.562733743955805e-06
-4.000056304941889e-06   2.0630601046977594e-06   7.562733743955805e-06
-4.44189553769672e-06   -6.563107802705793e-07   1.8596389636205634e-05
-4.44189553769672e-06   -6.563107802705793e-07   1.8596389636205634e-05
-4.44189553769672e-06   -6.563107802705793e-07   1.8596389636205634e-05
-4.44189553769672e-06   -6.563107802705793e-07   1.8596389636205634e-05
2.1466585422738024e-06   1.3990736789076114e-06   6.382235494081085e-06
2.1466585422738024e-06   1.3990736789076114e-06   6.382235494081085e-06
2.1466585422738024e-06   1.3990736789076114e-06   6.382235494081085e-06
2.1466585422738024e-06   1.3990736789076114e-06   6.382235494081085e-06
-8.74353438244648e-07   6.019143416588404e-07   1.1895551063961167e-05
-8.74353438244648e-07   6.019143416588404e-07   1.1895551063961167e-05
-8.74353438244648e-07   6.019143416588404e-07   1.1895551063961167e-05
-8.74353438244648e-07   6.019143416588404e-07   1.1895551063961167e-05
2.1466585422738024e-06   -6.563107802705793e-07   1.736315896069861e-05
2.1466585422738024e-06   -6.563107802705793e-07   1.736315896069861e-05
2.1466585422738024e-06   -6.563107802705793e-07   1.736315896069861e-05
2.1466585422738024e-06   -6.563107802705793e-07   1.736315896069861e-05
-4.44189553769672e-06   1.3990736789076114e-06   7.615466169588162e-06
-4.44189553769672e-06   1.3990736789076114e-06   7.615466169588162e-06
-4.44189553769672e-06   1.3990736789076114e-06   7.615466169588162e-06
-4.44189553769672e-06   1.3990736789076114e-06   7.615466169588162e-06
-4.987537704877973e-06   -9.636860907515782e-07   1.8115452366223987e-05
-4.987537704877973e-06   -9.636860907515782e-07   1.8115452366223987e-05
-4.987537704877973e-06   -9.636860907515782e-07   1.8115452366223987e-05
-4.987537704877973e-06   -9.636860907515782e-07   1.8115452366223987e-05
9.795323748304637e-07   1.0329105243271457e-06   6.9723775976626105e-06
9.795323748304637e-07   1.0329105243271457e-06   6.9723775976626105e-06
9.795323748304637e-07   1.0329105243271457e-06   6.9723775976626105e-06
9.795323748304637e-07   1.0329105243271457e-06   6.9723775976626105e-06
-1.6011683740753096e-06   3.189371601299007e-07   1.1701929531023796e-05
-1.6011683740753096e-06   3.189371601299007e-07   1.1701929531023796e-05
-1.6011683740753096e-06   3.189371601299007e-07   1.1701929531023796e-05
-1.6011683740753096e-06   3.189371601299007e-07   1.1701929531023796e-05
9.795323748304637e-07   -9.63686090751795e-07   1.6917494397176492e-05
9.795323748304637e-07   -9.63686090751795e-07   1.6917494397176492e-05
9.795323748304637e-07   -9.63686090751795e-07   1.6917494397176492e-05
9.795323748304637e-07   -9.63686090751795e-07   1.6917494397176492e-05
-4.987537704877963e-06   1.0329105243271457e-06   8.170335566709888e-06
-4.987537704877963e-06   1.0329105243271457e-06   8.170335566709888e-06
-4.987537704877963e-06   1.0329105243271457e-06   8.170335566709888e-06
-4.987537704877963e-06   1.0329105243271457e-06   8.170335566709888e-06
-5.443275193160613e-06   -1.4765554314807947e-06   1.7952632693014848e-05
-5.443275193160613e-06   -1.4765554314807947e-06   1.7952632693014848e-05
-5.443275193160613e-06   -1.4765554314807947e-06   1.7952632693014848e-05
-5.443275193160613e-06   -1.4765554314807947e-06   1.7952632693014848e-05
-4.843523207878099e-07   2.5565204567331787e-07   8.648436752767974e-06
-4.843523207878099e-07   2.5565204567331787e-07   8.648436752767974e-06
-4.843523207878099e-07   2.5565204567331787e-07   8.648436752767974e-06
-4.843523207878099e-07   2.5565204567331787e-07   8.648436752767974e-06
-2.3816600049815365e-06   5.857391823936749e-08   1.1928863102884598e-05
-2.3816600049815365e-06   5.857391823936749e-08   1.1928863102884598e-05
-2.3816600049815365e-06   5.857391823936749e-08   1.1928863102884598e-05
-2.3816600049815365e-06   5.857391823936749e-08   1.1928863102884598e-05
-4.000056304941889e-06   2.0009267557904303e-06   3.0267328859848912e-05
-4.000056304941889e-06   2.0009267557904303e-06   3.0267328859848912e-05
-4.000056304941889e-06   2.0009267557904303e-06   3.0267328859848912e-05
-4.000056304941889e-06   2.0009267557904303e-06   3.0267328859848912e-05
-1.027246826949062e-05   2.3957447067241098e-06   2.0050199689494405e-05
-1.027246826949062e-05   2.3957447067241098e-06   2.0050199689494405e-05
-1.027246826949062e-05   2.3957447067241098e-06   2.0050199689494405e-05
-1.027246826949062e-05   2.3957447067241098e-06   2.0050199689494405e-05
-1.0605324744565451e-05   1.1959335890804508e-06   3.018620736719717e-05
-1.0605324744565451e-05   1.1959335890804508e-06   3.018620736719717e-05
-1.0605324744565451e-05   1.1959335890804508e-06   3.018620736719717e-05
-1.0605324744565451e-05   1.1959335890804508e-06   3.018620736719717e-05
-4.44189553769672e-06   1.6538843769524272e-06   1.9639054883026264e-05
-4.44189553769672e-06   1.6538843769524272e-06   1.9639054883026264e-05
-4.44189553769672e-06   1.6538843769524272e-06   1.9639054883026264e-05
-4.44189553769672e-06   1.6538843769524272e-06   1.9639054883026264e-05
-7.372932398966372e-06   1.725945245816679e-06   2.4480879797156958e-05
-7.372932398966372e-06   1.725945245816679e-06   2.4480879797156958e-05
-7.372932398966372e-06   1.725945245816679e-06   2.4480879797156958e-05
-7.372932398966372e-06   1.725945245816679e-06   2.4480879797156958e-05
-4.4418955376967236e-06   1.1959335890804508e-06   2.991143689447381e-05
-4.4418955376967236e-06   1.1959335890804508e-06   2.991143689447381e-05
-4.4418955376967236e-06   1.1959335890804508e-06   2.991143689447381e-05
-4.4418955376967236e-06   1.1959335890804508e-06   2.991143689447381e-05
-1.0605324744565424e-05   1.6538843769524272e-06   1.9913825355749224e-05
-1.0605324744565424e-05   1.6538843769524272e-06   1.9913825355749224e-05
-1.0605324744565424e-05   1.6538843769524272e-06   1.9913825355749224e-05
-1.0605324744565424e-05   1.6538843769524272e-06   1.9913825355749224e-05
-1.0948595885930135e-05   5.132548975188365e-07   3.0247944170887697e-05
-1.0948595885930135e-05   5.132548975188365e-07   3.0247944170887697e-05
-1.0948595885930135e-05   5.132548975188365e-07   3.0247944170887697e-05
-1.0948595885930135e-05   5.132548975188365e-07   3.0247944170887697e-05
-4.987537704877963e-06   9.68465511312069e-07   2.0039720834191283e-05
-4.987537704877963e-06   9.68465511312069e-07   2.0039720834191283e-05
-4.987537704877963e-06   9.68465511312069e-07   2.0039720834191283e-05
-4.987537704877963e-06   9.68465511312069e-07   2.0039720834191283e-05
-7.71267905115082e-06   1.1834429162482524e-06   2.4452636635018143e-05
-7.71267905115082e-06   1.1834429162482524e-06   2.4452636635018143e-05
-7.71267905115082e-06   1.1834429162482524e-06   2.4452636635018143e-05
-7.71267905115082e-06   1.1834429162482524e-06   2.4452636635018143e-05
-4.987537704877973e-06   5.132548975188365e-07   2.997481780261154e-05
-4.987537704877973e-06   5.132548975188365e-07   2.997481780261154e-05
-4.987537704877973e-06   5.132548975188365e-07   2.997481780261154e-05
-4.987537704877973e-06   5.132548975188365e-07   2.997481780261154e-05
-1.0948595885930135e-05   9.68465511312069e-07   2.0312847202467446e-05
-1.0948595885930135e-05   9.68465511312069e-07   2.0312847202467446e-05
-1.0948595885930135e-05   9.68465511312069e-07   2.0312847202467446e-05
-1.0948595885930135e-05   9.68465511312069e-07   2.0312847202467446e-05
-1.128519021236532e-05   -1.8493814116790977e-07   3.083775564719101e-05
-1.128519021236532e-05   -1.8493814116790977e-07   3.083775564719101e-05
-1.128519021236532e-05   -1.8493814116790977e-07   3.083775564719101e-05
-1.128519021236532e-05   -1.8493814116790977e-07   3.083775564719101e-05
-5.443275193160613e-06   2.2524339328183936e-07   2.085512169451358e-05
-5.443275193160613e-06   2.2524339328183936e-07   2.085512169451358e-05
-5.443275193160613e-06   2.2524339328183936e-07   2.085512169451358e-05
-5.443275193160613e-06   2.2524339328183936e-07   2.085512169451358e-05
-8.052257975302517e-06   6.496455172162047e-07   2.494878505705599e-05
-8.052257975302517e-06   6.496455172162047e-07   2.494878505705599e-05
-8.052257975302517e-06   6.496455172162047e-07   2.494878505705599e-05
-8.052257975302517e-06   6.496455172162047e-07   2.494878505705599e-05
-1.0272468269490565e-05   3.7278572546219167e-06   3.4070673044588355e-05
-1.0272468269490565e-05   3.7278572546219167e-06   3.4070673044588355e-05
-1.0272468269490565e-05   3.7278572546219167e-06   3.4070673044588355e-05
-1.0272468269490565e-05   3.7278572546219167e-06   3.4070673044588355e-05
-1.6526808235686763e-05   2.868920950031568e-06   2.313141131817393e-05
-1.6526808235686763e-05   2.868920950031568e-06   2.313141131817393e-05
-1.6526808235686763e-05   2.868920950031568e-06   2.313141131817393e-05
-1.6526808235686763e-05   2.868920950031568e-06   2.313141131817393e-05
-1.6808283190698585e-05   2.9852519710235267e-06   3.343952893836177e-05
-1.6808283190698585e-05   2.9852519710235267e-06   3.343952893836177e-05
-1.6808283190698585e-05   2.9852519710235267e-06   3.343952893836177e-05
-1.6808283190698585e-05   2.9852519710235267e-06   3.343952893836177e-05
-1.0605324744565424e-05   2.180954937527988e-06   2.358384308157025e-05
-1.0605324744565424e-05   2.180954937527988e-06   2.358384308157025e-05
-1.0605324744565424e-05   2.180954937527988e-06   2.358384308157025e-05
-1.0605324744565424e-05   2.180954937527988e-06   2.358384308157025e-05
-1.3559783691182651e-05   2.884512193989351e-06   2.8085806972055652e-05
-1.3559783691182651e-05   2.884512193989351e-06   2.8085806972055652e-05
-1.3559783691182651e-05   2.884512193989351e-06   2.8085806972055652e-05
-1.3559783691182651e-05   2.884512193989351e-06   2.8085806972055652e-05
-1.0605324744565424e-05   2.9852519710235267e-06   3.3922107158459005e-05
-1.0605324744565424e-05   2.9852519710235267e-06   3.3922107158459005e-05
-1.0605324744565424e-05   2.9852519710235267e-06   3.3922107158459005e-05
-1.0605324744565424e-05   2.9852519710235267e-06   3.3922107158459005e-05
-1.6808283190698585e-05   2.180954937527988e-06   2.3101264861473013e-05
-1.6808283190698585e-05   2.180954937527988e-06   2.3101264861473013e-05
-1.6808283190698585e-05   2.180954937527988e-06   2.3101264861473013e-05
-1.6808283190698585e-05   2.180954937527988e-06   2.3101264861473013e-05
-1.7109994279512362e-05   2.2464355503841894e-06   3.377443621641507e-05
-1.7109994279512362e-05   2.2464355503841894e-06   3.377443621641507e-05
-1.7109994279512362e-05   2.2464355503841894e-06   3.377443621641507e-05
-1.7109994279512362e-05   2.2464355503841894e-06   3.377443621641507e-05
-1.0948595885930135e-05   1.4816917460551936e-06   2.396428517637564e-05
-1.0948595885930135e-05   1.4816917460551936e-06   2.396428517637564e-05
-1.0948595885930135e-05   1.4816917460551936e-06   2.396428517637564e-05
-1.0948595885930135e-05   1.4816917460551936e-06   2.396428517637564e-05
-1.3800261290317396e-05   2.3333451375519808e-06   2.820606881545612e-05
-1.3800261290317396e-05   2.3333451375519808e-06   2.820606881545612e-05
-1.3800261290317396e-05   2.3333451375519808e-06   2.820606881545612e-05
-1.3800261290317396e-05   2.3333451375519808e-06   2.820606881545612e-05
-1.0948595885930135e-05   2.246435550384406e-06   3.4233282499012514e-05
-1.0948595885930135e-05   2.246435550384406e-06   3.4233282499012514e-05
-1.0948595885930135e-05   2.246435550384406e-06   3.4233282499012514e-05
-1.0948595885930135e-05   2.246435550384406e-06   3.4233282499012514e-05
-1.7109994279512362e-05   1.4816917460549767e-06   2.3505438893777983e-05
-1.7109994279512362e-05   1.4816917460549767e-06   2.3505438893777983e-05
-1.7109994279512362e-05   1.4816917460549767e-06   2.3505438893777983e-05
-1.7109994279512362e-05   1.4816917460549767e-06   2.3505438893777983e-05
-1.740546998326185e-05   1.538875761383264e-06   3.4473261916751234e-05
-1.740546998326185e-05   1.538875761383264e-06   3.4473261916751234e-05
-1.740546998326185e-05   1.538875761383264e-06   3.4473261916751234e-05
-1.740546998326185e-05   1.538875761383264e-06   3.4473261916751234e-05
-1.128519021236532e-05   8.185481614158673e-07   2.4704992191904225e-05
-1.128519021236532e-05   8.185481614158673e-07   2.4704992191904225e-05
-1.128519021236532e-05   8.185481614158673e-07   2.4704992191904225e-05
-1.128519021236532e-05   8.185481614158673e-07   2.4704992191904225e-05
-1.4068217600852134e-05   1.7903736880442618e-06   2.8760275856738564e-05
-1.4068217600852134e-05   1.7903736880442618e-06   2.8760275856738564e-05
-1.4068217600852134e-05   1.7903736880442618e-06   2.8760275856738564e-05
-1.4068217600852134e-05   1.7903736880442618e-06   2.8760275856738564e-05
-1.6526808235686763e-05   5.534203079286424e-06   2.9450405474908516e-05
-1.6526808235686763e-05   5.534203079286424e-06   2.9450405474908516e-05
-1.6526808235686763e-05   5.534203079286424e-06   2.9450405474908516e-05
-1.6526808235686763e-05   5.534203079286424e-06   2.9450405474908516e-05
-2.2676568035991194e-05   3.875875883262592e-06   1.820580949012015e-05
-2.2676568035991194e-05   3.875875883262592e-06   1.820580949012015e-05
-2.2676568035991194e-05   3.875875883262592e-06   1.820580949012015e-05
-2.2676568035991194e-05   3.875875883262592e-06   1.820580949012015e-05
-2.2985765396059898e-05   4.785075293942511e-06   2.858199131576143e-05
-2.2985765396059898e-05   4.785075293942511e-06   2.858199131576143e-05
-2.2985765396059898e-05   4.785075293942511e-06   2.858199131576143e-05
-2.2985765396059898e-05   4.785075293942511e-06   2.858199131576143e-05
-1.6808283190698585e-05   3.15201847359654e-06   1.9266021732366762e-05
-1.6808283190698585e-05   3.15201847359654e-06   1.9266021732366762e-05
-1.6808283190698585e-05   3.15201847359654e-06   1.9266021732366762e-05
-1.6808283190698585e-05   3.15201847359654e-06   1.9266021732366762e-05
-1.9707534100001496e-05   4.3005365099033944e-06   2.34089957594206e-05
-1.9707534100001496e-05   4.3005365099033944e-06   2.34089957594206e-05
-1.9707534100001496e-05   4.3005365099033944e-06   2.34089957594206e-05
-1.9707534100001496e-05   4.3005365099033944e-06   2.34089957594206e-05
-1.6808283190698585e-05   4.7850752939427275e-06   2.956182540796886e-05
-1.6808283190698585e-05   4.7850752939427275e-06   2.956182540796886e-05
-1.6808283190698585e-05   4.7850752939427275e-06   2.956182540796886e-05
-1.6808283190698585e-05   4.7850752939427275e-06   2.956182540796886e-05
-2.2985765396059843e-05   3.15201847359654e-06   1.8286187640159088e-05
-2.2985765396059843e-05   3.15201847359654e-06   1.8286187640159088e-05
-2.2985765396059843e-05   3.15201847359654e-06   1.8286187640159088e-05
-2.2985765396059843e-05   3.15201847359654e-06   1.8286187640159088e-05
-2.3413536783729785e-05   4.104331656835892e-06   2.9532011059933e-05
-2.3413536783729785e-05   4.104331656835892e-06   2.9532011059933e-05
-2.3413536783729785e-05   4.104331656835892e-06   2.9532011059933e-05
-2.3413536783729785e-05   4.104331656835892e-06   2.9532011059933e-05
-1.7109994279512362e-05   2.508312156310156e-06   1.9983718586552893e-05
-1.7109994279512362e-05   2.508312156310156e-06   1.9983718586552893e-05
-1.7109994279512362e-05   2.508312156310156e-06   1.9983718586552893e-05
-1.7109994279512362e-05   2.508312156310156e-06   1.9983718586552893e-05
-1.9875644743224828e-05   3.766343618722334e-06   2.3838317148626572e-05
-1.9875644743224828e-05   3.766343618722334e-06   2.3838317148626572e-05
-1.9875644743224828e-05   3.766343618722334e-06   2.3838317148626572e-05
-1.9875644743224828e-05   3.766343618722334e-06   2.3838317148626572e-05
-1.7109994279512417e-05   4.104331656835892e-06   3.0489622760248073e-05
-1.7109994279512417e-05   4.104331656835892e-06   3.0489622760248073e-05
-1.7109994279512417e-05   4.104331656835892e-06   3.0489622760248073e-05
-1.7109994279512417e-05   4.104331656835892e-06   3.0489622760248073e-05
-2.3413536783729676e-05   2.508312156310156e-06   1.902610688623755e-05
-2.3413536783729676e-05   2.508312156310156e-06   1.902610688623755e-05
-2.3413536783729676e-05   2.508312156310156e-06   1.902610688623755e-05
-2.3413536783729676e-05   2.508312156310156e-06   1.902610688623755e-05
-2.3756579571093857e-05   3.377205741278552e-06   3.058976274820219e-05
-2.3756579571093857e-05   3.377205741278552e-06   3.058976274820219e-05
-2.3756579571093857e-05   3.377205741278552e-06   3.058976274820219e-05
-2.3756579571093857e-05   3.377205741278552e-06   3.058976274820219e-05
-1.740546998326185e-05   1.8528449666876511e-06   2.091919656657009e-05
-1.740546998326185e-05   1.8528449666876511e-06   2.091919656657009e-05
-1.740546998326185e-05   1.8528449666876511e-06   2.091919656657009e-05
-1.740546998326185e-05   1.8528449666876511e-06   2.091919656657009e-05
-2.0229692365847515e-05   3.2586782460868047e-06   2.478273390324069e-05
-2.0229692365847515e-05   3.2586782460868047e-06   2.478273390324069e-05
-2.0229692365847515e-05   3.2586782460868047e-06   2.478273390324069e-05
-2.0229692365847515e-05   3.2586782460868047e-06   2.478273390324069e-05
-2.2676568035991194e-05   6.803177555805232e-06   1.2979656427455888e-05
-2.2676568035991194e-05   6.803177555805232e-06   1.2979656427455888e-05
-2.2676568035991194e-05   6.803177555805232e-06   1.2979656427455888e-05
-2.2676568035991194e-05   6.803177555805232e-06   1.2979656427455888e-05
-2.749178591348407e-05   4.5746746994142044e-06   3.617191584466725e-06
-2.749178591348407e-05   4.5746746994142044e-06   3.617191584466725e-06
-2.749178591348407e-05   4.5746746994142044e-06   3.617191584466725e-06
-2.749178591348407e-05   4.5746746994142044e-06   3.617191584466725e-06
-2.8666677343155522e-05   6.4185811266665414e-06   1.5212725867911475e-05
-2.8666677343155522e-05   6.4185811266665414e-06   1.5212725867911475e-05
-2.8666677343155522e-05   6.4185811266665414e-06   1.5212725867911475e-05
-2.8666677343155522e-05   6.4185811266665414e-06   1.5212725867911475e-05
-2.2985765396059898e-05   4.092930664111342e-06   7.1399295669519235e-06
-2.2985765396059898e-05   4.092930664111342e-06   7.1399295669519235e-06
-2.2985765396059898e-05   4.092930664111342e-06   7.1399295669519235e-06
-2.2985765396059898e-05   4.092930664111342e-06   7.1399295669519235e-06
-2.4572306705845015e-05   5.418115031258913e-06   8.989054462971722e-06
-2.4572306705845015e-05   5.418115031258913e-06   8.989054462971722e-06
-2.4572306705845015e-05   5.418115031258913e-06   8.989054462971722e-06
-2.4572306705845015e-05   5.418115031258913e-06   8.989054462971722e-06
-2.2985765396059843e-05   6.4185811266665414e-06   1.6608116145444595e-05
-2.2985765396059843e-05   6.4185811266665414e-06   1.6608116145444595e-05
-2.2985765396059843e-05   6.4185811266665414e-06   1.6608116145444595e-05
-2.2985765396059843e-05   6.4185811266665414e-06   1.6608116145444595e-05
-2.866667734315574e-05   4.092930664111125e-06   5.744539289418621e-06
-2.866667734315574e-05   4.092930664111125e-06   5.744539289418621e-06
-2.866667734315574e-05   4.092930664111125e-06   5.744539289418621e-06
-2.866667734315574e-05   4.092930664111125e-06   5.744539289418621e-06
-2.9675731182228536e-05   6.097949590524315e-06   1.791774020575769e-05
-2.9675731182228536e-05   6.097949590524315e-06   1.791774020575769e-05
-2.9675731182228536e-05   6.097949590524315e-06   1.791774020575769e-05
-2.9675731182228536e-05   6.097949590524315e-06   1.791774020575769e-05
-2.341353678372973e-05   3.7623600063017154e-06   8.882103292126467e-06
-2.341353678372973e-05   3.7623600063017154e-06   8.882103292126467e-06
-2.341353678372973e-05   3.7623600063017154e-06   8.882103292126467e-06
-2.341353678372973e-05   3.7623600063017154e-06   8.882103292126467e-06
-2.556719562515222e-05   5.228639119990355e-06   1.1591767226284814e-05
-2.556719562515222e-05   5.228639119990355e-06   1.1591767226284814e-05
-2.556719562515222e-05   5.228639119990355e-06   1.1591767226284814e-05
-2.556719562515222e-05   5.228639119990355e-06   1.1591767226284814e-05
-2.341353678372973e-05   6.097949590524315e-06   1.9319093956290836e-05
-2.341353678372973e-05   6.097949590524315e-06   1.9319093956290836e-05
-2.341353678372973e-05   6.097949590524315e-06   1.9319093956290836e-05
-2.341353678372973e-05   6.097949590524315e-06   1.9319093956290836e-05
-2.9675731182228536e-05   3.7623600063019322e-06   7.480749541592992e-06
-2.9675731182228536e-05   3.7623600063019322e-06   7.480749541592992e-06
-2.9675731182228536e-05   3.7623600063019322e-06   7.480749541592992e-06
-2.9675731182228536e-05   3.7623600063019322e-06   7.480749541592992e-06
-3.096138951294255e-05   5.227016284626651e-06   2.281413436261274e-05
-3.096138951294255e-05   5.227016284626651e-06   2.281413436261274e-05
-3.096138951294255e-05   5.227016284626651e-06   2.281413436261274e-05
-3.096138951294255e-05   5.227016284626651e-06   2.281413436261274e-05
-2.3756579571093802e-05   3.004643358579112e-06   1.2139541548493644e-05
-2.3756579571093802e-05   3.004643358579112e-06   1.2139541548493644e-05
-2.3756579571093802e-05   3.004643358579112e-06   1.2139541548493644e-05
-2.3756579571093802e-05   3.004643358579112e-06   1.2139541548493644e-05
-2.585265484677637e-05   4.867215771844381e-06   1.4515456893338585e-05
-2.585265484677637e-05   4.867215771844381e-06   1.4515456893338585e-05
-2.585265484677637e-05   4.867215771844381e-06   1.4515456893338585e-05
-2.585265484677637e-05   4.867215771844381e-06   1.4515456893338585e-05
-1.1379272940082293e-05   2.0630601046977594e-06   1.3422973362063172e-05
-1.1379272940082293e-05   2.0630601046977594e-06   1.3422973362063172e-05
-1.1379272940082293e-05   2.0630601046977594e-06   1.3422973362063172e-05
-1.1379272940082293e-05   2.0630601046977594e-06   1.3422973362063172e-05
-1.2389815987669997e-05   3.886753514773834e-06   1.2832950995462448e-05
-1.2389815987669997e-05   3.886753514773834e-06   1.2832950995462448e-05
-1.2389815987669997e-05   3.886753514773834e-06   1.2832950995462448e-05
-1.2389815987669997e-05   3.886753514773834e-06   1.2832950995462448e-05
-1.2705721820589216e-05   1.3990736789076114e-06   1.443413663537263e-05
-1.2705721820589216e-05   1.3990736789076114e-06   1.443413663537263e-05
-1.2705721820589216e-05   1.3990736789076114e-06   1.443413663537263e-05
-1.2705721820589216e-05   1.3990736789076114e-06   1.443413663537263e-05
-1.2714119761150826e-05   3.038569382234524e-06   1.3464435780979314e-05
-1.2714119761150826e-05   3.038569382234524e-06   1.3464435780979314e-05
-1.2714119761150826e-05   3.038569382234524e-06   1.3464435780979314e-05
-1.2714119761150826e-05   3.038569382234524e-06   1.3464435780979314e-05
-1.1990151937246359e-05   2.4282989443125125e-06   1.2623985003891729e-05
-1.1990151937246359e-05   2.4282989443125125e-06   1.2623985003891729e-05
-1.1990151937246359e-05   2.4282989443125125e-06   1.2623985003891729e-05
-1.1990151937246359e-05   2.4282989443125125e-06   1.2623985003891729e-05
-1.271411976115084e-05   1.3990736789078282e-06   1.3450439213376418e-05
-1.271411976115084e-05   1.3990736789078282e-06   1.3450439213376418e-05
-1.271411976115084e-05   1.3990736789078282e-06   1.3450439213376418e-05
-1.271411976115084e-05   1.3990736789078282e-06   1.3450439213376418e-05
-1.2705721820589216e-05   3.038569382234524e-06   1.4448133202975364e-05
-1.2705721820589216e-05   3.038569382234524e-06   1.4448133202975364e-05
-1.2705721820589216e-05   3.038569382234524e-06   1.4448133202975364e-05
-1.2705721820589216e-05   3.038569382234524e-06   1.4448133202975364e-05
-1.3115841427633033e-05   1.0329105243271457e-06   1.4899296464939804e-05
-1.3115841427633033e-05   1.0329105243271457e-06   1.4899296464939804e-05
-1.3115841427633033e-05   1.0329105243271457e-06   1.4899296464939804e-05
-1.3115841427633033e-05   1.0329105243271457e-06   1.4899296464939804e-05
-1.4011749943178777e-05   2.4514433244772742e-06   1.5541357644092394e-05
-1.4011749943178777e-05   2.4514433244772742e-06   1.5541357644092394e-05
-1.4011749943178777e-05   2.4514433244772742e-06   1.5541357644092394e-05
-1.4011749943178777e-05   2.4514433244772742e-06   1.5541357644092394e-05
-1.2784967387034124e-05   2.06222534636976e-06   1.3730250837382107e-05
-1.2784967387034124e-05   2.06222534636976e-06   1.3730250837382107e-05
-1.2784967387034124e-05   2.06222534636976e-06   1.3730250837382107e-05
-1.2784967387034124e-05   2.06222534636976e-06   1.3730250837382107e-05
-1.401174994317879e-05   1.0329105243271457e-06   1.4048176784849358e-05
-1.401174994317879e-05   1.0329105243271457e-06   1.4048176784849358e-05
-1.401174994317879e-05   1.0329105243271457e-06   1.4048176784849358e-05
-1.401174994317879e-05   1.0329105243271457e-06   1.4048176784849358e-05
-1.3115841427633033e-05   2.4514433244772742e-06   1.6392477324182514e-05
-1.3115841427633033e-05   2.4514433244772742e-06   1.6392477324182514e-05
-1.3115841427633033e-05   2.4514433244772742e-06   1.6392477324182514e-05
-1.3115841427633033e-05   2.4514433244772742e-06   1.6392477324182514e-05
-1.337587498440031e-05   2.5565204567331787e-07   1.639035220569573e-05
-1.337587498440031e-05   2.5565204567331787e-07   1.639035220569573e-05
-1.337587498440031e-05   2.5565204567331787e-07   1.639035220569573e-05
-1.337587498440031e-05   2.5565204567331787e-07   1.639035220569573e-05
-1.539296945904549e-05   1.006922743611023e-06   1.9301413911341586e-05
-1.539296945904549e-05   1.006922743611023e-06   1.9301413911341586e-05
-1.539296945904549e-05   1.006922743611023e-06   1.9301413911341586e-05
-1.539296945904549e-05   1.006922743611023e-06   1.9301413911341586e-05
-1.3339527455938188e-05   1.6119691138953562e-06   1.551598275065843e-05
-1.3339527455938188e-05   1.6119691138953562e-06   1.551598275065843e-05
-1.3339527455938188e-05   1.6119691138953562e-06   1.551598275065843e-05
-1.3339527455938188e-05   1.6119691138953562e-06   1.551598275065843e-05
-1.238981598766997e-05   2.395744706723893e-06   2.6767764583087187e-05
-1.238981598766997e-05   2.395744706723893e-06   2.6767764583087187e-05
-1.238981598766997e-05   2.395744706723893e-06   2.6767764583087187e-05
-1.238981598766997e-05   2.395744706723893e-06   2.6767764583087187e-05
-1.2525473503266726e-05   1.0055431340736266e-06   2.570754778016902e-05
-1.2525473503266726e-05   1.0055431340736266e-06   2.570754778016902e-05
-1.2525473503266726e-05   1.0055431340736266e-06   2.570754778016902e-05
-1.2525473503266726e-05   1.0055431340736266e-06   2.570754778016902e-05
-1.2621653674382323e-05   1.6538843769522103e-06   2.5755441105062985e-05
-1.2621653674382323e-05   1.6538843769522103e-06   2.5755441105062985e-05
-1.2621653674382323e-05   1.6538843769522103e-06   2.5755441105062985e-05
-1.2621653674382323e-05   1.6538843769522103e-06   2.5755441105062985e-05
-1.2705721820589216e-05   4.834106373723199e-07   2.659783892582234e-05
-1.2705721820589216e-05   4.834106373723199e-07   2.659783892582234e-05
-1.2705721820589216e-05   4.834106373723199e-07   2.659783892582234e-05
-1.2705721820589216e-05   4.834106373723199e-07   2.659783892582234e-05
-1.2521485326398885e-05   1.2249630195197876e-06   2.584584667288334e-05
-1.2521485326398885e-05   1.2249630195197876e-06   2.584584667288334e-05
-1.2521485326398885e-05   1.2249630195197876e-06   2.584584667288334e-05
-1.2521485326398885e-05   1.2249630195197876e-06   2.584584667288334e-05
-1.2705721820589209e-05   1.6538843769524272e-06   2.6457725348810442e-05
-1.2705721820589209e-05   1.6538843769524272e-06   2.6457725348810442e-05
-1.2705721820589209e-05   1.6538843769524272e-06   2.6457725348810442e-05
-1.2705721820589209e-05   1.6538843769524272e-06   2.6457725348810442e-05
-1.2621653674382323e-05   4.834106373723199e-07   2.5895554682074315e-05
-1.2621653674382323e-05   4.834106373723199e-07   2.5895554682074315e-05
-1.2621653674382323e-05   4.834106373723199e-07   2.5895554682074315e-05
-1.2621653674382323e-05   4.834106373723199e-07   2.5895554682074315e-05
-1.2741111871597413e-05   9.684655113122859e-07   2.611368163828512e-05
-1.2741111871597413e-05   9.684655113122859e-07   2.611368163828512e-05
-1.2741111871597413e-05   9.684655113122859e-07   2.611368163828512e-05
-1.2741111871597413e-05   9.684655113122859e-07   2.611368163828512e-05
-1.3115841427633033e-05   -1.2320131224810658e-07   2.7393230992480365e-05
-1.3115841427633033e-05   -1.2320131224810658e-07   2.7393230992480365e-05
-1.3115841427633033e-05   -1.2320131224810658e-07   2.7393230992480365e-05
-1.3115841427633033e-05   -1.2320131224810658e-07   2.7393230992480365e-05
-1.2639664672522427e-05   7.918269254408687e-07   2.6050586124682355e-05
-1.2639664672522427e-05   7.918269254408687e-07   2.6050586124682355e-05
-1.2639664672522427e-05   7.918269254408687e-07   2.6050586124682355e-05
-1.2639664672522427e-05   7.918269254408687e-07   2.6050586124682355e-05
-1.3115841427633033e-05   9.684655113122859e-07   2.676868173242077e-05
-1.3115841427633033e-05   9.684655113122859e-07   2.676868173242077e-05
-1.3115841427633033e-05   9.684655113122859e-07   2.676868173242077e-05
-1.3115841427633033e-05   9.684655113122859e-07   2.676868173242077e-05
-1.274111187159736e-05   -1.2320131224810658e-07   2.6738230898344228e-05
-1.274111187159736e-05   -1.2320131224810658e-07   2.6738230898344228e-05
-1.274111187159736e-05   -1.2320131224810658e-07   2.6738230898344228e-05
-1.274111187159736e-05   -1.2320131224810658e-07   2.6738230898344228e-05
-1.2827179260056944e-05   2.2524339328162252e-07   2.6869933372175884e-05
-1.2827179260056944e-05   2.2524339328162252e-07   2.6869933372175884e-05
-1.2827179260056944e-05   2.2524339328162252e-07   2.6869933372175884e-05
-1.2827179260056944e-05   2.2524339328162252e-07   2.6869933372175884e-05
-1.3375874984400296e-05   -9.210554216734085e-07   2.8472205535054357e-05
-1.3375874984400296e-05   -9.210554216734085e-07   2.8472205535054357e-05
-1.3375874984400296e-05   -9.210554216734085e-07   2.8472205535054357e-05
-1.3375874984400296e-05   -9.210554216734085e-07   2.8472205535054357e-05
-1.2827832779602105e-05   2.8212647363939046e-07   2.6836892723202516e-05
-1.2827832779602105e-05   2.8212647363939046e-07   2.6836892723202516e-05
-1.2827832779602105e-05   2.8212647363939046e-07   2.6836892723202516e-05
-1.2827832779602105e-05   2.8212647363939046e-07   2.6836892723202516e-05
-1.2525473503266753e-05   2.868920950031351e-06   2.9530217050930882e-05
-1.2525473503266753e-05   2.868920950031351e-06   2.9530217050930882e-05
-1.2525473503266753e-05   2.868920950031351e-06   2.9530217050930882e-05
-1.2525473503266753e-05   2.868920950031351e-06   2.9530217050930882e-05
-1.346202594218937e-05   2.790481633751455e-07   2.6415372647399223e-05
-1.346202594218937e-05   2.790481633751455e-07   2.6415372647399223e-05
-1.346202594218937e-05   2.790481633751455e-07   2.6415372647399223e-05
-1.346202594218937e-05   2.790481633751455e-07   2.6415372647399223e-05
-1.3492813915611055e-05   2.180954937527988e-06   2.8019253975506428e-05
-1.3492813915611055e-05   2.180954937527988e-06   2.8019253975506428e-05
-1.3492813915611055e-05   2.180954937527988e-06   2.8019253975506428e-05
-1.3492813915611055e-05   2.180954937527988e-06   2.8019253975506428e-05
-1.2621653674382323e-05   -1.627198214339612e-07   2.7973525095502708e-05
-1.2621653674382323e-05   -1.627198214339612e-07   2.7973525095502708e-05
-1.2621653674382323e-05   -1.627198214339612e-07   2.7973525095502708e-05
-1.2621653674382323e-05   -1.627198214339612e-07   2.7973525095502708e-05
-1.3002860910495449e-05   1.248349828305781e-06   2.776222869918082e-05
-1.3002860910495449e-05   1.248349828305781e-06   2.776222869918082e-05
-1.3002860910495449e-05   1.248349828305781e-06   2.776222869918082e-05
-1.3002860910495449e-05   1.248349828305781e-06   2.776222869918082e-05
-1.2621653674382323e-05   2.180954937528205e-06   2.9425458830883685e-05
-1.2621653674382323e-05   2.180954937528205e-06   2.9425458830883685e-05
-1.2621653674382323e-05   2.180954937528205e-06   2.9425458830883685e-05
-1.2621653674382323e-05   2.180954937528205e-06   2.9425458830883685e-05
-1.3492813915611001e-05   -1.627198214339612e-07   2.656732024012537e-05
-1.3492813915611001e-05   -1.627198214339612e-07   2.656732024012537e-05
-1.3492813915611001e-05   -1.627198214339612e-07   2.656732024012537e-05
-1.3492813915611001e-05   -1.627198214339612e-07   2.656732024012537e-05
-1.3550542390365942e-05   1.4816917460549767e-06   2.846103803674435e-05
-1.3550542390365942e-05   1.4816917460549767e-06   2.846103803674435e-05
-1.3550542390365942e-05   1.4816917460549767e-06   2.846103803674435e-05
-1.3550542390365942e-05   1.4816917460549767e-06   2.846103803674435e-05
-1.2741111871597413e-05   -6.917775463601266e-07   2.841606874757883e-05
-1.2741111871597413e-05   -6.917775463601266e-07   2.841606874757883e-05
-1.2741111871597413e-05   -6.917775463601266e-07   2.841606874757883e-05
-1.2741111871597413e-05   -6.917775463601266e-07   2.841606874757883e-05
-1.3007919784377168e-05   8.104775466827134e-07   2.7959395546385286e-05
-1.3007919784377168e-05   8.104775466827134e-07   2.7959395546385286e-05
-1.3007919784377168e-05   8.104775466827134e-07   2.7959395546385286e-05
-1.3007919784377168e-05   8.104775466827134e-07   2.7959395546385286e-05
-1.2741111871597413e-05   1.4816917460549767e-06   2.9765119612192937e-05
-1.2741111871597413e-05   1.4816917460549767e-06   2.9765119612192937e-05
-1.2741111871597413e-05   1.4816917460549767e-06   2.9765119612192937e-05
-1.2741111871597413e-05   1.4816917460549767e-06   2.9765119612192937e-05
-1.3550542390365888e-05   -6.917775463600182e-07   2.7111987172129758e-05
-1.3550542390365888e-05   -6.917775463600182e-07   2.7111987172129758e-05
-1.3550542390365888e-05   -6.917775463600182e-07   2.7111987172129758e-05
-1.3550542390365888e-05   -6.917775463600182e-07   2.7111987172129758e-05
-1.3586601804020844e-05   8.185481614158673e-07   2.9248475026742932e-05
-1.3586601804020844e-05   8.185481614158673e-07   2.9248475026742932e-05
-1.3586601804020844e-05   8.185481614158673e-07   2.9248475026742932e-05
-1.3586601804020844e-05   8.185481614158673e-07   2.9248475026742932e-05
-1.2827179260056917e-05   -1.2234850421741347e-06   2.920799070895688e-05
-1.2827179260056917e-05   -1.2234850421741347e-06   2.920799070895688e-05
-1.2827179260056917e-05   -1.2234850421741347e-06   2.920799070895688e-05
-1.2827179260056917e-05   -1.2234850421741347e-06   2.920799070895688e-05
-1.3034482192722394e-05   3.602087850630535e-07   2.8603279300389495e-05
-1.3034482192722394e-05   3.602087850630535e-07   2.8603279300389495e-05
-1.3034482192722394e-05   3.602087850630535e-07   2.8603279300389495e-05
-1.3034482192722394e-05   3.602087850630535e-07   2.8603279300389495e-05
-1.346202594218937e-05   3.875875883262592e-06   2.4045687868497504e-05
-1.346202594218937e-05   3.875875883262592e-06   2.4045687868497504e-05
-1.346202594218937e-05   3.875875883262592e-06   2.4045687868497504e-05
-1.346202594218937e-05   3.875875883262592e-06   2.4045687868497504e-05
-1.4826986629259422e-05   1.2715215347533807e-06   2.020814078094195e-05
-1.4826986629259422e-05   1.2715215347533807e-06   2.020814078094195e-05
-1.4826986629259422e-05   1.2715215347533807e-06   2.020814078094195e-05
-1.4826986629259422e-05   1.2715215347533807e-06   2.020814078094195e-05
-1.4849055524221986e-05   3.15201847359654e-06   2.270664911965619e-05
-1.4849055524221986e-05   3.15201847359654e-06   2.270664911965619e-05
-1.4849055524221986e-05   3.15201847359654e-06   2.270664911965619e-05
-1.4849055524221986e-05   3.15201847359654e-06   2.270664911965619e-05
-1.3492813915611055e-05   6.897489290230794e-07   2.1923608165382068e-05
-1.3492813915611055e-05   6.897489290230794e-07   2.1923608165382068e-05
-1.3492813915611055e-05   6.897489290230794e-07   2.1923608165382068e-05
-1.3492813915611055e-05   6.897489290230794e-07   2.1923608165382068e-05
-1.4120649219862257e-05   2.301160683996833e-06   2.2003153286149872e-05
-1.4120649219862257e-05   2.301160683996833e-06   2.2003153286149872e-05
-1.4120649219862257e-05   2.301160683996833e-06   2.2003153286149872e-05
-1.4120649219862257e-05   2.301160683996833e-06   2.2003153286149872e-05
-1.3492813915611055e-05   3.152018473596323e-06   2.4184010846400178e-05
-1.3492813915611055e-05   3.152018473596323e-06   2.4184010846400178e-05
-1.3492813915611055e-05   3.152018473596323e-06   2.4184010846400178e-05
-1.3492813915611055e-05   3.152018473596323e-06   2.4184010846400178e-05
-1.4849055524221986e-05   6.897489290230794e-07   2.0446246438638085e-05
-1.4849055524221986e-05   6.897489290230794e-07   2.0446246438638085e-05
-1.4849055524221986e-05   6.897489290230794e-07   2.0446246438638085e-05
-1.4849055524221986e-05   6.897489290230794e-07   2.0446246438638085e-05
-1.5008218639605447e-05   2.508312156310156e-06   2.3549370300366638e-05
-1.5008218639605447e-05   2.508312156310156e-06   2.3549370300366638e-05
-1.5008218639605447e-05   2.508312156310156e-06   2.3549370300366638e-05
-1.5008218639605447e-05   2.508312156310156e-06   2.3549370300366638e-05
-1.3550542390365942e-05   1.9173310772272e-07   2.2509857314119744e-05
-1.3550542390365942e-05   1.9173310772272e-07   2.2509857314119744e-05
-1.3550542390365942e-05   1.9173310772272e-07   2.2509857314119744e-05
-1.3550542390365942e-05   1.9173310772272e-07   2.2509857314119744e-05
-1.4078281183046868e-05   1.822867375031673e-06   2.2410741408201485e-05
-1.4078281183046868e-05   1.822867375031673e-06   2.2410741408201485e-05
-1.4078281183046868e-05   1.822867375031673e-06   2.2410741408201485e-05
-1.4078281183046868e-05   1.822867375031673e-06   2.2410741408201485e-05
-1.3550542390365888e-05   2.508312156310156e-06   2.4939317729518557e-05
-1.3550542390365888e-05   2.508312156310156e-06   2.4939317729518557e-05
-1.3550542390365888e-05   2.508312156310156e-06   2.4939317729518557e-05
-1.3550542390365888e-05   2.508312156310156e-06   2.4939317729518557e-05
-1.5008218639605447e-05   1.9173310772261157e-07   2.1119909884967357e-05
-1.5008218639605447e-05   1.9173310772261157e-07   2.1119909884967357e-05
-1.5008218639605447e-05   1.9173310772261157e-07   2.1119909884967357e-05
-1.5008218639605447e-05   1.9173310772261157e-07   2.1119909884967357e-05
-1.5102481127655693e-05   1.852844966687868e-06   2.4597046729881583e-05
-1.5102481127655693e-05   1.852844966687868e-06   2.4597046729881583e-05
-1.5102481127655693e-05   1.852844966687868e-06   2.4597046729881583e-05
-1.5102481127655693e-05   1.852844966687868e-06   2.4597046729881583e-05
-1.358660180402079e-05   -3.102037524918772e-07   2.336841042199756e-05
-1.358660180402079e-05   -3.102037524918772e-07   2.336841042199756e-05
-1.358660180402079e-05   -3.102037524918772e-07   2.336841042199756e-05
-1.358660180402079e-05   -3.102037524918772e-07   2.336841042199756e-05
-1.4146700741362515e-05   1.3958776794442684e-06   2.327825979173831e-05
-1.4146700741362515e-05   1.3958776794442684e-06   2.327825979173831e-05
-1.4146700741362515e-05   1.3958776794442684e-06   2.327825979173831e-05
-1.4146700741362515e-05   1.3958776794442684e-06   2.327825979173831e-05
-1.4826986629259422e-05   4.5746746994142044e-06   9.231559067572896e-06
-1.4826986629259422e-05   4.5746746994142044e-06   9.231559067572896e-06
-1.4826986629259422e-05   4.5746746994142044e-06   9.231559067572896e-06
-1.4826986629259422e-05   4.5746746994142044e-06   9.231559067572896e-06
-1.4611606526149278e-05   2.0919511344448223e-06   8.10089176710838e-06
-1.4611606526149278e-05   2.0919511344448223e-06   8.10089176710838e-06
-1.4611606526149278e-05   2.0919511344448223e-06   8.10089176710838e-06
-1.4611606526149278e-05   2.0919511344448223e-06   8.10089176710838e-06
-1.5362808371692277e-05   4.092930664111125e-06   1.0113056402331335e-05
-1.5362808371692277e-05   4.092930664111125e-06   1.0113056402331335e-05
-1.5362808371692277e-05   4.092930664111125e-06   1.0113056402331335e-05
-1.5362808371692277e-05   4.092930664111125e-06   1.0113056402331335e-05
-1.4849055524221932e-05   1.6807062572485364e-06   1.0704136300665142e-05
-1.4849055524221932e-05   1.6807062572485364e-06   1.0704136300665142e-05
-1.4849055524221932e-05   1.6807062572485364e-06   1.0704136300665142e-05
-1.4849055524221932e-05   1.6807062572485364e-06   1.0704136300665142e-05
-1.442842855154888e-05   3.217081158153135e-06   9.08126640566736e-06
-1.442842855154888e-05   3.217081158153135e-06   9.08126640566736e-06
-1.442842855154888e-05   3.217081158153135e-06   9.08126640566736e-06
-1.442842855154888e-05   3.217081158153135e-06   9.08126640566736e-06
-1.4849055524221878e-05   4.092930664111342e-06   1.1560391046448563e-05
-1.4849055524221878e-05   4.092930664111342e-06   1.1560391046448563e-05
-1.4849055524221878e-05   4.092930664111342e-06   1.1560391046448563e-05
-1.4849055524221878e-05   4.092930664111342e-06   1.1560391046448563e-05
-1.5362808371692277e-05   1.6807062572486448e-06   9.256801656547535e-06
-1.5362808371692277e-05   1.6807062572486448e-06   9.256801656547535e-06
-1.5362808371692277e-05   1.6807062572486448e-06   9.256801656547535e-06
-1.5362808371692277e-05   1.6807062572486448e-06   9.256801656547535e-06
-1.6022672343227076e-05   3.7623600063017154e-06   1.1994960935901794e-05
-1.6022672343227076e-05   3.7623600063017154e-06   1.1994960935901794e-05
-1.6022672343227076e-05   3.7623600063017154e-06   1.1994960935901794e-05
-1.6022672343227076e-05   3.7623600063017154e-06   1.1994960935901794e-05
-1.5008218639605392e-05   1.4116837223791595e-06   1.1714610533552442e-05
-1.5008218639605392e-05   1.4116837223791595e-06   1.1714610533552442e-05
-1.5008218639605392e-05   1.4116837223791595e-06   1.1714610533552442e-05
-1.5008218639605392e-05   1.4116837223791595e-06   1.1714610533552442e-05
-1.4962952495434098e-05   2.9761440256102518e-06   1.0700490777994297e-05
-1.4962952495434098e-05   2.9761440256102518e-06   1.0700490777994297e-05
-1.4962952495434098e-05   2.9761440256102518e-06   1.0700490777994297e-05
-1.4962952495434098e-05   2.9761440256102518e-06   1.0700490777994297e-05
-1.5008218639605392e-05   3.7623600063017154e-06   1.3405366706255068e-05
-1.5008218639605392e-05   3.7623600063017154e-06   1.3405366706255068e-05
-1.5008218639605392e-05   3.7623600063017154e-06   1.3405366706255068e-05
-1.5008218639605392e-05   3.7623600063017154e-06   1.3405366706255068e-05
-1.6022672343227184e-05   1.4116837223791595e-06   1.0304204763198844e-05
-1.6022672343227184e-05   1.4116837223791595e-06   1.0304204763198844e-05
-1.6022672343227184e-05   1.4116837223791595e-06   1.0304204763198844e-05
-1.6022672343227184e-05   1.4116837223791595e-06   1.0304204763198844e-05
-1.7005739730652008e-05   3.004643358579112e-06   1.5452415026438997e-05
-1.7005739730652008e-05   3.004643358579112e-06   1.5452415026438997e-05
-1.7005739730652008e-05   3.004643358579112e-06   1.5452415026438997e-05
-1.7005739730652008e-05   3.004643358579112e-06   1.5452415026438997e-05
-1.5102481127655639e-05   8.719881083789176e-07   1.3559910504898484e-05
-1.5102481127655639e-05   8.719881083789176e-07   1.3559910504898484e-05
-1.5102481127655639e-05   8.719881083789176e-07   1.3559910504898484e-05
-1.5102481127655639e-05   8.719881083789176e-07   1.3559910504898484e-05
-1.5143478655243873e-05   2.690762699579345e-06   1.2536974962823965e-05
-1.5143478655243873e-05   2.690762699579345e-06   1.2536974962823965e-05
-1.5143478655243873e-05   2.690762699579345e-06   1.2536974962823965e-05
-1.5143478655243873e-05   2.690762699579345e-06   1.2536974962823965e-05
-2.9357719824198562e-05   3.886753514773834e-06   1.120732744993181e-05
-2.9357719824198562e-05   3.886753514773834e-06   1.120732744993181e-05
-2.9357719824198562e-05   3.886753514773834e-06   1.120732744993181e-05
-2.9357719824198562e-05   3.886753514773834e-06   1.120732744993181e-05
-1.9790891748830498e-05   5.385480123544712e-06   2.80512768741412e-05
-1.9790891748830498e-05   5.385480123544712e-06   2.80512768741412e-05
-1.9790891748830498e-05   5.385480123544712e-06   2.80512768741412e-05
-1.9790891748830498e-05   5.385480123544712e-06   2.80512768741412e-05
-1.9779381276792793e-05   3.038569382234524e-06   1.275866895984214e-05
-1.9779381276792793e-05   3.038569382234524e-06   1.275866895984214e-05
-1.9779381276792793e-05   3.038569382234524e-06   1.275866895984214e-05
-1.9779381276792793e-05   3.038569382234524e-06   1.275866895984214e-05
-3.232120569456447e-05   2.196745340929591e-06   3.416680408091146e-05
-3.232120569456447e-05   2.196745340929591e-06   3.416680408091146e-05
-3.232120569456447e-05   2.196745340929591e-06   3.416680408091146e-05
-3.232120569456447e-05   2.196745340929591e-06   3.416680408091146e-05
-2.4006734613331666e-05   3.194846214640769e-06   1.9710491754630085e-05
-2.4006734613331666e-05   3.194846214640769e-06   1.9710491754630085e-05
-2.4006734613331666e-05   3.194846214640769e-06   1.9710491754630085e-05
-2.4006734613331666e-05   3.194846214640769e-06   1.9710491754630085e-05
-3.232120569456452e-05   3.038569382234524e-06   1.326376338462511e-05
-3.232120569456452e-05   3.038569382234524e-06   1.326376338462511e-05
-3.232120569456452e-05   3.038569382234524e-06   1.326376338462511e-05
-3.232120569456452e-05   3.038569382234524e-06   1.326376338462511e-05
-1.9779381276792793e-05   2.196745340929591e-06   3.36617096561285e-05
-1.9779381276792793e-05   2.196745340929591e-06   3.36617096561285e-05
-1.9779381276792793e-05   2.196745340929591e-06   3.36617096561285e-05
-1.9779381276792793e-05   2.196745340929591e-06   3.36617096561285e-05
-2.0043990141712128e-05   2.4514433244772742e-06   1.4284115839960929e-05
-2.0043990141712128e-05   2.4514433244772742e-06   1.4284115839960929e-05
-2.0043990141712128e-05   2.4514433244772742e-06   1.4284115839960929e-05
-2.0043990141712128e-05   2.4514433244772742e-06   1.4284115839960929e-05
-3.24302372222977e-05   1.5816826992349911e-06   3.5449717349415484e-05
-3.24302372222977e-05   1.5816826992349911e-06   3.5449717349415484e-05
-3.24302372222977e-05   1.5816826992349911e-06   3.5449717349415484e-05
-3.24302372222977e-05   1.5816826992349911e-06   3.5449717349415484e-05
-2.560882942328844e-05   2.0014986915520934e-06   2.382881475567622e-05
-2.560882942328844e-05   2.0014986915520934e-06   2.382881475567622e-05
-2.560882942328844e-05   2.0014986915520934e-06   2.382881475567622e-05
-2.560882942328844e-05   2.0014986915520934e-06   2.382881475567622e-05
-3.243023722229776e-05   2.4514433244772742e-06   1.4805972215106386e-05
-3.243023722229776e-05   2.4514433244772742e-06   1.4805972215106386e-05
-3.243023722229776e-05   2.4514433244772742e-06   1.4805972215106386e-05
-3.243023722229776e-05   2.4514433244772742e-06   1.4805972215106386e-05
-2.0043990141712094e-05   1.5816826992349911e-06   3.492786097427015e-05
-2.0043990141712094e-05   1.5816826992349911e-06   3.492786097427015e-05
-2.0043990141712094e-05   1.5816826992349911e-06   3.492786097427015e-05
-2.0043990141712094e-05   1.5816826992349911e-06   3.492786097427015e-05
-1.9824894973650953e-05   1.006922743611023e-06   1.6953278776529095e-05
-1.9824894973650953e-05   1.006922743611023e-06   1.6953278776529095e-05
-1.9824894973650953e-05   1.006922743611023e-06   1.6953278776529095e-05
-1.9824894973650953e-05   1.006922743611023e-06   1.6953278776529095e-05
-3.2773074469782716e-05   -1.0307901566145722e-06   3.975620567688396e-05
-3.2773074469782716e-05   -1.0307901566145722e-06   3.975620567688396e-05
-3.2773074469782716e-05   -1.0307901566145722e-06   3.975620567688396e-05
-3.2773074469782716e-05   -1.0307901566145722e-06   3.975620567688396e-05
-2.5212688110573284e-05   9.772774257823125e-07   2.5950721195430097e-05
-2.5212688110573284e-05   9.772774257823125e-07   2.5950721195430097e-05
-2.5212688110573284e-05   9.772774257823125e-07   2.5950721195430097e-05
-2.5212688110573284e-05   9.772774257823125e-07   2.5950721195430097e-05
-1.9790891748830525e-05   1.0055431340735181e-06   2.5815281143491188e-05
-1.9790891748830525e-05   1.0055431340735181e-06   2.5815281143491188e-05
-1.9790891748830525e-05   1.0055431340735181e-06   2.5815281143491188e-05
-1.9790891748830525e-05   1.0055431340735181e-06   2.5815281143491188e-05
-1.2129584419857606e-05   -6.0329749158524195e-06   3.4361015861823795e-05
-1.2129584419857606e-05   -6.0329749158524195e-06   3.4361015861823795e-05
-1.2129584419857606e-05   -6.0329749158524195e-06   3.4361015861823795e-05
-1.2129584419857606e-05   -6.0329749158524195e-06   3.4361015861823795e-05
-1.2150897649122158e-05   4.834106373724284e-07   2.1656556465222206e-05
-1.2150897649122158e-05   4.834106373724284e-07   2.1656556465222206e-05
-1.2150897649122158e-05   4.834106373724284e-07   2.1656556465222206e-05
-1.2150897649122158e-05   4.834106373724284e-07   2.1656556465222206e-05
-1.9779381276792793e-05   -4.936286391739352e-06   3.7622514062140484e-05
-1.9779381276792793e-05   -4.936286391739352e-06   3.7622514062140484e-05
-1.9779381276792793e-05   -4.936286391739352e-06   3.7622514062140484e-05
-1.9779381276792793e-05   -4.936286391739352e-06   3.7622514062140484e-05
-1.5876782363447232e-05   -2.982550167081712e-06   2.9945940805103363e-05
-1.5876782363447232e-05   -2.982550167081712e-06   2.9945940805103363e-05
-1.5876782363447232e-05   -2.982550167081712e-06   2.9945940805103363e-05
-1.5876782363447232e-05   -2.982550167081712e-06   2.9945940805103363e-05
-1.977938127679282e-05   4.834106373724284e-07   2.490837468268898e-05
-1.977938127679282e-05   4.834106373724284e-07   2.490837468268898e-05
-1.977938127679282e-05   4.834106373724284e-07   2.490837468268898e-05
-1.977938127679282e-05   4.834106373724284e-07   2.490837468268898e-05
-1.2150897649122131e-05   -4.936286391739352e-06   3.437069584467345e-05
-1.2150897649122131e-05   -4.936286391739352e-06   3.437069584467345e-05
-1.2150897649122131e-05   -4.936286391739352e-06   3.437069584467345e-05
-1.2150897649122131e-05   -4.936286391739352e-06   3.437069584467345e-05
-1.2194007028984747e-05   -1.2320131224810658e-07   2.2329115269802352e-05
-1.2194007028984747e-05   -1.2320131224810658e-07   2.2329115269802352e-05
-1.2194007028984747e-05   -1.2320131224810658e-07   2.2329115269802352e-05
-1.2194007028984747e-05   -1.2320131224810658e-07   2.2329115269802352e-05
-2.0043990141712094e-05   -5.0494583763422795e-06   3.8368174696137706e-05
-2.0043990141712094e-05   -5.0494583763422795e-06   3.8368174696137706e-05
-2.0043990141712094e-05   -5.0494583763422795e-06   3.8368174696137706e-05
-2.0043990141712094e-05   -5.0494583763422795e-06   3.8368174696137706e-05
-1.5757611274403526e-05   -2.605619510636292e-06   2.975790659786627e-05
-1.5757611274403526e-05   -2.605619510636292e-06   2.975790659786627e-05
-1.5757611274403526e-05   -2.605619510636292e-06   2.975790659786627e-05
-1.5757611274403526e-05   -2.605619510636292e-06   2.975790659786627e-05
-2.0043990141712128e-05   -1.2320131224810658e-07   2.528486950825889e-05
-2.0043990141712128e-05   -1.2320131224810658e-07   2.528486950825889e-05
-2.0043990141712128e-05   -1.2320131224810658e-07   2.528486950825889e-05
-2.0043990141712128e-05   -1.2320131224810658e-07   2.528486950825889e-05
-1.219400702898472e-05   -5.0494583763422795e-06   3.541242045768114e-05
-1.219400702898472e-05   -5.0494583763422795e-06   3.541242045768114e-05
-1.219400702898472e-05   -5.0494583763422795e-06   3.541242045768114e-05
-1.219400702898472e-05   -5.0494583763422795e-06   3.541242045768114e-05
-1.2069437073302351e-05   -9.210554216734085e-07   2.3166700752090064e-05
-1.2069437073302351e-05   -9.210554216734085e-07   2.3166700752090064e-05
-1.2069437073302351e-05   -9.210554216734085e-07   2.3166700752090064e-05
-1.2069437073302351e-05   -9.210554216734085e-07   2.3166700752090064e-05
-1.9824894973650906e-05   -5.098734137322098e-06   3.8599071148726695e-05
-1.9824894973650906e-05   -5.098734137322098e-06   3.8599071148726695e-05
-1.9824894973650906e-05   -5.098734137322098e-06   3.8599071148726695e-05
-1.9824894973650906e-05   -5.098734137322098e-06   3.8599071148726695e-05
-1.5826052959110486e-05   -2.92799302042577e-06   3.063188978768823e-05
-1.5826052959110486e-05   -2.92799302042577e-06   3.063188978768823e-05
-1.5826052959110486e-05   -2.92799302042577e-06   3.063188978768823e-05
-1.5826052959110486e-05   -2.92799302042577e-06   3.063188978768823e-05
-1.2129584419857606e-05   2.790481633751455e-07   2.3853918852759616e-05
-1.2129584419857606e-05   2.790481633751455e-07   2.3853918852759616e-05
-1.2129584419857606e-05   2.790481633751455e-07   2.3853918852759616e-05
-1.2129584419857606e-05   2.790481633751455e-07   2.3853918852759616e-05
-8.910351113406356e-06   -4.7125296342007865e-06   2.6224361018299482e-05
-8.910351113406356e-06   -4.7125296342007865e-06   2.6224361018299482e-05
-8.910351113406356e-06   -4.7125296342007865e-06   2.6224361018299482e-05
-8.910351113406356e-06   -4.7125296342007865e-06   2.6224361018299482e-05
-8.827304498364716e-06   -1.627198214339612e-07   2.1055216513950724e-05
-8.827304498364716e-06   -1.627198214339612e-07   2.1055216513950724e-05
-8.827304498364716e-06   -1.627198214339612e-07   2.1055216513950724e-05
-8.827304498364716e-06   -1.627198214339612e-07   2.1055216513950724e-05
-1.2150897649122131e-05   -4.628237095933609e-06   2.9273848796579588e-05
-1.2150897649122131e-05   -4.628237095933609e-06   2.9273848796579588e-05
-1.2150897649122131e-05   -4.628237095933609e-06   2.9273848796579588e-05
-1.2150897649122131e-05   -4.628237095933609e-06   2.9273848796579588e-05
-1.0439465561320763e-05   -2.382362494120975e-06   2.507393722248996e-05
-1.0439465561320763e-05   -2.382362494120975e-06   2.507393722248996e-05
-1.0439465561320763e-05   -2.382362494120975e-06   2.507393722248996e-05
-1.0439465561320763e-05   -2.382362494120975e-06   2.507393722248996e-05
-1.2150897649122131e-05   -1.627198214339612e-07   2.3734526878650436e-05
-1.2150897649122131e-05   -1.627198214339612e-07   2.3734526878650436e-05
-1.2150897649122131e-05   -1.627198214339612e-07   2.3734526878650436e-05
-1.2150897649122131e-05   -1.627198214339612e-07   2.3734526878650436e-05
-8.827304498364716e-06   -4.628237095933609e-06   2.659453843187995e-05
-8.827304498364716e-06   -4.628237095933609e-06   2.659453843187995e-05
-8.827304498364716e-06   -4.628237095933609e-06   2.659453843187995e-05
-8.827304498364716e-06   -4.628237095933609e-06   2.659453843187995e-05
-8.754911351349399e-06   -6.917775463601266e-07   2.1559862289544335e-05
-8.754911351349399e-06   -6.917775463601266e-07   2.1559862289544335e-05
-8.754911351349399e-06   -6.917775463601266e-07   2.1559862289544335e-05
-8.754911351349399e-06   -6.917775463601266e-07   2.1559862289544335e-05
-1.219400702898472e-05   -4.770262262181126e-06   2.9738779248429095e-05
-1.219400702898472e-05   -4.770262262181126e-06   2.9738779248429095e-05
-1.219400702898472e-05   -4.770262262181126e-06   2.9738779248429095e-05
-1.219400702898472e-05   -4.770262262181126e-06   2.9738779248429095e-05
-1.0343861391008712e-05   -2.5423667004501873e-06   2.531846584809651e-05
-1.0343861391008712e-05   -2.5423667004501873e-06   2.531846584809651e-05
-1.0343861391008712e-05   -2.5423667004501873e-06   2.531846584809651e-05
-1.0343861391008712e-05   -2.5423667004501873e-06   2.531846584809651e-05
-1.219400702898472e-05   -6.917775463600182e-07   2.400695311903701e-05
-1.219400702898472e-05   -6.917775463600182e-07   2.400695311903701e-05
-1.219400702898472e-05   -6.917775463600182e-07   2.400695311903701e-05
-1.219400702898472e-05   -6.917775463600182e-07   2.400695311903701e-05
-8.754911351349453e-06   -4.770262262181126e-06   2.7291688418936426e-05
-8.754911351349453e-06   -4.770262262181126e-06   2.7291688418936426e-05
-8.754911351349453e-06   -4.770262262181126e-06   2.7291688418936426e-05
-8.754911351349453e-06   -4.770262262181126e-06   2.7291688418936426e-05
-8.578426741842572e-06   -1.2234850421741347e-06   2.234078757778861e-05
-8.578426741842572e-06   -1.2234850421741347e-06   2.234078757778861e-05
-8.578426741842572e-06   -1.2234850421741347e-06   2.234078757778861e-05
-8.578426741842572e-06   -1.2234850421741347e-06   2.234078757778861e-05
-1.2069437073302351e-05   -4.9726144374691176e-06   3.040861576739833e-05
-1.2069437073302351e-05   -4.9726144374691176e-06   3.040861576739833e-05
-1.2069437073302351e-05   -4.9726144374691176e-06   3.040861576739833e-05
-1.2069437073302351e-05   -4.9726144374691176e-06   3.040861576739833e-05
-1.0231838252924651e-05   -2.774932113332575e-06   2.60273416722869e-05
-1.0231838252924651e-05   -2.774932113332575e-06   2.60273416722869e-05
-1.0231838252924651e-05   -2.774932113332575e-06   2.60273416722869e-05
-1.0231838252924651e-05   -2.774932113332575e-06   2.60273416722869e-05
-8.910351113406356e-06   1.2715215347533807e-06   1.6214352916862147e-05
-8.910351113406356e-06   1.2715215347533807e-06   1.6214352916862147e-05
-8.910351113406356e-06   1.2715215347533807e-06   1.6214352916862147e-05
-8.910351113406356e-06   1.2715215347533807e-06   1.6214352916862147e-05
-7.413285163739415e-06   -1.932365400308055e-06   1.6787130671936745e-05
-7.413285163739415e-06   -1.932365400308055e-06   1.6787130671936745e-05
-7.413285163739415e-06   -1.932365400308055e-06   1.6787130671936745e-05
-7.413285163739415e-06   -1.932365400308055e-06   1.6787130671936745e-05
-7.250102128010516e-06   6.897489290230794e-07   1.4639688989005273e-05
-7.250102128010516e-06   6.897489290230794e-07   1.4639688989005273e-05
-7.250102128010516e-06   6.897489290230794e-07   1.4639688989005273e-05
-7.250102128010516e-06   6.897489290230794e-07   1.4639688989005273e-05
-8.827304498364716e-06   -2.263276821313771e-06   1.9040175056464666e-05
-8.827304498364716e-06   -2.263276821313771e-06   1.9040175056464666e-05
-8.827304498364716e-06   -2.263276821313771e-06   1.9040175056464666e-05
-8.827304498364716e-06   -2.263276821313771e-06   1.9040175056464666e-05
-8.040975568135455e-06   -4.4061540958374203e-07   1.6636029992378042e-05
-8.040975568135455e-06   -4.4061540958374203e-07   1.6636029992378042e-05
-8.040975568135455e-06   -4.4061540958374203e-07   1.6636029992378042e-05
-8.040975568135455e-06   -4.4061540958374203e-07   1.6636029992378042e-05
-8.827304498364716e-06   6.897489290230794e-07   1.6411504439207394e-05
-8.827304498364716e-06   6.897489290230794e-07   1.6411504439207394e-05
-8.827304498364716e-06   6.897489290230794e-07   1.6411504439207394e-05
-8.827304498364716e-06   6.897489290230794e-07   1.6411504439207394e-05
-7.250102128010516e-06   -2.263276821313771e-06   1.7268359606262545e-05
-7.250102128010516e-06   -2.263276821313771e-06   1.7268359606262545e-05
-7.250102128010516e-06   -2.263276821313771e-06   1.7268359606262545e-05
-7.250102128010516e-06   -2.263276821313771e-06   1.7268359606262545e-05
-7.174310924475873e-06   1.9173310772261157e-07   1.5332937187991554e-05
-7.174310924475873e-06   1.9173310772261157e-07   1.5332937187991554e-05
-7.174310924475873e-06   1.9173310772261157e-07   1.5332937187991554e-05
-7.174310924475873e-06   1.9173310772261157e-07   1.5332937187991554e-05
-8.754911351349399e-06   -2.516258964849064e-06   1.9592066476323278e-05
-8.754911351349399e-06   -2.516258964849064e-06   1.9592066476323278e-05
-8.754911351349399e-06   -2.516258964849064e-06   1.9592066476323278e-05
-8.754911351349399e-06   -2.516258964849064e-06   1.9592066476323278e-05
-7.879289937173252e-06   -7.956143972162035e-07   1.710031071211623e-05
-7.879289937173252e-06   -7.956143972162035e-07   1.710031071211623e-05
-7.879289937173252e-06   -7.956143972162035e-07   1.710031071211623e-05
-7.879289937173252e-06   -7.956143972162035e-07   1.710031071211623e-05
-8.754911351349399e-06   1.9173310772261157e-07   1.6957732431534213e-05
-8.754911351349399e-06   1.9173310772261157e-07   1.6957732431534213e-05
-8.754911351349399e-06   1.9173310772261157e-07   1.6957732431534213e-05
-8.754911351349399e-06   1.9173310772261157e-07   1.6957732431534213e-05
-7.174310924475927e-06   -2.5162589648490097e-06   1.796727123278035e-05
-7.174310924475927e-06   -2.5162589648490097e-06   1.796727123278035e-05
-7.174310924475927e-06   -2.5162589648490097e-06   1.796727123278035e-05
-7.174310924475927e-06   -2.5162589648490097e-06   1.796727123278035e-05
-7.05162712140309e-06   -3.102037524918772e-07   1.6203530723725174e-05
-7.05162712140309e-06   -3.102037524918772e-07   1.6203530723725174e-05
-7.05162712140309e-06   -3.102037524918772e-07   1.6203530723725174e-05
-7.05162712140309e-06   -3.102037524918772e-07   1.6203530723725174e-05
-8.578426741842572e-06   -2.8483645679218688e-06   2.027109324704917e-05
-8.578426741842572e-06   -2.8483645679218688e-06   2.027109324704917e-05
-8.578426741842572e-06   -2.8483645679218688e-06   2.027109324704917e-05
-8.578426741842572e-06   -2.8483645679218688e-06   2.027109324704917e-05
-7.752559755925615e-06   -1.1063741912545463e-06   1.7849454044520743e-05
-7.752559755925615e-06   -1.1063741912545463e-06   1.7849454044520743e-05
-7.752559755925615e-06   -1.1063741912545463e-06   1.7849454044520743e-05
-7.752559755925615e-06   -1.1063741912545463e-06   1.7849454044520743e-05
-7.413285163739415e-06   2.0919511344448223e-06   3.674405880973368e-06
-7.413285163739415e-06   2.0919511344448223e-06   3.674405880973368e-06
-7.413285163739415e-06   2.0919511344448223e-06   3.674405880973368e-06
-7.413285163739415e-06   2.0919511344448223e-06   3.674405880973368e-06
-4.263126435591715e-06   -2.1845108421925672e-07   7.538429096687837e-06
-4.263126435591715e-06   -2.1845108421925672e-07   7.538429096687837e-06
-4.263126435591715e-06   -2.1845108421925672e-07   7.538429096687837e-06
-4.263126435591715e-06   -2.1845108421925672e-07   7.538429096687837e-06
-4.5021641883175425e-06   1.6807062572486448e-06   3.706966797551543e-06
-4.5021641883175425e-06   1.6807062572486448e-06   3.706966797551543e-06
-4.5021641883175425e-06   1.6807062572486448e-06   3.706966797551543e-06
-4.5021641883175425e-06   1.6807062572486448e-06   3.706966797551543e-06
-7.250102128010516e-06   -3.036471652195262e-07   9.477475417187528e-06
-7.250102128010516e-06   -3.036471652195262e-07   9.477475417187528e-06
-7.250102128010516e-06   -3.036471652195262e-07   9.477475417187528e-06
-7.250102128010516e-06   -3.036471652195262e-07   9.477475417187528e-06
-5.655822202391809e-06   1.0748448106713939e-06   5.993247022288944e-06
-5.655822202391809e-06   1.0748448106713939e-06   5.993247022288944e-06
-5.655822202391809e-06   1.0748448106713939e-06   5.993247022288944e-06
-5.655822202391809e-06   1.0748448106713939e-06   5.993247022288944e-06
-7.250102128010516e-06   1.6807062572485364e-06   4.89757885103212e-06
-7.250102128010516e-06   1.6807062572485364e-06   4.89757885103212e-06
-7.250102128010516e-06   1.6807062572485364e-06   4.89757885103212e-06
-7.250102128010516e-06   1.6807062572485364e-06   4.89757885103212e-06
-4.5021641883175425e-06   -3.036471652195262e-07   8.286863363706517e-06
-4.5021641883175425e-06   -3.036471652195262e-07   8.286863363706517e-06
-4.5021641883175425e-06   -3.036471652195262e-07   8.286863363706517e-06
-4.5021641883175425e-06   -3.036471652195262e-07   8.286863363706517e-06
-4.697851943370247e-06   1.4116837223791595e-06   4.829054514022234e-06
-4.697851943370247e-06   1.4116837223791595e-06   4.829054514022234e-06
-4.697851943370247e-06   1.4116837223791595e-06   4.829054514022234e-06
-4.697851943370247e-06   1.4116837223791595e-06   4.829054514022234e-06
-7.174310924475873e-06   -4.192884818779094e-07   1.005506947175216e-05
-7.174310924475873e-06   -4.192884818779094e-07   1.005506947175216e-05
-7.174310924475873e-06   -4.192884818779094e-07   1.005506947175216e-05
-7.174310924475873e-06   -4.192884818779094e-07   1.005506947175216e-05
-5.7514160254757535e-06   8.708663472645813e-07   6.909485075932802e-06
-5.7514160254757535e-06   8.708663472645813e-07   6.909485075932802e-06
-5.7514160254757535e-06   8.708663472645813e-07   6.909485075932802e-06
-5.7514160254757535e-06   8.708663472645813e-07   6.909485075932802e-06
-7.174310924475873e-06   1.4116837223791595e-06   5.927637836576497e-06
-7.174310924475873e-06   1.4116837223791595e-06   5.927637836576497e-06
-7.174310924475873e-06   1.4116837223791595e-06   5.927637836576497e-06
-7.174310924475873e-06   1.4116837223791595e-06   5.927637836576497e-06
-4.697851943370355e-06   -4.192884818779094e-07   8.956486149198006e-06
-4.697851943370355e-06   -4.192884818779094e-07   8.956486149198006e-06
-4.697851943370355e-06   -4.192884818779094e-07   8.956486149198006e-06
-4.697851943370355e-06   -4.192884818779094e-07   8.956486149198006e-06
-5.186168995725197e-06   8.719881083789176e-07   6.834523954058792e-06
-5.186168995725197e-06   8.719881083789176e-07   6.834523954058792e-06
-5.186168995725197e-06   8.719881083789176e-07   6.834523954058792e-06
-5.186168995725197e-06   8.719881083789176e-07   6.834523954058792e-06
-7.05162712140309e-06   -5.585720317466815e-07   1.0801956914263601e-05
-7.05162712140309e-06   -5.585720317466815e-07   1.0801956914263601e-05
-7.05162712140309e-06   -5.585720317466815e-07   1.0801956914263601e-05
-7.05162712140309e-06   -5.585720317466815e-07   1.0801956914263601e-05
-5.761141879903023e-06   7.334130127321361e-07   7.875957151742916e-06
-5.761141879903023e-06   7.334130127321361e-07   7.875957151742916e-06
-5.761141879903023e-06   7.334130127321361e-07   7.875957151742916e-06
-5.761141879903023e-06   7.334130127321361e-07   7.875957151742916e-06
-6.860549968425035e-05   5.385480123544712e-06   2.9197395315711384e-05
-6.860549968425035e-05   5.385480123544712e-06   2.9197395315711384e-05
-6.860549968425035e-05   5.385480123544712e-06   2.9197395315711384e-05
-6.860549968425035e-05   5.385480123544712e-06   2.9197395315711384e-05
-1.6151684149304783e-05   -3.327655797847249e-05   9.342319834607703e-05
-1.6151684149304783e-05   -3.327655797847249e-05   9.342319834607703e-05
-1.6151684149304783e-05   -3.327655797847249e-05   9.342319834607703e-05
-1.6151684149304783e-05   -3.327655797847249e-05   9.342319834607703e-05
-1.8942036214433344e-05   2.196745340929645e-06   1.6047697979563623e-05
-1.8942036214433344e-05   2.196745340929645e-06   1.6047697979563623e-05
-1.8942036214433344e-05   2.196745340929645e-06   1.6047697979563623e-05
-1.8942036214433344e-05   2.196745340929645e-06   1.6047697979563623e-05
-6.257003711331484e-05   -2.582676522434728e-05   0.00010557513915019877
-6.257003711331484e-05   -2.582676522434728e-05   0.00010557513915019877
-6.257003711331484e-05   -2.582676522434728e-05   0.00010557513915019877
-6.257003711331484e-05   -2.582676522434728e-05   0.00010557513915019877
-4.172445384097593e-05   -1.2859507571124528e-05   6.30521457710336e-05
-4.172445384097593e-05   -1.2859507571124528e-05   6.30521457710336e-05
-4.172445384097593e-05   -1.2859507571124528e-05   6.30521457710336e-05
-4.172445384097593e-05   -1.2859507571124528e-05   6.30521457710336e-05
-6.257003711331473e-05   2.196745340929645e-06   3.2861804318729725e-05
-6.257003711331473e-05   2.196745340929645e-06   3.2861804318729725e-05
-6.257003711331473e-05   2.196745340929645e-06   3.2861804318729725e-05
-6.257003711331473e-05   2.196745340929645e-06   3.2861804318729725e-05
-1.8942036214433385e-05   -2.582676522434728e-05   8.876103281103262e-05
-1.8942036214433385e-05   -2.582676522434728e-05   8.876103281103262e-05
-1.8942036214433385e-05   -2.582676522434728e-05   8.876103281103262e-05
-1.8942036214433385e-05   -2.582676522434728e-05   8.876103281103262e-05
-1.9362397205161878e-05   1.5816826992349911e-06   1.7633097662307195e-05
-1.9362397205161878e-05   1.5816826992349911e-06   1.7633097662307195e-05
-1.9362397205161878e-05   1.5816826992349911e-06   1.7633097662307195e-05
-1.9362397205161878e-05   1.5816826992349911e-06   1.7633097662307195e-05
-5.9034808678126434e-05   -2.2232051502019202e-05   9.80420239713338e-05
-5.9034808678126434e-05   -2.2232051502019202e-05   9.80420239713338e-05
-5.9034808678126434e-05   -2.2232051502019202e-05   9.80420239713338e-05
-5.9034808678126434e-05   -2.2232051502019202e-05   9.80420239713338e-05
-4.0470237332981444e-05   -1.2179096599872192e-05   6.106929878813736e-05
-4.0470237332981444e-05   -1.2179096599872192e-05   6.106929878813736e-05
-4.0470237332981444e-05   -1.2179096599872192e-05   6.106929878813736e-05
-4.0470237332981444e-05   -1.2179096599872192e-05   6.106929878813736e-05
-5.903480867812633e-05   1.5816826992349911e-06   3.1921338183059676e-05
-5.903480867812633e-05   1.5816826992349911e-06   3.1921338183059676e-05
-5.903480867812633e-05   1.5816826992349911e-06   3.1921338183059676e-05
-5.903480867812633e-05   1.5816826992349911e-06   3.1921338183059676e-05
-1.9362397205161918e-05   -2.2232051502019202e-05   8.375378345058132e-05
-1.9362397205161918e-05   -2.2232051502019202e-05   8.375378345058132e-05
-1.9362397205161918e-05   -2.2232051502019202e-05   8.375378345058132e-05
-1.9362397205161918e-05   -2.2232051502019202e-05   8.375378345058132e-05
-2.1193117597271424e-05   -1.030790156614518e-06   2.2088186469331508e-05
-2.1193117597271424e-05   -1.030790156614518e-06   2.2088186469331508e-05
-2.1193117597271424e-05   -1.030790156614518e-06   2.2088186469331508e-05
-2.1193117597271424e-05   -1.030790156614518e-06   2.2088186469331508e-05
-5.450587763911733e-05   -1.746149643741049e-05   8.74678769742187e-05
-5.450587763911733e-05   -1.746149643741049e-05   8.74678769742187e-05
-5.450587763911733e-05   -1.746149643741049e-05   8.74678769742187e-05
-5.450587763911733e-05   -1.746149643741049e-05   8.74678769742187e-05
-3.89181189425247e-05   -1.124063625450265e-05   5.77557630368197e-05
-3.89181189425247e-05   -1.124063625450265e-05   5.77557630368197e-05
-3.89181189425247e-05   -1.124063625450265e-05   5.77557630368197e-05
-3.89181189425247e-05   -1.124063625450265e-05   5.77557630368197e-05
-1.6151684149304756e-05   -6.0329749158524195e-06   1.6533022272139183e-05
-1.6151684149304756e-05   -6.0329749158524195e-06   1.6533022272139183e-05
-1.6151684149304756e-05   -6.0329749158524195e-06   1.6533022272139183e-05
-1.6151684149304756e-05   -6.0329749158524195e-06   1.6533022272139183e-05
-5.6331045745463475e-06   -1.0247235595559106e-05   3.1535431822245986e-05
-5.6331045745463475e-06   -1.0247235595559106e-05   3.1535431822245986e-05
-5.6331045745463475e-06   -1.0247235595559106e-05   3.1535431822245986e-05
-5.6331045745463475e-06   -1.0247235595559106e-05   3.1535431822245986e-05
-6.283398522256557e-06   -4.936286391739406e-06   1.480147231254557e-05
-6.283398522256557e-06   -4.936286391739406e-06   1.480147231254557e-05
-6.283398522256557e-06   -4.936286391739406e-06   1.480147231254557e-05
-6.283398522256557e-06   -4.936286391739406e-06   1.480147231254557e-05
-1.8942036214433385e-05   -1.361466984678936e-05   4.110623187253683e-05
-1.8942036214433385e-05   -1.361466984678936e-05   4.110623187253683e-05
-1.8942036214433385e-05   -1.361466984678936e-05   4.110623187253683e-05
-1.8942036214433385e-05   -1.361466984678936e-05   4.110623187253683e-05
-1.1139840850902669e-05   -7.143423633674021e-06   2.42198252054497e-05
-1.1139840850902669e-05   -7.143423633674021e-06   2.42198252054497e-05
-1.1139840850902669e-05   -7.143423633674021e-06   2.42198252054497e-05
-1.1139840850902669e-05   -7.143423633674021e-06   2.42198252054497e-05
-1.894203621443333e-05   -4.936286391739406e-06   2.0008502385575376e-05
-1.894203621443333e-05   -4.936286391739406e-06   2.0008502385575376e-05
-1.894203621443333e-05   -4.936286391739406e-06   2.0008502385575376e-05
-1.894203621443333e-05   -4.936286391739406e-06   2.0008502385575376e-05
-6.283398522256584e-06   -1.361466984678936e-05   3.589920179950682e-05
-6.283398522256584e-06   -1.361466984678936e-05   3.589920179950682e-05
-6.283398522256584e-06   -1.361466984678936e-05   3.589920179950682e-05
-6.283398522256584e-06   -1.361466984678936e-05   3.589920179950682e-05
-6.839819951100581e-06   -5.0494583763422795e-06   1.6641635720879332e-05
-6.839819951100581e-06   -5.0494583763422795e-06   1.6641635720879332e-05
-6.839819951100581e-06   -5.0494583763422795e-06   1.6641635720879332e-05
-6.839819951100581e-06   -5.0494583763422795e-06   1.6641635720879332e-05
-1.9362397205161918e-05   -1.2435751148501274e-05   4.1944373474276736e-05
-1.9362397205161918e-05   -1.2435751148501274e-05   4.1944373474276736e-05
-1.9362397205161918e-05   -1.2435751148501274e-05   4.1944373474276736e-05
-1.9362397205161918e-05   -1.2435751148501274e-05   4.1944373474276736e-05
-1.2551095461753359e-05   -8.742574107436374e-06   2.8376297677290438e-05
-1.2551095461753359e-05   -8.742574107436374e-06   2.8376297677290438e-05
-1.2551095461753359e-05   -8.742574107436374e-06   2.8376297677290438e-05
-1.2551095461753359e-05   -8.742574107436374e-06   2.8376297677290438e-05
-1.9362397205161878e-05   -5.0494583763422795e-06   2.1073411384174725e-05
-1.9362397205161878e-05   -5.0494583763422795e-06   2.1073411384174725e-05
-1.9362397205161878e-05   -5.0494583763422795e-06   2.1073411384174725e-05
-1.9362397205161878e-05   -5.0494583763422795e-06   2.1073411384174725e-05
-6.839819951100608e-06   -1.2435751148501274e-05   3.751259781098137e-05
-6.839819951100608e-06   -1.2435751148501274e-05   3.751259781098137e-05
-6.839819951100608e-06   -1.2435751148501274e-05   3.751259781098137e-05
-6.839819951100608e-06   -1.2435751148501274e-05   3.751259781098137e-05
-7.743369323393967e-06   -5.0987341373221525e-06   1.8196609556207213e-05
-7.743369323393967e-06   -5.0987341373221525e-06   1.8196609556207213e-05
-7.743369323393967e-06   -5.0987341373221525e-06   1.8196609556207213e-05
-7.743369323393967e-06   -5.0987341373221525e-06   1.8196609556207213e-05
-2.119311759727145e-05   -1.1693851012492848e-05   4.456992680443864e-05
-2.119311759727145e-05   -1.1693851012492848e-05   4.456992680443864e-05
-2.119311759727145e-05   -1.1693851012492848e-05   4.456992680443864e-05
-2.119311759727145e-05   -1.1693851012492848e-05   4.456992680443864e-05
-1.3369485222070565e-05   -7.980870119603337e-06   2.9302750976703497e-05
-1.3369485222070565e-05   -7.980870119603337e-06   2.9302750976703497e-05
-1.3369485222070565e-05   -7.980870119603337e-06   2.9302750976703497e-05
-1.3369485222070565e-05   -7.980870119603337e-06   2.9302750976703497e-05
-5.63310457454632e-06   -4.7125296342007865e-06   8.862757699336485e-06
-5.63310457454632e-06   -4.7125296342007865e-06   8.862757699336485e-06
-5.63310457454632e-06   -4.7125296342007865e-06   8.862757699336485e-06
-5.63310457454632e-06   -4.7125296342007865e-06   8.862757699336485e-06
-3.1386398264211975e-06   -2.824193918061478e-06   1.4153200375895277e-05
-3.1386398264211975e-06   -2.824193918061478e-06   1.4153200375895277e-05
-3.1386398264211975e-06   -2.824193918061478e-06   1.4153200375895277e-05
-3.1386398264211975e-06   -2.824193918061478e-06   1.4153200375895277e-05
-3.0120467450696657e-06   -4.628237095933609e-06   1.0255890344900809e-05
-3.0120467450696657e-06   -4.628237095933609e-06   1.0255890344900809e-05
-3.0120467450696657e-06   -4.628237095933609e-06   1.0255890344900809e-05
-3.0120467450696657e-06   -4.628237095933609e-06   1.0255890344900809e-05
-6.283398522256584e-06   -3.7094619618518977e-06   1.515687822642984e-05
-6.283398522256584e-06   -3.7094619618518977e-06   1.515687822642984e-05
-6.283398522256584e-06   -3.7094619618518977e-06   1.515687822642984e-05
-6.283398522256584e-06   -3.7094619618518977e-06   1.515687822642984e-05
-4.231416839864499e-06   -3.7626584380511343e-06   1.1768826641495814e-05
-4.231416839864499e-06   -3.7626584380511343e-06   1.1768826641495814e-05
-4.231416839864499e-06   -3.7626584380511343e-06   1.1768826641495814e-05
-4.231416839864499e-06   -3.7626584380511343e-06   1.1768826641495814e-05
-6.283398522256557e-06   -4.628237095933554e-06   9.704625264451787e-06
-6.283398522256557e-06   -4.628237095933554e-06   9.704625264451787e-06
-6.283398522256557e-06   -4.628237095933554e-06   9.704625264451787e-06
-6.283398522256557e-06   -4.628237095933554e-06   9.704625264451787e-06
-3.0120467450696115e-06   -3.7094619618518977e-06   1.5708143306878916e-05
-3.0120467450696115e-06   -3.7094619618518977e-06   1.5708143306878916e-05
-3.0120467450696115e-06   -3.7094619618518977e-06   1.5708143306878916e-05
-3.0120467450696115e-06   -3.7094619618518977e-06   1.5708143306878916e-05
-3.0126524772127665e-06   -4.770262262181126e-06   1.0962615582834592e-05
-3.0126524772127665e-06   -4.770262262181126e-06   1.0962615582834592e-05
-3.0126524772127665e-06   -4.770262262181126e-06   1.0962615582834592e-05
-3.0126524772127665e-06   -4.770262262181126e-06   1.0962615582834592e-05
-6.839819951100608e-06   -4.779227143502178e-06   1.734660696810675e-05
-6.839819951100608e-06   -4.779227143502178e-06   1.734660696810675e-05
-6.839819951100608e-06   -4.779227143502178e-06   1.734660696810675e-05
-6.839819951100608e-06   -4.779227143502178e-06   1.734660696810675e-05
-4.481231127068642e-06   -4.114242115588478e-06   1.301663457797201e-05
-4.481231127068642e-06   -4.114242115588478e-06   1.301663457797201e-05
-4.481231127068642e-06   -4.114242115588478e-06   1.301663457797201e-05
-4.481231127068642e-06   -4.114242115588478e-06   1.301663457797201e-05
-6.839819951100608e-06   -4.770262262181126e-06   1.0967994511627203e-05
-6.839819951100608e-06   -4.770262262181126e-06   1.0967994511627203e-05
-6.839819951100608e-06   -4.770262262181126e-06   1.0967994511627203e-05
-6.839819951100608e-06   -4.770262262181126e-06   1.0967994511627203e-05
-3.0126524772127665e-06   -4.779227143502178e-06   1.734122803931414e-05
-3.0126524772127665e-06   -4.779227143502178e-06   1.734122803931414e-05
-3.0126524772127665e-06   -4.779227143502178e-06   1.734122803931414e-05
-3.0126524772127665e-06   -4.779227143502178e-06   1.734122803931414e-05
-3.0503804350743863e-06   -4.972614437469063e-06   1.2018386429238359e-05
-3.0503804350743863e-06   -4.972614437469063e-06   1.2018386429238359e-05
-3.0503804350743863e-06   -4.972614437469063e-06   1.2018386429238359e-05
-3.0503804350743863e-06   -4.972614437469063e-06   1.2018386429238359e-05
-7.743369323393994e-06   -5.79657272918535e-06   2.0334409551467174e-05
-7.743369323393994e-06   -5.79657272918535e-06   2.0334409551467174e-05
-7.743369323393994e-06   -5.79657272918535e-06   2.0334409551467174e-05
-7.743369323393994e-06   -5.79657272918535e-06   2.0334409551467174e-05
-4.7647642336862465e-06   -4.497044972374926e-06   1.4590351081201418e-05
-4.7647642336862465e-06   -4.497044972374926e-06   1.4590351081201418e-05
-4.7647642336862465e-06   -4.497044972374926e-06   1.4590351081201418e-05
-4.7647642336862465e-06   -4.497044972374926e-06   1.4590351081201418e-05
-3.1386398264211975e-06   -1.9323654003081093e-06   2.480860943694283e-06
-3.1386398264211975e-06   -1.9323654003081093e-06   2.480860943694283e-06
-3.1386398264211975e-06   -1.9323654003081093e-06   2.480860943694283e-06
-3.1386398264211975e-06   -1.9323654003081093e-06   2.480860943694283e-06
-2.3221545413465937e-06   5.301604186093282e-07   5.319185243502335e-06
-2.3221545413465937e-06   5.301604186093282e-07   5.319185243502335e-06
-2.3221545413465937e-06   5.301604186093282e-07   5.319185243502335e-06
-2.3221545413465937e-06   5.301604186093282e-07   5.319185243502335e-06
-1.8754908933605523e-06   -2.263276821313717e-06   4.189243628946156e-06
-1.8754908933605523e-06   -2.263276821313717e-06   4.189243628946156e-06
-1.8754908933605523e-06   -2.263276821313717e-06   4.189243628946156e-06
-1.8754908933605523e-06   -2.263276821313717e-06   4.189243628946156e-06
-3.0120467450696115e-06   2.162509444536453e-07   4.595786722333905e-06
-3.0120467450696115e-06   2.162509444536453e-07   4.595786722333905e-06
-3.0120467450696115e-06   2.162509444536453e-07   4.595786722333905e-06
-3.0120467450696115e-06   2.162509444536453e-07   4.595786722333905e-06
-2.42774609697421e-06   -8.945001589807824e-07   4.288402970901951e-06
-2.42774609697421e-06   -8.945001589807824e-07   4.288402970901951e-06
-2.42774609697421e-06   -8.945001589807824e-07   4.288402970901951e-06
-2.42774609697421e-06   -8.945001589807824e-07   4.288402970901951e-06
-3.0120467450696115e-06   -2.263276821313717e-06   2.701526969485599e-06
-3.0120467450696115e-06   -2.263276821313717e-06   2.701526969485599e-06
-3.0120467450696115e-06   -2.263276821313717e-06   2.701526969485599e-06
-3.0120467450696115e-06   -2.263276821313717e-06   2.701526969485599e-06
-1.8754908933605523e-06   2.162509444536453e-07   6.083503381794407e-06
-1.8754908933605523e-06   2.162509444536453e-07   6.083503381794407e-06
-1.8754908933605523e-06   2.162509444536453e-07   6.083503381794407e-06
-1.8754908933605523e-06   2.162509444536453e-07   6.083503381794407e-06
-1.628924602128305e-06   -2.5162589648490097e-06   4.601706026525782e-06
-1.628924602128305e-06   -2.5162589648490097e-06   4.601706026525782e-06
-1.628924602128305e-06   -2.5162589648490097e-06   4.601706026525782e-06
-1.628924602128305e-06   -2.5162589648490097e-06   4.601706026525782e-06
-3.0126524772127665e-06   -2.8507165434220376e-07   5.569206765362292e-06
-3.0126524772127665e-06   -2.8507165434220376e-07   5.569206765362292e-06
-3.0126524772127665e-06   -2.8507165434220376e-07   5.569206765362292e-06
-3.0126524772127665e-06   -2.8507165434220376e-07   5.569206765362292e-06
-2.1972688710922804e-06   -1.148554241399923e-06   4.728323640729518e-06
-2.1972688710922804e-06   -1.148554241399923e-06   4.728323640729518e-06
-2.1972688710922804e-06   -1.148554241399923e-06   4.728323640729518e-06
-2.1972688710922804e-06   -1.148554241399923e-06   4.728323640729518e-06
-3.0126524772127123e-06   -2.5162589648490097e-06   3.262993640221559e-06
-3.0126524772127123e-06   -2.5162589648490097e-06   3.262993640221559e-06
-3.0126524772127123e-06   -2.5162589648490097e-06   3.262993640221559e-06
-3.0126524772127123e-06   -2.5162589648490097e-06   3.262993640221559e-06
-1.628924602128305e-06   -2.8507165434220376e-07   6.907919151666244e-06
-1.628924602128305e-06   -2.8507165434220376e-07   6.907919151666244e-06
-1.628924602128305e-06   -2.8507165434220376e-07   6.907919151666244e-06
-1.628924602128305e-06   -2.8507165434220376e-07   6.907919151666244e-06
-1.2505092768779424e-06   -2.848364567921923e-06   5.0477491462987e-06
-1.2505092768779424e-06   -2.848364567921923e-06   5.0477491462987e-06
-1.2505092768779424e-06   -2.848364567921923e-06   5.0477491462987e-06
-1.2505092768779424e-06   -2.848364567921923e-06   5.0477491462987e-06
-3.0503804350743863e-06   -1.319351900867399e-06   7.1301268097266135e-06
-3.0503804350743863e-06   -1.319351900867399e-06   7.1301268097266135e-06
-3.0503804350743863e-06   -1.319351900867399e-06   7.1301268097266135e-06
-3.0503804350743863e-06   -1.319351900867399e-06   7.1301268097266135e-06
-2.0077717998116926e-06   -1.5389296147474692e-06   5.524192379283751e-06
-2.0077717998116926e-06   -1.5389296147474692e-06   5.524192379283751e-06
-2.0077717998116926e-06   -1.5389296147474692e-06   5.524192379283751e-06
-2.0077717998116926e-06   -1.5389296147474692e-06   5.524192379283751e-06
-2.3221545413465937e-06   -2.1845108421925672e-07   -3.9040838090059e-06
-2.3221545413465937e-06   -2.1845108421925672e-07   -3.9040838090059e-06
-2.3221545413465937e-06   -2.1845108421925672e-07   -3.9040838090059e-06
-2.3221545413465937e-06   -2.1845108421925672e-07   -3.9040838090059e-06
-4.228593426983769e-07   3.3615782093851943e-07   -4.0582646816428487e-07
-4.228593426983769e-07   3.3615782093851943e-07   -4.0582646816428487e-07
-4.228593426983769e-07   3.3615782093851943e-07   -4.0582646816428487e-07
-4.228593426983769e-07   3.3615782093851943e-07   -4.0582646816428487e-07
1.6088206273266736e-08   -3.036471652195804e-07   -3.0696473192258576e-06
1.6088206273266736e-08   -3.036471652195804e-07   -3.0696473192258576e-06
1.6088206273266736e-08   -3.036471652195804e-07   -3.0696473192258576e-06
1.6088206273266736e-08   -3.036471652195804e-07   -3.0696473192258576e-06
-1.8754908933605523e-06   5.830082362855865e-07   -4.4900872740629826e-07
-1.8754908933605523e-06   5.830082362855865e-07   -4.4900872740629826e-07
-1.8754908933605523e-06   5.830082362855865e-07   -4.4900872740629826e-07
-1.8754908933605523e-06   5.830082362855865e-07   -4.4900872740629826e-07
-1.0522410881274376e-06   1.5433661840454972e-07   -1.5638887653998158e-06
-1.0522410881274376e-06   1.5433661840454972e-07   -1.5638887653998158e-06
-1.0522410881274376e-06   1.5433661840454972e-07   -1.5638887653998158e-06
-1.0522410881274376e-06   1.5433661840454972e-07   -1.5638887653998158e-06
-1.8754908933605523e-06   -3.036471652195804e-07   -3.6016405601292938e-06
-1.8754908933605523e-06   -3.036471652195804e-07   -3.6016405601292938e-06
-1.8754908933605523e-06   -3.036471652195804e-07   -3.6016405601292938e-06
-1.8754908933605523e-06   -3.036471652195804e-07   -3.6016405601292938e-06
1.6088206273266736e-08   5.830082362855865e-07   8.298451349686691e-08
1.6088206273266736e-08   5.830082362855865e-07   8.298451349686691e-08
1.6088206273266736e-08   5.830082362855865e-07   8.298451349686691e-08
1.6088206273266736e-08   5.830082362855865e-07   8.298451349686691e-08
2.475516601696797e-07   -4.192884818779094e-07   -2.7571488045595362e-06
2.475516601696797e-07   -4.192884818779094e-07   -2.7571488045595362e-06
2.475516601696797e-07   -4.192884818779094e-07   -2.7571488045595362e-06
2.475516601696797e-07   -4.192884818779094e-07   -2.7571488045595362e-06
-1.628924602128305e-06   5.029564013603801e-07   -1.8303529733933264e-07
-1.628924602128305e-06   5.029564013603801e-07   -1.8303529733933264e-07
-1.628924602128305e-06   5.029564013603801e-07   -1.8303529733933264e-07
-1.628924602128305e-06   5.029564013603801e-07   -1.8303529733933264e-07
-7.271480856744551e-07   1.0110438686814546e-07   -1.4448849493999688e-06
-7.271480856744551e-07   1.0110438686814546e-07   -1.4448849493999688e-06
-7.271480856744551e-07   1.0110438686814546e-07   -1.4448849493999688e-06
-7.271480856744551e-07   1.0110438686814546e-07   -1.4448849493999688e-06
-1.628924602128305e-06   -4.192884818779094e-07   -3.310495734502514e-06
-1.628924602128305e-06   -4.192884818779094e-07   -3.310495734502514e-06
-1.628924602128305e-06   -4.192884818779094e-07   -3.310495734502514e-06
-1.628924602128305e-06   -4.192884818779094e-07   -3.310495734502514e-06
2.475516601696797e-07   5.029564013603801e-07   3.7031163260359094e-07
2.475516601696797e-07   5.029564013603801e-07   3.7031163260359094e-07
2.475516601696797e-07   5.029564013603801e-07   3.7031163260359094e-07
2.475516601696797e-07   5.029564013603801e-07   3.7031163260359094e-07
5.36589872800761e-07   -5.585720317466273e-07   -2.3002299727812713e-06
5.36589872800761e-07   -5.585720317466273e-07   -2.3002299727812713e-06
5.36589872800761e-07   -5.585720317466273e-07   -2.3002299727812713e-06
5.36589872800761e-07   -5.585720317466273e-07   -2.3002299727812713e-06
-1.2505092768779424e-06   4.3852917566610054e-07   8.000788556900094e-08
-1.2505092768779424e-06   4.3852917566610054e-07   8.000788556900094e-08
-1.2505092768779424e-06   4.3852917566610054e-07   8.000788556900094e-08
-1.2505092768779424e-06   4.3852917566610054e-07   8.000788556900094e-08
-4.3256971218012677e-07   3.7408843278635565e-08   -1.0425525228281978e-06
-4.3256971218012677e-07   3.7408843278635565e-08   -1.0425525228281978e-06
-4.3256971218012677e-07   3.7408843278635565e-08   -1.0425525228281978e-06
-4.3256971218012677e-07   3.7408843278635565e-08   -1.0425525228281978e-06
              </DataArray>   
             <DataArray type="Float64" NumberOfComponents="3" Name="Stress" format="ascii">   
-3.5579101935229693   -0.8894775483807423   -0.8894775483807423
-3.5579101935229693   -0.8894775483807423   -0.8894775483807423
-3.5579101935229693   -0.8894775483807423   -0.8894775483807423
-3.5579101935229693   -0.8894775483807423   -0.8894775483807423
-2.0589855200235205   -0.06511718938281463   -0.041235991123762986
-2.0589855200235205   -0.06511718938281463   -0.041235991123762986
-2.0589855200235205   -0.06511718938281463   -0.041235991123762986
-2.0589855200235205   -0.06511718938281463   -0.041235991123762986
-2.2194680334568875   -0.5548670083642219   -0.5548670083642219
-2.2194680334568875   -0.5548670083642219   -0.5548670083642219
-2.2194680334568875   -0.5548670083642219   -0.5548670083642219
-2.2194680334568875   -0.5548670083642219   -0.5548670083642219
-3.4291288897803067   -0.2815137033436471   -0.10763057411819574
-3.4291288897803067   -0.2815137033436471   -0.10763057411819574
-3.4291288897803067   -0.2815137033436471   -0.10763057411819574
-3.4291288897803067   -0.2815137033436471   -0.10763057411819574
-2.689478159715701   -0.44086966581327947   -0.007420122060567892
-2.689478159715701   -0.44086966581327947   -0.007420122060567892
-2.689478159715701   -0.44086966581327947   -0.007420122060567892
-2.689478159715701   -0.44086966581327947   -0.007420122060567892
-3.723666704764382   -0.9309166761910955   -0.9309166761910955
-3.723666704764382   -0.9309166761910955   -0.9309166761910955
-3.723666704764382   -0.9309166761910955   -0.9309166761910955
-3.723666704764382   -0.9309166761910955   -0.9309166761910955
-1.9947710044027265   0.024695178553317376   -0.010944050010956871
-1.9947710044027265   0.024695178553317376   -0.010944050010956871
-1.9947710044027265   0.024695178553317376   -0.010944050010956871
-1.9947710044027265   0.024695178553317376   -0.010944050010956871
-2.225854384806103   -0.5564635962015257   -0.5564635962015257
-2.225854384806103   -0.5564635962015257   -0.5564635962015257
-2.225854384806103   -0.5564635962015257   -0.5564635962015257
-2.225854384806103   -0.5564635962015257   -0.5564635962015257
-3.54451805342623   -0.28425385775248346   -0.15773247055209458
-3.54451805342623   -0.28425385775248346   -0.15773247055209458
-3.54451805342623   -0.28425385775248346   -0.15773247055209458
-3.54451805342623   -0.28425385775248346   -0.15773247055209458
-2.7899258695508795   -0.4151314589017066   -0.14807543731912454
-2.7899258695508795   -0.4151314589017066   -0.14807543731912454
-2.7899258695508795   -0.4151314589017066   -0.14807543731912454
-2.7899258695508795   -0.4151314589017066   -0.14807543731912454
-3.840134208628134   -0.9600335521570335   -0.9600335521570335
-3.840134208628134   -0.9600335521570335   -0.9600335521570335
-3.840134208628134   -0.9600335521570335   -0.9600335521570335
-3.840134208628134   -0.9600335521570335   -0.9600335521570335
-1.9890917130464785   0.060462614760750266   0.01042355163432071
-1.9890917130464785   0.060462614760750266   0.01042355163432071
-1.9890917130464785   0.060462614760750266   0.01042355163432071
-1.9890917130464785   0.060462614760750266   0.01042355163432071
-2.224827657276573   -0.5562069143191433   -0.5562069143191433
-2.224827657276573   -0.5562069143191433   -0.5562069143191433
-2.224827657276573   -0.5562069143191433   -0.5562069143191433
-2.224827657276573   -0.5562069143191433   -0.5562069143191433
-3.750616048280648   -0.24941401184295575   -0.09456580270066176
-3.750616048280648   -0.24941401184295575   -0.09456580270066176
-3.750616048280648   -0.24941401184295575   -0.09456580270066176
-3.750616048280648   -0.24941401184295575   -0.09456580270066176
-2.8645034894160935   -0.4087102575724863   -0.2676429912224147
-2.8645034894160935   -0.4087102575724863   -0.2676429912224147
-2.8645034894160935   -0.4087102575724863   -0.2676429912224147
-2.8645034894160935   -0.4087102575724863   -0.2676429912224147
-2.2641276488024533   -0.5660319122006133   -0.5660319122006133
-2.2641276488024533   -0.5660319122006133   -0.5660319122006133
-2.2641276488024533   -0.5660319122006133   -0.5660319122006133
-2.2641276488024533   -0.5660319122006133   -0.5660319122006133
-0.9444890731930539   -0.06276838907295912   -0.020406294432414776
-0.9444890731930539   -0.06276838907295912   -0.020406294432414776
-0.9444890731930539   -0.06276838907295912   -0.020406294432414776
-0.9444890731930539   -0.06276838907295912   -0.020406294432414776
-0.9916760384323197   -0.24791900960807992   -0.24791900960807992
-0.9916760384323197   -0.24791900960807992   -0.24791900960807992
-0.9916760384323197   -0.24791900960807992   -0.24791900960807992
-0.9916760384323197   -0.24791900960807992   -0.24791900960807992
-2.06144014006745   -0.24240922710439128   -0.07718532267686344
-2.06144014006745   -0.24240922710439128   -0.07718532267686344
-2.06144014006745   -0.24240922710439128   -0.07718532267686344
-2.06144014006745   -0.24240922710439128   -0.07718532267686344
-1.5203276196139275   -0.287980931200149   0.011901129408738366
-1.5203276196139275   -0.287980931200149   0.011901129408738366
-1.5203276196139275   -0.287980931200149   0.011901129408738366
-1.5203276196139275   -0.287980931200149   0.011901129408738366
-2.2194680334568853   -0.5548670083642213   -0.5548670083642213
-2.2194680334568853   -0.5548670083642213   -0.5548670083642213
-2.2194680334568853   -0.5548670083642213   -0.5548670083642213
-2.2194680334568853   -0.5548670083642213   -0.5548670083642213
-0.8912116797220961   0.0069752369725363805   -0.0004914626375786685
-0.8912116797220961   0.0069752369725363805   -0.0004914626375786685
-0.8912116797220961   0.0069752369725363805   -0.0004914626375786685
-0.8912116797220961   0.0069752369725363805   -0.0004914626375786685
-0.9696710496640112   -0.2424177624160028   -0.2424177624160028
-0.9696710496640112   -0.2424177624160028   -0.2424177624160028
-0.9696710496640112   -0.2424177624160028   -0.2424177624160028
-0.9696710496640112   -0.2424177624160028   -0.2424177624160028
-2.0563790974870595   -0.19778837622445739   -0.06776237958337847
-2.0563790974870595   -0.19778837622445739   -0.06776237958337847
-2.0563790974870595   -0.19778837622445739   -0.06776237958337847
-2.0563790974870595   -0.19778837622445739   -0.06776237958337847
-1.4992867236443206   -0.2424681780164174   -0.07840250318317923
-1.4992867236443206   -0.2424681780164174   -0.07840250318317923
-1.4992867236443206   -0.2424681780164174   -0.07840250318317923
-1.4992867236443206   -0.2424681780164174   -0.07840250318317923
-2.225854384806103   -0.5564635962015257   -0.5564635962015257
-2.225854384806103   -0.5564635962015257   -0.5564635962015257
-2.225854384806103   -0.5564635962015257   -0.5564635962015257
-2.225854384806103   -0.5564635962015257   -0.5564635962015257
-0.8559488209195557   0.06050439898647797   0.023271219903794077
-0.8559488209195557   0.06050439898647797   0.023271219903794077
-0.8559488209195557   0.06050439898647797   0.023271219903794077
-0.8559488209195557   0.06050439898647797   0.023271219903794077
-0.9496547731700515   -0.23741369329251288   -0.23741369329251288
-0.9496547731700515   -0.23741369329251288   -0.23741369329251288
-0.9496547731700515   -0.23741369329251288   -0.23741369329251288
-0.9496547731700515   -0.23741369329251288   -0.23741369329251288
-2.0414082987125637   -0.1526539561393488   -0.04266307967891682
-2.0414082987125637   -0.1526539561393488   -0.04266307967891682
-2.0414082987125637   -0.1526539561393488   -0.04266307967891682
-2.0414082987125637   -0.1526539561393488   -0.04266307967891682
-1.5068395660664626   -0.21460606948948985   -0.17469615539647898
-1.5068395660664626   -0.21460606948948985   -0.17469615539647898
-1.5068395660664626   -0.21460606948948985   -0.17469615539647898
-1.5068395660664626   -0.21460606948948985   -0.17469615539647898
-1.0309490405466453   -0.2577372601366613   -0.2577372601366613
-1.0309490405466453   -0.2577372601366613   -0.2577372601366613
-1.0309490405466453   -0.2577372601366613   -0.2577372601366613
-1.0309490405466453   -0.2577372601366613   -0.2577372601366613
0.12266950126493742   0.00808010371610502   0.0009998727994613163
0.12266950126493742   0.00808010371610502   0.0009998727994613163
0.12266950126493742   0.00808010371610502   0.0009998727994613163
0.12266950126493742   0.00808010371610502   0.0009998727994613163
0.15929066693981161   0.039822666734952904   0.039822666734952904
0.15929066693981161   0.039822666734952904   0.039822666734952904
0.15929066693981161   0.039822666734952904   0.039822666734952904
0.15929066693981161   0.039822666734952904   0.039822666734952904
-0.9322630632792458   -0.16113810734644748   -0.03763503610435066
-0.9322630632792458   -0.16113810734644748   -0.03763503610435066
-0.9322630632792458   -0.16113810734644748   -0.03763503610435066
-0.9322630632792458   -0.16113810734644748   -0.03763503610435066
-0.3989277411897989   -0.10120603368727292   0.06779866835364617
-0.3989277411897989   -0.10120603368727292   0.06779866835364617
-0.3989277411897989   -0.10120603368727292   0.06779866835364617
-0.3989277411897989   -0.10120603368727292   0.06779866835364617
-0.9916760384323197   -0.24791900960807992   -0.24791900960807992
-0.9916760384323197   -0.24791900960807992   -0.24791900960807992
-0.9916760384323197   -0.24791900960807992   -0.24791900960807992
-0.9916760384323197   -0.24791900960807992   -0.24791900960807992
0.16211201942079767   0.0700119463244986   0.023740149550336216
0.16211201942079767   0.0700119463244986   0.023740149550336216
0.16211201942079767   0.0700119463244986   0.023740149550336216
0.16211201942079767   0.0700119463244986   0.023740149550336216
0.17901255608876507   0.04475313902219127   0.04475313902219127
0.17901255608876507   0.04475313902219127   0.04475313902219127
0.17901255608876507   0.04475313902219127   0.04475313902219127
0.17901255608876507   0.04475313902219127   0.04475313902219127
-0.8994563919771409   -0.1085223199288124   -0.025239916468857586
-0.8994563919771409   -0.1085223199288124   -0.025239916468857586
-0.8994563919771409   -0.1085223199288124   -0.025239916468857586
-0.8994563919771409   -0.1085223199288124   -0.025239916468857586
-0.38283710005334703   -0.0625714562519809   -0.023121208741760192
-0.38283710005334703   -0.0625714562519809   -0.023121208741760192
-0.38283710005334703   -0.0625714562519809   -0.023121208741760192
-0.38283710005334703   -0.0625714562519809   -0.023121208741760192
-0.9696710496640112   -0.2424177624160028   -0.2424177624160028
-0.9696710496640112   -0.2424177624160028   -0.2424177624160028
-0.9696710496640112   -0.2424177624160028   -0.2424177624160028
-0.9696710496640112   -0.2424177624160028   -0.2424177624160028
0.19377433497674856   0.12319570271049733   0.0401194697738015
0.19377433497674856   0.12319570271049733   0.0401194697738015
0.19377433497674856   0.12319570271049733   0.0401194697738015
0.19377433497674856   0.12319570271049733   0.0401194697738015
0.20559063009231007   0.05139765752307752   0.05139765752307752
0.20559063009231007   0.05139765752307752   0.05139765752307752
0.20559063009231007   0.05139765752307752   0.05139765752307752
0.20559063009231007   0.05139765752307752   0.05139765752307752
-0.8637505237865016   -0.04576344933366325   0.00045730966637627657
-0.8637505237865016   -0.04576344933366325   0.00045730966637627657
-0.8637505237865016   -0.04576344933366325   0.00045730966637627657
-0.8637505237865016   -0.04576344933366325   0.00045730966637627657
-0.3715474229428555   -0.025326672308914625   -0.11322949836903899
-0.3715474229428555   -0.025326672308914625   -0.11322949836903899
-0.3715474229428555   -0.025326672308914625   -0.11322949836903899
-0.3715474229428555   -0.025326672308914625   -0.11322949836903899
0.13428167329091595   0.03357041832272899   0.03357041832272899
0.13428167329091595   0.03357041832272899   0.03357041832272899
0.13428167329091595   0.03357041832272899   0.03357041832272899
0.13428167329091595   0.03357041832272899   0.03357041832272899
1.2907386253583246   0.1184111853544634   0.039719464005294476
1.2907386253583246   0.1184111853544634   0.039719464005294476
1.2907386253583246   0.1184111853544634   0.039719464005294476
1.2907386253583246   0.1184111853544634   0.039719464005294476
1.4013205755103535   0.3503301438775884   0.3503301438775884
1.4013205755103535   0.3503301438775884   0.3503301438775884
1.4013205755103535   0.3503301438775884   0.3503301438775884
1.4013205755103535   0.3503301438775884   0.3503301438775884
0.12137017133127884   -0.09090094220189099   -0.019056202370869604
0.12137017133127884   -0.09090094220189099   -0.019056202370869604
0.12137017133127884   -0.09090094220189099   -0.019056202370869604
0.12137017133127884   -0.09090094220189099   -0.019056202370869604
0.7360992405108048   0.09163572923646056   0.13375541351470704
0.7360992405108048   0.09163572923646056   0.13375541351470704
0.7360992405108048   0.09163572923646056   0.13375541351470704
0.7360992405108048   0.09163572923646056   0.13375541351470704
0.15929066693981217   0.03982266673495304   0.03982266673495304
0.15929066693981217   0.03982266673495304   0.03982266673495304
0.15929066693981217   0.03982266673495304   0.03982266673495304
0.15929066693981217   0.03982266673495304   0.03982266673495304
1.3058797994361766   0.1620862544751008   0.06137015290919153
1.3058797994361766   0.1620862544751008   0.06137015290919153
1.3058797994361766   0.1620862544751008   0.06137015290919153
1.3058797994361766   0.1620862544751008   0.06137015290919153
1.3951629486058914   0.34879073715147285   0.34879073715147285
1.3951629486058914   0.34879073715147285   0.34879073715147285
1.3951629486058914   0.34879073715147285   0.34879073715147285
1.3951629486058914   0.34879073715147285   0.34879073715147285
0.15323402838503425   -0.03945710212713056   7.074165285770109e-05
0.15323402838503425   -0.03945710212713056   7.074165285770109e-05
0.15323402838503425   -0.03945710212713056   7.074165285770109e-05
0.15323402838503425   -0.03945710212713056   7.074165285770109e-05
0.7305080121899753   0.12020492400579491   0.03481450196624935
0.7305080121899753   0.12020492400579491   0.03481450196624935
0.7305080121899753   0.12020492400579491   0.03481450196624935
0.7305080121899753   0.12020492400579491   0.03481450196624935
0.1790125560887652   0.0447531390221913   0.0447531390221913
0.1790125560887652   0.0447531390221913   0.0447531390221913
0.1790125560887652   0.0447531390221913   0.0447531390221913
0.1790125560887652   0.0447531390221913   0.0447531390221913
1.3124160446340847   0.20761211973407523   0.07623483470983634
1.3124160446340847   0.20761211973407523   0.07623483470983634
1.3124160446340847   0.20761211973407523   0.07623483470983634
1.3124160446340847   0.20761211973407523   0.07623483470983634
1.422033186411484   0.355508296602871   0.355508296602871
1.422033186411484   0.355508296602871   0.355508296602871
1.422033186411484   0.355508296602871   0.355508296602871
1.422033186411484   0.355508296602871   0.355508296602871
0.1950464480867637   0.02861637763726371   0.0214580273811578
0.1950464480867637   0.02861637763726371   0.0214580273811578
0.1950464480867637   0.02861637763726371   0.0214580273811578
0.1950464480867637   0.02861637763726371   0.0214580273811578
0.7416914323028099   0.16303093081947523   -0.05692668993098419
0.7416914323028099   0.16303093081947523   -0.05692668993098419
0.7416914323028099   0.16303093081947523   -0.05692668993098419
0.7416914323028099   0.16303093081947523   -0.05692668993098419
1.3990138838737478   0.34975347096843695   0.34975347096843695
1.3990138838737478   0.34975347096843695   0.34975347096843695
1.3990138838737478   0.34975347096843695   0.34975347096843695
1.3990138838737478   0.34975347096843695   0.34975347096843695
2.901111473409221   0.22109095813483093   0.07564147460036344
2.901111473409221   0.22109095813483093   0.07564147460036344
2.901111473409221   0.22109095813483093   0.07564147460036344
2.901111473409221   0.22109095813483093   0.07564147460036344
2.965182598353203   0.7412956495883007   0.7412956495883007
2.965182598353203   0.7412956495883007   0.7412956495883007
2.965182598353203   0.7412956495883007   0.7412956495883007
2.965182598353203   0.7412956495883007   0.7412956495883007
1.2455894853072662   -0.07083546848704075   -0.007159694773218192
1.2455894853072662   -0.07083546848704075   -0.007159694773218192
1.2455894853072662   -0.07083546848704075   -0.007159694773218192
1.2455894853072662   -0.07083546848704075   -0.007159694773218192
2.0691771673392685   0.2928070709987983   0.23363668068690757
2.0691771673392685   0.2928070709987983   0.23363668068690757
2.0691771673392685   0.2928070709987983   0.23363668068690757
2.0691771673392685   0.2928070709987983   0.23363668068690757
1.4013205755103524   0.3503301438775881   0.3503301438775881
1.4013205755103524   0.3503301438775881   0.3503301438775881
1.4013205755103524   0.3503301438775881   0.3503301438775881
1.4013205755103524   0.3503301438775881   0.3503301438775881
2.7478016784361436   0.2584802075097081   0.13720649208164287
2.7478016784361436   0.2584802075097081   0.13720649208164287
2.7478016784361436   0.2584802075097081   0.13720649208164287
2.7478016784361436   0.2584802075097081   0.13720649208164287
2.876419223868511   0.7191048059671278   0.7191048059671278
2.876419223868511   0.7191048059671278   0.7191048059671278
2.876419223868511   0.7191048059671278   0.7191048059671278
2.876419223868511   0.7191048059671278   0.7191048059671278
1.2497989339870663   -0.0391461064296072   0.009907507638427265
1.2497989339870663   -0.0391461064296072   0.009907507638427265
1.2497989339870663   -0.0391461064296072   0.009907507638427265
1.2497989339870663   -0.0391461064296072   0.009907507638427265
2.007633436169526   0.3012131712309395   0.11203946101425427
2.007633436169526   0.3012131712309395   0.11203946101425427
2.007633436169526   0.3012131712309395   0.11203946101425427
2.007633436169526   0.3012131712309395   0.11203946101425427
1.3951629486058914   0.34879073715147285   0.34879073715147285
1.3951629486058914   0.34879073715147285   0.34879073715147285
1.3951629486058914   0.34879073715147285   0.34879073715147285
1.3951629486058914   0.34879073715147285   0.34879073715147285
2.6591728574428175   0.25928561057918736   0.09269216922664499
2.6591728574428175   0.25928561057918736   0.09269216922664499
2.6591728574428175   0.25928561057918736   0.09269216922664499
2.6591728574428175   0.25928561057918736   0.09269216922664499
2.7443845437434633   0.6860961359358658   0.6860961359358658
2.7443845437434633   0.6860961359358658   0.6860961359358658
2.7443845437434633   0.6860961359358658   0.6860961359358658
2.7443845437434633   0.6860961359358658   0.6860961359358658
1.295890947021594   0.04074833751314111   0.03955705874315141
1.295890947021594   0.04074833751314111   0.03955705874315141
1.295890947021594   0.04074833751314111   0.03955705874315141
1.295890947021594   0.04074833751314111   0.03955705874315141
1.9222316030842286   0.3265399422803526   -0.029363784645269387
1.9222316030842286   0.3265399422803526   -0.029363784645269387
1.9222316030842286   0.3265399422803526   -0.029363784645269387
1.9222316030842286   0.3265399422803526   -0.029363784645269387
-2.813353308163794   -0.20143551272015636   0.03154018032980371
-2.813353308163794   -0.20143551272015636   0.03154018032980371
-2.813353308163794   -0.20143551272015636   0.03154018032980371
-2.813353308163794   -0.20143551272015636   0.03154018032980371
-1.7906130129673983   -0.041184147448694364   -0.011534219958587999
-1.7906130129673983   -0.041184147448694364   -0.011534219958587999
-1.7906130129673983   -0.041184147448694364   -0.011534219958587999
-1.7906130129673983   -0.041184147448694364   -0.011534219958587999
-1.8028547328215119   0.07278121219832373   0.03756984663286597
-1.8028547328215119   0.07278121219832373   0.03756984663286597
-1.8028547328215119   0.07278121219832373   0.03756984663286597
-1.8028547328215119   0.07278121219832373   0.03756984663286597
-2.8552951320256916   -0.19470204644693212   -0.033752037887123804
-2.8552951320256916   -0.19470204644693212   -0.033752037887123804
-2.8552951320256916   -0.19470204644693212   -0.033752037887123804
-2.8552951320256916   -0.19470204644693212   -0.033752037887123804
-2.224397471487351   -0.0759253082920297   -0.008750368281724485
-2.224397471487351   -0.0759253082920297   -0.008750368281724485
-2.224397471487351   -0.0759253082920297   -0.008750368281724485
-2.224397471487351   -0.0759253082920297   -0.008750368281724485
-2.834599210976617   -0.13839712381417268   0.013422644725488958
-2.834599210976617   -0.13839712381417268   0.013422644725488958
-2.834599210976617   -0.13839712381417268   0.013422644725488958
-2.834599210976617   -0.13839712381417268   0.013422644725488958
-1.8265529384824286   0.013474004953726748   -0.02161397442709237
-1.8265529384824286   0.013474004953726748   -0.02161397442709237
-1.8265529384824286   0.013474004953726748   -0.02161397442709237
-1.8265529384824286   0.013474004953726748   -0.02161397442709237
-1.805086174418679   0.1037393627234196   0.04280175281987195
-1.805086174418679   0.1037393627234196   0.04280175281987195
-1.805086174418679   0.1037393627234196   0.04280175281987195
-1.805086174418679   0.1037393627234196   0.04280175281987195
-2.8727195480130394   -0.1715290309536292   -0.04456459185801313
-2.8727195480130394   -0.1715290309536292   -0.04456459185801313
-2.8727195480130394   -0.1715290309536292   -0.04456459185801313
-2.8727195480130394   -0.1715290309536292   -0.04456459185801313
-2.2869663019382473   -0.05086178009881209   -0.02165554103456528
-2.2869663019382473   -0.05086178009881209   -0.02165554103456528
-2.2869663019382473   -0.05086178009881209   -0.02165554103456528
-2.2869663019382473   -0.05086178009881209   -0.02165554103456528
-2.821213010398774   -0.08313211832053458   0.12457118358019584
-2.821213010398774   -0.08313211832053458   0.12457118358019584
-2.821213010398774   -0.08313211832053458   0.12457118358019584
-2.821213010398774   -0.08313211832053458   0.12457118358019584
-1.8351197779916952   0.03681538413157298   -0.04044228645334656
-1.8351197779916952   0.03681538413157298   -0.04044228645334656
-1.8351197779916952   0.03681538413157298   -0.04044228645334656
-1.8351197779916952   0.03681538413157298   -0.04044228645334656
-1.7723455414274065   0.18071802361356426   0.07782386772869695
-1.7723455414274065   0.18071802361356426   0.07782386772869695
-1.7723455414274065   0.18071802361356426   0.07782386772869695
-1.7723455414274065   0.18071802361356426   0.07782386772869695
-2.793501310199493   -0.13847438773399057   -0.07293563231791325
-2.793501310199493   -0.13847438773399057   -0.07293563231791325
-2.793501310199493   -0.13847438773399057   -0.07293563231791325
-2.793501310199493   -0.13847438773399057   -0.07293563231791325
-2.1996334571012923   0.0204387718126412   0.048722419589362326
-2.1996334571012923   0.0204387718126412   0.048722419589362326
-2.1996334571012923   0.0204387718126412   0.048722419589362326
-2.1996334571012923   0.0204387718126412   0.048722419589362326
-1.8351339229817025   -0.24323390303330586   -0.03208901444549806
-1.8351339229817025   -0.24323390303330586   -0.03208901444549806
-1.8351339229817025   -0.24323390303330586   -0.03208901444549806
-1.8351339229817025   -0.24323390303330586   -0.03208901444549806
-0.8452675121519948   -0.018707473195845703   0.008991639358986357
-0.8452675121519948   -0.018707473195845703   0.008991639358986357
-0.8452675121519948   -0.018707473195845703   0.008991639358986357
-0.8452675121519948   -0.018707473195845703   0.008991639358986357
-0.8577282991744407   0.016323034632044514   0.012764145112308382
-0.8577282991744407   0.016323034632044514   0.012764145112308382
-0.8577282991744407   0.016323034632044514   0.012764145112308382
-0.8577282991744407   0.016323034632044514   0.012764145112308382
-1.8715555906704278   -0.17805610366994515   -0.05509712674344406
-1.8715555906704278   -0.17805610366994515   -0.05509712674344406
-1.8715555906704278   -0.17805610366994515   -0.05509712674344406
-1.8715555906704278   -0.17805610366994515   -0.05509712674344406
-1.3523776519401527   -0.1097638263012555   -0.030966867106070807
-1.3523776519401527   -0.1097638263012555   -0.030966867106070807
-1.3523776519401527   -0.1097638263012555   -0.030966867106070807
-1.3523776519401527   -0.1097638263012555   -0.030966867106070807
-1.869809110485444   -0.1946084354585946   -0.029812394029883872
-1.869809110485444   -0.1946084354585946   -0.029812394029883872
-1.869809110485444   -0.1946084354585946   -0.029812394029883872
-1.869809110485444   -0.1946084354585946   -0.029812394029883872
-0.856137784838899   0.03621236094122057   0.0008273904808482058
-0.856137784838899   0.03621236094122057   0.0008273904808482058
-0.856137784838899   0.03621236094122057   0.0008273904808482058
-0.856137784838899   0.03621236094122057   0.0008273904808482058
-0.854573672345542   0.059597294801214645   0.01736055040346761
-0.854573672345542   0.059597294801214645   0.01736055040346761
-0.854573672345542   0.059597294801214645   0.01736055040346761
-0.854573672345542   0.059597294801214645   0.01736055040346761
-1.872416361856339   -0.1305236346269894   -0.059586187018018835
-1.872416361856339   -0.1305236346269894   -0.059586187018018835
-1.872416361856339   -0.1305236346269894   -0.059586187018018835
-1.872416361856339   -0.1305236346269894   -0.059586187018018835
-1.3498335554320116   -0.061103445901385195   -0.01471938158752386
-1.3498335554320116   -0.061103445901385195   -0.01471938158752386
-1.3498335554320116   -0.061103445901385195   -0.01471938158752386
-1.3498335554320116   -0.061103445901385195   -0.01471938158752386
-1.8651078610078484   -0.1472459304103761   -0.0063213869921795035
-1.8651078610078484   -0.1472459304103761   -0.0063213869921795035
-1.8651078610078484   -0.1472459304103761   -0.0063213869921795035
-1.8651078610078484   -0.1472459304103761   -0.0063213869921795035
-0.8556868093916928   0.08251495438694331   -0.011122794413001416
-0.8556868093916928   0.08251495438694331   -0.011122794413001416
-0.8556868093916928   0.08251495438694331   -0.011122794413001416
-0.8556868093916928   0.08251495438694331   -0.011122794413001416
-0.8403361094014605   0.1030746605632066   0.03490781452275847
-0.8403361094014605   0.1030746605632066   0.03490781452275847
-0.8403361094014605   0.1030746605632066   0.03490781452275847
-0.8403361094014605   0.1030746605632066   0.03490781452275847
-1.8524534513195077   -0.07560463347752366   -0.06639302464072877
-1.8524534513195077   -0.07560463347752366   -0.06639302464072877
-1.8524534513195077   -0.07560463347752366   -0.06639302464072877
-1.8524534513195077   -0.07560463347752366   -0.06639302464072877
-1.3442791528201337   -0.015057156137495809   0.006752411731846292
-1.3442791528201337   -0.015057156137495809   0.006752411731846292
-1.3442791528201337   -0.015057156137495809   0.006752411731846292
-1.3442791528201337   -0.015057156137495809   0.006752411731846292
-0.8913627651706868   -0.2024706199308142   -0.037721478999512566
-0.8913627651706868   -0.2024706199308142   -0.037721478999512566
-0.8913627651706868   -0.2024706199308142   -0.037721478999512566
-0.8913627651706868   -0.2024706199308142   -0.037721478999512566
0.09278054624180698   0.021093925044062014   0.0347251334875285
0.09278054624180698   0.021093925044062014   0.0347251334875285
0.09278054624180698   0.021093925044062014   0.0347251334875285
0.09278054624180698   0.021093925044062014   0.0347251334875285
0.08849842358180372   0.05109492140682842   0.0027686208009792563
0.08849842358180372   0.05109492140682842   0.0027686208009792563
0.08849842358180372   0.05109492140682842   0.0027686208009792563
0.08849842358180372   0.05109492140682842   0.0027686208009792563
-0.8951940850770204   -0.13415797431807952   -0.0240837754504659
-0.8951940850770204   -0.13415797431807952   -0.0240837754504659
-0.8951940850770204   -0.13415797431807952   -0.0240837754504659
-0.8951940850770204   -0.13415797431807952   -0.0240837754504659
-0.4051993653218056   -0.06710492667069819   -0.012801305280165785
-0.4051993653218056   -0.06710492667069819   -0.012801305280165785
-0.4051993653218056   -0.06710492667069819   -0.012801305280165785
-0.4051993653218056   -0.06710492667069819   -0.012801305280165785
-0.9013848894585113   -0.15439551641385865   -0.034800255262141096
-0.9013848894585113   -0.15439551641385865   -0.034800255262141096
-0.9013848894585113   -0.15439551641385865   -0.034800255262141096
-0.9013848894585113   -0.15439551641385865   -0.034800255262141096
0.09813430887455442   0.0747775444138674   0.027265424257693772
0.09813430887455442   0.0747775444138674   0.027265424257693772
0.09813430887455442   0.0747775444138674   0.027265424257693772
0.09813430887455442   0.0747775444138674   0.027265424257693772
0.0954289353551509   0.09873224742279055   0.016147592956865253
0.0954289353551509   0.09873224742279055   0.016147592956865253
0.0954289353551509   0.09873224742279055   0.016147592956865253
0.0954289353551509   0.09873224742279055   0.016147592956865253
-0.892358027758161   -0.08192066797263725   -0.03004326388577537
-0.892358027758161   -0.08192066797263725   -0.03004326388577537
-0.892358027758161   -0.08192066797263725   -0.03004326388577537
-0.892358027758161   -0.08192066797263725   -0.03004326388577537
-0.3989121952221995   -0.0164752850594848   0.004783202702265718
-0.3989121952221995   -0.0164752850594848   0.004783202702265718
-0.3989121952221995   -0.0164752850594848   0.004783202702265718
-0.3989121952221995   -0.0164752850594848   0.004783202702265718
-0.8947455331930881   -0.10609371390403338   -0.017807745129015277
-0.8947455331930881   -0.10609371390403338   -0.017807745129015277
-0.8947455331930881   -0.10609371390403338   -0.017807745129015277
-0.8947455331930881   -0.10609371390403338   -0.017807745129015277
0.10152280007767345   0.12661165264178195   0.018737511350486125
0.10152280007767345   0.12661165264178195   0.018737511350486125
0.10152280007767345   0.12661165264178195   0.018737511350486125
0.10152280007767345   0.12661165264178195   0.018737511350486125
0.09759491056778352   0.15173235882697908   0.02659091611530484
0.09759491056778352   0.15173235882697908   0.02659091611530484
0.09759491056778352   0.15173235882697908   0.02659091611530484
0.09759491056778352   0.15173235882697908   0.02659091611530484
-0.8807164822994707   -0.02607305794344658   -0.03784633146063537
-0.8807164822994707   -0.02607305794344658   -0.03784633146063537
-0.8807164822994707   -0.02607305794344658   -0.03784633146063537
-0.8807164822994707   -0.02607305794344658   -0.03784633146063537
-0.3889635479443183   0.03647187042692346   0.024033809972795517
-0.3889635479443183   0.03647187042692346   0.024033809972795517
-0.3889635479443183   0.03647187042692346   0.024033809972795517
-0.3889635479443183   0.03647187042692346   0.024033809972795517
0.04267679372970784   -0.14840417881508294   -0.046295525213822186
0.04267679372970784   -0.14840417881508294   -0.046295525213822186
0.04267679372970784   -0.14840417881508294   -0.046295525213822186
0.04267679372970784   -0.14840417881508294   -0.046295525213822186
1.0621976944138372   0.07334588561065633   0.06371178880031891
1.0621976944138372   0.07334588561065633   0.06371178880031891
1.0621976944138372   0.07334588561065633   0.06371178880031891
1.0621976944138372   0.07334588561065633   0.06371178880031891
1.0608850176130271   0.09877767563093902   -0.010177959488469706
1.0608850176130271   0.09877767563093902   -0.010177959488469706
1.0608850176130271   0.09877767563093902   -0.010177959488469706
1.0608850176130271   0.09877767563093902   -0.010177959488469706
0.06115707456935084   -0.08918738083223468   0.006344177977777941
0.06115707456935084   -0.08918738083223468   0.006344177977777941
0.06115707456935084   -0.08918738083223468   0.006344177977777941
0.06115707456935084   -0.08918738083223468   0.006344177977777941
0.5498719044910675   -0.01269546538308225   0.001180645066013647
0.5498719044910675   -0.01269546538308225   0.001180645066013647
0.5498719044910675   -0.01269546538308225   0.001180645066013647
0.5498719044910675   -0.01269546538308225   0.001180645066013647
0.04912624471340898   -0.10844829789843675   -0.03454905423572859
0.04912624471340898   -0.10844829789843675   -0.03454905423572859
0.04912624471340898   -0.10844829789843675   -0.03454905423572859
0.04912624471340898   -0.10844829789843675   -0.03454905423572859
1.0791046266240327   0.12422737185220353   0.05547038934528697
1.0791046266240327   0.12422737185220353   0.05547038934528697
1.0791046266240327   0.12422737185220353   0.05547038934528697
1.0791046266240327   0.12422737185220353   0.05547038934528697
1.0692385600727097   0.14589019448763435   0.01080269303900484
1.0692385600727097   0.14589019448763435   0.01080269303900484
1.0692385600727097   0.14589019448763435   0.01080269303900484
1.0692385600727097   0.14589019448763435   0.01080269303900484
0.06332154240289493   -0.04250373871851036   -0.0031533856631136784
0.06332154240289493   -0.04250373871851036   -0.0031533856631136784
0.06332154240289493   -0.04250373871851036   -0.0031533856631136784
0.06332154240289493   -0.04250373871851036   -0.0031533856631136784
0.5571933658008367   0.03233971914300597   0.022791776712297467
0.5571933658008367   0.03233971914300597   0.022791776712297467
0.5571933658008367   0.03233971914300597   0.022791776712297467
0.5571933658008367   0.03233971914300597   0.022791776712297467
0.054560909782922815   -0.06424827639535105   -0.025212011086133326
0.054560909782922815   -0.06424827639535105   -0.025212011086133326
0.054560909782922815   -0.06424827639535105   -0.025212011086133326
0.054560909782922815   -0.06424827639535105   -0.025212011086133326
1.082477163525123   0.17211270299691286   0.050773201791774476
1.082477163525123   0.17211270299691286   0.050773201791774476
1.082477163525123   0.17211270299691286   0.050773201791774476
1.082477163525123   0.17211270299691286   0.050773201791774476
1.0520581839585486   0.2002659240218455   0.022694023432283633
1.0520581839585486   0.2002659240218455   0.022694023432283633
1.0520581839585486   0.2002659240218455   0.022694023432283633
1.0520581839585486   0.2002659240218455   0.022694023432283633
0.0627385980949054   0.015319476793597658   -0.011277764215704346
0.0627385980949054   0.015319476793597658   -0.011277764215704346
0.0627385980949054   0.015319476793597658   -0.011277764215704346
0.0627385980949054   0.015319476793597658   -0.011277764215704346
0.5654152162774958   0.08382688165674734   0.04279392680876506
0.5654152162774958   0.08382688165674734   0.04279392680876506
0.5654152162774958   0.08382688165674734   0.04279392680876506
0.5654152162774958   0.08382688165674734   0.04279392680876506
0.9785484745895053   -0.1956563512427679   -0.08553207346791522
0.9785484745895053   -0.1956563512427679   -0.08553207346791522
0.9785484745895053   -0.1956563512427679   -0.08553207346791522
0.9785484745895053   -0.1956563512427679   -0.08553207346791522
2.0147037329385538   0.13307191909937666   0.0620159834906575
2.0147037329385538   0.13307191909937666   0.0620159834906575
2.0147037329385538   0.13307191909937666   0.0620159834906575
2.0147037329385538   0.13307191909937666   0.0620159834906575
2.037470024529073   0.06324122599108045   -0.12865676160441736
2.037470024529073   0.06324122599108045   -0.12865676160441736
2.037470024529073   0.06324122599108045   -0.12865676160441736
2.037470024529073   0.06324122599108045   -0.12865676160441736
1.0425350769002633   -0.040216729664035   0.03706674224266587
1.0425350769002633   -0.040216729664035   0.03706674224266587
1.0425350769002633   -0.040216729664035   0.03706674224266587
1.0425350769002633   -0.040216729664035   0.03706674224266587
1.4428416516318872   -0.025146493738398557   -0.03605179901749174
1.4428416516318872   -0.025146493738398557   -0.03605179901749174
1.4428416516318872   -0.025146493738398557   -0.03605179901749174
1.4428416516318872   -0.025146493738398557   -0.03605179901749174
1.0060877258531173   -0.12865102496220232   -0.05673571769488095
1.0060877258531173   -0.12865102496220232   -0.05673571769488095
1.0060877258531173   -0.12865102496220232   -0.05673571769488095
1.0060877258531173   -0.12865102496220232   -0.05673571769488095
2.092406716017189   0.17016486173022105   0.03910306009702019
2.092406716017189   0.17016486173022105   0.03910306009702019
2.092406716017189   0.17016486173022105   0.03910306009702019
2.092406716017189   0.17016486173022105   0.03910306009702019
2.059872533523149   0.11507503778056694   -0.02906037084678495
2.059872533523149   0.11507503778056694   -0.02906037084678495
2.059872533523149   0.11507503778056694   -0.02906037084678495
2.059872533523149   0.11507503778056694   -0.02906037084678495
1.038327145753079   -0.016944669060156126   0.019080484988623872
1.038327145753079   -0.016944669060156126   0.019080484988623872
1.038327145753079   -0.016944669060156126   0.019080484988623872
1.038327145753079   -0.016944669060156126   0.019080484988623872
1.5183168636312194   0.03792267415457806   0.024937889754721207
1.5183168636312194   0.03792267415457806   0.024937889754721207
1.5183168636312194   0.03792267415457806   0.024937889754721207
1.5183168636312194   0.03792267415457806   0.024937889754721207
1.009094927041954   -0.09839455405978664   -0.04563072356736135
1.009094927041954   -0.09839455405978664   -0.04563072356736135
1.009094927041954   -0.09839455405978664   -0.04563072356736135
1.009094927041954   -0.09839455405978664   -0.04563072356736135
2.086651188941645   0.19407135948756998   0.025836584538688798
2.086651188941645   0.19407135948756998   0.025836584538688798
2.086651188941645   0.19407135948756998   0.025836584538688798
2.086651188941645   0.19407135948756998   0.025836584538688798
2.0563777666351366   0.17603072445528523   -0.04451782615967281
2.0563777666351366   0.17603072445528523   -0.04451782615967281
2.0563777666351366   0.17603072445528523   -0.04451782615967281
2.0563777666351366   0.17603072445528523   -0.04451782615967281
1.0169255825155221   0.036713829373755336   0.01058311086522283
1.0169255825155221   0.036713829373755336   0.01058311086522283
1.0169255825155221   0.036713829373755336   0.01058311086522283
1.0169255825155221   0.036713829373755336   0.01058311086522283
1.4794592777374518   0.06644092196197238   0.01845360821071615
1.4794592777374518   0.06644092196197238   0.01845360821071615
1.4794592777374518   0.06644092196197238   0.01845360821071615
1.4794592777374518   0.06644092196197238   0.01845360821071615
-2.21226578601991   -0.10046771869457838   0.11370069686450396
-2.21226578601991   -0.10046771869457838   0.11370069686450396
-2.21226578601991   -0.10046771869457838   0.11370069686450396
-2.21226578601991   -0.10046771869457838   0.11370069686450396
-1.4689174881396792   -0.055688240928745636   -0.029585433381424192
-1.4689174881396792   -0.055688240928745636   -0.029585433381424192
-1.4689174881396792   -0.055688240928745636   -0.029585433381424192
-1.4689174881396792   -0.055688240928745636   -0.029585433381424192
-1.4160509687729015   0.1189793723490214   0.09541089283985407
-1.4160509687729015   0.1189793723490214   0.09541089283985407
-1.4160509687729015   0.1189793723490214   0.09541089283985407
-1.4160509687729015   0.1189793723490214   0.09541089283985407
-2.2224888907492093   -0.1586281945847947   -0.04636936549992028
-2.2224888907492093   -0.1586281945847947   -0.04636936549992028
-2.2224888907492093   -0.1586281945847947   -0.04636936549992028
-2.2224888907492093   -0.1586281945847947   -0.04636936549992028
-1.7556068433640173   -0.027147657860440877   -0.0031555060472724245
-1.7556068433640173   -0.027147657860440877   -0.0031555060472724245
-1.7556068433640173   -0.027147657860440877   -0.0031555060472724245
-1.7556068433640173   -0.027147657860440877   -0.0031555060472724245
-2.1607125009605874   -0.023548529070673063   0.12743291792906772
-2.1607125009605874   -0.023548529070673063   0.12743291792906772
-2.1607125009605874   -0.023548529070673063   0.12743291792906772
-2.1607125009605874   -0.023548529070673063   0.12743291792906772
-1.4680957312225444   -0.0063686658261211115   -0.039464881233217466
-1.4680957312225444   -0.0063686658261211115   -0.039464881233217466
-1.4680957312225444   -0.0063686658261211115   -0.039464881233217466
-1.4680957312225444   -0.0063686658261211115   -0.039464881233217466
-1.4102990131612358   0.1475587461641814   0.08845375887923597
-1.4102990131612358   0.1475587461641814   0.08845375887923597
-1.4102990131612358   0.1475587461641814   0.08845375887923597
-1.4102990131612358   0.1475587461641814   0.08845375887923597
-2.1881296577048803   -0.13272480712865958   -0.06350050845545724
-2.1881296577048803   -0.13272480712865958   -0.06350050845545724
-2.1881296577048803   -0.13272480712865958   -0.06350050845545724
-2.1881296577048803   -0.13272480712865958   -0.06350050845545724
-1.7593952067622327   0.006431404042221589   0.02031956286377863
-1.7593952067622327   0.006431404042221589   0.02031956286377863
-1.7593952067622327   0.006431404042221589   0.02031956286377863
-1.7593952067622327   0.006431404042221589   0.02031956286377863
-2.130597520573018   0.003412805767514293   0.08802256430768247
-2.130597520573018   0.003412805767514293   0.08802256430768247
-2.130597520573018   0.003412805767514293   0.08802256430768247
-2.130597520573018   0.003412805767514293   0.08802256430768247
-1.4646234826388125   0.014628800922296126   -0.05023864326674654
-1.4646234826388125   0.014628800922296126   -0.05023864326674654
-1.4646234826388125   0.014628800922296126   -0.05023864326674654
-1.4646234826388125   0.014628800922296126   -0.05023864326674654
-1.4116847721669026   0.166512889492885   0.0701842157838736
-1.4116847721669026   0.166512889492885   0.0701842157838736
-1.4116847721669026   0.166512889492885   0.0701842157838736
-1.4116847721669026   0.166512889492885   0.0701842157838736
-2.1435133124060712   -0.10521706209958831   -0.08098809041674652
-2.1435133124060712   -0.10521706209958831   -0.08098809041674652
-2.1435133124060712   -0.10521706209958831   -0.08098809041674652
-2.1435133124060712   -0.10521706209958831   -0.08098809041674652
-1.7088724443764953   0.03649360745869418   0.04221035780194139
-1.7088724443764953   0.03649360745869418   0.04221035780194139
-1.7088724443764953   0.03649360745869418   0.04221035780194139
-1.7088724443764953   0.03649360745869418   0.04221035780194139
-1.4733550276731096   -0.13967964880610864   0.03221827682878647
-1.4733550276731096   -0.13967964880610864   0.03221827682878647
-1.4733550276731096   -0.13967964880610864   0.03221827682878647
-1.4733550276731096   -0.13967964880610864   0.03221827682878647
-0.7437904682474473   -0.026827238982228274   0.0014385140292822243
-0.7437904682474473   -0.026827238982228274   0.0014385140292822243
-0.7437904682474473   -0.026827238982228274   0.0014385140292822243
-0.7437904682474473   -0.026827238982228274   0.0014385140292822243
-0.7227340494349357   0.07309957836891201   0.05185974221534972
-0.7227340494349357   0.07309957836891201   0.05185974221534972
-0.7227340494349357   0.07309957836891201   0.05185974221534972
-0.7227340494349357   0.07309957836891201   0.05185974221534972
-1.496793426910457   -0.13774921045756816   -0.05157281504134506
-1.496793426910457   -0.13774921045756816   -0.05157281504134506
-1.496793426910457   -0.13774921045756816   -0.05157281504134506
-1.496793426910457   -0.13774921045756816   -0.05157281504134506
-1.1052193245814523   -0.0542343096637416   -0.022356304807439227
-1.1052193245814523   -0.0542343096637416   -0.022356304807439227
-1.1052193245814523   -0.0542343096637416   -0.022356304807439227
-1.1052193245814523   -0.0542343096637416   -0.022356304807439227
-1.4687332875420067   -0.08023040285575314   0.031209074199094876
-1.4687332875420067   -0.08023040285575314   0.031209074199094876
-1.4687332875420067   -0.08023040285575314   0.031209074199094876
-1.4687332875420067   -0.08023040285575314   0.031209074199094876
-0.7451048001668807   0.02127015940360405   -0.00816459247906004
-0.7451048001668807   0.02127015940360405   -0.00816459247906004
-0.7451048001668807   0.02127015940360405   -0.00816459247906004
-0.7451048001668807   0.02127015940360405   -0.00816459247906004
-0.7204584242439105   0.12075973789731292   0.04487273799106438
-0.7204584242439105   0.12075973789731292   0.04487273799106438
-0.7204584242439105   0.12075973789731292   0.04487273799106438
-0.7204584242439105   0.12075973789731292   0.04487273799106438
-1.48833125955913   -0.09325872767562077   -0.0608899992704338
-1.48833125955913   -0.09325872767562077   -0.0608899992704338
-1.48833125955913   -0.09325872767562077   -0.0608899992704338
-1.48833125955913   -0.09325872767562077   -0.0608899992704338
-1.0931687131617103   -0.006004728031957868   -5.93666514205754e-05
-1.0931687131617103   -0.006004728031957868   -5.93666514205754e-05
-1.0931687131617103   -0.006004728031957868   -5.93666514205754e-05
-1.0931687131617103   -0.006004728031957868   -5.93666514205754e-05
-1.4596973858925326   -0.03188206146103151   0.02090270284796429
-1.4596973858925326   -0.03188206146103151   0.02090270284796429
-1.4596973858925326   -0.03188206146103151   0.02090270284796429
-1.4596973858925326   -0.03188206146103151   0.02090270284796429
-0.7444593537794529   0.0640160158137836   -0.0183881876031047
-0.7444593537794529   0.0640160158137836   -0.0183881876031047
-0.7444593537794529   0.0640160158137836   -0.0183881876031047
-0.7444593537794529   0.0640160158137836   -0.0183881876031047
-0.7202579372521225   0.17083861676208745   0.03362771248994148
-0.7202579372521225   0.17083861676208745   0.03362771248994148
-0.7202579372521225   0.17083861676208745   0.03362771248994148
-0.7202579372521225   0.17083861676208745   0.03362771248994148
-1.481181023015761   -0.04525686453411659   -0.0655272844334196
-1.481181023015761   -0.04525686453411659   -0.0655272844334196
-1.481181023015761   -0.04525686453411659   -0.0655272844334196
-1.481181023015761   -0.04525686453411659   -0.0655272844334196
-1.0938959888122366   0.03821628570694041   0.01697868040215665
-1.0938959888122366   0.03821628570694041   0.01697868040215665
-1.0938959888122366   0.03821628570694041   0.01697868040215665
-1.0938959888122366   0.03821628570694041   0.01697868040215665
-0.7715198520835213   -0.1595985917876435   -0.004437052345678491
-0.7715198520835213   -0.1595985917876435   -0.004437052345678491
-0.7715198520835213   -0.1595985917876435   -0.004437052345678491
-0.7715198520835213   -0.1595985917876435   -0.004437052345678491
-0.025398335207387632   0.007980906386944825   0.032949749698391484
-0.025398335207387632   0.007980906386944825   0.032949749698391484
-0.025398335207387632   0.007980906386944825   0.032949749698391484
-0.025398335207387632   0.007980906386944825   0.032949749698391484
-0.028232856652166377   0.04719975003850754   0.01574361790762294
-0.028232856652166377   0.04719975003850754   0.01574361790762294
-0.028232856652166377   0.04719975003850754   0.01574361790762294
-0.028232856652166377   0.04719975003850754   0.01574361790762294
-0.7720513440190158   -0.10231578250629403   -0.019311369829844632
-0.7720513440190158   -0.10231578250629403   -0.019311369829844632
-0.7720513440190158   -0.10231578250629403   -0.019311369829844632
-0.7720513440190158   -0.10231578250629403   -0.019311369829844632
-0.40052364730935874   -0.05000903027219065   -0.012505479340371809
-0.40052364730935874   -0.05000903027219065   -0.012505479340371809
-0.40052364730935874   -0.05000903027219065   -0.012505479340371809
-0.40052364730935874   -0.05000903027219065   -0.012505479340371809
-0.7712204392109306   -0.10670084642825918   -0.010771781867454071
-0.7712204392109306   -0.10670084642825918   -0.010771781867454071
-0.7712204392109306   -0.10670084642825918   -0.010771781867454071
-0.7712204392109306   -0.10670084642825918   -0.010771781867454071
-0.024821925313552304   0.05582665010717319   0.024171374532028004
-0.024821925313552304   0.05582665010717319   0.024171374532028004
-0.024821925313552304   0.05582665010717319   0.024171374532028004
-0.024821925313552304   0.05582665010717319   0.024171374532028004
-0.02472724742338568   0.09912673093181183   0.007562950301694637
-0.02472724742338568   0.09912673093181183   0.007562950301694637
-0.02472724742338568   0.09912673093181183   0.007562950301694637
-0.02472724742338568   0.09912673093181183   0.007562950301694637
-0.7701229867662195   -0.05439006253626086   -0.02830027418690078
-0.7701229867662195   -0.05439006253626086   -0.02830027418690078
-0.7701229867662195   -0.05439006253626086   -0.02830027418690078
-0.7701229867662195   -0.05439006253626086   -0.02830027418690078
-0.39664593627863437   -0.001990861820471798   0.0055090016201750705
-0.39664593627863437   -0.001990861820471798   0.0055090016201750705
-0.39664593627863437   -0.001990861820471798   0.0055090016201750705
-0.39664593627863437   -0.001990861820471798   0.0055090016201750705
-0.7689634752061807   -0.05550971705806626   -0.021383061864900896
-0.7689634752061807   -0.05550971705806626   -0.021383061864900896
-0.7689634752061807   -0.05550971705806626   -0.021383061864900896
-0.7689634752061807   -0.05550971705806626   -0.021383061864900896
-0.022383996137541946   0.10374914829949994   0.014656789363225547
-0.022383996137541946   0.10374914829949994   0.014656789363225547
-0.022383996137541946   0.10374914829949994   0.014656789363225547
-0.022383996137541946   0.10374914829949994   0.014656789363225547
-0.02399236952934953   0.15260777112796847   -0.0011662988736811652
-0.02399236952934953   0.15260777112796847   -0.0011662988736811652
-0.02399236952934953   0.15260777112796847   -0.0011662988736811652
-0.02399236952934953   0.15260777112796847   -0.0011662988736811652
-0.7697566881907663   -0.005647139827558267   -0.03738028561363574
-0.7697566881907663   -0.005647139827558267   -0.03738028561363574
-0.7697566881907663   -0.005647139827558267   -0.03738028561363574
-0.7697566881907663   -0.005647139827558267   -0.03738028561363574
-0.39363742142441654   0.04607277381452099   0.022028404840605864
-0.39363742142441654   0.04607277381452099   0.022028404840605864
-0.39363742142441654   0.04607277381452099   0.022028404840605864
-0.39363742142441654   0.04607277381452099   0.022028404840605864
-0.07617323263878886   -0.17471618647855547   -0.03822764459311416
-0.07617323263878886   -0.17471618647855547   -0.03822764459311416
-0.07617323263878886   -0.17471618647855547   -0.03822764459311416
-0.07617323263878886   -0.17471618647855547   -0.03822764459311416
0.690322795365084   0.04873384837470583   0.06263785002109559
0.690322795365084   0.04873384837470583   0.06263785002109559
0.690322795365084   0.04873384837470583   0.06263785002109559
0.690322795365084   0.04873384837470583   0.06263785002109559
0.6677488480201955   0.025929902856531822   -0.024661177029234295
0.6677488480201955   0.025929902856531822   -0.024661177029234295
0.6677488480201955   0.025929902856531822   -0.024661177029234295
0.6677488480201955   0.025929902856531822   -0.024661177029234295
-0.05093386986533513   -0.06400679967427102   0.01344510155455805
-0.05093386986533513   -0.06400679967427102   0.01344510155455805
-0.05093386986533513   -0.06400679967427102   0.01344510155455805
-0.05093386986533513   -0.06400679967427102   0.01344510155455805
0.30338622104802915   -0.04039219023209502   -0.007047951696154721
0.30338622104802915   -0.04039219023209502   -0.007047951696154721
0.30338622104802915   -0.04039219023209502   -0.007047951696154721
0.30338622104802915   -0.04039219023209502   -0.007047951696154721
-0.07591408297422811   -0.12746916722445137   -0.047993596439726484
-0.07591408297422811   -0.12746916722445137   -0.047993596439726484
-0.07591408297422811   -0.12746916722445137   -0.047993596439726484
-0.07591408297422811   -0.12746916722445137   -0.047993596439726484
0.6975532569511786   0.09421646622880221   0.05607430425341052
0.6975532569511786   0.09421646622880221   0.05607430425341052
0.6975532569511786   0.09421646622880221   0.05607430425341052
0.6975532569511786   0.09421646622880221   0.05607430425341052
0.6785104507940388   0.07423535005636525   -0.0346468501798795
0.6785104507940388   0.07423535005636525   -0.0346468501798795
0.6785104507940388   0.07423535005636525   -0.0346468501798795
0.6785104507940388   0.07423535005636525   -0.0346468501798795
-0.04950791828840308   -0.021068765839336374   0.0038550927477567034
-0.04950791828840308   -0.021068765839336374   0.0038550927477567034
-0.04950791828840308   -0.021068765839336374   0.0038550927477567034
-0.04950791828840308   -0.021068765839336374   0.0038550927477567034
0.3060213479810229   0.0030394960463560328   0.010848963425895981
0.3060213479810229   0.0030394960463560328   0.010848963425895981
0.3060213479810229   0.0030394960463560328   0.010848963425895981
0.3060213479810229   0.0030394960463560328   0.010848963425895981
-0.07380207887228322   -0.08086223420259955   -0.05782224180838152
-0.07380207887228322   -0.08086223420259955   -0.05782224180838152
-0.07380207887228322   -0.08086223420259955   -0.05782224180838152
-0.07380207887228322   -0.08086223420259955   -0.05782224180838152
0.7080616046644113   0.1392858117061206   0.048058457522227184
0.7080616046644113   0.1392858117061206   0.048058457522227184
0.7080616046644113   0.1392858117061206   0.048058457522227184
0.7080616046644113   0.1392858117061206   0.048058457522227184
0.6851316628481925   0.13482286958208042   -0.036153865026577685
0.6851316628481925   0.13482286958208042   -0.036153865026577685
0.6851316628481925   0.13482286958208042   -0.036153865026577685
0.6851316628481925   0.13482286958208042   -0.036153865026577685
-0.0495982811241753   0.02912317631180004   -0.005711262031641105
-0.0495982811241753   0.02912317631180004   -0.005711262031641105
-0.0495982811241753   0.02912317631180004   -0.005711262031641105
-0.0495982811241753   0.02912317631180004   -0.005711262031641105
0.31656107457009   0.05148533514802486   0.03210866447972914
0.31656107457009   0.05148533514802486   0.03210866447972914
0.31656107457009   0.05148533514802486   0.03210866447972914
0.31656107457009   0.05148533514802486   0.03210866447972914
0.61847913093129   -0.17345460229569992   -0.07439202147746175
0.61847913093129   -0.17345460229569992   -0.07439202147746175
0.61847913093129   -0.17345460229569992   -0.07439202147746175
0.61847913093129   -0.17345460229569992   -0.07439202147746175
1.3593987946101338   0.1009934930059988   0.06959994670400155
1.3593987946101338   0.1009934930059988   0.06959994670400155
1.3593987946101338   0.1009934930059988   0.06959994670400155
1.3593987946101338   0.1009934930059988   0.06959994670400155
1.3487909130882239   -0.006182399723782317   -0.09901744424403915
1.3487909130882239   -0.006182399723782317   -0.09901744424403915
1.3487909130882239   -0.006182399723782317   -0.09901744424403915
1.3487909130882239   -0.006182399723782317   -0.09901744424403915
0.6739212553411958   -0.014566674924226003   0.04669743735653159
0.6739212553411958   -0.014566674924226003   0.04669743735653159
0.6739212553411958   -0.014566674924226003   0.04669743735653159
0.6739212553411958   -0.014566674924226003   0.04669743735653159
0.9516021176329247   -0.03378410942529944   -0.031182130231967524
0.9516021176329247   -0.03378410942529944   -0.031182130231967524
0.9516021176329247   -0.03378410942529944   -0.031182130231967524
0.9516021176329247   -0.03378410942529944   -0.031182130231967524
0.619068696548988   -0.15062480040714138   -0.09150723112159098
0.619068696548988   -0.15062480040714138   -0.09150723112159098
0.619068696548988   -0.15062480040714138   -0.09150723112159098
0.619068696548988   -0.15062480040714138   -0.09150723112159098
1.4075856346995155   0.13381788857821839   0.054955875510418646
1.4075856346995155   0.13381788857821839   0.054955875510418646
1.4075856346995155   0.13381788857821839   0.054955875510418646
1.4075856346995155   0.13381788857821839   0.054955875510418646
1.3817665117489557   0.021370329709125502   -0.13278388716084477
1.3817665117489557   0.021370329709125502   -0.13278388716084477
1.3817665117489557   0.021370329709125502   -0.13278388716084477
1.3817665117489557   0.021370329709125502   -0.13278388716084477
0.6788383784588828   0.006450085742937706   0.03477805245777922
0.6788383784588828   0.006450085742937706   0.03477805245777922
0.6788383784588828   0.006450085742937706   0.03477805245777922
0.6788383784588828   0.006450085742937706   0.03477805245777922
0.9945819675516292   -0.004007084072585987   -0.009534862103333396
0.9945819675516292   -0.004007084072585987   -0.009534862103333396
0.9945819675516292   -0.004007084072585987   -0.009534862103333396
0.9945819675516292   -0.004007084072585987   -0.009534862103333396
0.6260555657093981   -0.12312688931329957   -0.09955903623341254
0.6260555657093981   -0.12312688931329957   -0.09955903623341254
0.6260555657093981   -0.12312688931329957   -0.09955903623341254
0.6260555657093981   -0.12312688931329957   -0.09955903623341254
1.4432555290168707   0.15965350928379352   0.03637801960407029
1.4432555290168707   0.15965350928379352   0.03637801960407029
1.4432555290168707   0.15965350928379352   0.03637801960407029
1.4432555290168707   0.15965350928379352   0.03637801960407029
1.434132418038494   0.0930648812473065   -0.1248684652899932
1.434132418038494   0.0930648812473065   -0.1248684652899932
1.434132418038494   0.0930648812473065   -0.1248684652899932
1.434132418038494   0.0930648812473065   -0.1248684652899932
0.6810580811507622   0.05291708799174118   0.02538400807662149
0.6810580811507622   0.05291708799174118   0.02538400807662149
0.6810580811507622   0.05291708799174118   0.02538400807662149
0.6810580811507622   0.05291708799174118   0.02538400807662149
1.001847519009074   0.03005806311734982   0.014402445759318656
1.001847519009074   0.03005806311734982   0.014402445759318656
1.001847519009074   0.03005806311734982   0.014402445759318656
1.001847519009074   0.03005806311734982   0.014402445759318656
-1.582122780522209   -0.05179824337133232   0.1030698467881723
-1.582122780522209   -0.05179824337133232   0.1030698467881723
-1.582122780522209   -0.05179824337133232   0.1030698467881723
-1.582122780522209   -0.05179824337133232   0.1030698467881723
-1.1065305364277365   -0.07380435580867312   -0.038954395614486576
-1.1065305364277365   -0.07380435580867312   -0.038954395614486576
-1.1065305364277365   -0.07380435580867312   -0.038954395614486576
-1.1065305364277365   -0.07380435580867312   -0.038954395614486576
-1.0415761028898658   0.10440868172699547   0.08790222819968672
-1.0415761028898658   0.10440868172699547   0.08790222819968672
-1.0415761028898658   0.10440868172699547   0.08790222819968672
-1.0415761028898658   0.10440868172699547   0.08790222819968672
-1.5822509050314157   -0.13021441885295598   -0.056975505352335504
-1.5822509050314157   -0.13021441885295598   -0.056975505352335504
-1.5822509050314157   -0.13021441885295598   -0.056975505352335504
-1.5822509050314157   -0.13021441885295598   -0.056975505352335504
-1.2736865304598897   -0.02032437755352301   -0.002719086656404371
-1.2736865304598897   -0.02032437755352301   -0.002719086656404371
-1.2736865304598897   -0.02032437755352301   -0.002719086656404371
-1.2736865304598897   -0.02032437755352301   -0.002719086656404371
-1.5231771776625413   0.010119803050282816   0.09805890958879908
-1.5231771776625413   0.010119803050282816   0.09805890958879908
-1.5231771776625413   0.010119803050282816   0.09805890958879908
-1.5231771776625413   0.010119803050282816   0.09805890958879908
-1.0958457173066185   -0.0311214272241202   -0.047915734932954035
-1.0958457173066185   -0.0311214272241202   -0.047915734932954035
-1.0958457173066185   -0.0311214272241202   -0.047915734932954035
-1.0958457173066185   -0.0311214272241202   -0.047915734932954035
-1.0317708417248495   0.12610606637994173   0.07429504310753407
-1.0317708417248495   0.12610606637994173   0.07429504310753407
-1.0317708417248495   0.12610606637994173   0.07429504310753407
-1.0317708417248495   0.12610606637994173   0.07429504310753407
-1.54486080909313   -0.10603111753410346   -0.07204033484942748
-1.54486080909313   -0.10603111753410346   -0.07204033484942748
-1.54486080909313   -0.10603111753410346   -0.07204033484942748
-1.54486080909313   -0.10603111753410346   -0.07204033484942748
-1.2648255971387008   0.008299628938525483   0.0134253046200659
-1.2648255971387008   0.008299628938525483   0.0134253046200659
-1.2648255971387008   0.008299628938525483   0.0134253046200659
-1.2648255971387008   0.008299628938525483   0.0134253046200659
-1.4862852399660846   0.03608788063377233   0.07871851261792215
-1.4862852399660846   0.03608788063377233   0.07871851261792215
-1.4862852399660846   0.03608788063377233   0.07871851261792215
-1.4862852399660846   0.03608788063377233   0.07871851261792215
-1.086001363613567   -0.011667884549604463   -0.05908361540649535
-1.086001363613567   -0.011667884549604463   -0.05908361540649535
-1.086001363613567   -0.011667884549604463   -0.05908361540649535
-1.086001363613567   -0.011667884549604463   -0.05908361540649535
-1.0263396659489312   0.14720183047139893   0.06393272598104945
-1.0263396659489312   0.14720183047139893   0.06393272598104945
-1.0263396659489312   0.14720183047139893   0.06393272598104945
-1.0263396659489312   0.14720183047139893   0.06393272598104945
-1.4947651018435797   -0.0740734384508897   -0.08626122880415028
-1.4947651018435797   -0.0740734384508897   -0.08626122880415028
-1.4947651018435797   -0.0740734384508897   -0.08626122880415028
-1.4947651018435797   -0.0740734384508897   -0.08626122880415028
-1.21739325215411   0.03510436914341908   0.036093806686956414
-1.21739325215411   0.03510436914341908   0.036093806686956414
-1.21739325215411   0.03510436914341908   0.036093806686956414
-1.21739325215411   0.03510436914341908   0.036093806686956414
-1.0941489667440947   -0.08946401840700285   0.038613115402041265
-1.0941489667440947   -0.08946401840700285   0.038613115402041265
-1.0941489667440947   -0.08946401840700285   0.038613115402041265
-1.0941489667440947   -0.08946401840700285   0.038613115402041265
-0.6340677211957718   -0.04782669000905623   -0.006285489021859138
-0.6340677211957718   -0.04782669000905623   -0.006285489021859138
-0.6340677211957718   -0.04782669000905623   -0.006285489021859138
-0.6340677211957718   -0.04782669000905623   -0.006285489021859138
-0.6018599417006794   0.06103131564549219   0.04739633026417914
-0.6018599417006794   0.06103131564549219   0.04739633026417914
-0.6018599417006794   0.06103131564549219   0.04739633026417914
-0.6018599417006794   0.06103131564549219   0.04739633026417914
-1.1105846058411442   -0.1064393887452311   -0.04629221608447973
-1.1105846058411442   -0.1064393887452311   -0.04629221608447973
-1.1105846058411442   -0.1064393887452311   -0.04629221608447973
-1.1105846058411442   -0.1064393887452311   -0.04629221608447973
-0.8566933309231616   -0.04180106121125268   -0.01745330507301246
-0.8566933309231616   -0.04180106121125268   -0.01745330507301246
-0.8566933309231616   -0.04180106121125268   -0.01745330507301246
-0.8566933309231616   -0.04180106121125268   -0.01745330507301246
-1.0813336398309705   -0.03803170415764012   0.0315549293787935
-1.0813336398309705   -0.03803170415764012   0.0315549293787935
-1.0813336398309705   -0.03803170415764012   0.0315549293787935
-1.0813336398309705   -0.03803170415764012   0.0315549293787935
-0.6273595386291994   -0.003624999860443373   -0.015445338872485871
-0.6273595386291994   -0.003624999860443373   -0.015445338872485871
-0.6273595386291994   -0.003624999860443373   -0.015445338872485871
-0.6273595386291994   -0.003624999860443373   -0.015445338872485871
-0.5942033722737001   0.10551789779096474   0.038865240777048206
-0.5942033722737001   0.10551789779096474   0.038865240777048206
-0.5942033722737001   0.10551789779096474   0.038865240777048206
-0.5942033722737001   0.10551789779096474   0.038865240777048206
-1.0956477952589938   -0.06444316092053301   -0.05454049726271163
-1.0956477952589938   -0.06444316092053301   -0.05454049726271163
-1.0956477952589938   -0.06444316092053301   -0.05454049726271163
-1.0956477952589938   -0.06444316092053301   -0.05454049726271163
-0.8402456508177605   0.0019412102925600305   0.0013371495958035343
-0.8402456508177605   0.0019412102925600305   0.0013371495958035343
-0.8402456508177605   0.0019412102925600305   0.0013371495958035343
-0.8402456508177605   0.0019412102925600305   0.0013371495958035343
-1.0641828992562579   0.00951425717094212   0.028826564659492772
-1.0641828992562579   0.00951425717094212   0.028826564659492772
-1.0641828992562579   0.00951425717094212   0.028826564659492772
-1.0641828992562579   0.00951425717094212   0.028826564659492772
-0.6210096620088164   0.03621908596711029   -0.025867396074672415
-0.6210096620088164   0.03621908596711029   -0.025867396074672415
-0.6210096620088164   0.03621908596711029   -0.025867396074672415
-0.6210096620088164   0.03621908596711029   -0.025867396074672415
-0.586806190310974   0.1529077159157202   0.030920785110977622
-0.586806190310974   0.1529077159157202   0.030920785110977622
-0.586806190310974   0.1529077159157202   0.030920785110977622
-0.586806190310974   0.1529077159157202   0.030920785110977622
-1.0844628082402674   -0.01919902298525994   -0.060282132018966525
-1.0844628082402674   -0.01919902298525994   -0.060282132018966525
-1.0844628082402674   -0.01919902298525994   -0.060282132018966525
-1.0844628082402674   -0.01919902298525994   -0.060282132018966525
-0.8338800678299142   0.04308471611764236   0.01922445864010712
-0.8338800678299142   0.04308471611764236   0.01922445864010712
-0.8338800678299142   0.04308471611764236   0.01922445864010712
-0.8338800678299142   0.04308471611764236   0.01922445864010712
-0.6474856840539971   -0.12272242665538743   0.0015204333333396491
-0.6474856840539971   -0.12272242665538743   0.0015204333333396491
-0.6474856840539971   -0.12272242665538743   0.0015204333333396491
-0.6474856840539971   -0.12272242665538743   0.0015204333333396491
-0.16651818609247718   -0.01423355636045626   0.02640786716699469
-0.16651818609247718   -0.01423355636045626   0.02640786716699469
-0.16651818609247718   -0.01423355636045626   0.02640786716699469
-0.16651818609247718   -0.01423355636045626   0.02640786716699469
-0.16241332127675018   0.025275219009952103   0.00900561500912043
-0.16241332127675018   0.025275219009952103   0.00900561500912043
-0.16241332127675018   0.025275219009952103   0.00900561500912043
-0.16241332127675018   0.025275219009952103   0.00900561500912043
-0.6403816819832105   -0.07183176027121092   -0.012349295231777833
-0.6403816819832105   -0.07183176027121092   -0.012349295231777833
-0.6403816819832105   -0.07183176027121092   -0.012349295231777833
-0.6403816819832105   -0.07183176027121092   -0.012349295231777833
-0.40488697600457163   -0.04392052394755454   -0.012399645406298655
-0.40488697600457163   -0.04392052394755454   -0.012399645406298655
-0.40488697600457163   -0.04392052394755454   -0.012399645406298655
-0.40488697600457163   -0.04392052394755454   -0.012399645406298655
-0.6393396632203827   -0.07308780393197373   -0.0058831577568760045
-0.6393396632203827   -0.07308780393197373   -0.0058831577568760045
-0.6393396632203827   -0.07308780393197373   -0.0058831577568760045
-0.6393396632203827   -0.07308780393197373   -0.0058831577568760045
-0.15969459393132152   0.030292008778971348   0.017582461967244525
-0.15969459393132152   0.030292008778971348   0.017582461967244525
-0.15969459393132152   0.030292008778971348   0.017582461967244525
-0.15969459393132152   0.030292008778971348   0.017582461967244525
-0.15316876173176702   0.07513351328479156   0.002363379883908733
-0.15316876173176702   0.07513351328479156   0.002363379883908733
-0.15316876173176702   0.07513351328479156   0.002363379883908733
-0.15316876173176702   0.07513351328479156   0.002363379883908733
-0.6327179393325698   -0.02699806473772022   -0.021191631988615334
-0.6327179393325698   -0.02699806473772022   -0.021191631988615334
-0.6327179393325698   -0.02699806473772022   -0.021191631988615334
-0.6327179393325698   -0.02699806473772022   -0.021191631988615334
-0.39501358804964914   0.000891087448685296   0.005306697458795487
-0.39501358804964914   0.000891087448685296   0.005306697458795487
-0.39501358804964914   0.000891087448685296   0.005306697458795487
-0.39501358804964914   0.000891087448685296   0.005306697458795487
-0.630368036195783   -0.02338921149439463   -0.013050969548006351
-0.630368036195783   -0.02338921149439463   -0.013050969548006351
-0.630368036195783   -0.02338921149439463   -0.013050969548006351
-0.630368036195783   -0.02338921149439463   -0.013050969548006351
-0.15204644371173068   0.07499688119828946   0.008111602070593908
-0.15204644371173068   0.07499688119828946   0.008111602070593908
-0.15204644371173068   0.07499688119828946   0.008111602070593908
-0.15204644371173068   0.07499688119828946   0.008111602070593908
-0.14487800000554127   0.12571488199808228   -0.005448864670657846
-0.14487800000554127   0.12571488199808228   -0.005448864670657846
-0.14487800000554127   0.12571488199808228   -0.005448864670657846
-0.14487800000554127   0.12571488199808228   -0.005448864670657846
-0.625987661184571   0.018356633134963746   -0.030435486476252667
-0.625987661184571   0.018356633134963746   -0.030435486476252667
-0.625987661184571   0.018356633134963746   -0.030435486476252667
-0.625987661184571   0.018356633134963746   -0.030435486476252667
-0.3859985970792614   0.045917388208141396   0.02236495388704665
-0.3859985970792614   0.045917388208141396   0.02236495388704665
-0.3859985970792614   0.045917388208141396   0.02236495388704665
-0.3859985970792614   0.045917388208141396   0.02236495388704665
-0.20589923284866443   -0.149986926555955   -0.03474399641844461
-0.20589923284866443   -0.149986926555955   -0.03474399641844461
-0.20589923284866443   -0.149986926555955   -0.03474399641844461
-0.20589923284866443   -0.149986926555955   -0.03474399641844461
0.29493002538364554   0.023444795735733964   0.057271308208156194
0.29493002538364554   0.023444795735733964   0.057271308208156194
0.29493002538364554   0.023444795735733964   0.057271308208156194
0.29493002538364554   0.023444795735733964   0.057271308208156194
0.2744711803508402   -0.007990269243006692   -0.031877296505295694
0.2744711803508402   -0.007990269243006692   -0.031877296505295694
0.2744711803508402   -0.007990269243006692   -0.031877296505295694
0.2744711803508402   -0.007990269243006692   -0.031877296505295694
-0.17200228717871763   -0.034851461427168766   0.021187465936404096
-0.17200228717871763   -0.034851461427168766   0.021187465936404096
-0.17200228717871763   -0.034851461427168766   0.021187465936404096
-0.17200228717871763   -0.034851461427168766   0.021187465936404096
0.04600764254259379   -0.041172217278099305   -0.008822616682794071
0.04600764254259379   -0.041172217278099305   -0.008822616682794071
0.04600764254259379   -0.041172217278099305   -0.008822616682794071
0.04600764254259379   -0.041172217278099305   -0.008822616682794071
-0.19878238021140848   -0.10481534515436758   -0.04274911549985139
-0.19878238021140848   -0.10481534515436758   -0.04274911549985139
-0.19878238021140848   -0.10481534515436758   -0.04274911549985139
-0.19878238021140848   -0.10481534515436758   -0.04274911549985139
0.30572728952790235   0.06644963062855727   0.04996334950844504
0.30572728952790235   0.06644963062855727   0.04996334950844504
0.30572728952790235   0.06644963062855727   0.04996334950844504
0.30572728952790235   0.06644963062855727   0.04996334950844504
0.2916630251261309   0.03917187210682015   -0.036112660935994655
0.2916630251261309   0.03917187210682015   -0.036112660935994655
0.2916630251261309   0.03917187210682015   -0.036112660935994655
0.2916630251261309   0.03917187210682015   -0.036112660935994655
-0.16533032585007634   0.00524346562454648   0.011445606952608586
-0.16533032585007634   0.00524346562454648   0.011445606952608586
-0.16533032585007634   0.00524346562454648   0.011445606952608586
-0.16533032585007634   0.00524346562454648   0.011445606952608586
0.05514692715936545   -0.0005496637158077539   0.009186580012887167
0.05514692715936545   -0.0005496637158077539   0.009186580012887167
0.05514692715936545   -0.0005496637158077539   0.009186580012887167
0.05514692715936545   -0.0005496637158077539   0.009186580012887167
-0.19117416757288944   -0.06056588454430602   -0.05196425149260514
-0.19117416757288944   -0.06056588454430602   -0.05196425149260514
-0.19117416757288944   -0.06056588454430602   -0.05196425149260514
-0.19117416757288944   -0.06056588454430602   -0.05196425149260514
0.3213883499131611   0.10886270533989378   0.04282312976607694
0.3213883499131611   0.10886270533989378   0.04282312976607694
0.3213883499131611   0.10886270533989378   0.04282312976607694
0.3213883499131611   0.10886270533989378   0.04282312976607694
0.30550351685454125   0.09294137899757741   -0.041722046581455445
0.30550351685454125   0.09294137899757741   -0.041722046581455445
0.30550351685454125   0.09294137899757741   -0.041722046581455445
0.30550351685454125   0.09294137899757741   -0.041722046581455445
-0.1581988067826093   0.051483525187768796   0.0021784582543140467
-0.1581988067826093   0.051483525187768796   0.0021784582543140467
-0.1581988067826093   0.051483525187768796   0.0021784582543140467
-0.1581988067826093   0.051483525187768796   0.0021784582543140467
0.06928291762506641   0.043661897183061175   0.027842759801386258
0.06928291762506641   0.043661897183061175   0.027842759801386258
0.06928291762506641   0.043661897183061175   0.027842759801386258
0.06928291762506641   0.043661897183061175   0.027842759801386258
0.23476874566549413   -0.15155880421091872   -0.06853149043594656
0.23476874566549413   -0.15155880421091872   -0.06853149043594656
0.23476874566549413   -0.15155880421091872   -0.06853149043594656
0.23476874566549413   -0.15155880421091872   -0.06853149043594656
0.7053801767379467   0.0694910672826355   0.07411260872591553
0.7053801767379467   0.0694910672826355   0.07411260872591553
0.7053801767379467   0.0694910672826355   0.07411260872591553
0.7053801767379467   0.0694910672826355   0.07411260872591553
0.6983864596097654   -0.03705558887632279   -0.09021233667253722
0.6983864596097654   -0.03705558887632279   -0.09021233667253722
0.6983864596097654   -0.03705558887632279   -0.09021233667253722
0.6983864596097654   -0.03705558887632279   -0.09021233667253722
0.29600324971769465   0.012496489298457217   0.055296291787510665
0.29600324971769465   0.012496489298457217   0.055296291787510665
0.29600324971769465   0.012496489298457217   0.055296291787510665
0.29600324971769465   0.012496489298457217   0.055296291787510665
0.4584306167731341   -0.031288538678983485   -0.02416430475607243
0.4584306167731341   -0.031288538678983485   -0.02416430475607243
0.4584306167731341   -0.031288538678983485   -0.02416430475607243
0.4584306167731341   -0.031288538678983485   -0.02416430475607243
0.24133575559879095   -0.12627683353810293   -0.07926785597044804
0.24133575559879095   -0.12627683353810293   -0.07926785597044804
0.24133575559879095   -0.12627683353810293   -0.07926785597044804
0.24133575559879095   -0.12627683353810293   -0.07926785597044804
0.7576175962747237   0.10628137650629194   0.06260638126965516
0.7576175962747237   0.10628137650629194   0.06260638126965516
0.7576175962747237   0.10628137650629194   0.06260638126965516
0.7576175962747237   0.10628137650629194   0.06260638126965516
0.7363862446327717   -0.010630695372453258   -0.10817371929306442
0.7363862446327717   -0.010630695372453258   -0.10817371929306442
0.7363862446327717   -0.010630695372453258   -0.10817371929306442
0.7363862446327717   -0.010630695372453258   -0.10817371929306442
0.3060428762216694   0.03185160493918771   0.04310686170932455
0.3060428762216694   0.03185160493918771   0.04310686170932455
0.3060428762216694   0.03185160493918771   0.04310686170932455
0.3060428762216694   0.03185160493918771   0.04310686170932455
0.49685617939895854   -0.004653691618064948   -0.002937666235818294
0.49685617939895854   -0.004653691618064948   -0.002937666235818294
0.49685617939895854   -0.004653691618064948   -0.002937666235818294
0.49685617939895854   -0.004653691618064948   -0.002937666235818294
0.2518112514932201   -0.10429240128374762   -0.09190725570998468
0.2518112514932201   -0.10429240128374762   -0.09190725570998468
0.2518112514932201   -0.10429240128374762   -0.09190725570998468
0.2518112514932201   -0.10429240128374762   -0.09190725570998468
0.7953715169998793   0.13026695848914252   0.04585498868088891
0.7953715169998793   0.13026695848914252   0.04585498868088891
0.7953715169998793   0.13026695848914252   0.04585498868088891
0.7953715169998793   0.13026695848914252   0.04585498868088891
0.7947126257207875   0.047415565320872585   -0.1157781498477313
0.7947126257207875   0.047415565320872585   -0.1157781498477313
0.7947126257207875   0.047415565320872585   -0.1157781498477313
0.7947126257207875   0.047415565320872585   -0.1157781498477313
0.3163185747498248   0.07104832352258728   0.03424629836994837
0.3163185747498248   0.07104832352258728   0.03424629836994837
0.3163185747498248   0.07104832352258728   0.03424629836994837
0.3163185747498248   0.07104832352258728   0.03424629836994837
0.5159565667581706   0.024719109548821838   0.015313537218991247
0.5159565667581706   0.024719109548821838   0.015313537218991247
0.5159565667581706   0.024719109548821838   0.015313537218991247
0.5159565667581706   0.024719109548821838   0.015313537218991247
-0.9491963121714442   -0.016053096287987012   0.09246767773265188
-0.9491963121714442   -0.016053096287987012   0.09246767773265188
-0.9491963121714442   -0.016053096287987012   0.09246767773265188
-0.9491963121714442   -0.016053096287987012   0.09246767773265188
-0.7397831633556298   -0.09379636683165392   -0.045794570642634064
-0.7397831633556298   -0.09379636683165392   -0.045794570642634064
-0.7397831633556298   -0.09379636683165392   -0.045794570642634064
-0.7397831633556298   -0.09379636683165392   -0.045794570642634064
-0.6696590766725818   0.0795158347801401   0.0790839344543108
-0.6696590766725818   0.0795158347801401   0.0790839344543108
-0.6696590766725818   0.0795158347801401   0.0790839344543108
-0.6696590766725818   0.0795158347801401   0.0790839344543108
-0.9451570233071651   -0.10293475109208973   -0.06231277116667086
-0.9451570233071651   -0.10293475109208973   -0.06231277116667086
-0.9451570233071651   -0.10293475109208973   -0.06231277116667086
-0.9451570233071651   -0.10293475109208973   -0.06231277116667086
-0.7943090324024781   -0.021893154374977047   -0.011596437931908447
-0.7943090324024781   -0.021893154374977047   -0.011596437931908447
-0.7943090324024781   -0.021893154374977047   -0.011596437931908447
-0.7943090324024781   -0.021893154374977047   -0.011596437931908447
-0.8868503227005108   0.03793166236549539   0.08835431840901611
-0.8868503227005108   0.03793166236549539   0.08835431840901611
-0.8868503227005108   0.03793166236549539   0.08835431840901611
-0.8868503227005108   0.03793166236549539   0.08835431840901611
-0.723920333663021   -0.05730513506122918   -0.055401380656512345
-0.723920333663021   -0.05730513506122918   -0.055401380656512345
-0.723920333663021   -0.05730513506122918   -0.055401380656512345
-0.723920333663021   -0.05730513506122918   -0.055401380656512345
-0.6530125489704912   0.10012670655846836   0.06690052549079298
-0.6530125489704912   0.10012670655846836   0.06690052549079298
-0.6530125489704912   0.10012670655846836   0.06690052549079298
-0.6530125489704912   0.10012670655846836   0.06690052549079298
-0.9018086776471079   -0.07958032773759818   -0.07787133638577722
-0.9018086776471079   -0.07958032773759818   -0.07787133638577722
-0.9018086776471079   -0.07958032773759818   -0.07787133638577722
-0.9018086776471079   -0.07958032773759818   -0.07787133638577722
-0.7716495279190286   0.005092636806924705   0.005614419710352127
-0.7716495279190286   0.005092636806924705   0.005614419710352127
-0.7716495279190286   0.005092636806924705   0.005614419710352127
-0.7716495279190286   0.005092636806924705   0.005614419710352127
-0.8434493857723815   0.06294016095831786   0.07140463429193086
-0.8434493857723815   0.06294016095831786   0.07140463429193086
-0.8434493857723815   0.06294016095831786   0.07140463429193086
-0.8434493857723815   0.06294016095831786   0.07140463429193086
-0.7075404517020716   -0.0385623929943017   -0.06704988861433109
-0.7075404517020716   -0.0385623929943017   -0.06704988861433109
-0.7075404517020716   -0.0385623929943017   -0.06704988861433109
-0.7075404517020716   -0.0385623929943017   -0.06704988861433109
-0.6395189228041899   0.12576805526133242   0.05770006071757054
-0.6395189228041899   0.12576805526133242   0.05770006071757054
-0.6395189228041899   0.12576805526133242   0.05770006071757054
-0.6395189228041899   0.12576805526133242   0.05770006071757054
-0.8435666310502645   -0.042196418146011494   -0.09012483957521598
-0.8435666310502645   -0.042196418146011494   -0.09012483957521598
-0.8435666310502645   -0.042196418146011494   -0.09012483957521598
-0.8435666310502645   -0.042196418146011494   -0.09012483957521598
-0.7258904860551612   0.03168496013702937   0.026981193206811666
-0.7258904860551612   0.03168496013702937   0.026981193206811666
-0.7258904860551612   0.03168496013702937   0.026981193206811666
-0.7258904860551612   0.03168496013702937   0.026981193206811666
-0.7139176023821715   -0.053826829136131266   0.043563696529134784
-0.7139176023821715   -0.053826829136131266   0.043563696529134784
-0.7139176023821715   -0.053826829136131266   0.043563696529134784
-0.7139176023821715   -0.053826829136131266   0.043563696529134784
-0.523583650507963   -0.07112270649195238   -0.013561893397371648
-0.523583650507963   -0.07112270649195238   -0.013561893397371648
-0.523583650507963   -0.07112270649195238   -0.013561893397371648
-0.523583650507963   -0.07112270649195238   -0.013561893397371648
-0.48445868320798036   0.03612976074354149   0.04042760872621947
-0.48445868320798036   0.03612976074354149   0.04042760872621947
-0.48445868320798036   0.03612976074354149   0.04042760872621947
-0.48445868320798036   0.03612976074354149   0.04042760872621947
-0.7244124701197777   -0.07600503281032762   -0.039162165191197626
-0.7244124701197777   -0.07600503281032762   -0.039162165191197626
-0.7244124701197777   -0.07600503281032762   -0.039162165191197626
-0.7244124701197777   -0.07600503281032762   -0.039162165191197626
-0.6098905531854711   -0.03796715297343724   -0.016394417877592184
-0.6098905531854711   -0.03796715297343724   -0.016394417877592184
-0.6098905531854711   -0.03796715297343724   -0.016394417877592184
-0.6098905531854711   -0.03796715297343724   -0.016394417877592184
-0.6953062367957771   -0.006710398329639655   0.03707436694811036
-0.6953062367957771   -0.006710398329639655   0.03707436694811036
-0.6953062367957771   -0.006710398329639655   0.03707436694811036
-0.6953062367957771   -0.006710398329639655   0.03707436694811036
-0.5103019090347247   -0.029901866239896574   -0.02275689342406465
-0.5103019090347247   -0.029901866239896574   -0.02275689342406465
-0.5103019090347247   -0.029901866239896574   -0.02275689342406465
-0.5103019090347247   -0.029901866239896574   -0.02275689342406465
-0.4701006263293159   0.07804235523943828   0.03233991460746715
-0.4701006263293159   0.07804235523943828   0.03233991460746715
-0.4701006263293159   0.07804235523943828   0.03233991460746715
-0.4701006263293159   0.07804235523943828   0.03233991460746715
-0.7029324085772072   -0.03569108113100289   -0.0468809848533043
-0.7029324085772072   -0.03569108113100289   -0.0468809848533043
-0.7029324085772072   -0.03569108113100289   -0.0468809848533043
-0.7029324085772072   -0.03569108113100289   -0.0468809848533043
-0.5891457281781385   0.0024629355465674574   0.0017139783229373692
-0.5891457281781385   0.0024629355465674574   0.0017139783229373692
-0.5891457281781385   0.0024629355465674574   0.0017139783229373692
-0.5891457281781385   0.0024629355465674574   0.0017139783229373692
-0.6721186804753966   0.037891730328063034   0.0336048441966715
-0.6721186804753966   0.037891730328063034   0.0336048441966715
-0.6721186804753966   0.037891730328063034   0.0336048441966715
-0.6721186804753966   0.037891730328063034   0.0336048441966715
-0.4971472681411217   0.008226630070369598   -0.03307756928249671
-0.4971472681411217   0.008226630070369598   -0.03307756928249671
-0.4971472681411217   0.008226630070369598   -0.03307756928249671
-0.4971472681411217   0.008226630070369598   -0.03307756928249671
-0.45578896136172176   0.12351953975678497   0.024636834812681425
-0.45578896136172176   0.12351953975678497   0.024636834812681425
-0.45578896136172176   0.12351953975678497   0.024636834812681425
-0.45578896136172176   0.12351953975678497   0.024636834812681425
-0.6851881785269593   0.008323993954593323   -0.05320215658952964
-0.6851881785269593   0.008323993954593323   -0.05320215658952964
-0.6851881785269593   0.008323993954593323   -0.05320215658952964
-0.6851881785269593   0.008323993954593323   -0.05320215658952964
-0.57413841144426   0.042077485730586894   0.019419107028522717
-0.57413841144426   0.042077485730586894   0.019419107028522717
-0.57413841144426   0.042077485730586894   0.019419107028522717
-0.57413841144426   0.042077485730586894   0.019419107028522717
-0.5229736170768452   -0.0892775854479036   0.007643152714156717
-0.5229736170768452   -0.0892775854479036   0.007643152714156717
-0.5229736170768452   -0.0892775854479036   0.007643152714156717
-0.5229736170768452   -0.0892775854479036   0.007643152714156717
-0.310343415221019   -0.03744543853200027   0.01922967683535329
-0.310343415221019   -0.03744543853200027   0.01922967683535329
-0.310343415221019   -0.03744543853200027   0.01922967683535329
-0.310343415221019   -0.03744543853200027   0.01922967683535329
-0.2996420327566404   -0.0007166766232194616   0.0024864737816094017
-0.2996420327566404   -0.0007166766232194616   0.0024864737816094017
-0.2996420327566404   -0.0007166766232194616   0.0024864737816094017
-0.2996420327566404   -0.0007166766232194616   0.0024864737816094017
-0.5088278686597539   -0.040751968383139256   -0.004536589405967215
-0.5088278686597539   -0.040751968383139256   -0.004536589405967215
-0.5088278686597539   -0.040751968383139256   -0.004536589405967215
-0.5088278686597539   -0.040751968383139256   -0.004536589405967215
-0.41109847233003144   -0.040083129391040535   -0.011934012635064157
-0.41109847233003144   -0.040083129391040535   -0.011934012635064157
-0.41109847233003144   -0.040083129391040535   -0.011934012635064157
-0.41109847233003144   -0.040083129391040535   -0.011934012635064157
-0.5082262845584715   -0.04282245766370614   0.0005418203810071374
-0.5082262845584715   -0.04282245766370614   0.0005418203810071374
-0.5082262845584715   -0.04282245766370614   0.0005418203810071374
-0.5082262845584715   -0.04282245766370614   0.0005418203810071374
-0.29699906780375057   0.004598361711518867   0.01038626021132016
-0.29699906780375057   0.004598361711518867   0.01038626021132016
-0.29699906780375057   0.004598361711518867   0.01038626021132016
-0.29699906780375057   0.004598361711518867   0.01038626021132016
-0.28405100395070254   0.04615021289363658   -0.004117179213698637
-0.28405100395070254   0.04615021289363658   -0.004117179213698637
-0.28405100395070254   0.04615021289363658   -0.004117179213698637
-0.28405100395070254   0.04615021289363658   -0.004117179213698637
-0.4944441986710506   0.0018911552013152616   -0.013226747063087452
-0.4944441986710506   0.0018911552013152616   -0.013226747063087452
-0.4944441986710506   0.0018911552013152616   -0.013226747063087452
-0.4944441986710506   0.0018911552013152616   -0.013226747063087452
-0.39465546227769094   0.0020605912650340785   0.005623521804126317
-0.39465546227769094   0.0020605912650340785   0.005623521804126317
-0.39465546227769094   0.0020605912650340785   0.005623521804126317
-0.39465546227769094   0.0020605912650340785   0.005623521804126317
-0.4927315979262771   0.0039025102613999413   -0.0066750983993074005
-0.4927315979262771   0.0039025102613999413   -0.0066750983993074005
-0.4927315979262771   0.0039025102613999413   -0.0066750983993074005
-0.4927315979262771   0.0039025102613999413   -0.0066750983993074005
-0.2828296533736818   0.047072809155346146   0.0010669774096981506
-0.2828296533736818   0.047072809155346146   0.0010669774096981506
-0.2828296533736818   0.047072809155346146   0.0010669774096981506
-0.2828296533736818   0.047072809155346146   0.0010669774096981506
-0.26932553294618433   0.09344524757781304   -0.011654542500392877
-0.26932553294618433   0.09344524757781304   -0.011654542500392877
-0.26932553294618433   0.09344524757781304   -0.011654542500392877
-0.26932553294618433   0.09344524757781304   -0.011654542500392877
-0.48094963404340085   0.04486364969841697   -0.02251063853734382
-0.48094963404340085   0.04486364969841697   -0.02251063853734382
-0.48094963404340085   0.04486364969841697   -0.02251063853734382
-0.48094963404340085   0.04486364969841697   -0.02251063853734382
-0.37909937727526927   0.044355430525561707   0.02247481903594572
-0.37909937727526927   0.044355430525561707   0.02247481903594572
-0.37909937727526927   0.044355430525561707   0.02247481903594572
-0.37909937727526927   0.044355430525561707   0.02247481903594572
-0.33645508523660944   -0.12003442532071915   -0.028739686453885104
-0.33645508523660944   -0.12003442532071915   -0.028739686453885104
-0.33645508523660944   -0.12003442532071915   -0.028739686453885104
-0.33645508523660944   -0.12003442532071915   -0.028739686453885104
-0.10298802790197763   -0.0016858330729269191   0.05042718262060868
-0.10298802790197763   -0.0016858330729269191   0.05042718262060868
-0.10298802790197763   -0.0016858330729269191   0.05042718262060868
-0.10298802790197763   -0.0016858330729269191   0.05042718262060868
-0.11722531613673232   -0.03552427526527683   -0.03695357429612154
-0.11722531613673232   -0.03552427526527683   -0.03695357429612154
-0.11722531613673232   -0.03552427526527683   -0.03695357429612154
-0.11722531613673232   -0.03552427526527683   -0.03695357429612154
-0.2951450332431143   -0.004586371842763011   0.028841166568780906
-0.2951450332431143   -0.004586371842763011   0.028841166568780906
-0.2951450332431143   -0.004586371842763011   0.028841166568780906
-0.2951450332431143   -0.004586371842763011   0.028841166568780906
-0.2129274044107563   -0.038690725932661985   -0.008611028743871402
-0.2129274044107563   -0.038690725932661985   -0.008611028743871402
-0.2129274044107563   -0.038690725932661985   -0.008611028743871402
-0.2129274044107563   -0.038690725932661985   -0.008611028743871402
-0.3225581908150723   -0.0764686116403962   -0.036342381493378366
-0.3225581908150723   -0.0764686116403962   -0.036342381493378366
-0.3225581908150723   -0.0764686116403962   -0.036342381493378366
-0.3225581908150723   -0.0764686116403962   -0.036342381493378366
-0.08617600597322903   0.03999411712390123   0.04277458413221682
-0.08617600597322903   0.03999411712390123   0.04277458413221682
-0.08617600597322903   0.03999411712390123   0.04277458413221682
-0.08617600597322903   0.03999411712390123   0.04277458413221682
-0.09444766085317309   0.008811004056994885   -0.041599365882083295
-0.09444766085317309   0.008811004056994885   -0.041599365882083295
-0.09444766085317309   0.008811004056994885   -0.041599365882083295
-0.09444766085317309   0.008811004056994885   -0.041599365882083295
-0.2818701582940423   0.0337040768269011   0.019233185136338274
-0.2818701582940423   0.0337040768269011   0.019233185136338274
-0.2818701582940423   0.0337040768269011   0.019233185136338274
-0.2818701582940423   0.0337040768269011   0.019233185136338274
-0.1954453166422776   0.000552852630329885   0.00927917918720285
-0.1954453166422776   0.000552852630329885   0.00927917918720285
-0.1954453166422776   0.000552852630329885   0.00927917918720285
-0.1954453166422776   0.000552852630329885   0.00927917918720285
-0.30841347743595277   -0.03468179402700648   -0.045097539719310464
-0.30841347743595277   -0.03468179402700648   -0.045097539719310464
-0.30841347743595277   -0.03468179402700648   -0.045097539719310464
-0.30841347743595277   -0.03468179402700648   -0.045097539719310464
-0.0645197223742384   0.08058149424792156   0.03626983632166733
-0.0645197223742384   0.08058149424792156   0.03626983632166733
-0.0645197223742384   0.08058149424792156   0.03626983632166733
-0.0645197223742384   0.08058149424792156   0.03626983632166733
-0.0751787321713659   0.05833258637020144   -0.04659631044476617
-0.0751787321713659   0.05833258637020144   -0.04659631044476617
-0.0751787321713659   0.05833258637020144   -0.04659631044476617
-0.0751787321713659   0.05833258637020144   -0.04659631044476617
-0.2682805149186736   0.07704462662112012   0.009971168593853823
-0.2682805149186736   0.07704462662112012   0.009971168593853823
-0.2682805149186736   0.07704462662112012   0.009971168593853823
-0.2682805149186736   0.07704462662112012   0.009971168593853823
-0.17733853664121266   0.04147837487105473   0.027177954442207032
-0.17733853664121266   0.04147837487105473   0.027177954442207032
-0.17733853664121266   0.04147837487105473   0.027177954442207032
-0.17733853664121266   0.04147837487105473   0.027177954442207032
-0.15104342696441975   -0.1291027536299392   -0.062432892134591494
-0.15104342696441975   -0.1291027536299392   -0.062432892134591494
-0.15104342696441975   -0.1291027536299392   -0.062432892134591494
-0.15104342696441975   -0.1291027536299392   -0.062432892134591494
0.05398829617409039   0.038342899180765694   0.07683557713036337
0.05398829617409039   0.038342899180765694   0.07683557713036337
0.05398829617409039   0.038342899180765694   0.07683557713036337
0.05398829617409039   0.038342899180765694   0.07683557713036337
0.05442773668835549   -0.0634094689718881   -0.08265798653490744
0.05442773668835549   -0.0634094689718881   -0.08265798653490744
0.05442773668835549   -0.0634094689718881   -0.08265798653490744
0.05442773668835549   -0.0634094689718881   -0.08265798653490744
-0.08219204032048782   0.03980415230694342   0.06288437721288072
-0.08219204032048782   0.03980415230694342   0.06288437721288072
-0.08219204032048782   0.03980415230694342   0.06288437721288072
-0.08219204032048782   0.03980415230694342   0.06288437721288072
-0.03297918657437211   -0.027349556637510784   -0.014654290888732633
-0.03297918657437211   -0.027349556637510784   -0.014654290888732633
-0.03297918657437211   -0.027349556637510784   -0.014654290888732633
-0.03297918657437211   -0.027349556637510784   -0.014654290888732633
-0.13698734400645568   -0.09951540465489869   -0.07177258425511852
-0.13698734400645568   -0.09951540465489869   -0.07177258425511852
-0.13698734400645568   -0.09951540465489869   -0.07177258425511852
-0.13698734400645568   -0.09951540465489869   -0.07177258425511852
0.11311131677324794   0.07979836438886803   0.06755208052879874
0.11311131677324794   0.07979836438886803   0.06755208052879874
0.11311131677324794   0.07979836438886803   0.06755208052879874
0.11311131677324794   0.07979836438886803   0.06755208052879874
0.0980038683886454   -0.038012600928172685   -0.09817515979445342
0.0980038683886454   -0.038012600928172685   -0.09817515979445342
0.0980038683886454   -0.038012600928172685   -0.09817515979445342
0.0980038683886454   -0.038012600928172685   -0.09817515979445342
-0.06615846635355255   0.05823195170136975   0.05042565897164659
-0.06615846635355255   0.05823195170136975   0.05042565897164659
-0.06615846635355255   0.05823195170136975   0.05042565897164659
-0.06615846635355255   0.05823195170136975   0.05042565897164659
0.002887576196096873   -0.0012278009351398868   0.004742310323905721
0.002887576196096873   -0.0012278009351398868   0.004742310323905721
0.002887576196096873   -0.0012278009351398868   0.004742310323905721
0.002887576196096873   -0.0012278009351398868   0.004742310323905721
-0.12021260496782389   -0.07861956676687029   -0.0829935156314721
-0.12021260496782389   -0.07861956676687029   -0.0829935156314721
-0.12021260496782389   -0.07861956676687029   -0.0829935156314721
-0.12021260496782389   -0.07861956676687029   -0.0829935156314721
0.1559484301065824   0.10272934064373268   0.05080570722332625
0.1559484301065824   0.10272934064373268   0.05080570722332625
0.1559484301065824   0.10272934064373268   0.05080570722332625
0.1559484301065824   0.10272934064373268   0.05080570722332625
0.15903588568576377   0.011718146020659063   -0.10512190007563166
0.15903588568576377   0.011718146020659063   -0.10512190007563166
0.15903588568576377   0.011718146020659063   -0.10512190007563166
0.15903588568576377   0.011718146020659063   -0.10512190007563166
-0.05117680113086204   0.09076984117266584   0.040976089955290694
-0.05117680113086204   0.09076984117266584   0.040976089955290694
-0.05117680113086204   0.09076984117266584   0.040976089955290694
-0.05117680113086204   0.09076984117266584   0.040976089955290694
0.03514438475968565   0.026233389822179723   0.023688671774685557
0.03514438475968565   0.026233389822179723   0.023688671774685557
0.03514438475968565   0.026233389822179723   0.023688671774685557
0.03514438475968565   0.026233389822179723   0.023688671774685557
-0.3154398062969411   0.017786190832676053   0.08777486062032709
-0.3154398062969411   0.017786190832676053   0.08777486062032709
-0.3154398062969411   0.017786190832676053   0.08777486062032709
-0.3154398062969411   0.017786190832676053   0.08777486062032709
-0.37380383774035236   -0.11448721554913813   -0.05178619001525764
-0.37380383774035236   -0.11448721554913813   -0.05178619001525764
-0.37380383774035236   -0.11448721554913813   -0.05178619001525764
-0.37380383774035236   -0.11448721554913813   -0.05178619001525764
-0.2984342507908727   0.05324922363731918   0.07188432996411197
-0.2984342507908727   0.05324922363731918   0.07188432996411197
-0.2984342507908727   0.05324922363731918   0.07188432996411197
-0.2984342507908727   0.05324922363731918   0.07188432996411197
-0.3062816096087438   -0.07544897975230143   -0.06670800748495774
-0.3062816096087438   -0.07544897975230143   -0.06670800748495774
-0.3062816096087438   -0.07544897975230143   -0.06670800748495774
-0.3062816096087438   -0.07544897975230143   -0.06670800748495774
-0.3152737092313156   -0.024257286321546397   -0.023954481673248998
-0.3152737092313156   -0.024257286321546397   -0.023954481673248998
-0.3152737092313156   -0.024257286321546397   -0.023954481673248998
-0.3152737092313156   -0.024257286321546397   -0.023954481673248998
-0.24845421559759254   0.0652203010390435   0.08175968177945343
-0.24845421559759254   0.0652203010390435   0.08175968177945343
-0.24845421559759254   0.0652203010390435   0.08175968177945343
-0.24845421559759254   0.0652203010390435   0.08175968177945343
-0.3526459272696353   -0.08380433962164222   -0.0621204891707395
-0.3526459272696353   -0.08380433962164222   -0.0621204891707395
-0.3526459272696353   -0.08380433962164222   -0.0621204891707395
-0.3526459272696353   -0.08380433962164222   -0.0621204891707395
-0.275124099922854   0.07343191010953674   0.060505275125674246
-0.275124099922854   0.07343191010953674   0.060505275125674246
-0.275124099922854   0.07343191010953674   0.060505275125674246
-0.275124099922854   0.07343191010953674   0.060505275125674246
-0.25644033908202074   -0.05263992319092717   -0.08311626917777813
-0.25644033908202074   -0.05263992319092717   -0.08311626917777813
-0.25644033908202074   -0.05263992319092717   -0.08311626917777813
-0.25644033908202074   -0.05263992319092717   -0.08311626917777813
-0.2785022575325506   0.0015373211947987964   -0.004932978271925112
-0.2785022575325506   0.0015373211947987964   -0.004932978271925112
-0.2785022575325506   0.0015373211947987964   -0.004932978271925112
-0.2785022575325506   0.0015373211947987964   -0.004932978271925112
-0.19827026586113886   0.08976704720323685   0.06532712653245959
-0.19827026586113886   0.08976704720323685   0.06532712653245959
-0.19827026586113886   0.08976704720323685   0.06532712653245959
-0.19827026586113886   0.08976704720323685   0.06532712653245959
-0.329881795001667   -0.06556268214255966   -0.07428860801629432
-0.329881795001667   -0.06556268214255966   -0.07428860801629432
-0.329881795001667   -0.06556268214255966   -0.07428860801629432
-0.329881795001667   -0.06556268214255966   -0.07428860801629432
-0.25378990134233215   0.10423587054365359   0.052259874165207845
-0.25378990134233215   0.10423587054365359   0.052259874165207845
-0.25378990134233215   0.10423587054365359   0.052259874165207845
-0.25378990134233215   0.10423587054365359   0.052259874165207845
-0.18991567184514402   -0.00928087812697894   -0.09363873996723188
-0.18991567184514402   -0.00928087812697894   -0.09363873996723188
-0.18991567184514402   -0.00928087812697894   -0.09363873996723188
-0.18991567184514402   -0.00928087812697894   -0.09363873996723188
-0.23426950077584024   0.028472608549428513   0.015442911206063434
-0.23426950077584024   0.028472608549428513   0.015442911206063434
-0.23426950077584024   0.028472608549428513   0.015442911206063434
-0.23426950077584024   0.028472608549428513   0.015442911206063434
-0.33471358022942876   -0.020667281132268435   0.04984516312248324
-0.33471358022942876   -0.020667281132268435   0.04984516312248324
-0.33471358022942876   -0.020667281132268435   0.04984516312248324
-0.33471358022942876   -0.020667281132268435   0.04984516312248324
-0.4146972741878024   -0.09338076611777327   -0.020234615705266697
-0.4146972741878024   -0.09338076611777327   -0.020234615705266697
-0.4146972741878024   -0.09338076611777327   -0.020234615705266697
-0.4146972741878024   -0.09338076611777327   -0.020234615705266697
-0.36959292200380983   0.00946194642861381   0.03335318288757221
-0.36959292200380983   0.00946194642861381   0.03335318288757221
-0.36959292200380983   0.00946194642861381   0.03335318288757221
-0.36959292200380983   0.00946194642861381   0.03335318288757221
-0.33844165984265895   -0.04423931694300105   -0.030664174714491534
-0.33844165984265895   -0.04423931694300105   -0.030664174714491534
-0.33844165984265895   -0.04423931694300105   -0.030664174714491534
-0.33844165984265895   -0.04423931694300105   -0.030664174714491534
-0.36460797983098275   -0.034361821644685084   -0.016888523821526846
-0.36460797983098275   -0.034361821644685084   -0.016888523821526846
-0.36460797983098275   -0.034361821644685084   -0.016888523821526846
-0.36460797983098275   -0.034361821644685084   -0.016888523821526846
-0.3100806218623418   0.023395091273513496   0.04350660697057203
-0.3100806218623418   0.023395091273513496   0.04350660697057203
-0.3100806218623418   0.023395091273513496   0.04350660697057203
-0.3100806218623418   0.023395091273513496   0.04350660697057203
-0.3951229635846252   -0.0553414653883907   -0.029493613199504207
-0.3951229635846252   -0.0553414653883907   -0.029493613199504207
-0.3951229635846252   -0.0553414653883907   -0.029493613199504207
-0.3951229635846252   -0.0553414653883907   -0.029493613199504207
-0.3487738639657955   0.0496069193015357   0.025450472698007667
-0.3487738639657955   0.0496069193015357   0.025450472698007667
-0.3487738639657955   0.0496069193015357   0.025450472698007667
-0.3487738639657955   0.0496069193015357   0.025450472698007667
-0.31062893636458366   -0.005525644923363701   -0.038061352050073466
-0.31062893636458366   -0.005525644923363701   -0.038061352050073466
-0.31062893636458366   -0.005525644923363701   -0.038061352050073466
-0.31062893636458366   -0.005525644923363701   -0.038061352050073466
-0.33975175114192274   0.003117748143941945   0.0006744293931037065
-0.33975175114192274   0.003117748143941945   0.0006744293931037065
-0.33975175114192274   0.003117748143941945   0.0006744293931037065
-0.33975175114192274   0.003117748143941945   0.0006744293931037065
-0.28088996388876164   0.06592931488206806   0.039178550523604846
-0.28088996388876164   0.06592931488206806   0.039178550523604846
-0.28088996388876164   0.06592931488206806   0.039178550523604846
-0.28088996388876164   0.06592931488206806   0.039178550523604846
-0.37549557620963786   -0.018830780271917633   -0.039720388947758284
-0.37549557620963786   -0.018830780271917633   -0.039720388947758284
-0.37549557620963786   -0.018830780271917633   -0.039720388947758284
-0.37549557620963786   -0.018830780271917633   -0.039720388947758284
-0.3278552417935316   0.09401886938934821   0.01793928385081702
-0.3278552417935316   0.09401886938934821   0.01793928385081702
-0.3278552417935316   0.09401886938934821   0.01793928385081702
-0.3278552417935316   0.09401886938934821   0.01793928385081702
-0.2866127331561675   0.037419870715306086   -0.045038285075621264
-0.2866127331561675   0.037419870715306086   -0.045038285075621264
-0.2866127331561675   0.037419870715306086   -0.045038285075621264
-0.2866127331561675   0.037419870715306086   -0.045038285075621264
-0.31625390627720573   0.04179963268462045   0.018541443691742803
-0.31625390627720573   0.04179963268462045   0.018541443691742803
-0.31625390627720573   0.04179963268462045   0.018541443691742803
-0.31625390627720573   0.04179963268462045   0.018541443691742803
-0.40048336226250925   -0.056523773122242896   0.013977950925660988
-0.40048336226250925   -0.056523773122242896   0.013977950925660988
-0.40048336226250925   -0.056523773122242896   0.013977950925660988
-0.40048336226250925   -0.056523773122242896   0.013977950925660988
-0.4555026707533123   -0.058860859296015   0.012250346280344498
-0.4555026707533123   -0.058860859296015   0.012250346280344498
-0.4555026707533123   -0.058860859296015   0.012250346280344498
-0.4555026707533123   -0.058860859296015   0.012250346280344498
-0.43880085261638385   -0.026701866542433228   -0.004313096245807047
-0.43880085261638385   -0.026701866542433228   -0.004313096245807047
-0.43880085261638385   -0.026701866542433228   -0.004313096245807047
-0.43880085261638385   -0.026701866542433228   -0.004313096245807047
-0.37896588846253493   -0.008031264700654989   0.003981561723211204
-0.37896588846253493   -0.008031264700654989   0.003981561723211204
-0.37896588846253493   -0.008031264700654989   0.003981561723211204
-0.37896588846253493   -0.008031264700654989   0.003981561723211204
-0.4190655622322321   -0.03540135906589826   -0.011197137725445333
-0.4190655622322321   -0.03540135906589826   -0.011197137725445333
-0.4190655622322321   -0.03540135906589826   -0.011197137725445333
-0.4190655622322321   -0.03540135906589826   -0.011197137725445333
-0.37928305739092144   -0.01255233147671278   0.00691678385733278
-0.37928305739092144   -0.01255233147671278   0.00691678385733278
-0.37928305739092144   -0.01255233147671278   0.00691678385733278
-0.37928305739092144   -0.01255233147671278   0.00691678385733278
-0.43581571437666383   -0.01951283045504197   0.0034235588654052095
-0.43581571437666383   -0.01951283045504197   0.0034235588654052095
-0.43581571437666383   -0.01951283045504197   0.0034235588654052095
-0.43581571437666383   -0.01951283045504197   0.0034235588654052095
-0.4169365935583281   0.017847752270935005   -0.010951366827711351
-0.4169365935583281   0.017847752270935005   -0.010951366827711351
-0.4169365935583281   0.017847752270935005   -0.010951366827711351
-0.4169365935583281   0.017847752270935005   -0.010951366827711351
-0.35821719995439566   0.032404066210268964   -0.004563354153726367
-0.35821719995439566   0.032404066210268964   -0.004563354153726367
-0.35821719995439566   0.032404066210268964   -0.004563354153726367
-0.35821719995439566   0.032404066210268964   -0.004563354153726367
-0.3962280559618408   0.004429191344758818   0.006138818371166099
-0.3962280559618408   0.004429191344758818   0.006138818371166099
-0.3962280559618408   0.004429191344758818   0.006138818371166099
-0.3962280559618408   0.004429191344758818   0.006138818371166099
-0.35750262966194835   0.03183960926625627   -0.0004260457474847164
-0.35750262966194835   0.03183960926625627   -0.0004260457474847164
-0.35750262966194835   0.03183960926625627   -0.0004260457474847164
-0.35750262966194835   0.03183960926625627   -0.0004260457474847164
-0.4153247191805   0.020738653885221822   -0.005782896552857724
-0.4153247191805   0.020738653885221822   -0.005782896552857724
-0.4153247191805   0.020738653885221822   -0.005782896552857724
-0.4153247191805   0.020738653885221822   -0.005782896552857724
-0.396001637077507   0.06266560475691364   -0.01844886021075416
-0.396001637077507   0.06266560475691364   -0.01844886021075416
-0.396001637077507   0.06266560475691364   -0.01844886021075416
-0.396001637077507   0.06266560475691364   -0.01844886021075416
-0.33843407638853723   0.073004927661909   -0.013940947396772076
-0.33843407638853723   0.073004927661909   -0.013940947396772076
-0.33843407638853723   0.073004927661909   -0.013940947396772076
-0.33843407638853723   0.073004927661909   -0.013940947396772076
-0.3744424869758186   0.04433184185682916   0.02266406267727729
-0.3744424869758186   0.04433184185682916   0.02266406267727729
-0.3744424869758186   0.04433184185682916   0.02266406267727729
-0.3744424869758186   0.04433184185682916   0.02266406267727729
-0.4686412469531659   -0.08946882684189118   -0.022834567173055043
-0.4686412469531659   -0.08946882684189118   -0.022834567173055043
-0.4686412469531659   -0.08946882684189118   -0.022834567173055043
-0.4686412469531659   -0.08946882684189118   -0.022834567173055043
-0.4997308835866482   -0.025056002473707914   0.04330566051805598
-0.4997308835866482   -0.025056002473707914   0.04330566051805598
-0.4997308835866482   -0.025056002473707914   0.04330566051805598
-0.4997308835866482   -0.025056002473707914   0.04330566051805598
-0.507716229086948   -0.06135948179754147   -0.04245318736130831
-0.507716229086948   -0.06135948179754147   -0.04245318736130831
-0.507716229086948   -0.06135948179754147   -0.04245318736130831
-0.507716229086948   -0.06135948179754147   -0.04245318736130831
-0.4199284172764671   0.026841537563689136   0.036505676347654364
-0.4199284172764671   0.026841537563689136   0.036505676347654364
-0.4199284172764671   0.026841537563689136   0.036505676347654364
-0.4199284172764671   0.026841537563689136   0.036505676347654364
-0.472043299221645   -0.03484315959168126   -0.007033135625484983
-0.472043299221645   -0.03484315959168126   -0.007033135625484983
-0.472043299221645   -0.03484315959168126   -0.007033135625484983
-0.472043299221645   -0.03484315959168126   -0.007033135625484983
-0.44801406592029724   -0.04695384796126497   -0.03012718134654594
-0.44801406592029724   -0.04695384796126497   -0.03012718134654594
-0.44801406592029724   -0.04695384796126497   -0.03012718134654594
-0.44801406592029724   -0.04695384796126497   -0.03012718134654594
-0.4768328550750495   0.015233629095475279   0.03537057180516748
-0.4768328550750495   0.015233629095475279   0.03537057180516748
-0.4768328550750495   0.015233629095475279   0.03537057180516748
-0.4768328550750495   0.015233629095475279   0.03537057180516748
-0.4790908035269947   -0.019112634382944235   -0.047629725679905394
-0.4790908035269947   -0.019112634382944235   -0.047629725679905394
-0.4790908035269947   -0.019112634382944235   -0.047629725679905394
-0.4790908035269947   -0.019112634382944235   -0.047629725679905394
-0.40023210260983333   0.06331332739659543   0.027105512789098785
-0.40023210260983333   0.06331332739659543   0.027105512789098785
-0.40023210260983333   0.06331332739659543   0.027105512789098785
-0.40023210260983333   0.06331332739659543   0.027105512789098785
-0.44611511382106295   0.003506744619298216   0.01085838795935196
-0.44611511382106295   0.003506744619298216   0.01085838795935196
-0.44611511382106295   0.003506744619298216   0.01085838795935196
-0.44611511382106295   0.003506744619298216   0.01085838795935196
-0.4274482402433566   -0.006992121822184283   -0.038669726159743664
-0.4274482402433566   -0.006992121822184283   -0.038669726159743664
-0.4274482402433566   -0.006992121822184283   -0.038669726159743664
-0.4274482402433566   -0.006992121822184283   -0.038669726159743664
-0.4490471721509225   0.05402030857838401   0.029455488239130953
-0.4490471721509225   0.05402030857838401   0.029455488239130953
-0.4490471721509225   0.05402030857838401   0.029455488239130953
-0.4490471721509225   0.05402030857838401   0.029455488239130953
-0.45403710340699444   0.0274469661018662   -0.052260545514094946
-0.45403710340699444   0.0274469661018662   -0.052260545514094946
-0.45403710340699444   0.0274469661018662   -0.052260545514094946
-0.45403710340699444   0.0274469661018662   -0.052260545514094946
-0.3804812479270171   0.10398385281484551   0.01783483748376359
-0.3804812479270171   0.10398385281484551   0.01783483748376359
-0.3804812479270171   0.10398385281484551   0.01783483748376359
-0.3804812479270171   0.10398385281484551   0.01783483748376359
-0.42406693379119137   0.04158305757462835   0.027972775292979528
-0.42406693379119137   0.04158305757462835   0.027972775292979528
-0.42406693379119137   0.04158305757462835   0.027972775292979528
-0.42406693379119137   0.04158305757462835   0.027972775292979528
-0.5361064392907217   -0.10647398952789604   -0.05715413094813319
-0.5361064392907217   -0.10647398952789604   -0.05715413094813319
-0.5361064392907217   -0.10647398952789604   -0.05715413094813319
-0.5361064392907217   -0.10647398952789604   -0.05715413094813319
-0.5920711867888103   0.00841210496317532   0.07783244409729659
-0.5920711867888103   0.00841210496317532   0.07783244409729659
-0.5920711867888103   0.00841210496317532   0.07783244409729659
-0.5920711867888103   0.00841210496317532   0.07783244409729659
-0.5839765559559114   -0.0883487717594536   -0.07609572748368083
-0.5839765559559114   -0.0883487717594536   -0.07609572748368083
-0.5839765559559114   -0.0883487717594536   -0.07609572748368083
-0.5839765559559114   -0.0883487717594536   -0.07609572748368083
-0.4595794756071157   0.06710329635966847   0.06976780188063776
-0.4595794756071157   0.06710329635966847   0.06976780188063776
-0.4595794756071157   0.06710329635966847   0.06976780188063776
-0.4595794756071157   0.06710329635966847   0.06976780188063776
-0.5211948176603827   -0.022806181461763442   -0.0035475065190009453
-0.5211948176603827   -0.022806181461763442   -0.0035475065190009453
-0.5211948176603827   -0.022806181461763442   -0.0035475065190009453
-0.5211948176603827   -0.022806181461763442   -0.0035475065190009453
-0.5144828150528215   -0.07229999823312067   -0.06534560075510604
-0.5144828150528215   -0.07229999823312067   -0.06534560075510604
-0.5144828150528215   -0.07229999823312067   -0.06534560075510604
-0.5144828150528215   -0.07229999823312067   -0.06534560075510604
-0.5261153452355406   0.05401239410800371   0.0708491602507082
-0.5261153452355406   0.05401239410800371   0.0708491602507082
-0.5261153452355406   0.05401239410800371   0.0708491602507082
-0.5261153452355406   0.05401239410800371   0.0708491602507082
-0.5345961509529821   -0.06367763978301005   -0.09068461385082288
-0.5345961509529821   -0.06367763978301005   -0.09068461385082288
-0.5345961509529821   -0.06367763978301005   -0.09068461385082288
-0.5345961509529821   -0.06367763978301005   -0.09068461385082288
-0.4374260846039485   0.08448002872674043   0.05710120582564072
-0.4374260846039485   0.08448002872674043   0.05710120582564072
-0.4374260846039485   0.08448002872674043   0.05710120582564072
-0.4374260846039485   0.08448002872674043   0.05710120582564072
-0.4877102929998848   0.0029682894719982728   0.013628460894241037
-0.4877102929998848   0.0029682894719982728   0.013628460894241037
-0.4877102929998848   0.0029682894719982728   0.013628460894241037
-0.4877102929998848   0.0029682894719982728   0.013628460894241037
-0.4912592585925046   -0.05199188801569184   -0.07559274737470936
-0.4912592585925046   -0.05199188801569184   -0.07559274737470936
-0.4912592585925046   -0.05199188801569184   -0.07559274737470936
-0.4912592585925046   -0.05199188801569184   -0.07559274737470936
-0.4776638251066087   0.0758934288172392   0.054405946780794835
-0.4776638251066087   0.0758934288172392   0.054405946780794835
-0.4776638251066087   0.0758934288172392   0.054405946780794835
-0.4776638251066087   0.0758934288172392   0.054405946780794835
-0.469826474801391   -0.020973270760307236   -0.09908979603907642
-0.469826474801391   -0.020973270760307236   -0.09908979603907642
-0.469826474801391   -0.020973270760307236   -0.09908979603907642
-0.469826474801391   -0.020973270760307236   -0.09908979603907642
-0.4175792046607437   0.1104424119146098   0.047033502404411114
-0.4175792046607437   0.1104424119146098   0.047033502404411114
-0.4175792046607437   0.1104424119146098   0.047033502404411114
-0.4175792046607437   0.1104424119146098   0.047033502404411114
-0.44202879892708263   0.02873802778015848   0.0334971807145039
-0.44202879892708263   0.02873802778015848   0.0334971807145039
-0.44202879892708263   0.02873802778015848   0.0334971807145039
-0.44202879892708263   0.02873802778015848   0.0334971807145039
0.32425551724739987   0.05247889189459386   0.08498499221565005
0.32425551724739987   0.05247889189459386   0.08498499221565005
0.32425551724739987   0.05247889189459386   0.08498499221565005
0.32425551724739987   0.05247889189459386   0.08498499221565005
-0.008210152366174003   -0.1366352537608122   -0.056175624544862295
-0.008210152366174003   -0.1366352537608122   -0.056175624544862295
-0.008210152366174003   -0.1366352537608122   -0.056175624544862295
-0.008210152366174003   -0.1366352537608122   -0.056175624544862295
0.0722688944404734   0.026737377563208944   0.06567327504337693
0.0722688944404734   0.026737377563208944   0.06567327504337693
0.0722688944404734   0.026737377563208944   0.06567327504337693
0.0722688944404734   0.026737377563208944   0.06567327504337693
0.3384620855287163   -0.04805402386603555   -0.07028448906140772
0.3384620855287163   -0.04805402386603555   -0.07028448906140772
0.3384620855287163   -0.04805402386603555   -0.07028448906140772
0.3384620855287163   -0.04805402386603555   -0.07028448906140772
0.16543009495688418   -0.026618113421761794   -0.0404468164652164
0.16543009495688418   -0.026618113421761794   -0.0404468164652164
0.16543009495688418   -0.026618113421761794   -0.0404468164652164
0.16543009495688418   -0.026618113421761794   -0.0404468164652164
0.3962132998333543   0.09372926279354797   0.07668829580219112
0.3962132998333543   0.09372926279354797   0.07668829580219112
0.3962132998333543   0.09372926279354797   0.07668829580219112
0.3962132998333543   0.09372926279354797   0.07668829580219112
0.01806004388551153   -0.11150354534668949   -0.06713005482153395
0.01806004388551153   -0.11150354534668949   -0.06713005482153395
0.01806004388551153   -0.11150354534668949   -0.06713005482153395
0.01806004388551153   -0.11150354534668949   -0.06713005482153395
0.10168572784147188   0.046572797900509444   0.05482126935591227
0.10168572784147188   0.046572797900509444   0.05482126935591227
0.10168572784147188   0.046572797900509444   0.05482126935591227
0.10168572784147188   0.046572797900509444   0.05482126935591227
0.3946801036179562   -0.025643933300836905   -0.08795676076484041
0.3946801036179562   -0.025643933300836905   -0.08795676076484041
0.3946801036179562   -0.025643933300836905   -0.08795676076484041
0.3946801036179562   -0.025643933300836905   -0.08795676076484041
0.21614944514183715   -0.0018758218919135011   -0.018978233372847892
0.21614944514183715   -0.0018758218919135011   -0.018978233372847892
0.21614944514183715   -0.0018758218919135011   -0.018978233372847892
0.21614944514183715   -0.0018758218919135011   -0.018978233372847892
0.45307581617016635   0.11796844619511584   0.06040942250024991
0.45307581617016635   0.11796844619511584   0.06040942250024991
0.45307581617016635   0.11796844619511584   0.06040942250024991
0.45307581617016635   0.11796844619511584   0.06040942250024991
0.04675953090682056   -0.09357006597788578   -0.0796668514389492
0.04675953090682056   -0.09357006597788578   -0.0796668514389492
0.04675953090682056   -0.09357006597788578   -0.0796668514389492
0.04675953090682056   -0.09357006597788578   -0.0796668514389492
0.13023926114430467   0.08296612957566621   0.047441365556545184
0.13023926114430467   0.08296612957566621   0.047441365556545184
0.13023926114430467   0.08296612957566621   0.047441365556545184
0.13023926114430467   0.08296612957566621   0.047441365556545184
0.4692945518040256   0.024522239194674   -0.09701132021401719
0.4692945518040256   0.024522239194674   -0.09701132021401719
0.4692945518040256   0.024522239194674   -0.09701132021401719
0.4692945518040256   0.024522239194674   -0.09701132021401719
0.2587822841820397   0.025835494380694365   0.0013357258013169896
0.2587822841820397   0.025835494380694365   0.0013357258013169896
0.2587822841820397   0.025835494380694365   0.0013357258013169896
0.2587822841820397   0.025835494380694365   0.0013357258013169896
0.04469047935647905   0.014068469828045424   0.057623810479545366
0.04469047935647905   0.014068469828045424   0.057623810479545366
0.04469047935647905   0.014068469828045424   0.057623810479545366
0.04469047935647905   0.014068469828045424   0.057623810479545366
-0.30911636725996805   -0.11597719489170726   -0.025765054438557672
-0.30911636725996805   -0.11597719489170726   -0.025765054438557672
-0.30911636725996805   -0.11597719489170726   -0.025765054438557672
-0.30911636725996805   -0.11597719489170726   -0.025765054438557672
-0.25828938628581677   -0.01680354611353868   0.026362405875978105
-0.25828938628581677   -0.01680354611353868   0.026362405875978105
-0.25828938628581677   -0.01680354611353868   0.026362405875978105
-0.25828938628581677   -0.01680354611353868   0.026362405875978105
0.0469953586894556   -0.01345796213910766   -0.020499064009395464
0.0469953586894556   -0.01345796213910766   -0.020499064009395464
0.0469953586894556   -0.01345796213910766   -0.020499064009395464
0.0469953586894556   -0.01345796213910766   -0.020499064009395464
-0.12147123257003696   -0.030072147427464377   -0.019459522711540833
-0.12147123257003696   -0.030072147427464377   -0.019459522711540833
-0.12147123257003696   -0.030072147427464377   -0.019459522711540833
-0.12147123257003696   -0.030072147427464377   -0.019459522711540833
0.07497179718126942   0.054801035555663444   0.051124130754902575
0.07497179718126942   0.054801035555663444   0.051124130754902575
0.07497179718126942   0.054801035555663444   0.051124130754902575
0.07497179718126942   0.054801035555663444   0.051124130754902575
-0.2836902006068011   -0.08248691963749055   -0.03495829220499182
-0.2836902006068011   -0.08248691963749055   -0.03495829220499182
-0.2836902006068011   -0.08248691963749055   -0.03495829220499182
-0.2836902006068011   -0.08248691963749055   -0.03495829220499182
-0.231460679989912   0.02164760841771733   0.018636658280660037
-0.231460679989912   0.02164760841771733   0.018636658280660037
-0.231460679989912   0.02164760841771733   0.018636658280660037
-0.231460679989912   0.02164760841771733   0.018636658280660037
0.08047155272654484   0.023058529721479232   -0.027735338039692782
0.08047155272654484   0.023058529721479232   -0.027735338039692782
0.08047155272654484   0.023058529721479232   -0.027735338039692782
0.08047155272654484   0.023058529721479232   -0.027735338039692782
-0.09303790624139907   0.0038682649385012487   -0.0023486514651209394
-0.09303790624139907   0.0038682649385012487   -0.0023486514651209394
-0.09303790624139907   0.0038682649385012487   -0.0023486514651209394
-0.09303790624139907   0.0038682649385012487   -0.0023486514651209394
0.1096223215924636   0.09529357023361375   0.045783465777766486
0.1096223215924636   0.09529357023361375   0.045783465777766486
0.1096223215924636   0.09529357023361375   0.045783465777766486
0.1096223215924636   0.09529357023361375   0.045783465777766486
-0.25813409572214263   -0.048110078960718845   -0.04497273300205703
-0.25813409572214263   -0.048110078960718845   -0.04497273300205703
-0.25813409572214263   -0.048110078960718845   -0.04497273300205703
-0.25813409572214263   -0.048110078960718845   -0.04497273300205703
-0.2044749603641918   0.06510943785830038   0.011271777847374528
-0.2044749603641918   0.06510943785830038   0.011271777847374528
-0.2044749603641918   0.06510943785830038   0.011271777847374528
-0.2044749603641918   0.06510943785830038   0.011271777847374528
0.1099614149472435   0.06444227131849484   -0.03542400717158925
0.1099614149472435   0.06444227131849484   -0.03542400717158925
0.1099614149472435   0.06444227131849484   -0.03542400717158925
0.1099614149472435   0.06444227131849484   -0.03542400717158925
-0.06161638173361116   0.04131850347358098   0.015884936784085424
-0.06161638173361116   0.04131850347358098   0.015884936784085424
-0.06161638173361116   0.04131850347358098   0.015884936784085424
-0.06161638173361116   0.04131850347358098   0.015884936784085424
-0.2810836310058981   -0.022285695178820106   0.020707127118904788
-0.2810836310058981   -0.022285695178820106   0.020707127118904788
-0.2810836310058981   -0.022285695178820106   0.020707127118904788
-0.2810836310058981   -0.022285695178820106   0.020707127118904788
-0.604588449826587   -0.082288118340671   0.005372860185859366
-0.604588449826587   -0.082288118340671   0.005372860185859366
-0.604588449826587   -0.082288118340671   0.005372860185859366
-0.604588449826587   -0.082288118340671   0.005372860185859366
-0.5810756178000349   -0.051529101215371506   -0.01139789151287134
-0.5810756178000349   -0.051529101215371506   -0.01139789151287134
-0.5810756178000349   -0.051529101215371506   -0.01139789151287134
-0.5810756178000349   -0.051529101215371506   -0.01139789151287134
-0.25333493770650817   0.021453693507092753   0.012877409151893539
-0.25333493770650817   0.021453693507092753   0.012877409151893539
-0.25333493770650817   0.021453693507092753   0.012877409151893539
-0.25333493770650817   0.021453693507092753   0.012877409151893539
-0.43064984635117426   -0.030901838419145067   -0.011314027389209988
-0.43064984635117426   -0.030901838419145067   -0.011314027389209988
-0.43064984635117426   -0.030901838419145067   -0.011314027389209988
-0.43064984635117426   -0.030901838419145067   -0.011314027389209988
-0.25367771103080744   0.018961254707126993   0.013655981330362884
-0.25367771103080744   0.018961254707126993   0.013655981330362884
-0.25367771103080744   0.018961254707126993   0.013655981330362884
-0.25367771103080744   0.018961254707126993   0.013655981330362884
-0.5785263906007206   -0.04683020854037537   -0.0033506481912959317
-0.5785263906007206   -0.04683020854037537   -0.0033506481912959317
-0.5785263906007206   -0.04683020854037537   -0.0033506481912959317
-0.5785263906007206   -0.04683020854037537   -0.0033506481912959317
-0.5528700671988602   -0.009198734926545618   -0.017924492593334795
-0.5528700671988602   -0.009198734926545618   -0.017924492593334795
-0.5528700671988602   -0.009198734926545618   -0.017924492593334795
-0.5528700671988602   -0.009198734926545618   -0.017924492593334795
-0.2267709019878631   0.059008504385273296   0.004724652323348556
-0.2267709019878631   0.059008504385273296   0.004724652323348556
-0.2267709019878631   0.059008504385273296   0.004724652323348556
-0.2267709019878631   0.059008504385273296   0.004724652323348556
-0.4015321672159595   0.006287003433769117   0.00591889378343401
-0.4015321672159595   0.006287003433769117   0.00591889378343401
-0.4015321672159595   0.006287003433769117   0.00591889378343401
-0.4015321672159595   0.006287003433769117   0.00591889378343401
-0.22610140942719523   0.060963349207372106   0.006117270304588949
-0.22610140942719523   0.060963349207372106   0.006117270304588949
-0.22610140942719523   0.060963349207372106   0.006117270304588949
-0.22610140942719523   0.060963349207372106   0.006117270304588949
-0.5517783850848775   -0.009392405074004961   -0.012272411875966865
-0.5517783850848775   -0.009392405074004961   -0.012272411875966865
-0.5517783850848775   -0.009392405074004961   -0.012272411875966865
-0.5517783850848775   -0.009392405074004961   -0.012272411875966865
-0.5258041986248333   0.033243529219010914   -0.02537781737496656
-0.5258041986248333   0.033243529219010914   -0.02537781737496656
-0.5258041986248333   0.033243529219010914   -0.02537781737496656
-0.5258041986248333   0.033243529219010914   -0.02537781737496656
-0.20134815336118847   0.09667398288201491   -0.00465873216131945
-0.20134815336118847   0.09667398288201491   -0.00465873216131945
-0.20134815336118847   0.09667398288201491   -0.00465873216131945
-0.20134815336118847   0.09667398288201491   -0.00465873216131945
-0.37392805906830867   0.04337161918150162   0.022026752976885083
-0.37392805906830867   0.04337161918150162   0.022026752976885083
-0.37392805906830867   0.04337161918150162   0.022026752976885083
-0.37392805906830867   0.04337161918150162   0.022026752976885083
-0.6042970828756339   -0.05810171592927045   -0.017356707470770918
-0.6042970828756339   -0.05810171592927045   -0.017356707470770918
-0.6042970828756339   -0.05810171592927045   -0.017356707470770918
-0.6042970828756339   -0.05810171592927045   -0.017356707470770918
-0.8968346783178418   -0.050631083475941835   0.035957426721112275
-0.8968346783178418   -0.050631083475941835   0.035957426721112275
-0.8968346783178418   -0.050631083475941835   0.035957426721112275
-0.8968346783178418   -0.050631083475941835   0.035957426721112275
-0.8969879221268634   -0.08551917501559382   -0.048238381698364224
-0.8969879221268634   -0.08551917501559382   -0.048238381698364224
-0.8969879221268634   -0.08551917501559382   -0.048238381698364224
-0.8969879221268634   -0.08551917501559382   -0.048238381698364224
-0.5487562672956616   0.05472736619453769   0.04394239359908617
-0.5487562672956616   0.05472736619453769   0.04394239359908617
-0.5487562672956616   0.05472736619453769   0.04394239359908617
-0.5487562672956616   0.05472736619453769   0.04394239359908617
-0.7326060721143379   -0.031281209789790265   -0.004751115577235204
-0.7326060721143379   -0.031281209789790265   -0.004751115577235204
-0.7326060721143379   -0.031281209789790265   -0.004751115577235204
-0.7326060721143379   -0.031281209789790265   -0.004751115577235204
-0.5766515342878773   -0.016637946784683028   -0.02416862838276569
-0.5766515342878773   -0.016637946784683028   -0.02416862838276569
-0.5766515342878773   -0.016637946784683028   -0.02416862838276569
-0.5766515342878773   -0.016637946784683028   -0.02416862838276569
-0.8672724251781707   -0.012333632079899098   0.027153560109411286
-0.8672724251781707   -0.012333632079899098   0.027153560109411286
-0.8672724251781707   -0.012333632079899098   0.027153560109411286
-0.8672724251781707   -0.012333632079899098   0.027153560109411286
-0.8616803628079497   -0.045131831575988685   -0.053672021875705356
-0.8616803628079497   -0.045131831575988685   -0.053672021875705356
-0.8616803628079497   -0.045131831575988685   -0.053672021875705356
-0.8616803628079497   -0.045131831575988685   -0.053672021875705356
-0.5226692949342236   0.08891151762768638   0.03496911617561582
-0.5226692949342236   0.08891151762768638   0.03496911617561582
-0.5226692949342236   0.08891151762768638   0.03496911617561582
-0.5226692949342236   0.08891151762768638   0.03496911617561582
-0.6977179188894109   0.006202124970132283   0.012999595941401446
-0.6977179188894109   0.006202124970132283   0.012999595941401446
-0.6977179188894109   0.006202124970132283   0.012999595941401446
-0.6977179188894109   0.006202124970132283   0.012999595941401446
-0.5496413124757206   0.021512076737301017   -0.03249153064148601
-0.5496413124757206   0.021512076737301017   -0.03249153064148601
-0.5496413124757206   0.021512076737301017   -0.03249153064148601
-0.5496413124757206   0.021512076737301017   -0.03249153064148601
-0.8326604484833561   0.024315506097493028   0.021980212073781424
-0.8326604484833561   0.024315506097493028   0.021980212073781424
-0.8326604484833561   0.024315506097493028   0.021980212073781424
-0.8326604484833561   0.024315506097493028   0.021980212073781424
-0.8300895136016901   -0.0010585168439392334   -0.057768745135487215
-0.8300895136016901   -0.0010585168439392334   -0.057768745135487215
-0.8300895136016901   -0.0010585168439392334   -0.057768745135487215
-0.8300895136016901   -0.0010585168439392334   -0.057768745135487215
-0.4968525458509215   0.12669394893998154   0.025930026773621648
-0.4968525458509215   0.12669394893998154   0.025930026773621648
-0.4968525458509215   0.12669394893998154   0.025930026773621648
-0.4968525458509215   0.12669394893998154   0.025930026773621648
-0.6715489381204898   0.04118503617432945   0.028916188545598263
-0.6715489381204898   0.04118503617432945   0.028916188545598263
-0.6715489381204898   0.04118503617432945   0.028916188545598263
-0.6715489381204898   0.04118503617432945   0.028916188545598263
-0.9211324712877496   -0.08349930423078789   -0.052663317373580286
-0.9211324712877496   -0.08349930423078789   -0.052663317373580286
-0.9211324712877496   -0.08349930423078789   -0.052663317373580286
-0.9211324712877496   -0.08349930423078789   -0.052663317373580286
-1.2298216265943314   -0.021461850515014202   0.07775860783473809
-1.2298216265943314   -0.021461850515014202   0.07775860783473809
-1.2298216265943314   -0.021461850515014202   0.07775860783473809
-1.2298216265943314   -0.021461850515014202   0.07775860783473809
-1.2124893277181663   -0.11147807859885922   -0.07022922080098074
-1.2124893277181663   -0.11147807859885922   -0.07022922080098074
-1.2124893277181663   -0.11147807859885922   -0.07022922080098074
-1.2124893277181663   -0.11147807859885922   -0.07022922080098074
-0.8364170872639873   0.09244121331112587   0.07665540428929596
-0.8364170872639873   0.09244121331112587   0.07665540428929596
-0.8364170872639873   0.09244121331112587   0.07665540428929596
-0.8364170872639873   0.09244121331112587   0.07665540428929596
-1.0047168103308177   -0.017806148085336482   0.008277554124874187
-1.0047168103308177   -0.017806148085336482   0.008277554124874187
-1.0047168103308177   -0.017806148085336482   0.008277554124874187
-1.0047168103308177   -0.017806148085336482   0.008277554124874187
-0.891163776397288   -0.04507874148975258   -0.0595580865763258
-0.891163776397288   -0.04507874148975258   -0.0595580865763258
-0.891163776397288   -0.04507874148975258   -0.0595580865763258
-0.891163776397288   -0.04507874148975258   -0.0595580865763258
-1.1560933576406989   0.02769115714618331   0.07258139384129478
-1.1560933576406989   0.02769115714618331   0.07258139384129478
-1.1560933576406989   0.02769115714618331   0.07258139384129478
-1.1560933576406989   0.02769115714618331   0.07258139384129478
-1.1566952842566376   -0.08750824337911242   -0.08357095505093443
-1.1566952842566376   -0.08750824337911242   -0.08357095505093443
-1.1566952842566376   -0.08750824337911242   -0.08357095505093443
-1.1566952842566376   -0.08750824337911242   -0.08357095505093443
-0.807642512311722   0.1081992749422975   0.06318612408713961
-0.807642512311722   0.1081992749422975   0.06318612408713961
-0.807642512311722   0.1081992749422975   0.06318612408713961
-0.807642512311722   0.1081992749422975   0.06318612408713961
-0.9729805466645471   0.007337841000593065   0.02262231037480763
-0.9729805466645471   0.007337841000593065   0.02262231037480763
-0.9729805466645471   0.007337841000593065   0.02262231037480763
-0.9729805466645471   0.007337841000593065   0.02262231037480763
-0.8607423619540009   -0.025355198120656758   -0.06875865106129286
-0.8607423619540009   -0.025355198120656758   -0.06875865106129286
-0.8607423619540009   -0.025355198120656758   -0.06875865106129286
-0.8607423619540009   -0.025355198120656758   -0.06875865106129286
-1.1015756117959177   0.04806605250229243   0.05645311137124856
-1.1015756117959177   0.04806605250229243   0.05645311137124856
-1.1015756117959177   0.04806605250229243   0.05645311137124856
-1.1015756117959177   0.04806605250229243   0.05645311137124856
-1.0880040551042378   -0.051684807970215435   -0.0931777465762211
-1.0880040551042378   -0.051684807970215435   -0.0931777465762211
-1.0880040551042378   -0.051684807970215435   -0.0931777465762211
-1.0880040551042378   -0.051684807970215435   -0.0931777465762211
-0.7823420940960174   0.1272742115143224   0.05263562403461504
-0.7823420940960174   0.1272742115143224   0.05263562403461504
-0.7823420940960174   0.1272742115143224   0.05263562403461504
-0.7823420940960174   0.1272742115143224   0.05263562403461504
-0.9138092861373619   0.030908932078702378   0.04280646176905264
-0.9138092861373619   0.030908932078702378   0.04280646176905264
-0.9138092861373619   0.030908932078702378   0.04280646176905264
-0.9138092861373619   0.030908932078702378   0.04280646176905264
0.9779469967413457   0.08882912558389722   0.08498912307110393
0.9779469967413457   0.08882912558389722   0.08498912307110393
0.9779469967413457   0.08882912558389722   0.08498912307110393
0.9779469967413457   0.08882912558389722   0.08498912307110393
0.3583578807392147   -0.1628809531403737   -0.055950721607787926
0.3583578807392147   -0.1628809531403737   -0.055950721607787926
0.3583578807392147   -0.1628809531403737   -0.055950721607787926
0.3583578807392147   -0.1628809531403737   -0.055950721607787926
0.44276536954004797   -0.0009032949310069371   0.061165871602342395
0.44276536954004797   -0.0009032949310069371   0.061165871602342395
0.44276536954004797   -0.0009032949310069371   0.061165871602342395
0.44276536954004797   -0.0009032949310069371   0.061165871602342395
0.9958412510008723   -0.022830074275058315   -0.07142026936377197
0.9958412510008723   -0.022830074275058315   -0.07142026936377197
0.9958412510008723   -0.022830074275058315   -0.07142026936377197
0.9958412510008723   -0.022830074275058315   -0.07142026936377197
0.6510543983057199   -0.029546912384339763   -0.06293247527584915
0.6510543983057199   -0.029546912384339763   -0.06293247527584915
0.6510543983057199   -0.029546912384339763   -0.06293247527584915
0.6510543983057199   -0.029546912384339763   -0.06293247527584915
1.0542532613685585   0.12393587562845435   0.0738738325711383
1.0542532613685585   0.12393587562845435   0.0738738325711383
1.0542532613685585   0.12393587562845435   0.0738738325711383
1.0542532613685585   0.12393587562845435   0.0738738325711383
0.3884813597996464   -0.14354124420723505   -0.0676162278234298
0.3884813597996464   -0.14354124420723505   -0.0676162278234298
0.3884813597996464   -0.14354124420723505   -0.0676162278234298
0.3884813597996464   -0.14354124420723505   -0.0676162278234298
0.47613363535383185   0.01832833302875006   0.05045103914721878
0.47613363535383185   0.01832833302875006   0.05045103914721878
0.47613363535383185   0.01832833302875006   0.05045103914721878
0.47613363535383185   0.01832833302875006   0.05045103914721878
1.056589169877206   -0.0009669061179365113   -0.0900019512519473
1.056589169877206   -0.0009669061179365113   -0.0900019512519473
1.056589169877206   -0.0009669061179365113   -0.0900019512519473
1.056589169877206   -0.0009669061179365113   -0.0900019512519473
0.7144575130544647   -0.005922360603395599   -0.038096540840800004
0.7144575130544647   -0.005922360603395599   -0.038096540840800004
0.7144575130544647   -0.005922360603395599   -0.038096540840800004
0.7144575130544647   -0.005922360603395599   -0.038096540840800004
1.1156579125332002   0.1475149598476629   0.05685989606241472
1.1156579125332002   0.1475149598476629   0.05685989606241472
1.1156579125332002   0.1475149598476629   0.05685989606241472
1.1156579125332002   0.1475149598476629   0.05685989606241472
0.421462921815952   -0.12575550381873654   -0.07881869169469335
0.421462921815952   -0.12575550381873654   -0.07881869169469335
0.421462921815952   -0.12575550381873654   -0.07881869169469335
0.421462921815952   -0.12575550381873654   -0.07881869169469335
0.5094541638418018   0.06070171178516391   0.04372643070065621
0.5094541638418018   0.06070171178516391   0.04372643070065621
0.5094541638418018   0.06070171178516391   0.04372643070065621
0.5094541638418018   0.06070171178516391   0.04372643070065621
1.1363447261545194   0.056056392162802365   -0.09709806876345428
1.1363447261545194   0.056056392162802365   -0.09709806876345428
1.1363447261545194   0.056056392162802365   -0.09709806876345428
1.1363447261545194   0.056056392162802365   -0.09709806876345428
0.7536658259529877   0.022801997516846417   -0.016593554224443967
0.7536658259529877   0.022801997516846417   -0.016593554224443967
0.7536658259529877   0.022801997516846417   -0.016593554224443967
0.7536658259529877   0.022801997516846417   -0.016593554224443967
0.42563594691219664   0.04969834171147879   0.06786031440526927
0.42563594691219664   0.04969834171147879   0.06786031440526927
0.42563594691219664   0.04969834171147879   0.06786031440526927
0.42563594691219664   0.04969834171147879   0.06786031440526927
-0.20703433881409183   -0.15196363946940558   -0.02929808055594703
-0.20703433881409183   -0.15196363946940558   -0.02929808055594703
-0.20703433881409183   -0.15196363946940558   -0.02929808055594703
-0.20703433881409183   -0.15196363946940558   -0.02929808055594703
-0.14894078236622219   -0.044429455463185094   0.020579610425895158
-0.14894078236622219   -0.044429455463185094   0.020579610425895158
-0.14894078236622219   -0.044429455463185094   0.020579610425895158
-0.14894078236622219   -0.044429455463185094   0.020579610425895158
0.429115034888256   0.001028336301906102   -0.009017432889522947
0.429115034888256   0.001028336301906102   -0.009017432889522947
0.429115034888256   0.001028336301906102   -0.009017432889522947
0.429115034888256   0.001028336301906102   -0.009017432889522947
0.11909660414208842   -0.03218986220152477   -0.0268390138889577
0.11909660414208842   -0.03218986220152477   -0.0268390138889577
0.11909660414208842   -0.03218986220152477   -0.0268390138889577
0.11909660414208842   -0.03218986220152477   -0.0268390138889577
0.4599035670051945   0.0853451709377786   0.06060839305929702
0.4599035670051945   0.0853451709377786   0.06060839305929702
0.4599035670051945   0.0853451709377786   0.06060839305929702
0.4599035670051945   0.0853451709377786   0.06060839305929702
-0.17724803447936455   -0.12626501009526145   -0.039121095507740226
-0.17724803447936455   -0.12626501009526145   -0.039121095507740226
-0.17724803447936455   -0.12626501009526145   -0.039121095507740226
-0.17724803447936455   -0.12626501009526145   -0.039121095507740226
-0.11785011056743078   -0.008455534774272154   0.013016002775525929
-0.11785011056743078   -0.008455534774272154   0.013016002775525929
-0.11785011056743078   -0.008455534774272154   0.013016002775525929
-0.11785011056743078   -0.008455534774272154   0.013016002775525929
0.4656807908144992   0.033319368548598516   -0.016804219069292504
0.4656807908144992   0.033319368548598516   -0.016804219069292504
0.4656807908144992   0.033319368548598516   -0.016804219069292504
0.4656807908144992   0.033319368548598516   -0.016804219069292504
0.1491440865308197   -0.003756180347491027   -0.010676477033572017
0.1491440865308197   -0.003756180347491027   -0.010676477033572017
0.1491440865308197   -0.003756180347491027   -0.010676477033572017
0.1491440865308197   -0.003756180347491027   -0.010676477033572017
0.4976993294538678   0.12281060100842678   0.053797241667722005
0.4976993294538678   0.12281060100842678   0.053797241667722005
0.4976993294538678   0.12281060100842678   0.053797241667722005
0.4976993294538678   0.12281060100842678   0.053797241667722005
-0.1473809052179629   -0.09545902324526398   -0.04763448200614286
-0.1473809052179629   -0.09545902324526398   -0.04763448200614286
-0.1473809052179629   -0.09545902324526398   -0.04763448200614286
-0.1473809052179629   -0.09545902324526398   -0.04763448200614286
-0.08715431028493274   0.03320101633530777   0.00548544314459027
-0.08715431028493274   0.03320101633530777   0.00548544314459027
-0.08715431028493274   0.03320101633530777   0.00548544314459027
-0.08715431028493274   0.03320101633530777   0.00548544314459027
0.498122030887169   0.07175270569113272   -0.023985227978476114
0.498122030887169   0.07175270569113272   -0.023985227978476114
0.498122030887169   0.07175270569113272   -0.023985227978476114
0.498122030887169   0.07175270569113272   -0.023985227978476114
0.18622297201917198   0.031097424028712142   0.008187960119245026
0.18622297201917198   0.031097424028712142   0.008187960119245026
0.18622297201917198   0.031097424028712142   0.008187960119245026
0.18622297201917198   0.031097424028712142   0.008187960119245026
-0.16286647823800604   0.010747683759084036   0.028829899095992213
-0.16286647823800604   0.010747683759084036   0.028829899095992213
-0.16286647823800604   0.010747683759084036   0.028829899095992213
-0.16286647823800604   0.010747683759084036   0.028829899095992213
-0.7611950516632342   -0.1341394657524249   -0.003846400262399724
-0.7611950516632342   -0.1341394657524249   -0.003846400262399724
-0.7611950516632342   -0.1341394657524249   -0.003846400262399724
-0.7611950516632342   -0.1341394657524249   -0.003846400262399724
-0.7243112046096594   -0.07889568242127927   -0.017893203586876762
-0.7243112046096594   -0.07889568242127927   -0.017893203586876762
-0.7243112046096594   -0.07889568242127927   -0.017893203586876762
-0.7243112046096594   -0.07889568242127927   -0.017893203586876762
-0.13637230074828688   0.019804590084409678   0.019187972967977012
-0.13637230074828688   0.019804590084409678   0.019187972967977012
-0.13637230074828688   0.019804590084409678   0.019187972967977012
-0.13637230074828688   0.019804590084409678   0.019187972967977012
-0.4469732866614151   -0.041260668512952146   -0.016750234388811527
-0.4469732866614151   -0.041260668512952146   -0.016750234388811527
-0.4469732866614151   -0.041260668512952146   -0.016750234388811527
-0.4469732866614151   -0.041260668512952146   -0.016750234388811527
-0.13023914510365941   0.04785753204365716   0.021800809231866836
-0.13023914510365941   0.04785753204365716   0.021800809231866836
-0.13023914510365941   0.04785753204365716   0.021800809231866836
-0.13023914510365941   0.04785753204365716   0.021800809231866836
-0.7287919298780946   -0.1052961940043448   -0.013896318345987566
-0.7287919298780946   -0.1052961940043448   -0.013896318345987566
-0.7287919298780946   -0.1052961940043448   -0.013896318345987566
-0.7287919298780946   -0.1052961940043448   -0.013896318345987566
-0.6900479215741079   -0.039426679721067906   -0.024174248622112666
-0.6900479215741079   -0.039426679721067906   -0.024174248622112666
-0.6900479215741079   -0.039426679721067906   -0.024174248622112666
-0.6900479215741079   -0.039426679721067906   -0.024174248622112666
-0.10610900347766922   0.052421908948678625   0.010844094501386854
-0.10610900347766922   0.052421908948678625   0.010844094501386854
-0.10610900347766922   0.052421908948678625   0.010844094501386854
-0.10610900347766922   0.052421908948678625   0.010844094501386854
-0.4124177103566652   -0.008235180031295725   -0.00025964675437815943
-0.4124177103566652   -0.008235180031295725   -0.00025964675437815943
-0.4124177103566652   -0.008235180031295725   -0.00025964675437815943
-0.4124177103566652   -0.008235180031295725   -0.00025964675437815943
-0.09870971122723272   0.08644025417764939   0.013822210524598595
-0.09870971122723272   0.08644025417764939   0.013822210524598595
-0.09870971122723272   0.08644025417764939   0.013822210524598595
-0.09870971122723272   0.08644025417764939   0.013822210524598595
-0.6959113474595127   -0.07190915858499666   -0.021008899185207527
-0.6959113474595127   -0.07190915858499666   -0.021008899185207527
-0.6959113474595127   -0.07190915858499666   -0.021008899185207527
-0.6959113474595127   -0.07190915858499666   -0.021008899185207527
-0.6581560242066474   -9.347561659295289e-05   -0.03168815380883844
-0.6581560242066474   -9.347561659295289e-05   -0.03168815380883844
-0.6581560242066474   -9.347561659295289e-05   -0.03168815380883844
-0.6581560242066474   -9.347561659295289e-05   -0.03168815380883844
-0.07721608539261124   0.08573941444460753   0.002638169496901776
-0.07721608539261124   0.08573941444460753   0.002638169496901776
-0.07721608539261124   0.08573941444460753   0.002638169496901776
-0.07721608539261124   0.08573941444460753   0.002638169496901776
-0.3806705017242233   0.024664968054975575   0.015434384046415544
-0.3806705017242233   0.024664968054975575   0.015434384046415544
-0.3806705017242233   0.024664968054975575   0.015434384046415544
-0.3806705017242233   0.024664968054975575   0.015434384046415544
-0.7416941592162127   -0.029075621463150653   -0.01140578231656094
-0.7416941592162127   -0.029075621463150653   -0.01140578231656094
-0.7416941592162127   -0.029075621463150653   -0.01140578231656094
-0.7416941592162127   -0.029075621463150653   -0.01140578231656094
-1.3025559725251397   -0.10861011592334113   0.025243153648819974
-1.3025559725251397   -0.10861011592334113   0.025243153648819974
-1.3025559725251397   -0.10861011592334113   0.025243153648819974
-1.3025559725251397   -0.10861011592334113   0.025243153648819974
-1.284531675538485   -0.11198681810355207   -0.053853119648539165
-1.284531675538485   -0.11198681810355207   -0.053853119648539165
-1.284531675538485   -0.11198681810355207   -0.053853119648539165
-1.284531675538485   -0.11198681810355207   -0.053853119648539165
-0.6852162211573212   0.05042397688689418   0.04826205436664592
-0.6852162211573212   0.05042397688689418   0.04826205436664592
-0.6852162211573212   0.05042397688689418   0.04826205436664592
-0.6852162211573212   0.05042397688689418   0.04826205436664592
-0.9965563332810486   -0.043521400389034376   -0.005833730243847916
-0.9965563332810486   -0.043521400389034376   -0.005833730243847916
-0.9965563332810486   -0.043521400389034376   -0.005833730243847916
-0.9965563332810486   -0.043521400389034376   -0.005833730243847916
-0.7062230269614838   0.010979946656751227   -0.017327944424024015
-0.7062230269614838   0.010979946656751227   -0.017327944424024015
-0.7062230269614838   0.010979946656751227   -0.017327944424024015
-0.7062230269614838   0.010979946656751227   -0.017327944424024015
-1.26345393446281   -0.07247185260189465   0.012020620228190323
-1.26345393446281   -0.07247185260189465   0.012020620228190323
-1.26345393446281   -0.07247185260189465   0.012020620228190323
-1.26345393446281   -0.07247185260189465   0.012020620228190323
-1.23977774401083   -0.07341682382394388   -0.059564142005929466
-1.23977774401083   -0.07341682382394388   -0.059564142005929466
-1.23977774401083   -0.07341682382394388   -0.059564142005929466
-1.23977774401083   -0.07341682382394388   -0.059564142005929466
-0.6533078552325132   0.08153305665066854   0.03856634671413138
-0.6533078552325132   0.08153305665066854   0.03856634671413138
-0.6533078552325132   0.08153305665066854   0.03856634671413138
-0.6533078552325132   0.08153305665066854   0.03856634671413138
-0.951048168833378   -0.007013775488085655   0.010697111114602281
-0.951048168833378   -0.007013775488085655   0.010697111114602281
-0.951048168833378   -0.007013775488085655   0.010697111114602281
-0.951048168833378   -0.007013775488085655   0.010697111114602281
-0.6730271233574093   0.04678895104665795   -0.02528588830634064
-0.6730271233574093   0.04678895104665795   -0.02528588830634064
-0.6730271233574093   0.04678895104665795   -0.02528588830634064
-0.6730271233574093   0.04678895104665795   -0.02528588830634064
-1.219029599864295   -0.03764384219829503   0.008403597101095187
-1.219029599864295   -0.03764384219829503   0.008403597101095187
-1.219029599864295   -0.03764384219829503   0.008403597101095187
-1.219029599864295   -0.03764384219829503   0.008403597101095187
-1.1997577268297415   -0.03159745997240171   -0.06262183680947458
-1.1997577268297415   -0.03159745997240171   -0.06262183680947458
-1.1997577268297415   -0.03159745997240171   -0.06262183680947458
-1.1997577268297415   -0.03159745997240171   -0.06262183680947458
-0.6224033872318451   0.11575585905938282   0.031225696389201876
-0.6224033872318451   0.11575585905938282   0.031225696389201876
-0.6224033872318451   0.11575585905938282   0.031225696389201876
-0.6224033872318451   0.11575585905938282   0.031225696389201876
-0.9202072373461808   0.024209479093190184   0.024961925167245873
-0.9202072373461808   0.024209479093190184   0.024961925167245873
-0.9202072373461808   0.024209479093190184   0.024961925167245873
-0.9202072373461808   0.024209479093190184   0.024961925167245873
-1.3080913855456013   -0.06239694112298472   -0.04864708625384434
-1.3080913855456013   -0.06239694112298472   -0.04864708625384434
-1.3080913855456013   -0.06239694112298472   -0.04864708625384434
-1.3080913855456013   -0.06239694112298472   -0.04864708625384434
-1.8640397914208622   -0.06717290207891491   0.0843204477790124
-1.8640397914208622   -0.06717290207891491   0.0843204477790124
-1.8640397914208622   -0.06717290207891491   0.0843204477790124
-1.8640397914208622   -0.06717290207891491   0.0843204477790124
-1.827981172100735   -0.1340821570279071   -0.06439736256912124
-1.827981172100735   -0.1340821570279071   -0.06439736256912124
-1.827981172100735   -0.1340821570279071   -0.06439736256912124
-1.827981172100735   -0.1340821570279071   -0.06439736256912124
-1.2133528213321183   0.10437377183970886   0.08568056144003428
-1.2133528213321183   0.10437377183970886   0.08568056144003428
-1.2133528213321183   0.10437377183970886   0.08568056144003428
-1.2133528213321183   0.10437377183970886   0.08568056144003428
-1.4844817232866736   -0.01835578354176537   0.017128773325047364
-1.4844817232866736   -0.01835578354176537   0.017128773325047364
-1.4844817232866736   -0.01835578354176537   0.017128773325047364
-1.4844817232866736   -0.01835578354176537   0.017128773325047364
-1.2661073418014384   -0.019642976889661712   -0.0540752921771909
-1.2661073418014384   -0.019642976889661712   -0.0540752921771909
-1.2661073418014384   -0.019642976889661712   -0.0540752921771909
-1.2661073418014384   -0.019642976889661712   -0.0540752921771909
-1.774368484073861   -0.009207240740994549   0.07879116127832128
-1.774368484073861   -0.009207240740994549   0.07879116127832128
-1.774368484073861   -0.009207240740994549   0.07879116127832128
-1.774368484073861   -0.009207240740994549   0.07879116127832128
-1.7603169792369746   -0.11013870379334156   -0.0758293026658646
-1.7603169792369746   -0.11013870379334156   -0.0758293026658646
-1.7603169792369746   -0.11013870379334156   -0.0758293026658646
-1.7603169792369746   -0.11013870379334156   -0.0758293026658646
-1.1757769718014257   0.11914375994691728   0.06787913527022954
-1.1757769718014257   0.11914375994691728   0.06787913527022954
-1.1757769718014257   0.11914375994691728   0.06787913527022954
-1.1757769718014257   0.11914375994691728   0.06787913527022954
-1.4494463473877466   0.007773713238423907   0.03090644946446819
-1.4494463473877466   0.007773713238423907   0.03090644946446819
-1.4494463473877466   0.007773713238423907   0.03090644946446819
-1.4494463473877466   0.007773713238423907   0.03090644946446819
-1.2255517917336767   -0.00032503887360890715   -0.06152616557049928
-1.2255517917336767   -0.00032503887360890715   -0.06152616557049928
-1.2255517917336767   -0.00032503887360890715   -0.06152616557049928
-1.2255517917336767   -0.00032503887360890715   -0.06152616557049928
-1.7096893571648624   0.010182897167030469   0.056987206734293666
-1.7096893571648624   0.010182897167030469   0.056987206734293666
-1.7096893571648624   0.010182897167030469   0.056987206734293666
-1.7096893571648624   0.010182897167030469   0.056987206734293666
-1.6863970746102723   -0.08134248722277876   -0.0863928891366358
-1.6863970746102723   -0.08134248722277876   -0.0863928891366358
-1.6863970746102723   -0.08134248722277876   -0.0863928891366358
-1.6863970746102723   -0.08134248722277876   -0.0863928891366358
-1.1427359057640443   0.13308225348817038   0.057807555058438403
-1.1427359057640443   0.13308225348817038   0.057807555058438403
-1.1427359057640443   0.13308225348817038   0.057807555058438403
-1.1427359057640443   0.13308225348817038   0.057807555058438403
-1.3749254595035718   0.029511424823646548   0.051693213210090544
-1.3749254595035718   0.029511424823646548   0.051693213210090544
-1.3749254595035718   0.029511424823646548   0.051693213210090544
-1.3749254595035718   0.029511424823646548   0.051693213210090544
1.643437821877537   0.12276894931475296   0.08721884952952323
1.643437821877537   0.12276894931475296   0.08721884952952323
1.643437821877537   0.12276894931475296   0.08721884952952323
1.643437821877537   0.12276894931475296   0.08721884952952323
0.7251978431757845   -0.19383993610306102   -0.04001367244937244
0.7251978431757845   -0.19383993610306102   -0.04001367244937244
0.7251978431757845   -0.19383993610306102   -0.04001367244937244
0.7251978431757845   -0.19383993610306102   -0.04001367244937244
0.8088531546634905   -0.03395701552994987   0.059933120699151986
0.8088531546634905   -0.03395701552994987   0.059933120699151986
0.8088531546634905   -0.03395701552994987   0.059933120699151986
0.8088531546634905   -0.03395701552994987   0.059933120699151986
1.6617033424103176   -0.0033447156361675057   -0.06276301481891439
1.6617033424103176   -0.0033447156361675057   -0.06276301481891439
1.6617033424103176   -0.0033447156361675057   -0.06276301481891439
1.6617033424103176   -0.0033447156361675057   -0.06276301481891439
1.1389236846321606   -0.034649584629349583   -0.08919002220074393
1.1389236846321606   -0.034649584629349583   -0.08919002220074393
1.1389236846321606   -0.034649584629349583   -0.08919002220074393
1.1389236846321606   -0.034649584629349583   -0.08919002220074393
1.719683022055295   0.15081705613545018   0.07297361163434782
1.719683022055295   0.15081705613545018   0.07297361163434782
1.719683022055295   0.15081705613545018   0.07297361163434782
1.719683022055295   0.15081705613545018   0.07297361163434782
0.7564385943791732   -0.1825536679409074   -0.05354302831146959
0.7564385943791732   -0.1825536679409074   -0.05354302831146959
0.7564385943791732   -0.1825536679409074   -0.05354302831146959
0.7564385943791732   -0.1825536679409074   -0.05354302831146959
0.841619495406936   -0.016267209514277126   0.048466206236619735
0.841619495406936   -0.016267209514277126   0.048466206236619735
0.841619495406936   -0.016267209514277126   0.048466206236619735
0.841619495406936   -0.016267209514277126   0.048466206236619735
1.718885455421405   0.016166180163798394   -0.07845355632885412
1.718885455421405   0.016166180163798394   -0.07845355632885412
1.718885455421405   0.016166180163798394   -0.07845355632885412
1.718885455421405   0.016166180163798394   -0.07845355632885412
1.2106786069005366   -0.013786248965772574   -0.06064915576516469
1.2106786069005366   -0.013786248965772574   -0.06064915576516469
1.2106786069005366   -0.013786248965772574   -0.06064915576516469
1.2106786069005366   -0.013786248965772574   -0.06064915576516469
1.776530300096599   0.1718408996820956   0.054095947528820326
1.776530300096599   0.1718408996820956   0.054095947528820326
1.776530300096599   0.1718408996820956   0.054095947528820326
1.776530300096599   0.1718408996820956   0.054095947528820326
0.7888483845936589   -0.16706819517065713   -0.06458836217338584
0.7888483845936589   -0.16706819517065713   -0.06458836217338584
0.7888483845936589   -0.16706819517065713   -0.06458836217338584
0.7888483845936589   -0.16706819517065713   -0.06458836217338584
0.8712951767656644   0.03096444588490549   0.042491749235977525
0.8712951767656644   0.03096444588490549   0.042491749235977525
0.8712951767656644   0.03096444588490549   0.042491749235977525
0.8712951767656644   0.03096444588490549   0.042491749235977525
1.7892115145368852   0.07324334180080727   -0.08216844171797535
1.7892115145368852   0.07324334180080727   -0.08216844171797535
1.7892115145368852   0.07324334180080727   -0.08216844171797535
1.7892115145368852   0.07324334180080727   -0.08216844171797535
1.2376134720659306   0.014282309031707574   -0.040875750181138884
1.2376134720659306   0.014282309031707574   -0.040875750181138884
1.2376134720659306   0.014282309031707574   -0.040875750181138884
1.2376134720659306   0.014282309031707574   -0.040875750181138884
0.8022586102283714   0.07170384316031261   0.07974638355018067
0.8022586102283714   0.07170384316031261   0.07974638355018067
0.8022586102283714   0.07170384316031261   0.07974638355018067
0.8022586102283714   0.07170384316031261   0.07974638355018067
-0.09866921452060787   -0.23895524858892772   -0.022768157936156566
-0.09866921452060787   -0.23895524858892772   -0.022768157936156566
-0.09866921452060787   -0.23895524858892772   -0.022768157936156566
-0.09866921452060787   -0.23895524858892772   -0.022768157936156566
-0.026565906502457548   -0.08423614441487481   0.020341104917285982
-0.026565906502457548   -0.08423614441487481   0.020341104917285982
-0.026565906502457548   -0.08423614441487481   0.020341104917285982
-0.026565906502457548   -0.08423614441487481   0.020341104917285982
0.7955337279756526   -0.04453543333433316   0.003914405064346017
0.7955337279756526   -0.04453543333433316   0.003914405064346017
0.7955337279756526   -0.04453543333433316   0.003914405064346017
0.7955337279756526   -0.04453543333433316   0.003914405064346017
0.3581665283259188   -0.0667415443928708   -0.04256472799489707
0.3581665283259188   -0.0667415443928708   -0.04256472799489707
0.3581665283259188   -0.0667415443928708   -0.04256472799489707
0.3581665283259188   -0.0667415443928708   -0.04256472799489707
0.837510083188568   0.0986358184156598   0.0706249293789335
0.837510083188568   0.0986358184156598   0.0706249293789335
0.837510083188568   0.0986358184156598   0.0706249293789335
0.837510083188568   0.0986358184156598   0.0706249293789335
-0.06561505895892912   -0.22448019340842337   -0.03466060837152333
-0.06561505895892912   -0.22448019340842337   -0.03466060837152333
-0.06561505895892912   -0.22448019340842337   -0.03466060837152333
-0.06561505895892912   -0.22448019340842337   -0.03466060837152333
0.006849693897539904   -0.05259970477457928   0.012431511231777864
0.006849693897539904   -0.05259970477457928   0.012431511231777864
0.006849693897539904   -0.05259970477457928   0.012431511231777864
0.006849693897539904   -0.05259970477457928   0.012431511231777864
0.8297412752414278   -0.020683621295301546   -0.006508482809897492
0.8297412752414278   -0.020683621295301546   -0.006508482809897492
0.8297412752414278   -0.020683621295301546   -0.006508482809897492
0.8297412752414278   -0.020683621295301546   -0.006508482809897492
0.38721280386836543   -0.047322223613992076   -0.02760264376903132
0.38721280386836543   -0.047322223613992076   -0.02760264376903132
0.38721280386836543   -0.047322223613992076   -0.02760264376903132
0.38721280386836543   -0.047322223613992076   -0.02760264376903132
0.8739729619875842   0.13094326043516913   0.06302306919041421
0.8739729619875842   0.13094326043516913   0.06302306919041421
0.8739729619875842   0.13094326043516913   0.06302306919041421
0.8739729619875842   0.13094326043516913   0.06302306919041421
-0.03564569132360104   -0.20249028498001398   -0.05015483466849217
-0.03564569132360104   -0.20249028498001398   -0.05015483466849217
-0.03564569132360104   -0.20249028498001398   -0.05015483466849217
-0.03564569132360104   -0.20249028498001398   -0.05015483466849217
0.03307668572123913   -0.015572447479370673   0.004434351334875443
0.03307668572123913   -0.015572447479370673   0.004434351334875443
0.03307668572123913   -0.015572447479370673   0.004434351334875443
0.03307668572123913   -0.015572447479370673   0.004434351334875443
0.855363029544089   0.009722710968472825   -0.01592725195547382
0.855363029544089   0.009722710968472825   -0.01592725195547382
0.855363029544089   0.009722710968472825   -0.01592725195547382
0.855363029544089   0.009722710968472825   -0.01592725195547382
0.4227346228665853   -0.01828503641877237   -0.011565499785328122
0.4227346228665853   -0.01828503641877237   -0.011565499785328122
0.4227346228665853   -0.01828503641877237   -0.011565499785328122
0.4227346228665853   -0.01828503641877237   -0.011565499785328122
-0.0344243869802527   0.019903411226658056   0.039597319950033516
-0.0344243869802527   0.019903411226658056   0.039597319950033516
-0.0344243869802527   0.019903411226658056   0.039597319950033516
-0.0344243869802527   0.019903411226658056   0.039597319950033516
-0.9162003219489968   -0.3000155910468445   -0.018344170311719185
-0.9162003219489968   -0.3000155910468445   -0.018344170311719185
-0.9162003219489968   -0.3000155910468445   -0.018344170311719185
-0.9162003219489968   -0.3000155910468445   -0.018344170311719185
-0.8431967889833124   -0.12925174278267149   -0.01926920313246467
-0.8431967889833124   -0.12925174278267149   -0.01926920313246467
-0.8431967889833124   -0.12925174278267149   -0.01926920313246467
-0.8431967889833124   -0.12925174278267149   -0.01926920313246467
-0.030955514087124707   -0.10367392440770852   0.01783084698678391
-0.030955514087124707   -0.10367392440770852   0.01783084698678391
-0.030955514087124707   -0.10367392440770852   0.01783084698678391
-0.030955514087124707   -0.10367392440770852   0.01783084698678391
-0.45828043864510776   -0.12138642352790746   -0.038039136300215326
-0.45828043864510776   -0.12138642352790746   -0.038039136300215326
-0.45828043864510776   -0.12138642352790746   -0.038039136300215326
-0.45828043864510776   -0.12138642352790746   -0.038039136300215326
0.0026876040655270817   0.05021123260170327   0.03216128074063104
0.0026876040655270817   0.05021123260170327   0.03216128074063104
0.0026876040655270817   0.05021123260170327   0.03216128074063104
0.0026876040655270817   0.05021123260170327   0.03216128074063104
-0.8747280935829748   -0.2810250862391041   -0.025152382674343943
-0.8747280935829748   -0.2810250862391041   -0.025152382674343943
-0.8747280935829748   -0.2810250862391041   -0.025152382674343943
-0.8747280935829748   -0.2810250862391041   -0.025152382674343943
-0.8017553653316201   -0.09412722463495174   -0.026255211562814053
-0.8017553653316201   -0.09412722463495174   -0.026255211562814053
-0.8017553653316201   -0.09412722463495174   -0.026255211562814053
-0.8017553653316201   -0.09412722463495174   -0.026255211562814053
0.0001805706947467789   -0.08075697149805298   0.007243161941285929
0.0001805706947467789   -0.08075697149805298   0.007243161941285929
0.0001805706947467789   -0.08075697149805298   0.007243161941285929
0.0001805706947467789   -0.08075697149805298   0.007243161941285929
-0.41805101490605695   -0.09614273690246204   -0.021143249831928237
-0.41805101490605695   -0.09614273690246204   -0.021143249831928237
-0.41805101490605695   -0.09614273690246204   -0.021143249831928237
-0.41805101490605695   -0.09614273690246204   -0.021143249831928237
0.03665047912634399   0.08381011090787309   0.025025621693345934
0.03665047912634399   0.08381011090787309   0.025025621693345934
0.03665047912634399   0.08381011090787309   0.025025621693345934
0.03665047912634399   0.08381011090787309   0.025025621693345934
-0.8382504563887079   -0.2587194896663777   -0.04413840181682159
-0.8382504563887079   -0.2587194896663777   -0.04413840181682159
-0.8382504563887079   -0.2587194896663777   -0.04413840181682159
-0.8382504563887079   -0.2587194896663777   -0.04413840181682159
-0.7724729787709133   -0.06065362174638651   -0.0340701180797664
-0.7724729787709133   -0.06065362174638651   -0.0340701180797664
-0.7724729787709133   -0.06065362174638651   -0.0340701180797664
-0.7724729787709133   -0.06065362174638651   -0.0340701180797664
0.020632639576901594   -0.06246434614482842   -0.010893980721354526
0.020632639576901594   -0.06246434614482842   -0.010893980721354526
0.020632639576901594   -0.06246434614482842   -0.010893980721354526
0.020632639576901594   -0.06246434614482842   -0.010893980721354526
-0.38854096507928004   -0.072609202649118   -0.010579861741779146
-0.38854096507928004   -0.072609202649118   -0.010579861741779146
-0.38854096507928004   -0.072609202649118   -0.010579861741779146
-0.38854096507928004   -0.072609202649118   -0.010579861741779146
-0.8577890354545727   -0.024971687513558244   -0.0013316413728940851
-0.8577890354545727   -0.024971687513558244   -0.0013316413728940851
-0.8577890354545727   -0.024971687513558244   -0.0013316413728940851
-0.8577890354545727   -0.024971687513558244   -0.0013316413728940851
-1.7373895896609721   -0.3225527143113088   -0.014784383374502948
-1.7373895896609721   -0.3225527143113088   -0.014784383374502948
-1.7373895896609721   -0.3225527143113088   -0.014784383374502948
-1.7373895896609721   -0.3225527143113088   -0.014784383374502948
-1.658924049301176   -0.16544967429118476   -0.057398373379955285
-1.658924049301176   -0.16544967429118476   -0.057398373379955285
-1.658924049301176   -0.16544967429118476   -0.057398373379955285
-1.658924049301176   -0.16544967429118476   -0.057398373379955285
-0.8274559821720681   -0.10768727309329548   0.03787036123437564
-0.8274559821720681   -0.10768727309329548   0.03787036123437564
-0.8274559821720681   -0.10768727309329548   0.03787036123437564
-0.8274559821720681   -0.10768727309329548   0.03787036123437564
-1.2592451087503063   -0.14586180245961594   -0.02682020060464006
-1.2592451087503063   -0.14586180245961594   -0.02682020060464006
-1.2592451087503063   -0.14586180245961594   -0.02682020060464006
-1.2592451087503063   -0.14586180245961594   -0.02682020060464006
-0.8120095229237762   0.014079985447328414   -0.006664601064789243
-0.8120095229237762   0.014079985447328414   -0.006664601064789243
-0.8120095229237762   0.014079985447328414   -0.006664601064789243
-0.8120095229237762   0.014079985447328414   -0.006664601064789243
-1.6750588049722948   -0.2879052292546333   -0.015616596772086882
-1.6750588049722948   -0.2879052292546333   -0.015616596772086882
-1.6750588049722948   -0.2879052292546333   -0.015616596772086882
-1.6750588049722948   -0.2879052292546333   -0.015616596772086882
-1.5997031870013223   -0.12875651145598577   -0.06648616205033113
-1.5997031870013223   -0.12875651145598577   -0.06648616205033113
-1.5997031870013223   -0.12875651145598577   -0.06648616205033113
-1.5997031870013223   -0.12875651145598577   -0.06648616205033113
-0.7871970626698093   -0.08012480303734694   0.03253388014864057
-0.7871970626698093   -0.08012480303734694   0.03253388014864057
-0.7871970626698093   -0.08012480303734694   0.03253388014864057
-0.7871970626698093   -0.08012480303734694   0.03253388014864057
-1.198415073374752   -0.11065904163721907   -0.008852574926132964
-1.198415073374752   -0.11065904163721907   -0.008852574926132964
-1.198415073374752   -0.11065904163721907   -0.008852574926132964
-1.198415073374752   -0.11065904163721907   -0.008852574926132964
-0.7704663755528404   0.048000488152502185   -0.011937975456373304
-0.7704663755528404   0.048000488152502185   -0.011937975456373304
-0.7704663755528404   0.048000488152502185   -0.011937975456373304
-0.7704663755528404   0.048000488152502185   -0.011937975456373304
-1.619303837701236   -0.25975176622876867   -0.0334941607771025
-1.619303837701236   -0.25975176622876867   -0.0334941607771025
-1.619303837701236   -0.25975176622876867   -0.0334941607771025
-1.619303837701236   -0.25975176622876867   -0.0334941607771025
-1.5516246232119983   -0.09005297420858921   -0.06859723397050506
-1.5516246232119983   -0.09005297420858921   -0.06859723397050506
-1.5516246232119983   -0.09005297420858921   -0.06859723397050506
-1.5516246232119983   -0.09005297420858921   -0.06859723397050506
-0.764064173071343   -0.06260205342351711   0.00992234209522352
-0.764064173071343   -0.06260205342351711   0.00992234209522352
-0.764064173071343   -0.06260205342351711   0.00992234209522352
-0.764064173071343   -0.06260205342351711   0.00992234209522352
-1.164775561580808   -0.08919240997410441   -0.0029972806840263475
-1.164775561580808   -0.08919240997410441   -0.0029972806840263475
-1.164775561580808   -0.08919240997410441   -0.0029972806840263475
-1.164775561580808   -0.08919240997410441   -0.0029972806840263475
-1.6898448173631275   -0.057600536718740214   -0.042012699477849
-1.6898448173631275   -0.057600536718740214   -0.042012699477849
-1.6898448173631275   -0.057600536718740214   -0.042012699477849
-1.6898448173631275   -0.057600536718740214   -0.042012699477849
-2.54801091307061   -0.21781137358392816   0.09664169814264155
-2.54801091307061   -0.21781137358392816   0.09664169814264155
-2.54801091307061   -0.21781137358392816   0.09664169814264155
-2.54801091307061   -0.21781137358392816   0.09664169814264155
-2.4601941445375792   -0.17336018080739568   -0.05614787859002718
-2.4601941445375792   -0.17336018080739568   -0.05614787859002718
-2.4601941445375792   -0.17336018080739568   -0.05614787859002718
-2.4601941445375792   -0.17336018080739568   -0.05614787859002718
-1.587522258980459   0.04538439859047566   0.08877650534195583
-1.587522258980459   0.04538439859047566   0.08877650534195583
-1.587522258980459   0.04538439859047566   0.08877650534195583
-1.587522258980459   0.04538439859047566   0.08877650534195583
-1.9787527489020962   -0.06843420683162565   0.009306354120184351
-1.9787527489020962   -0.06843420683162565   0.009306354120184351
-1.9787527489020962   -0.06843420683162565   0.009306354120184351
-1.9787527489020962   -0.06843420683162565   0.009306354120184351
-1.624528821557926   -0.004309935237030049   -0.04656197371785231
-1.624528821557926   -0.004309935237030049   -0.04656197371785231
-1.624528821557926   -0.004309935237030049   -0.04656197371785231
-1.624528821557926   -0.004309935237030049   -0.04656197371785231
-2.4172178985936106   -0.11769616361338497   0.10306933393580478
-2.4172178985936106   -0.11769616361338497   0.10306933393580478
-2.4172178985936106   -0.11769616361338497   0.10306933393580478
-2.4172178985936106   -0.11769616361338497   0.10306933393580478
-2.3660097755865195   -0.14585183087433518   -0.06686601505087778
-2.3660097755865195   -0.14585183087433518   -0.06686601505087778
-2.3660097755865195   -0.14585183087433518   -0.06686601505087778
-2.3660097755865195   -0.14585183087433518   -0.06686601505087778
-1.528940704043959   0.07281806001332719   0.08575168126717236
-1.528940704043959   0.07281806001332719   0.08575168126717236
-1.528940704043959   0.07281806001332719   0.08575168126717236
-1.528940704043959   0.07281806001332719   0.08575168126717236
-1.9230075197719692   -0.027607335612396866   0.039366204249762116
-1.9230075197719692   -0.027607335612396866   0.039366204249762116
-1.9230075197719692   -0.027607335612396866   0.039366204249762116
-1.9230075197719692   -0.027607335612396866   0.039366204249762116
-1.567265832342634   0.017215817285037738   -0.05027171749789841
-1.567265832342634   0.017215817285037738   -0.05027171749789841
-1.567265832342634   0.017215817285037738   -0.05027171749789841
-1.567265832342634   0.017215817285037738   -0.05027171749789841
-2.3264870576764967   -0.08905199853469914   0.07394774215957844
-2.3264870576764967   -0.08905199853469914   0.07394774215957844
-2.3264870576764967   -0.08905199853469914   0.07394774215957844
-2.3264870576764967   -0.08905199853469914   0.07394774215957844
-2.2686196526690003   -0.11981572215051706   -0.08079857623004263
-2.2686196526690003   -0.11981572215051706   -0.08079857623004263
-2.2686196526690003   -0.11981572215051706   -0.08079857623004263
-2.2686196526690003   -0.11981572215051706   -0.08079857623004263
-1.4854745765767565   0.10573165025297382   0.06636837474414116
-1.4854745765767565   0.10573165025297382   0.06636837474414116
-1.4854745765767565   0.10573165025297382   0.06636837474414116
-1.4854745765767565   0.10573165025297382   0.06636837474414116
-1.8183745720820381   0.007312210514074713   0.06943236431346166
-1.8183745720820381   0.007312210514074713   0.06943236431346166
-1.8183745720820381   0.007312210514074713   0.06943236431346166
-1.8183745720820381   0.007312210514074713   0.06943236431346166
2.245467085801267   0.13452956490542872   0.08156458996759398
2.245467085801267   0.13452956490542872   0.08156458996759398
2.245467085801267   0.13452956490542872   0.08156458996759398
2.245467085801267   0.13452956490542872   0.08156458996759398
1.0707508006809585   -0.20072586457144959   0.01841568415535759
1.0707508006809585   -0.20072586457144959   0.01841568415535759
1.0707508006809585   -0.20072586457144959   0.01841568415535759
1.0707508006809585   -0.20072586457144959   0.01841568415535759
1.129986422712697   -0.08457613591269209   0.0627968034960831
1.129986422712697   -0.08457613591269209   0.0627968034960831
1.129986422712697   -0.08457613591269209   0.0627968034960831
1.129986422712697   -0.08457613591269209   0.0627968034960831
2.257392964728083   0.018847496539996622   -0.018010067228394072
2.257392964728083   0.018847496539996622   -0.018010067228394072
2.257392964728083   0.018847496539996622   -0.018010067228394072
2.257392964728083   0.018847496539996622   -0.018010067228394072
1.5788917512551872   -0.043213626542231376   -0.10502837376041926
1.5788917512551872   -0.043213626542231376   -0.10502837376041926
1.5788917512551872   -0.043213626542231376   -0.10502837376041926
1.5788917512551872   -0.043213626542231376   -0.10502837376041926
2.3000847919063077   0.14978624188946554   0.06451032331326062
2.3000847919063077   0.14978624188946554   0.06451032331326062
2.3000847919063077   0.14978624188946554   0.06451032331326062
2.3000847919063077   0.14978624188946554   0.06451032331326062
1.0975494406772364   -0.2052600361193968   0.021295793525485135
1.0975494406772364   -0.2052600361193968   0.021295793525485135
1.0975494406772364   -0.2052600361193968   0.021295793525485135
1.0975494406772364   -0.2052600361193968   0.021295793525485135
1.152461246092898   -0.0718682326169175   0.047798589096073374
1.152461246092898   -0.0718682326169175   0.047798589096073374
1.152461246092898   -0.0718682326169175   0.047798589096073374
1.152461246092898   -0.0718682326169175   0.047798589096073374
2.297058491975602   0.03318097178713991   -0.005366883730322916
2.297058491975602   0.03318097178713991   -0.005366883730322916
2.297058491975602   0.03318097178713991   -0.005366883730322916
2.297058491975602   0.03318097178713991   -0.005366883730322916
1.6441324273585294   -0.03419748659462668   -0.07171828929325434
1.6441324273585294   -0.03419748659462668   -0.07171828929325434
1.6441324273585294   -0.03419748659462668   -0.07171828929325434
1.6441324273585294   -0.03419748659462668   -0.07171828929325434
2.3331675235602014   0.16365429521107677   0.044704950768741175
2.3331675235602014   0.16365429521107677   0.044704950768741175
2.3331675235602014   0.16365429521107677   0.044704950768741175
2.3331675235602014   0.16365429521107677   0.044704950768741175
1.123486081192443   -0.19520768935670924   0.026262221333589894
1.123486081192443   -0.19520768935670924   0.026262221333589894
1.123486081192443   -0.19520768935670924   0.026262221333589894
1.123486081192443   -0.19520768935670924   0.026262221333589894
1.1855207347159378   -0.02232205879451521   0.04369533512629828
1.1855207347159378   -0.02232205879451521   0.04369533512629828
1.1855207347159378   -0.02232205879451521   0.04369533512629828
1.1855207347159378   -0.02232205879451521   0.04369533512629828
2.338286614775679   0.06596309818757129   -0.0007255208863561347
2.338286614775679   0.06596309818757129   -0.0007255208863561347
2.338286614775679   0.06596309818757129   -0.0007255208863561347
2.338286614775679   0.06596309818757129   -0.0007255208863561347
1.6523345141759294   -0.01583718674801876   -0.05356485192899149
1.6523345141759294   -0.01583718674801876   -0.05356485192899149
1.6523345141759294   -0.01583718674801876   -0.05356485192899149
1.6523345141759294   -0.01583718674801876   -0.05356485192899149
1.1299717553042263   0.02840457958609993   0.08539001311414739
1.1299717553042263   0.02840457958609993   0.08539001311414739
1.1299717553042263   0.02840457958609993   0.08539001311414739
1.1299717553042263   0.02840457958609993   0.08539001311414739
0.060199750596597226   -0.40023481467497674   0.041238334660443285
0.060199750596597226   -0.40023481467497674   0.041238334660443285
0.060199750596597226   -0.40023481467497674   0.041238334660443285
0.060199750596597226   -0.40023481467497674   0.041238334660443285
0.1374540638831473   -0.16925493507629136   0.03839656044712173
0.1374540638831473   -0.16925493507629136   0.03839656044712173
0.1374540638831473   -0.16925493507629136   0.03839656044712173
0.1374540638831473   -0.16925493507629136   0.03839656044712173
1.1009414497112147   -0.1930026535831063   0.025998456159077463
1.1009414497112147   -0.1930026535831063   0.025998456159077463
1.1009414497112147   -0.1930026535831063   0.025998456159077463
1.1009414497112147   -0.1930026535831063   0.025998456159077463
0.5874000397426449   -0.17964154817819036   -0.06726010502369494
0.5874000397426449   -0.17964154817819036   -0.06726010502369494
0.5874000397426449   -0.17964154817819036   -0.06726010502369494
0.5874000397426449   -0.17964154817819036   -0.06726010502369494
1.156840023122948   0.041200565507656356   0.07128810412699815
1.156840023122948   0.041200565507656356   0.07128810412699815
1.156840023122948   0.041200565507656356   0.07128810412699815
1.156840023122948   0.041200565507656356   0.07128810412699815
0.09631156177904392   -0.38870208285941105   0.05213119770972456
0.09631156177904392   -0.38870208285941105   0.05213119770972456
0.09631156177904392   -0.38870208285941105   0.05213119770972456
0.09631156177904392   -0.38870208285941105   0.05213119770972456
0.16853560184002378   -0.146052028041263   0.02785515686169933
0.16853560184002378   -0.146052028041263   0.02785515686169933
0.16853560184002378   -0.146052028041263   0.02785515686169933
0.16853560184002378   -0.146052028041263   0.02785515686169933
1.12753603847815   -0.18086733492010854   0.032171653325525545
1.12753603847815   -0.18086733492010854   0.032171653325525545
1.12753603847815   -0.18086733492010854   0.032171653325525545
1.12753603847815   -0.18086733492010854   0.032171653325525545
0.6138795918083143   -0.17077261716096945   -0.0336294800533824
0.6138795918083143   -0.17077261716096945   -0.0336294800533824
0.6138795918083143   -0.17077261716096945   -0.0336294800533824
0.6138795918083143   -0.17077261716096945   -0.0336294800533824
1.181896144263524   0.06305834878130553   0.06004649855098048
1.181896144263524   0.06305834878130553   0.06004649855098048
1.181896144263524   0.06305834878130553   0.06004649855098048
1.181896144263524   0.06305834878130553   0.06004649855098048
0.12837370603338635   -0.3757795017639305   0.056773151551179735
0.12837370603338635   -0.3757795017639305   0.056773151551179735
0.12837370603338635   -0.3757795017639305   0.056773151551179735
0.12837370603338635   -0.3757795017639305   0.056773151551179735
0.21622744416056122   -0.11122436024194726   0.018472977375953624
0.21622744416056122   -0.11122436024194726   0.018472977375953624
0.21622744416056122   -0.11122436024194726   0.018472977375953624
0.21622744416056122   -0.11122436024194726   0.018472977375953624
1.1566543699645386   -0.1624133036537987   0.03945475622859117
1.1566543699645386   -0.1624133036537987   0.03945475622859117
1.1566543699645386   -0.1624133036537987   0.03945475622859117
1.1566543699645386   -0.1624133036537987   0.03945475622859117
0.660234336542499   -0.14926566755833093   0.005499636775701977
0.660234336542499   -0.14926566755833093   0.005499636775701977
0.660234336542499   -0.14926566755833093   0.005499636775701977
0.660234336542499   -0.14926566755833093   0.005499636775701977
0.12767950791362576   -0.07657527474822218   0.05497758131883126
0.12767950791362576   -0.07657527474822218   0.05497758131883126
0.12767950791362576   -0.07657527474822218   0.05497758131883126
0.12767950791362576   -0.07657527474822218   0.05497758131883126
-0.9587855474484368   -0.6877806961215475   0.05963965833431997
-0.9587855474484368   -0.6877806961215475   0.05963965833431997
-0.9587855474484368   -0.6877806961215475   0.05963965833431997
-0.9587855474484368   -0.6877806961215475   0.05963965833431997
-0.8365966717496185   -0.2675545726563116   0.004068763406262332
-0.8365966717496185   -0.2675545726563116   0.004068763406262332
-0.8365966717496185   -0.2675545726563116   0.004068763406262332
-0.8365966717496185   -0.2675545726563116   0.004068763406262332
0.06792269469718723   -0.501120922478772   0.022605701919802212
0.06792269469718723   -0.501120922478772   0.022605701919802212
0.06792269469718723   -0.501120922478772   0.022605701919802212
0.06792269469718723   -0.501120922478772   0.022605701919802212
-0.4125329784912976   -0.38601173873849653   -0.08071353277086854
-0.4125329784912976   -0.38601173873849653   -0.08071353277086854
-0.4125329784912976   -0.38601173873849653   -0.08071353277086854
-0.4125329784912976   -0.38601173873849653   -0.08071353277086854
0.16022566843061992   -0.060336606399898074   0.04333625450809153
0.16022566843061992   -0.060336606399898074   0.04333625450809153
0.16022566843061992   -0.060336606399898074   0.04333625450809153
0.16022566843061992   -0.060336606399898074   0.04333625450809153
-0.9075611485485723   -0.6870003918007055   0.06869219855589465
-0.9075611485485723   -0.6870003918007055   0.06869219855589465
-0.9075611485485723   -0.6870003918007055   0.06869219855589465
-0.9075611485485723   -0.6870003918007055   0.06869219855589465
-0.7894684357408145   -0.24011926244276346   8.071365335622638e-05
-0.7894684357408145   -0.24011926244276346   8.071365335622638e-05
-0.7894684357408145   -0.24011926244276346   8.071365335622638e-05
-0.7894684357408145   -0.24011926244276346   8.071365335622638e-05
0.10068374362289709   -0.49016851076297874   0.03271234849778168
0.10068374362289709   -0.49016851076297874   0.03271234849778168
0.10068374362289709   -0.49016851076297874   0.03271234849778168
0.10068374362289709   -0.49016851076297874   0.03271234849778168
-0.3648146103802902   -0.37290120603102683   -0.03013845812510857
-0.3648146103802902   -0.37290120603102683   -0.03013845812510857
-0.3648146103802902   -0.37290120603102683   -0.03013845812510857
-0.3648146103802902   -0.37290120603102683   -0.03013845812510857
0.18998070746408474   -0.038699870953588844   0.027728527894330016
0.18998070746408474   -0.038699870953588844   0.027728527894330016
0.18998070746408474   -0.038699870953588844   0.027728527894330016
0.18998070746408474   -0.038699870953588844   0.027728527894330016
-0.8594901778834847   -0.6723126805536439   0.08216542105089913
-0.8594901778834847   -0.6723126805536439   0.08216542105089913
-0.8594901778834847   -0.6723126805536439   0.08216542105089913
-0.8594901778834847   -0.6723126805536439   0.08216542105089913
-0.7117025008733752   -0.2085099590069886   -0.008786904581878727
-0.7117025008733752   -0.2085099590069886   -0.008786904581878727
-0.7117025008733752   -0.2085099590069886   -0.008786904581878727
-0.7117025008733752   -0.2085099590069886   -0.008786904581878727
0.15182836730245036   -0.45947229276193935   0.0447255256053915
0.15182836730245036   -0.45947229276193935   0.0447255256053915
0.15182836730245036   -0.45947229276193935   0.0447255256053915
0.15182836730245036   -0.45947229276193935   0.0447255256053915
-0.30287162790463684   -0.3434451748390909   0.02283674366575185
-0.30287162790463684   -0.3434451748390909   0.02283674366575185
-0.30287162790463684   -0.3434451748390909   0.02283674366575185
-0.30287162790463684   -0.3434451748390909   0.02283674366575185
-0.8555134074946467   -0.1379805573389993   0.026200219320719163
-0.8555134074946467   -0.1379805573389993   0.026200219320719163
-0.8555134074946467   -0.1379805573389993   0.026200219320719163
-0.8555134074946467   -0.1379805573389993   0.026200219320719163
-2.1345759067316705   -1.0710391416095892   -0.050732462219515495
-2.1345759067316705   -1.0710391416095892   -0.050732462219515495
-2.1345759067316705   -1.0710391416095892   -0.050732462219515495
-2.1345759067316705   -1.0710391416095892   -0.050732462219515495
-1.9328740264538562   -0.3481448955944834   -0.058999706989714656
-1.9328740264538562   -0.3481448955944834   -0.058999706989714656
-1.9328740264538562   -0.3481448955944834   -0.058999706989714656
-1.9328740264538562   -0.3481448955944834   -0.058999706989714656
-0.9595232634402197   -0.8959725183861056   0.01785375068305023
-0.9595232634402197   -0.8959725183861056   0.01785375068305023
-0.9595232634402197   -0.8959725183861056   0.01785375068305023
-0.9595232634402197   -0.8959725183861056   0.01785375068305023
-1.4689499255855152   -0.633481511854604   -0.08475538562591631
-1.4689499255855152   -0.633481511854604   -0.08475538562591631
-1.4689499255855152   -0.633481511854604   -0.08475538562591631
-1.4689499255855152   -0.633481511854604   -0.08475538562591631
-0.7998249820039219   -0.10471718117571224   0.02508982065414577
-0.7998249820039219   -0.10471718117571224   0.02508982065414577
-0.7998249820039219   -0.10471718117571224   0.02508982065414577
-0.7998249820039219   -0.10471718117571224   0.02508982065414577
-2.0877842792192154   -1.134612204133928   -0.04708366227706598
-2.0877842792192154   -1.134612204133928   -0.04708366227706598
-2.0877842792192154   -1.134612204133928   -0.04708366227706598
-2.0877842792192154   -1.134612204133928   -0.04708366227706598
-1.870167692392626   -0.31524705280487897   -0.06010673896620304
-1.870167692392626   -0.31524705280487897   -0.06010673896620304
-1.870167692392626   -0.31524705280487897   -0.06010673896620304
-1.870167692392626   -0.31524705280487897   -0.06010673896620304
-0.9138544733013376   -0.8890019571312473   0.02703322053923249
-0.9138544733013376   -0.8890019571312473   0.02703322053923249
-0.9138544733013376   -0.8890019571312473   0.02703322053923249
-0.9138544733013376   -0.8890019571312473   0.02703322053923249
-1.4031967386375168   -0.6164351111849622   -0.0595770164947049
-1.4031967386375168   -0.6164351111849622   -0.0595770164947049
-1.4031967386375168   -0.6164351111849622   -0.0595770164947049
-1.4031967386375168   -0.6164351111849622   -0.0595770164947049
-0.7554943008529593   -0.07860383464477548   0.008435960294647816
-0.7554943008529593   -0.07860383464477548   0.008435960294647816
-0.7554943008529593   -0.07860383464477548   0.008435960294647816
-0.7554943008529593   -0.07860383464477548   0.008435960294647816
-2.028477406831415   -1.125594717281749   -0.04130764668326073
-2.028477406831415   -1.125594717281749   -0.04130764668326073
-2.028477406831415   -1.125594717281749   -0.04130764668326073
-2.028477406831415   -1.125594717281749   -0.04130764668326073
-1.7723768951599663   -0.27987578131759716   -0.06813357528661498
-1.7723768951599663   -0.27987578131759716   -0.06813357528661498
-1.7723768951599663   -0.27987578131759716   -0.06813357528661498
-1.7723768951599663   -0.27987578131759716   -0.06813357528661498
-0.8150550730060881   -0.7996455853246087   0.06558586107218545
-0.8150550730060881   -0.7996455853246087   0.06558586107218545
-0.8150550730060881   -0.7996455853246087   0.06558586107218545
-0.8150550730060881   -0.7996455853246087   0.06558586107218545
-1.329804527365989   -0.5589013543392496   -0.03330099845399713
-1.329804527365989   -0.5589013543392496   -0.03330099845399713
-1.329804527365989   -0.5589013543392496   -0.03330099845399713
-1.329804527365989   -0.5589013543392496   -0.03330099845399713
-1.9364499436227134   -0.11754656414977371   -0.013595224134544157
-1.9364499436227134   -0.11754656414977371   -0.013595224134544157
-1.9364499436227134   -0.11754656414977371   -0.013595224134544157
-1.9364499436227134   -0.11754656414977371   -0.013595224134544157
-3.4185795099603578   -0.6767439169183738   0.03485992536848925
-3.4185795099603578   -0.6767439169183738   0.03485992536848925
-3.4185795099603578   -0.6767439169183738   0.03485992536848925
-3.4185795099603578   -0.6767439169183738   0.03485992536848925
-3.283804556191433   -0.32606074278442215   -0.072166904321621
-3.283804556191433   -0.32606074278442215   -0.072166904321621
-3.283804556191433   -0.32606074278442215   -0.072166904321621
-3.283804556191433   -0.32606074278442215   -0.072166904321621
-1.893163854527588   -0.35029293291341024   0.14169918996053688
-1.893163854527588   -0.35029293291341024   0.14169918996053688
-1.893163854527588   -0.35029293291341024   0.14169918996053688
-1.893163854527588   -0.35029293291341024   0.14169918996053688
-2.526311655996674   -0.39263134824313417   0.03633194752571651
-2.526311655996674   -0.39263134824313417   0.03633194752571651
-2.526311655996674   -0.39263134824313417   0.03633194752571651
-2.526311655996674   -0.39263134824313417   0.03633194752571651
-1.8565751845434924   -0.026092971830822764   0.00044257879843571934
-1.8565751845434924   -0.026092971830822764   0.00044257879843571934
-1.8565751845434924   -0.026092971830822764   0.00044257879843571934
-1.8565751845434924   -0.026092971830822764   0.00044257879843571934
-3.3332610049686897   -0.6631284826601743   0.017618591667817873
-3.3332610049686897   -0.6631284826601743   0.017618591667817873
-3.3332610049686897   -0.6631284826601743   0.017618591667817873
-3.3332610049686897   -0.6631284826601743   0.017618591667817873
-3.2094669570109433   -0.2987560164984384   -0.09159244832467095
-3.2094669570109433   -0.2987560164984384   -0.09159244832467095
-3.2094669570109433   -0.2987560164984384   -0.09159244832467095
-3.2094669570109433   -0.2987560164984384   -0.09159244832467095
-1.82860891715558   -0.3326948054569028   0.16513488987106612
-1.82860891715558   -0.3326948054569028   0.16513488987106612
-1.82860891715558   -0.3326948054569028   0.16513488987106612
-1.82860891715558   -0.3326948054569028   0.16513488987106612
-2.4869908866160153   -0.3233169768689234   0.0348969738489925
-2.4869908866160153   -0.3233169768689234   0.0348969738489925
-2.4869908866160153   -0.3233169768689234   0.0348969738489925
-2.4869908866160153   -0.3233169768689234   0.0348969738489925
-1.7990596976600222   -0.001932365487451404   -0.017881452620596275
-1.7990596976600222   -0.001932365487451404   -0.017881452620596275
-1.7990596976600222   -0.001932365487451404   -0.017881452620596275
-1.7990596976600222   -0.001932365487451404   -0.017881452620596275
-3.2437689787179442   -0.6342712586793469   0.0724126853212097
-3.2437689787179442   -0.6342712586793469   0.0724126853212097
-3.2437689787179442   -0.6342712586793469   0.0724126853212097
-3.2437689787179442   -0.6342712586793469   0.0724126853212097
-3.055108989353232   -0.24193974598428664   -0.10235419366568548
-3.055108989353232   -0.24193974598428664   -0.10235419366568548
-3.055108989353232   -0.24193974598428664   -0.10235419366568548
-3.055108989353232   -0.24193974598428664   -0.10235419366568548
-1.728220365893649   -0.3092411793610429   0.18201446908843444
-1.728220365893649   -0.3092411793610429   0.18201446908843444
-1.728220365893649   -0.3092411793610429   0.18201446908843444
-1.728220365893649   -0.3092411793610429   0.18201446908843444
-2.3378638223833694   -0.2471387883815385   0.07140298041239812
-2.3378638223833694   -0.2471387883815385   0.07140298041239812
-2.3378638223833694   -0.2471387883815385   0.07140298041239812
-2.3378638223833694   -0.2471387883815385   0.07140298041239812
2.459442427957734   0.08026603049452213   0.034683532208441184
2.459442427957734   0.08026603049452213   0.034683532208441184
2.459442427957734   0.08026603049452213   0.034683532208441184
2.459442427957734   0.08026603049452213   0.034683532208441184
1.2562909119801522   -0.06596271250041735   0.025658509466644608
1.2562909119801522   -0.06596271250041735   0.025658509466644608
1.2562909119801522   -0.06596271250041735   0.025658509466644608
1.2562909119801522   -0.06596271250041735   0.025658509466644608
1.2070453252993796   -0.17755840156395714   0.050308081680540295
1.2070453252993796   -0.17755840156395714   0.050308081680540295
1.2070453252993796   -0.17755840156395714   0.050308081680540295
1.2070453252993796   -0.17755840156395714   0.050308081680540295
2.4415684518859764   0.1375889347335545   0.01861895256949836
2.4415684518859764   0.1375889347335545   0.01861895256949836
2.4415684518859764   0.1375889347335545   0.01861895256949836
2.4415684518859764   0.1375889347335545   0.01861895256949836
1.7429608394905804   -0.02483865037045324   -0.06433188141339402
1.7429608394905804   -0.02483865037045324   -0.06433188141339402
1.7429608394905804   -0.02483865037045324   -0.06433188141339402
1.7429608394905804   -0.02483865037045324   -0.06433188141339402
2.4280176772940703   0.061887712806314   0.0265663015372056
2.4280176772940703   0.061887712806314   0.0265663015372056
2.4280176772940703   0.061887712806314   0.0265663015372056
2.4280176772940703   0.061887712806314   0.0265663015372056
1.2165574934172707   -0.10589578611073225   0.02620630681677072
1.2165574934172707   -0.10589578611073225   0.02620630681677072
1.2165574934172707   -0.10589578611073225   0.02620630681677072
1.2165574934172707   -0.10589578611073225   0.02620630681677072
1.1756688422343669   -0.18169713041967112   0.041632254976856395
1.1756688422343669   -0.18169713041967112   0.041632254976856395
1.1756688422343669   -0.18169713041967112   0.041632254976856395
1.1756688422343669   -0.18169713041967112   0.041632254976856395
2.4128729944653737   0.13158645937467378   0.03213365473981257
2.4128729944653737   0.13158645937467378   0.03213365473981257
2.4128729944653737   0.13158645937467378   0.03213365473981257
2.4128729944653737   0.13158645937467378   0.03213365473981257
1.7376362194938832   -0.03427089057444832   -0.07455274510676052
1.7376362194938832   -0.03427089057444832   -0.07455274510676052
1.7376362194938832   -0.03427089057444832   -0.07455274510676052
1.7376362194938832   -0.03427089057444832   -0.07455274510676052
2.3927175203413853   0.05497891908771163   0.007963824406813216
2.3927175203413853   0.05497891908771163   0.007963824406813216
2.3927175203413853   0.05497891908771163   0.007963824406813216
2.3927175203413853   0.05497891908771163   0.007963824406813216
1.1885824145189772   -0.1123314919721008   0.03683447795233637
1.1885824145189772   -0.1123314919721008   0.03683447795233637
1.1885824145189772   -0.1123314919721008   0.03683447795233637
1.1885824145189772   -0.1123314919721008   0.03683447795233637
1.142550277530221   -0.16584973478099146   0.03594665151628826
1.142550277530221   -0.16584973478099146   0.03594665151628826
1.142550277530221   -0.16584973478099146   0.03594665151628826
1.142550277530221   -0.16584973478099146   0.03594665151628826
2.368634864189105   0.13295407540050924   0.0461414180910074
2.368634864189105   0.13295407540050924   0.0461414180910074
2.368634864189105   0.13295407540050924   0.0461414180910074
2.368634864189105   0.13295407540050924   0.0461414180910074
1.6722252311875967   -0.03458020411458723   -0.10073222878692792
1.6722252311875967   -0.03458020411458723   -0.10073222878692792
1.6722252311875967   -0.03458020411458723   -0.10073222878692792
1.6722252311875967   -0.03458020411458723   -0.10073222878692792
1.2448042432096382   -0.159257577051438   0.06152003016509584
1.2448042432096382   -0.159257577051438   0.06152003016509584
1.2448042432096382   -0.159257577051438   0.06152003016509584
1.2448042432096382   -0.159257577051438   0.06152003016509584
0.24299235667834626   -0.1482607605213151   0.013324360094119414
0.24299235667834626   -0.1482607605213151   0.013324360094119414
0.24299235667834626   -0.1482607605213151   0.013324360094119414
0.24299235667834626   -0.1482607605213151   0.013324360094119414
0.1580835783727409   -0.3735432358880032   0.06615341597306672
0.1580835783727409   -0.3735432358880032   0.06615341597306672
0.1580835783727409   -0.3735432358880032   0.06615341597306672
0.1580835783727409   -0.3735432358880032   0.06615341597306672
1.2516491037048478   0.04820490152688042   0.04756367061704329
1.2516491037048478   0.04820490152688042   0.04756367061704329
1.2516491037048478   0.04820490152688042   0.04756367061704329
1.2516491037048478   0.04820490152688042   0.04756367061704329
0.7132543457014215   -0.15884564979821436   -0.0027143714775674233
0.7132543457014215   -0.15884564979821436   -0.0027143714775674233
0.7132543457014215   -0.15884564979821436   -0.0027143714775674233
0.7132543457014215   -0.15884564979821436   -0.0027143714775674233
1.2095635652669472   -0.16617478809407726   0.05151566804849038
1.2095635652669472   -0.16617478809407726   0.05151566804849038
1.2095635652669472   -0.16617478809407726   0.05151566804849038
1.2095635652669472   -0.16617478809407726   0.05151566804849038
0.18954290592722886   -0.1697897571504594   0.019696575007962853
0.18954290592722886   -0.1697897571504594   0.019696575007962853
0.18954290592722886   -0.1697897571504594   0.019696575007962853
0.18954290592722886   -0.1697897571504594   0.019696575007962853
0.12007246631380064   -0.3769475218545541   0.059234290817647306
0.12007246631380064   -0.3769475218545541   0.059234290817647306
0.12007246631380064   -0.3769475218545541   0.059234290817647306
0.12007246631380064   -0.3769475218545541   0.059234290817647306
1.2227112214110878   0.038775675669256604   0.0563713447715319
1.2227112214110878   0.038775675669256604   0.0563713447715319
1.2227112214110878   0.038775675669256604   0.0563713447715319
1.2227112214110878   0.038775675669256604   0.0563713447715319
0.6616487659817798   -0.16932221647751106   -0.03425798034750083
0.6616487659817798   -0.16932221647751106   -0.03425798034750083
0.6616487659817798   -0.16932221647751106   -0.03425798034750083
0.6616487659817798   -0.16932221647751106   -0.03425798034750083
1.1784791497159277   -0.16859642578720846   0.04258308775218704
1.1784791497159277   -0.16859642578720846   0.04258308775218704
1.1784791497159277   -0.16859642578720846   0.04258308775218704
1.1784791497159277   -0.16859642578720846   0.04258308775218704
0.1527588226833531   -0.181121135723688   0.02683968653454341
0.1527588226833531   -0.181121135723688   0.02683968653454341
0.1527588226833531   -0.181121135723688   0.02683968653454341
0.1527588226833531   -0.181121135723688   0.02683968653454341
0.07753330532089862   -0.3768502848707824   0.04639091478731254
0.07753330532089862   -0.3768502848707824   0.04639091478731254
0.07753330532089862   -0.3768502848707824   0.04639091478731254
0.07753330532089862   -0.3768502848707824   0.04639091478731254
1.1898698041583349   0.039280246334370106   0.06741430354150135
1.1898698041583349   0.039280246334370106   0.06741430354150135
1.1898698041583349   0.039280246334370106   0.06741430354150135
1.1898698041583349   0.039280246334370106   0.06741430354150135
0.6300908172005667   -0.1680925549462174   -0.06110592538358883
0.6300908172005667   -0.1680925549462174   -0.06110592538358883
0.6300908172005667   -0.1680925549462174   -0.06110592538358883
0.6300908172005667   -0.1680925549462174   -0.06110592538358883
0.18922566006459435   -0.4590503024874975   0.055280418991538544
0.18922566006459435   -0.4590503024874975   0.055280418991538544
0.18922566006459435   -0.4590503024874975   0.055280418991538544
0.18922566006459435   -0.4590503024874975   0.055280418991538544
-0.7310497919272757   -0.23023815532112168   0.0009518370197422708
-0.7310497919272757   -0.23023815532112168   0.0009518370197422708
-0.7310497919272757   -0.23023815532112168   0.0009518370197422708
-0.7310497919272757   -0.23023815532112168   0.0009518370197422708
-0.8846640351521555   -0.6809951966968999   0.07582106067850575
-0.8846640351521555   -0.6809951966968999   0.07582106067850575
-0.8846640351521555   -0.6809951966968999   0.07582106067850575
-0.8846640351521555   -0.6809951966968999   0.07582106067850575
0.2176899697832246   -0.03939491473489931   0.030037051872377474
0.2176899697832246   -0.03939491473489931   0.030037051872377474
0.2176899697832246   -0.03939491473489931   0.030037051872377474
0.2176899697832246   -0.03939491473489931   0.030037051872377474
-0.2981318958229256   -0.347461299796342   0.013036366885537692
-0.2981318958229256   -0.347461299796342   0.013036366885537692
-0.2981318958229256   -0.347461299796342   0.013036366885537692
-0.2981318958229256   -0.347461299796342   0.013036366885537692
0.13045246376292802   -0.48520432303532046   0.03965893007131949
0.13045246376292802   -0.48520432303532046   0.03965893007131949
0.13045246376292802   -0.48520432303532046   0.03965893007131949
0.13045246376292802   -0.48520432303532046   0.03965893007131949
-0.8122848025589726   -0.2500440618235932   0.006766088771105381
-0.8122848025589726   -0.2500440618235932   0.006766088771105381
-0.8122848025589726   -0.2500440618235932   0.006766088771105381
-0.8122848025589726   -0.2500440618235932   0.006766088771105381
-0.9376323518493646   -0.692040200318567   0.0616699961921639
-0.9376323518493646   -0.692040200318567   0.0616699961921639
-0.9376323518493646   -0.692040200318567   0.0616699961921639
-0.9376323518493646   -0.692040200318567   0.0616699961921639
0.18207980746689578   -0.049865360014516   0.04218883474308491
0.18207980746689578   -0.049865360014516   0.04218883474308491
0.18207980746689578   -0.049865360014516   0.04218883474308491
0.18207980746689578   -0.049865360014516   0.04218883474308491
-0.3643086170748777   -0.36864791745247766   -0.031181193064885843
-0.3643086170748777   -0.36864791745247766   -0.031181193064885843
-0.3643086170748777   -0.36864791745247766   -0.031181193064885843
-0.3643086170748777   -0.36864791745247766   -0.031181193064885843
0.08996306433191661   -0.49375597042499647   0.025495729478673346
0.08996306433191661   -0.49375597042499647   0.025495729478673346
0.08996306433191661   -0.49375597042499647   0.025495729478673346
0.08996306433191661   -0.49375597042499647   0.025495729478673346
-0.8631706648552391   -0.26580464604893006   0.007742876893149536
-0.8631706648552391   -0.26580464604893006   0.007742876893149536
-0.8631706648552391   -0.26580464604893006   0.007742876893149536
-0.8631706648552391   -0.26580464604893006   0.007742876893149536
-0.9950089430723624   -0.6873750199304268   0.05204920013776698
-0.9950089430723624   -0.6873750199304268   0.05204920013776698
-0.9950089430723624   -0.6873750199304268   0.05204920013776698
-0.9950089430723624   -0.6873750199304268   0.05204920013776698
0.14245230422800262   -0.05572248794680397   0.049858112398850116
0.14245230422800262   -0.05572248794680397   0.049858112398850116
0.14245230422800262   -0.05572248794680397   0.049858112398850116
0.14245230422800262   -0.05572248794680397   0.049858112398850116
-0.41797993802476946   -0.3767257113311764   -0.07531011708414717
-0.41797993802476946   -0.3767257113311764   -0.07531011708414717
-0.41797993802476946   -0.3767257113311764   -0.07531011708414717
-0.41797993802476946   -0.3767257113311764   -0.07531011708414717
-0.8293874093997335   -0.786708192360026   0.06573378669636412
-0.8293874093997335   -0.786708192360026   0.06573378669636412
-0.8293874093997335   -0.786708192360026   0.06573378669636412
-0.8293874093997335   -0.786708192360026   0.06573378669636412
-1.839111158185418   -0.2867033884461208   -0.042690798058748314
-1.839111158185418   -0.2867033884461208   -0.042690798058748314
-1.839111158185418   -0.2867033884461208   -0.042690798058748314
-1.839111158185418   -0.2867033884461208   -0.042690798058748314
-2.1075073624712677   -1.1410023680604464   -0.05931139865760629
-2.1075073624712677   -1.1410023680604464   -0.05931139865760629
-2.1075073624712677   -1.1410023680604464   -0.05931139865760629
-2.1075073624712677   -1.1410023680604464   -0.05931139865760629
-0.7714127816711395   -0.06487061562376312   0.025952747010441216
-0.7714127816711395   -0.06487061562376312   0.025952747010441216
-0.7714127816711395   -0.06487061562376312   0.025952747010441216
-0.7714127816711395   -0.06487061562376312   0.025952747010441216
-1.3736026344101315   -0.5478002030263269   -0.04741013475426592
-1.3736026344101315   -0.5478002030263269   -0.04741013475426592
-1.3736026344101315   -0.5478002030263269   -0.04741013475426592
-1.3736026344101315   -0.5478002030263269   -0.04741013475426592
-0.9373752613896748   -0.8907164346281706   0.021986167422180375
-0.9373752613896748   -0.8907164346281706   0.021986167422180375
-0.9373752613896748   -0.8907164346281706   0.021986167422180375
-0.9373752613896748   -0.8907164346281706   0.021986167422180375
-1.9372570687618584   -0.31086873506516394   -0.03819356310584397
-1.9372570687618584   -0.31086873506516394   -0.03819356310584397
-1.9372570687618584   -0.31086873506516394   -0.03819356310584397
-1.9372570687618584   -0.31086873506516394   -0.03819356310584397
-2.1704858747742635   -1.1594533225478383   -0.0685922050708577
-2.1704858747742635   -1.1594533225478383   -0.0685922050708577
-2.1704858747742635   -1.1594533225478383   -0.0685922050708577
-2.1704858747742635   -1.1594533225478383   -0.0685922050708577
-0.8202062133824588   -0.08202510896917209   0.038785597177292366
-0.8202062133824588   -0.08202510896917209   0.038785597177292366
-0.8202062133824588   -0.08202510896917209   0.038785597177292366
-0.8202062133824588   -0.08202510896917209   0.038785597177292366
-1.4505374380908884   -0.6068302267061065   -0.0668850350427977
-1.4505374380908884   -0.6068302267061065   -0.0668850350427977
-1.4505374380908884   -0.6068302267061065   -0.0668850350427977
-1.4505374380908884   -0.6068302267061065   -0.0668850350427977
-0.9914847105380087   -0.9082175401669622   0.00858554259732916
-0.9914847105380087   -0.9082175401669622   0.00858554259732916
-0.9914847105380087   -0.9082175401669622   0.00858554259732916
-0.9914847105380087   -0.9082175401669622   0.00858554259732916
-1.9994139775387203   -0.3334674912700684   -0.03921855017092772
-1.9994139775387203   -0.3334674912700684   -0.03921855017092772
-1.9994139775387203   -0.3334674912700684   -0.03921855017092772
-1.9994139775387203   -0.3334674912700684   -0.03921855017092772
-2.2242316518036174   -1.1100687330654395   -0.07735329883443945
-2.2242316518036174   -1.1100687330654395   -0.07735329883443945
-2.2242316518036174   -1.1100687330654395   -0.07735329883443945
-2.2242316518036174   -1.1100687330654395   -0.07735329883443945
-0.8820139808914259   -0.10623845981974278   0.035887450931748874
-0.8820139808914259   -0.10623845981974278   0.035887450931748874
-0.8820139808914259   -0.10623845981974278   0.035887450931748874
-0.8820139808914259   -0.10623845981974278   0.035887450931748874
-1.5213368467469177   -0.6269995523123554   -0.08545066175126731
-1.5213368467469177   -0.6269995523123554   -0.08545066175126731
-1.5213368467469177   -0.6269995523123554   -0.08545066175126731
-1.5213368467469177   -0.6269995523123554   -0.08545066175126731
-1.8062607600247274   -0.32856715928769537   0.16342496358625047
-1.8062607600247274   -0.32856715928769537   0.16342496358625047
-1.8062607600247274   -0.32856715928769537   0.16342496358625047
-1.8062607600247274   -0.32856715928769537   0.16342496358625047
-3.183159271187898   -0.2384813870430179   -0.05680467684882362
-3.183159271187898   -0.2384813870430179   -0.05680467684882362
-3.183159271187898   -0.2384813870430179   -0.05680467684882362
-3.183159271187898   -0.2384813870430179   -0.05680467684882362
-3.3784807939223294   -0.6667192379088667   0.04488460437799635
-3.3784807939223294   -0.6667192379088667   0.04488460437799635
-3.3784807939223294   -0.6667192379088667   0.04488460437799635
-3.3784807939223294   -0.6667192379088667   0.04488460437799635
-1.8589333269762585   0.02655913740389043   0.015997273353085872
-1.8589333269762585   0.02655913740389043   0.015997273353085872
-1.8589333269762585   0.02655913740389043   0.015997273353085872
-1.8589333269762585   0.02655913740389043   0.015997273353085872
-2.4349457030225143   -0.23422295927535913   0.04899924971174564
-2.4349457030225143   -0.23422295927535913   0.04899924971174564
-2.4349457030225143   -0.23422295927535913   0.04899924971174564
-2.4349457030225143   -0.23422295927535913   0.04899924971174564
-1.908995222810291   -0.35279138187058073   0.1450383134573875
-1.908995222810291   -0.35279138187058073   0.1450383134573875
-1.908995222810291   -0.35279138187058073   0.1450383134573875
-1.908995222810291   -0.35279138187058073   0.1450383134573875
-3.3198239798295965   -0.27877380037569144   -0.049776762691484955
-3.3198239798295965   -0.27877380037569144   -0.049776762691484955
-3.3198239798295965   -0.27877380037569144   -0.049776762691484955
-3.3198239798295965   -0.27877380037569144   -0.049776762691484955
-3.461531196873458   -0.6951960306363664   -0.014448956308374172
-3.461531196873458   -0.6951960306363664   -0.014448956308374172
-3.461531196873458   -0.6951960306363664   -0.014448956308374172
-3.461531196873458   -0.6951960306363664   -0.014448956308374172
-1.917527469395633   0.007350329578339254   0.029396169696100982
-1.917527469395633   0.007350329578339254   0.029396169696100982
-1.917527469395633   0.007350329578339254   0.029396169696100982
-1.917527469395633   0.007350329578339254   0.029396169696100982
-2.5810151900842264   -0.30930433156024767   0.02023993070809528
-2.5810151900842264   -0.30930433156024767   0.02023993070809528
-2.5810151900842264   -0.30930433156024767   0.02023993070809528
-2.5810151900842264   -0.30930433156024767   0.02023993070809528
-1.9750000830174204   -0.3709361086419861   0.12031953980749
-1.9750000830174204   -0.3709361086419861   0.12031953980749
-1.9750000830174204   -0.3709361086419861   0.12031953980749
-1.9750000830174204   -0.3709361086419861   0.12031953980749
-3.3868499700690093   -0.2997009792333599   -0.03653787368908021
-3.3868499700690093   -0.2997009792333599   -0.03653787368908021
-3.3868499700690093   -0.2997009792333599   -0.03653787368908021
-3.3868499700690093   -0.2997009792333599   -0.03653787368908021
-3.5339572252496985   -0.7068183203122855   -0.00013437631172885656
-3.5339572252496985   -0.7068183203122855   -0.00013437631172885656
-3.5339572252496985   -0.7068183203122855   -0.00013437631172885656
-3.5339572252496985   -0.7068183203122855   -0.00013437631172885656
-1.9997735413994933   -0.077112095991826   0.011980616112567705
-1.9997735413994933   -0.077112095991826   0.011980616112567705
-1.9997735413994933   -0.077112095991826   0.011980616112567705
-1.9997735413994933   -0.077112095991826   0.011980616112567705
-2.6127228001998   -0.37382296462682096   0.03197018580047167
-2.6127228001998   -0.37382296462682096   0.03197018580047167
-2.6127228001998   -0.37382296462682096   0.03197018580047167
-2.6127228001998   -0.37382296462682096   0.03197018580047167
2.152568148520915   0.09877213948370989   -0.04694446715348277
2.152568148520915   0.09877213948370989   -0.04694446715348277
2.152568148520915   0.09877213948370989   -0.04694446715348277
2.152568148520915   0.09877213948370989   -0.04694446715348277
1.0839281495985071   -0.02154970903248621   0.02317879686060316
1.0839281495985071   -0.02154970903248621   0.02317879686060316
1.0839281495985071   -0.02154970903248621   0.02317879686060316
1.0839281495985071   -0.02154970903248621   0.02317879686060316
1.0147181859798375   -0.15978917459191666   -0.04142132815171817
1.0147181859798375   -0.15978917459191666   -0.04142132815171817
1.0147181859798375   -0.15978917459191666   -0.04142132815171817
1.0147181859798375   -0.15978917459191666   -0.04142132815171817
2.127573755861594   0.1555192598066718   0.027118968631445722
2.127573755861594   0.1555192598066718   0.027118968631445722
2.127573755861594   0.1555192598066718   0.027118968631445722
2.127573755861594   0.1555192598066718   0.027118968631445722
1.5111017004777902   0.003701331135102681   -0.058378241910810355
1.5111017004777902   0.003701331135102681   -0.058378241910810355
1.5111017004777902   0.003701331135102681   -0.058378241910810355
1.5111017004777902   0.003701331135102681   -0.058378241910810355
2.0924937940305917   0.05458158042100225   -0.04734316113787812
2.0924937940305917   0.05458158042100225   -0.04734316113787812
2.0924937940305917   0.05458158042100225   -0.04734316113787812
2.0924937940305917   0.05458158042100225   -0.04734316113787812
1.0478428482245792   -0.06080679479250631   0.02521960327256989
1.0478428482245792   -0.06080679479250631   0.02521960327256989
1.0478428482245792   -0.06080679479250631   0.02521960327256989
1.0478428482245792   -0.06080679479250631   0.02521960327256989
0.9774634995371062   -0.16875920573579734   -0.03418517588427521
0.9774634995371062   -0.16875920573579734   -0.03418517588427521
0.9774634995371062   -0.16875920573579734   -0.03418517588427521
0.9774634995371062   -0.16875920573579734   -0.03418517588427521
2.075800383114132   0.14282559383038795   0.03958867845090204
2.075800383114132   0.14282559383038795   0.03958867845090204
2.075800383114132   0.14282559383038795   0.03958867845090204
2.075800383114132   0.14282559383038795   0.03958867845090204
1.4906432300211647   -0.015203461959789333   -0.06977043387637953
1.4906432300211647   -0.015203461959789333   -0.06977043387637953
1.4906432300211647   -0.015203461959789333   -0.06977043387637953
1.4906432300211647   -0.015203461959789333   -0.06977043387637953
2.040466353982838   0.04318935471264013   -0.03744522808781979
2.040466353982838   0.04318935471264013   -0.03744522808781979
2.040466353982838   0.04318935471264013   -0.03744522808781979
2.040466353982838   0.04318935471264013   -0.03744522808781979
1.0100930879396937   -0.07182740734675586   0.032030967739621066
1.0100930879396937   -0.07182740734675586   0.032030967739621066
1.0100930879396937   -0.07182740734675586   0.032030967739621066
1.0100930879396937   -0.07182740734675586   0.032030967739621066
0.9413652103326838   -0.1664131998823717   -0.02342530446697645
0.9413652103326838   -0.1664131998823717   -0.02342530446697645
0.9413652103326838   -0.1664131998823717   -0.02342530446697645
0.9413652103326838   -0.1664131998823717   -0.02342530446697645
2.0116800692026384   0.1341046127420103   0.05145920239496113
2.0116800692026384   0.1341046127420103   0.05145920239496113
2.0116800692026384   0.1341046127420103   0.05145920239496113
2.0116800692026384   0.1341046127420103   0.05145920239496113
1.4167151556640065   -0.026551336223913646   -0.09169361691230815
1.4167151556640065   -0.026551336223913646   -0.09169361691230815
1.4167151556640065   -0.026551336223913646   -0.09169361691230815
1.4167151556640065   -0.026551336223913646   -0.09169361691230815
1.0895772482851203   0.020305218361208466   0.00956936289996338
1.0895772482851203   0.020305218361208466   0.00956936289996338
1.0895772482851203   0.020305218361208466   0.00956936289996338
1.0895772482851203   0.020305218361208466   0.00956936289996338
0.10569915481141988   -0.06511829339546729   -0.0023800222443508857
0.10569915481141988   -0.06511829339546729   -0.0023800222443508857
0.10569915481141988   -0.06511829339546729   -0.0023800222443508857
0.10569915481141988   -0.06511829339546729   -0.0023800222443508857
0.04048442688523164   -0.21150602365886662   -0.039826278492014575
0.04048442688523164   -0.21150602365886662   -0.039826278492014575
0.04048442688523164   -0.21150602365886662   -0.039826278492014575
0.04048442688523164   -0.21150602365886662   -0.039826278492014575
1.0909211641151952   0.12576420530225488   0.05404018263088899
1.0909211641151952   0.12576420530225488   0.05404018263088899
1.0909211641151952   0.12576420530225488   0.05404018263088899
1.0909211641151952   0.12576420530225488   0.05404018263088899
0.5709942832563832   -0.029851607501556576   -0.022704209270519027
0.5709942832563832   -0.029851607501556576   -0.022704209270519027
0.5709942832563832   -0.029851607501556576   -0.022704209270519027
0.5709942832563832   -0.029851607501556576   -0.022704209270519027
1.0589659605922828   0.00346767737055248   0.016560692948030045
1.0589659605922828   0.00346767737055248   0.016560692948030045
1.0589659605922828   0.00346767737055248   0.016560692948030045
1.0589659605922828   0.00346767737055248   0.016560692948030045
0.07364535525856722   -0.088003770876741   0.002476110592537665
0.07364535525856722   -0.088003770876741   0.002476110592537665
0.07364535525856722   -0.088003770876741   0.002476110592537665
0.07364535525856722   -0.088003770876741   0.002476110592537665
0.00456385906677613   -0.22166283577158238   -0.027673850088351534
0.00456385906677613   -0.22166283577158238   -0.027673850088351534
0.00456385906677613   -0.22166283577158238   -0.027673850088351534
0.00456385906677613   -0.22166283577158238   -0.027673850088351534
1.051483688299842   0.10753952662290228   0.059617035570704156
1.051483688299842   0.10753952662290228   0.059617035570704156
1.051483688299842   0.10753952662290228   0.059617035570704156
1.051483688299842   0.10753952662290228   0.059617035570704156
0.5296869301999498   -0.04661219150425744   -0.03214749195158463
0.5296869301999498   -0.04661219150425744   -0.03214749195158463
0.5296869301999498   -0.04661219150425744   -0.03214749195158463
0.5296869301999498   -0.04661219150425744   -0.03214749195158463
1.0213202664778216   -0.00792407804584394   0.024263531129356627
1.0213202664778216   -0.00792407804584394   0.024263531129356627
1.0213202664778216   -0.00792407804584394   0.024263531129356627
1.0213202664778216   -0.00792407804584394   0.024263531129356627
0.03455277411960914   -0.10637373787203239   0.006981627276263586
0.03455277411960914   -0.10637373787203239   0.006981627276263586
0.03455277411960914   -0.10637373787203239   0.006981627276263586
0.03455277411960914   -0.10637373787203239   0.006981627276263586
-0.034008184349536244   -0.2227459475218499   -0.018838677231666066
-0.034008184349536244   -0.2227459475218499   -0.018838677231666066
-0.034008184349536244   -0.2227459475218499   -0.018838677231666066
-0.034008184349536244   -0.2227459475218499   -0.018838677231666066
1.0116956106745951   0.095913786336882   0.06589971102332892
1.0116956106745951   0.095913786336882   0.06589971102332892
1.0116956106745951   0.095913786336882   0.06589971102332892
1.0116956106745951   0.095913786336882   0.06589971102332892
0.49731214408794266   -0.053346247691768656   -0.04028337259601618
0.49731214408794266   -0.053346247691768656   -0.04028337259601618
0.49731214408794266   -0.053346247691768656   -0.04028337259601618
0.49731214408794266   -0.053346247691768656   -0.04028337259601618
0.1074874300779532   -0.062027055154545596   0.003470115847393932
0.1074874300779532   -0.062027055154545596   0.003470115847393932
0.1074874300779532   -0.062027055154545596   0.003470115847393932
0.1074874300779532   -0.062027055154545596   0.003470115847393932
-0.8397695894643263   -0.09711340770868715   -0.026439524859357764
-0.8397695894643263   -0.09711340770868715   -0.026439524859357764
-0.8397695894643263   -0.09711340770868715   -0.026439524859357764
-0.8397695894643263   -0.09711340770868715   -0.026439524859357764
-0.9122695846292811   -0.2804615980032946   -0.04533681005709342
-0.9122695846292811   -0.2804615980032946   -0.04533681005709342
-0.9122695846292811   -0.2804615980032946   -0.04533681005709342
-0.9122695846292811   -0.2804615980032946   -0.04533681005709342
0.11535226537729447   0.09202719313459617   0.030979697174836722
0.11535226537729447   0.09202719313459617   0.030979697174836722
0.11535226537729447   0.09202719313459617   0.030979697174836722
0.11535226537729447   0.09202719313459617   0.030979697174836722
-0.3834440746152778   -0.08272879020631817   -0.022556788749877602
-0.3834440746152778   -0.08272879020631817   -0.022556788749877602
-0.3834440746152778   -0.08272879020631817   -0.022556788749877602
-0.3834440746152778   -0.08272879020631817   -0.022556788749877602
0.08050254873561709   -0.06924012324890591   0.017998430349951956
0.08050254873561709   -0.06924012324890591   0.017998430349951956
0.08050254873561709   -0.06924012324890591   0.017998430349951956
0.08050254873561709   -0.06924012324890591   0.017998430349951956
-0.8747582965874725   -0.1165327102196715   -0.02170925763167333
-0.8747582965874725   -0.1165327102196715   -0.02170925763167333
-0.8747582965874725   -0.1165327102196715   -0.02170925763167333
-0.8747582965874725   -0.1165327102196715   -0.02170925763167333
-0.954401783038088   -0.2915928583918015   -0.029967066638358575
-0.954401783038088   -0.2915928583918015   -0.029967066638358575
-0.954401783038088   -0.2915928583918015   -0.029967066638358575
-0.954401783038088   -0.2915928583918015   -0.029967066638358575
0.0759415388414565   0.07251300960750354   0.03503870340596443
0.0759415388414565   0.07251300960750354   0.03503870340596443
0.0759415388414565   0.07251300960750354   0.03503870340596443
0.0759415388414565   0.07251300960750354   0.03503870340596443
-0.418291529175131   -0.09436828307908647   -0.027063349716159864
-0.418291529175131   -0.09436828307908647   -0.027063349716159864
-0.418291529175131   -0.09436828307908647   -0.027063349716159864
-0.418291529175131   -0.09436828307908647   -0.027063349716159864
0.04319940156698608   -0.08109250234574313   0.024933528986858987
0.04319940156698608   -0.08109250234574313   0.024933528986858987
0.04319940156698608   -0.08109250234574313   0.024933528986858987
0.04319940156698608   -0.08109250234574313   0.024933528986858987
-0.9211052433566537   -0.13743294403159217   -0.017644282591403885
-0.9211052433566537   -0.13743294403159217   -0.017644282591403885
-0.9211052433566537   -0.13743294403159217   -0.017644282591403885
-0.9211052433566537   -0.13743294403159217   -0.017644282591403885
-1.0011596760919588   -0.2997451101244122   -0.026643018169290864
-1.0011596760919588   -0.2997451101244122   -0.026643018169290864
-1.0011596760919588   -0.2997451101244122   -0.026643018169290864
-1.0011596760919588   -0.2997451101244122   -0.026643018169290864
0.03331412566286671   0.05584856679097783   0.039178358517517144
0.03331412566286671   0.05584856679097783   0.039178358517517144
0.03331412566286671   0.05584856679097783   0.039178358517517144
0.03331412566286671   0.05584856679097783   0.039178358517517144
-0.46357441996613574   -0.10830465410519453   -0.037909277747049705
-0.46357441996613574   -0.10830465410519453   -0.037909277747049705
-0.46357441996613574   -0.10830465410519453   -0.037909277747049705
-0.46357441996613574   -0.10830465410519453   -0.037909277747049705
-0.8270471062585378   -0.07311710146402568   0.013176584924908263
-0.8270471062585378   -0.07311710146402568   0.013176584924908263
-0.8270471062585378   -0.07311710146402568   0.013176584924908263
-0.8270471062585378   -0.07311710146402568   0.013176584924908263
-1.7622598785146601   -0.1136387871725098   -0.04665835598685521
-1.7622598785146601   -0.1136387871725098   -0.04665835598685521
-1.7622598785146601   -0.1136387871725098   -0.04665835598685521
-1.7622598785146601   -0.1136387871725098   -0.04665835598685521
-1.8446995264218342   -0.2937625758118248   -0.045220309179172344
-1.8446995264218342   -0.2937625758118248   -0.045220309179172344
-1.8446995264218342   -0.2937625758118248   -0.045220309179172344
-1.8446995264218342   -0.2937625758118248   -0.045220309179172344
-0.8313242042105451   0.07021355025011758   0.008714943783159443
-0.8313242042105451   0.07021355025011758   0.008714943783159443
-0.8313242042105451   0.07021355025011758   0.008714943783159443
-0.8313242042105451   0.07021355025011758   0.008714943783159443
-1.3054737338426476   -0.09782013749633792   -0.018994638593269046
-1.3054737338426476   -0.09782013749633792   -0.018994638593269046
-1.3054737338426476   -0.09782013749633792   -0.018994638593269046
-1.3054737338426476   -0.09782013749633792   -0.018994638593269046
-0.8569406553091125   -0.08083124337111938   0.031677481911571444
-0.8569406553091125   -0.08083124337111938   0.031677481911571444
-0.8569406553091125   -0.08083124337111938   0.031677481911571444
-0.8569406553091125   -0.08083124337111938   0.031677481911571444
-1.8138558194799628   -0.13749052634727382   -0.04727382393438011
-1.8138558194799628   -0.13749052634727382   -0.04727382393438011
-1.8138558194799628   -0.13749052634727382   -0.04727382393438011
-1.8138558194799628   -0.13749052634727382   -0.04727382393438011
-1.9030074377924264   -0.3126838034025094   -0.03170665057942666
-1.9030074377924264   -0.3126838034025094   -0.03170665057942666
-1.9030074377924264   -0.3126838034025094   -0.03170665057942666
-1.9030074377924264   -0.3126838034025094   -0.03170665057942666
-0.8781858298667394   0.04884005255847307   0.010679788268102203
-0.8781858298667394   0.04884005255847307   0.010679788268102203
-0.8781858298667394   0.04884005255847307   0.010679788268102203
-0.8781858298667394   0.04884005255847307   0.010679788268102203
-1.3423927343850903   -0.10832963990133149   -0.01907127866481563
-1.3423927343850903   -0.10832963990133149   -0.01907127866481563
-1.3423927343850903   -0.10832963990133149   -0.01907127866481563
-1.3423927343850903   -0.10832963990133149   -0.01907127866481563
-0.9034895107728806   -0.0998655005196182   0.03286693681548357
-0.9034895107728806   -0.0998655005196182   0.03286693681548357
-0.9034895107728806   -0.0998655005196182   0.03286693681548357
-0.9034895107728806   -0.0998655005196182   0.03286693681548357
-1.8742022675074053   -0.16047676094553875   -0.039887841611291136
-1.8742022675074053   -0.16047676094553875   -0.039887841611291136
-1.8742022675074053   -0.16047676094553875   -0.039887841611291136
-1.8742022675074053   -0.16047676094553875   -0.039887841611291136
-1.9690024488181384   -0.3376064508604234   -0.033964036344880745
-1.9690024488181384   -0.3376064508604234   -0.033964036344880745
-1.9690024488181384   -0.3376064508604234   -0.033964036344880745
-1.9690024488181384   -0.3376064508604234   -0.033964036344880745
-0.928826802221872   0.022481872179038326   0.012794368877678569
-0.928826802221872   0.022481872179038326   0.012794368877678569
-0.928826802221872   0.022481872179038326   0.012794368877678569
-0.928826802221872   0.022481872179038326   0.012794368877678569
-1.40778526769375   -0.13384761643461107   -0.030950699751220945
-1.40778526769375   -0.13384761643461107   -0.030950699751220945
-1.40778526769375   -0.13384761643461107   -0.030950699751220945
-1.40778526769375   -0.13384761643461107   -0.030950699751220945
-1.702449523805351   0.08064368656724363   0.058110943819937255
-1.702449523805351   0.08064368656724363   0.058110943819937255
-1.702449523805351   0.08064368656724363   0.058110943819937255
-1.702449523805351   0.08064368656724363   0.058110943819937255
-2.6399274751484882   -0.131553053643167   -0.03565594448136496
-2.6399274751484882   -0.131553053643167   -0.03565594448136496
-2.6399274751484882   -0.131553053643167   -0.03565594448136496
-2.6399274751484882   -0.131553053643167   -0.03565594448136496
-2.7051573021673057   -0.13394449315849632   0.059703095732199174
-2.7051573021673057   -0.13394449315849632   0.059703095732199174
-2.7051573021673057   -0.13394449315849632   0.059703095732199174
-2.7051573021673057   -0.13394449315849632   0.059703095732199174
-1.7688398441577404   0.05463509834202046   -0.014319572012563661
-1.7688398441577404   0.05463509834202046   -0.014319572012563661
-1.7688398441577404   0.05463509834202046   -0.014319572012563661
-1.7688398441577404   0.05463509834202046   -0.014319572012563661
-2.101390269794993   0.0016613695104972792   0.05329909963262679
-2.101390269794993   0.0016613695104972792   0.05329909963262679
-2.101390269794993   0.0016613695104972792   0.05329909963262679
-2.101390269794993   0.0016613695104972792   0.05329909963262679
-1.7502871810851246   0.05975390020832788   0.07332494148420042
-1.7502871810851246   0.05975390020832788   0.07332494148420042
-1.7502871810851246   0.05975390020832788   0.07332494148420042
-1.7502871810851246   0.05975390020832788   0.07332494148420042
-2.722498232278088   -0.13785156206298183   -0.02309448591722761
-2.722498232278088   -0.13785156206298183   -0.02309448591722761
-2.722498232278088   -0.13785156206298183   -0.02309448591722761
-2.722498232278088   -0.13785156206298183   -0.02309448591722761
-2.787534954006724   -0.1562950424723477   0.08117679405375683
-2.787534954006724   -0.1562950424723477   0.08117679405375683
-2.787534954006724   -0.1562950424723477   0.08117679405375683
-2.787534954006724   -0.1562950424723477   0.08117679405375683
-1.8292306693765192   0.03945339728485314   -0.01496000918726599
-1.8292306693765192   0.03945339728485314   -0.01496000918726599
-1.8292306693765192   0.03945339728485314   -0.01496000918726599
-1.8292306693765192   0.03945339728485314   -0.01496000918726599
-2.207512661173973   -0.02451348323919067   0.0290207701381959
-2.207512661173973   -0.02451348323919067   0.0290207701381959
-2.207512661173973   -0.02451348323919067   0.0290207701381959
-2.207512661173973   -0.02451348323919067   0.0290207701381959
-1.8122730707986305   0.036981876296604765   0.07229950469042573
-1.8122730707986305   0.036981876296604765   0.07229950469042573
-1.8122730707986305   0.036981876296604765   0.07229950469042573
-1.8122730707986305   0.036981876296604765   0.07229950469042573
-2.807685759448466   -0.15701672834796326   -0.018855547279339344
-2.807685759448466   -0.15701672834796326   -0.018855547279339344
-2.807685759448466   -0.15701672834796326   -0.018855547279339344
-2.807685759448466   -0.15701672834796326   -0.018855547279339344
-2.904606280848631   -0.2463589115664937   0.0705792776883665
-2.904606280848631   -0.2463589115664937   0.0705792776883665
-2.904606280848631   -0.2463589115664937   0.0705792776883665
-2.904606280848631   -0.2463589115664937   0.0705792776883665
-1.898856534785342   -0.006764645136321912   -0.014076271905035964
-1.898856534785342   -0.006764645136321912   -0.014076271905035964
-1.898856534785342   -0.006764645136321912   -0.014076271905035964
-1.898856534785342   -0.006764645136321912   -0.014076271905035964
-2.2529323575013374   -0.057430566747863565   0.007605641816057204
-2.2529323575013374   -0.057430566747863565   0.007605641816057204
-2.2529323575013374   -0.057430566747863565   0.007605641816057204
-2.2529323575013374   -0.057430566747863565   0.007605641816057204
1.742650137749378   0.09308854982824288   -0.062351896986683336
1.742650137749378   0.09308854982824288   -0.062351896986683336
1.742650137749378   0.09308854982824288   -0.062351896986683336
1.742650137749378   0.09308854982824288   -0.062351896986683336
0.864270395347059   -0.0006381045899592486   0.022656201568938196
0.864270395347059   -0.0006381045899592486   0.022656201568938196
0.864270395347059   -0.0006381045899592486   0.022656201568938196
0.864270395347059   -0.0006381045899592486   0.022656201568938196
0.7896633444943097   -0.1289161048581479   -0.05714744332536864
0.7896633444943097   -0.1289161048581479   -0.05714744332536864
0.7896633444943097   -0.1289161048581479   -0.05714744332536864
0.7896633444943097   -0.1289161048581479   -0.05714744332536864
1.7097097504516723   0.14102989150090997   0.028405718212994542
1.7097097504516723   0.14102989150090997   0.028405718212994542
1.7097097504516723   0.14102989150090997   0.028405718212994542
1.7097097504516723   0.14102989150090997   0.028405718212994542
1.2105762803685707   0.010704180478285696   -0.03983423956314777
1.2105762803685707   0.010704180478285696   -0.03983423956314777
1.2105762803685707   0.010704180478285696   -0.03983423956314777
1.2105762803685707   0.010704180478285696   -0.03983423956314777
1.6732596422237789   0.047224714223081554   -0.060039645648629014
1.6732596422237789   0.047224714223081554   -0.060039645648629014
1.6732596422237789   0.047224714223081554   -0.060039645648629014
1.6732596422237789   0.047224714223081554   -0.060039645648629014
0.8245464581556189   -0.036677922146914094   0.02502994226992781
0.8245464581556189   -0.036677922146914094   0.02502994226992781
0.8245464581556189   -0.036677922146914094   0.02502994226992781
0.8245464581556189   -0.036677922146914094   0.02502994226992781
0.752345812414295   -0.13971535936038457   -0.049661516803062605
0.752345812414295   -0.13971535936038457   -0.049661516803062605
0.752345812414295   -0.13971535936038457   -0.049661516803062605
0.752345812414295   -0.13971535936038457   -0.049661516803062605
1.6538840664063357   0.12619808179871334   0.038805162464858406
1.6538840664063357   0.12619808179871334   0.038805162464858406
1.6538840664063357   0.12619808179871334   0.038805162464858406
1.6538840664063357   0.12619808179871334   0.038805162464858406
1.181294442891583   -0.008734000444687084   -0.05239883346298578
1.181294442891583   -0.008734000444687084   -0.05239883346298578
1.181294442891583   -0.008734000444687084   -0.05239883346298578
1.181294442891583   -0.008734000444687084   -0.05239883346298578
1.6182176993716322   0.03393800267477004   -0.04726659358468814
1.6182176993716322   0.03393800267477004   -0.04726659358468814
1.6182176993716322   0.03393800267477004   -0.04726659358468814
1.6182176993716322   0.03393800267477004   -0.04726659358468814
0.786610468270922   -0.048856991414503975   0.03080339453418582
0.786610468270922   -0.048856991414503975   0.03080339453418582
0.786610468270922   -0.048856991414503975   0.03080339453418582
0.786610468270922   -0.048856991414503975   0.03080339453418582
0.7182600318828017   -0.1429846537514901   -0.040567092752704176
0.7182600318828017   -0.1429846537514901   -0.040567092752704176
0.7182600318828017   -0.1429846537514901   -0.040567092752704176
0.7182600318828017   -0.1429846537514901   -0.040567092752704176
1.5909492285898672   0.11314365864265793   0.048260973952143855
1.5909492285898672   0.11314365864265793   0.048260973952143855
1.5909492285898672   0.11314365864265793   0.048260973952143855
1.5909492285898672   0.11314365864265793   0.048260973952143855
1.1133128639012517   -0.0221418953413125   -0.07119980836091282
1.1133128639012517   -0.0221418953413125   -0.07119980836091282
1.1133128639012517   -0.0221418953413125   -0.07119980836091282
1.1133128639012517   -0.0221418953413125   -0.07119980836091282
0.8789966924009884   0.09095594585085795   0.004693636397768229
0.8789966924009884   0.09095594585085795   0.004693636397768229
0.8789966924009884   0.09095594585085795   0.004693636397768229
0.8789966924009884   0.09095594585085795   0.004693636397768229
0.0305896537519322   -0.02862233944756396   -0.0035201824871543405
0.0305896537519322   -0.02862233944756396   -0.0035201824871543405
0.0305896537519322   -0.02862233944756396   -0.0035201824871543405
0.0305896537519322   -0.02862233944756396   -0.0035201824871543405
-0.025642986748415447   -0.11612668726258092   -0.038850129329740676
-0.025642986748415447   -0.11612668726258092   -0.038850129329740676
-0.025642986748415447   -0.11612668726258092   -0.038850129329740676
-0.025642986748415447   -0.11612668726258092   -0.038850129329740676
0.8619806246430642   0.1276641535117577   0.04785869904848264
0.8619806246430642   0.1276641535117577   0.04785869904848264
0.8619806246430642   0.1276641535117577   0.04785869904848264
0.8619806246430642   0.1276641535117577   0.04785869904848264
0.4296828534955019   0.01818180403262891   -0.00494488974251784
0.4296828534955019   0.01818180403262891   -0.00494488974251784
0.4296828534955019   0.01818180403262891   -0.00494488974251784
0.4296828534955019   0.01818180403262891   -0.00494488974251784
0.8422468180731268   0.06716005292481203   0.009693766785743095
0.8422468180731268   0.06716005292481203   0.009693766785743095
0.8422468180731268   0.06716005292481203   0.009693766785743095
0.8422468180731268   0.06716005292481203   0.009693766785743095
-0.005560743662507391   -0.055274150159674525   0.0007085489968932171
-0.005560743662507391   -0.055274150159674525   0.0007085489968932171
-0.005560743662507391   -0.055274150159674525   0.0007085489968932171
-0.005560743662507391   -0.055274150159674525   0.0007085489968932171
-0.06099452437694757   -0.13359348464420837   -0.03356980808805954
-0.06099452437694757   -0.13359348464420837   -0.03356980808805954
-0.06099452437694757   -0.13359348464420837   -0.03356980808805954
-0.06099452437694757   -0.13359348464420837   -0.03356980808805954
0.8219362155652329   0.10560971784166935   0.052965421749567296
0.8219362155652329   0.10560971784166935   0.052965421749567296
0.8219362155652329   0.10560971784166935   0.052965421749567296
0.8219362155652329   0.10560971784166935   0.052965421749567296
0.38652692596829863   -0.0035431392486246216   -0.01729387817545497
0.38652692596829863   -0.0035431392486246216   -0.01729387817545497
0.38652692596829863   -0.0035431392486246216   -0.01729387817545497
0.38652692596829863   -0.0035431392486246216   -0.01729387817545497
0.8029394344604902   0.048854596295330815   0.01473663777219849
0.8029394344604902   0.048854596295330815   0.01473663777219849
0.8029394344604902   0.048854596295330815   0.01473663777219849
0.8029394344604902   0.048854596295330815   0.01473663777219849
-0.0419629816797238   -0.07680360150538773   0.004798022259238692
-0.0419629816797238   -0.07680360150538773   0.004798022259238692
-0.0419629816797238   -0.07680360150538773   0.004798022259238692
-0.0419629816797238   -0.07680360150538773   0.004798022259238692
-0.09599182112731001   -0.14413974069572427   -0.026680492337858627
-0.09599182112731001   -0.14413974069572427   -0.026680492337858627
-0.09599182112731001   -0.14413974069572427   -0.026680492337858627
-0.09599182112731001   -0.14413974069572427   -0.026680492337858627
0.7838512607358955   0.0869845387093202   0.05741985905194538
0.7838512607358955   0.0869845387093202   0.05741985905194538
0.7838512607358955   0.0869845387093202   0.05741985905194538
0.7838512607358955   0.0869845387093202   0.05741985905194538
0.3545762955351779   -0.01747443476533289   -0.026407692498952955
0.3545762955351779   -0.01747443476533289   -0.026407692498952955
0.3545762955351779   -0.01747443476533289   -0.026407692498952955
0.3545762955351779   -0.01747443476533289   -0.026407692498952955
0.059362459217781036   0.0919543400654259   0.01976716532909998
0.059362459217781036   0.0919543400654259   0.01976716532909998
0.059362459217781036   0.0919543400654259   0.01976716532909998
0.059362459217781036   0.0919543400654259   0.01976716532909998
-0.7771550847997574   -0.05018937812334942   -0.02675390867750338
-0.7771550847997574   -0.05018937812334942   -0.02675390867750338
-0.7771550847997574   -0.05018937812334942   -0.02675390867750338
-0.7771550847997574   -0.05018937812334942   -0.02675390867750338
-0.8210280566162174   -0.10635262296738072   -0.02453906134147465
-0.8210280566162174   -0.10635262296738072   -0.02453906134147465
-0.8210280566162174   -0.10635262296738072   -0.02453906134147465
-0.8210280566162174   -0.10635262296738072   -0.02453906134147465
0.030891749644840264   0.10452680066084774   0.02317006471310923
0.030891749644840264   0.10452680066084774   0.02317006471310923
0.030891749644840264   0.10452680066084774   0.02317006471310923
0.030891749644840264   0.10452680066084774   0.02317006471310923
-0.37651167544188197   0.01176871492693811   0.0014163169345008837
-0.37651167544188197   0.01176871492693811   0.0014163169345008837
-0.37651167544188197   0.01176871492693811   0.0014163169345008837
-0.37651167544188197   0.01176871492693811   0.0014163169345008837
0.024866139061256887   0.07270649243968089   0.024862320016359206
0.024866139061256887   0.07270649243968089   0.024862320016359206
0.024866139061256887   0.07270649243968089   0.024862320016359206
0.024866139061256887   0.07270649243968089   0.024862320016359206
-0.8140394543252253   -0.07356932303880516   -0.02237934981508975
-0.8140394543252253   -0.07356932303880516   -0.02237934981508975
-0.8140394543252253   -0.07356932303880516   -0.02237934981508975
-0.8140394543252253   -0.07356932303880516   -0.02237934981508975
-0.8589685462542891   -0.12554760541359025   -0.02035428660382039
-0.8589685462542891   -0.12554760541359025   -0.02035428660382039
-0.8589685462542891   -0.12554760541359025   -0.02035428660382039
-0.8589685462542891   -0.12554760541359025   -0.02035428660382039
-0.005568496990904219   0.08183751319566324   0.02812933100228179
-0.005568496990904219   0.08183751319566324   0.02812933100228179
-0.005568496990904219   0.08183751319566324   0.02812933100228179
-0.005568496990904219   0.08183751319566324   0.02812933100228179
-0.4128586655465777   -0.007000970331828157   -0.0078736330648564
-0.4128586655465777   -0.007000970331828157   -0.0078736330648564
-0.4128586655465777   -0.007000970331828157   -0.0078736330648564
-0.4128586655465777   -0.007000970331828157   -0.0078736330648564
-0.010717967260332252   0.05418105523010577   0.030038437620702935
-0.010717967260332252   0.05418105523010577   0.030038437620702935
-0.010717967260332252   0.05418105523010577   0.030038437620702935
-0.010717967260332252   0.05418105523010577   0.030038437620702935
-0.8529899972634574   -0.0970620687266272   -0.01894707833661733
-0.8529899972634574   -0.0970620687266272   -0.01894707833661733
-0.8529899972634574   -0.0970620687266272   -0.01894707833661733
-0.8529899972634574   -0.0970620687266272   -0.01894707833661733
-0.896655849722728   -0.14066110729302564   -0.013400036516905446
-0.896655849722728   -0.14066110729302564   -0.013400036516905446
-0.896655849722728   -0.14066110729302564   -0.013400036516905446
-0.896655849722728   -0.14066110729302564   -0.013400036516905446
-0.043339853578355333   0.060463530442170337   0.031976074269024
-0.043339853578355333   0.060463530442170337   0.031976074269024
-0.043339853578355333   0.060463530442170337   0.031976074269024
-0.043339853578355333   0.060463530442170337   0.031976074269024
-0.4519662069787904   -0.02609098994019951   -0.018020803574441437
-0.4519662069787904   -0.02609098994019951   -0.018020803574441437
-0.4519662069787904   -0.02609098994019951   -0.018020803574441437
-0.4519662069787904   -0.02609098994019951   -0.018020803574441437
-0.7327732709598113   0.10881946834634137   0.03614631405255174
-0.7327732709598113   0.10881946834634137   0.03614631405255174
-0.7327732709598113   0.10881946834634137   0.03614631405255174
-0.7327732709598113   0.10881946834634137   0.03614631405255174
-1.5578472688438991   -0.06906130359253027   -0.04387164934770921
-1.5578472688438991   -0.06906130359253027   -0.04387164934770921
-1.5578472688438991   -0.06906130359253027   -0.04387164934770921
-1.5578472688438991   -0.06906130359253027   -0.04387164934770921
-1.5920618230157486   -0.08505745808132176   -0.0069024790688337195
-1.5920618230157486   -0.08505745808132176   -0.0069024790688337195
-1.5920618230157486   -0.08505745808132176   -0.0069024790688337195
-1.5920618230157486   -0.08505745808132176   -0.0069024790688337195
-0.7793139975281812   0.0790220222748782   -0.0013434111435418616
-0.7793139975281812   0.0790220222748782   -0.0013434111435418616
-0.7793139975281812   0.0790220222748782   -0.0013434111435418616
-0.7793139975281812   0.0790220222748782   -0.0013434111435418616
-1.1570842228085585   0.012027520179919315   0.008420034214194377
-1.1570842228085585   0.012027520179919315   0.008420034214194377
-1.1570842228085585   0.012027520179919315   0.008420034214194377
-1.1570842228085585   0.012027520179919315   0.008420034214194377
-0.7689207035979013   0.08906689814380139   0.040578182638934715
-0.7689207035979013   0.08906689814380139   0.040578182638934715
-0.7689207035979013   0.08906689814380139   0.040578182638934715
-0.7689207035979013   0.08906689814380139   0.040578182638934715
-1.6011413433076218   -0.0937885603118403   -0.04356897829769377
-1.6011413433076218   -0.0937885603118403   -0.04356897829769377
-1.6011413433076218   -0.0937885603118403   -0.04356897829769377
-1.6011413433076218   -0.0937885603118403   -0.04356897829769377
-1.6387905123656448   -0.10663476358681329   -0.006089609959424397
-1.6387905123656448   -0.10663476358681329   -0.006089609959424397
-1.6387905123656448   -0.10663476358681329   -0.006089609959424397
-1.6387905123656448   -0.10663476358681329   -0.006089609959424397
-0.817698813893477   0.057370105756363754   0.003076664030293691
-0.817698813893477   0.057370105756363754   0.003076664030293691
-0.817698813893477   0.057370105756363754   0.003076664030293691
-0.817698813893477   0.057370105756363754   0.003076664030293691
-1.1898373600998833   -0.0051635146010814426   0.0007959923488572163
-1.1898373600998833   -0.0051635146010814426   0.0007959923488572163
-1.1898373600998833   -0.0051635146010814426   0.0007959923488572163
-1.1898373600998833   -0.0051635146010814426   0.0007959923488572163
-0.8063189043441078   0.07045561959673302   0.04689069793677034
-0.8063189043441078   0.07045561959673302   0.04689069793677034
-0.8063189043441078   0.07045561959673302   0.04689069793677034
-0.8063189043441078   0.07045561959673302   0.04689069793677034
-1.647509986711141   -0.11705984222331278   -0.03926190305042512
-1.647509986711141   -0.11705984222331278   -0.03926190305042512
-1.647509986711141   -0.11705984222331278   -0.03926190305042512
-1.647509986711141   -0.11705984222331278   -0.03926190305042512
-1.6818243601694831   -0.12972905705932467   0.004737280633536102
-1.6818243601694831   -0.12972905705932467   0.004737280633536102
-1.6818243601694831   -0.12972905705932467   0.004737280633536102
-1.6818243601694831   -0.12972905705932467   0.004737280633536102
-0.8583760198485881   0.0316248955575848   0.005713110003198907
-0.8583760198485881   0.0316248955575848   0.005713110003198907
-0.8583760198485881   0.0316248955575848   0.005713110003198907
-0.8583760198485881   0.0316248955575848   0.005713110003198907
-1.2408624846064804   -0.02924159684959618   -0.009435865635201456
-1.2408624846064804   -0.02924159684959618   -0.009435865635201456
-1.2408624846064804   -0.02924159684959618   -0.009435865635201456
-1.2408624846064804   -0.02924159684959618   -0.009435865635201456
-1.5024882515527813   0.1131986722294292   0.05066346128590914
-1.5024882515527813   0.1131986722294292   0.05066346128590914
-1.5024882515527813   0.1131986722294292   0.05066346128590914
-1.5024882515527813   0.1131986722294292   0.05066346128590914
-2.2993791255350446   -0.10632254495665444   -0.040568235223956625
-2.2993791255350446   -0.10632254495665444   -0.040568235223956625
-2.2993791255350446   -0.10632254495665444   -0.040568235223956625
-2.2993791255350446   -0.10632254495665444   -0.040568235223956625
-2.3311190041116427   -0.04632661162012469   0.04315103813061262
-2.3311190041116427   -0.04632661162012469   0.04315103813061262
-2.3311190041116427   -0.04632661162012469   0.04315103813061262
-2.3311190041116427   -0.04632661162012469   0.04315103813061262
-1.5688070453060428   0.04713774610000415   -0.022823794701630276
-1.5688070453060428   0.04713774610000415   -0.022823794701630276
-1.5688070453060428   0.04713774610000415   -0.022823794701630276
-1.5688070453060428   0.04713774610000415   -0.022823794701630276
-1.8403919043690606   0.02362936553517364   0.04221278754354656
-1.8403919043690606   0.02362936553517364   0.04221278754354656
-1.8403919043690606   0.02362936553517364   0.04221278754354656
-1.8403919043690606   0.02362936553517364   0.04221278754354656
-1.5390046987599193   0.115109315541577   0.05821636858739794
-1.5390046987599193   0.115109315541577   0.05821636858739794
-1.5390046987599193   0.115109315541577   0.05821636858739794
-1.5390046987599193   0.115109315541577   0.05821636858739794
-2.3591614907029   -0.11253832110682743   -0.030849685338931357
-2.3591614907029   -0.11253832110682743   -0.030849685338931357
-2.3591614907029   -0.11253832110682743   -0.030849685338931357
-2.3591614907029   -0.11253832110682743   -0.030849685338931357
-2.3891499810939454   -0.05761392486952038   0.059622691758292476
-2.3891499810939454   -0.05761392486952038   0.059622691758292476
-2.3891499810939454   -0.05761392486952038   0.059622691758292476
-2.3891499810939454   -0.05761392486952038   0.059622691758292476
-1.6133708220090852   0.034692700176814195   -0.020318621940255563
-1.6133708220090852   0.034692700176814195   -0.020318621940255563
-1.6133708220090852   0.034692700176814195   -0.020318621940255563
-1.6133708220090852   0.034692700176814195   -0.020318621940255563
-1.920067686102191   0.011642214331321121   0.027047948874918834
-1.920067686102191   0.011642214331321121   0.027047948874918834
-1.920067686102191   0.011642214331321121   0.027047948874918834
-1.920067686102191   0.011642214331321121   0.027047948874918834
-1.5804564037635225   0.10665790511481699   0.07228826434955658
-1.5804564037635225   0.10665790511481699   0.07228826434955658
-1.5804564037635225   0.10665790511481699   0.07228826434955658
-1.5804564037635225   0.10665790511481699   0.07228826434955658
-2.420367655224943   -0.1278823856929519   -0.026197218073228043
-2.420367655224943   -0.1278823856929519   -0.026197218073228043
-2.420367655224943   -0.1278823856929519   -0.026197218073228043
-2.420367655224943   -0.1278823856929519   -0.026197218073228043
-2.4678539946342584   -0.10588130464006962   0.05933789042508028
-2.4678539946342584   -0.10588130464006962   0.05933789042508028
-2.4678539946342584   -0.10588130464006962   0.05933789042508028
-2.4678539946342584   -0.10588130464006962   0.05933789042508028
-1.6611439971649875   -0.002511020588983337   -0.019078940814327427
-1.6611439971649875   -0.002511020588983337   -0.019078940814327427
-1.6611439971649875   -0.002511020588983337   -0.019078940814327427
-1.6611439971649875   -0.002511020588983337   -0.019078940814327427
-1.9434793663908814   -0.005560870306465238   0.021979135295854296
-1.9434793663908814   -0.005560870306465238   0.021979135295854296
-1.9434793663908814   -0.005560870306465238   0.021979135295854296
-1.9434793663908814   -0.005560870306465238   0.021979135295854296
1.319329941628286   0.07319512498138095   -0.06323719685558779
1.319329941628286   0.07319512498138095   -0.06323719685558779
1.319329941628286   0.07319512498138095   -0.06323719685558779
1.319329941628286   0.07319512498138095   -0.06323719685558779
0.6276516621911262   0.012825366047983955   0.024166873531116323
0.6276516621911262   0.012825366047983955   0.024166873531116323
0.6276516621911262   0.012825366047983955   0.024166873531116323
0.6276516621911262   0.012825366047983955   0.024166873531116323
0.5573668894636415   -0.10712416674713106   -0.06002171203917966
0.5573668894636415   -0.10712416674713106   -0.06002171203917966
0.5573668894636415   -0.10712416674713106   -0.06002171203917966
0.5573668894636415   -0.10712416674713106   -0.06002171203917966
1.290605628866593   0.12139376808344024   0.029875533277117332
1.290605628866593   0.12139376808344024   0.029875533277117332
1.290605628866593   0.12139376808344024   0.029875533277117332
1.290605628866593   0.12139376808344024   0.029875533277117332
0.8997404123076617   0.012177443243845565   -0.02659938454295907
0.8997404123076617   0.012177443243845565   -0.02659938454295907
0.8997404123076617   0.012177443243845565   -0.02659938454295907
0.8997404123076617   0.012177443243845565   -0.02659938454295907
1.254889612491601   0.032435470136190414   -0.05974625065059316
1.254889612491601   0.032435470136190414   -0.05974625065059316
1.254889612491601   0.032435470136190414   -0.05974625065059316
1.254889612491601   0.032435470136190414   -0.05974625065059316
0.5923772764323463   -0.01887149820615938   0.026777554263366164
0.5923772764323463   -0.01887149820615938   0.026777554263366164
0.5923772764323463   -0.01887149820615938   0.026777554263366164
0.5923772764323463   -0.01887149820615938   0.026777554263366164
0.5245207626249765   -0.1176703478457354   -0.05117368197596455
0.5245207626249765   -0.1176703478457354   -0.05117368197596455
0.5245207626249765   -0.1176703478457354   -0.05117368197596455
0.5245207626249765   -0.1176703478457354   -0.05117368197596455
1.2395363067876999   0.10632844755842893   0.03926330267803354
1.2395363067876999   0.10632844755842893   0.03926330267803354
1.2395363067876999   0.10632844755842893   0.03926330267803354
1.2395363067876999   0.10632844755842893   0.03926330267803354
0.8702605076216372   -0.00608848912087448   -0.037418684884433
0.8702605076216372   -0.00608848912087448   -0.037418684884433
0.8702605076216372   -0.00608848912087448   -0.037418684884433
0.8702605076216372   -0.00608848912087448   -0.037418684884433
1.204659572081038   0.01902813815109544   -0.0478200614479333
1.204659572081038   0.01902813815109544   -0.0478200614479333
1.204659572081038   0.01902813815109544   -0.0478200614479333
1.204659572081038   0.01902813815109544   -0.0478200614479333
0.5585111697580585   -0.03125636601197093   0.03236437185567575
0.5585111697580585   -0.03125636601197093   0.03236437185567575
0.5585111697580585   -0.03125636601197093   0.03236437185567575
0.5585111697580585   -0.03125636601197093   0.03236437185567575
0.4949074784425237   -0.12423963250724804   -0.04261373165004264
0.4949074784425237   -0.12423963250724804   -0.04261373165004264
0.4949074784425237   -0.12423963250724804   -0.04261373165004264
0.4949074784425237   -0.12423963250724804   -0.04261373165004264
1.1819566822705112   0.08996487433284137   0.04661770205073524
1.1819566822705112   0.08996487433284137   0.04661770205073524
1.1819566822705112   0.08996487433284137   0.04661770205073524
1.1819566822705112   0.08996487433284137   0.04661770205073524
0.8122237323406883   -0.019916812914494736   -0.0533870943317952
0.8122237323406883   -0.019916812914494736   -0.0533870943317952
0.8122237323406883   -0.019916812914494736   -0.0533870943317952
0.8122237323406883   -0.019916812914494736   -0.0533870943317952
0.6380295463383967   0.09278833969188724   -0.0039066793764241815
0.6380295463383967   0.09278833969188724   -0.0039066793764241815
0.6380295463383967   0.09278833969188724   -0.0039066793764241815
0.6380295463383967   0.09278833969188724   -0.0039066793764241815
-0.04142561327308149   -0.008878986786742675   -0.0002586019188895949
-0.04142561327308149   -0.008878986786742675   -0.0002586019188895949
-0.04142561327308149   -0.008878986786742675   -0.0002586019188895949
-0.04142561327308149   -0.008878986786742675   -0.0002586019188895949
-0.09093592840370635   -0.08011569074275718   -0.038123969177321075
-0.09093592840370635   -0.08011569074275718   -0.038123969177321075
-0.09093592840370635   -0.08011569074275718   -0.038123969177321075
-0.09093592840370635   -0.08011569074275718   -0.038123969177321075
0.6213371424872323   0.11030540829241325   0.042399978039223386
0.6213371424872323   0.11030540829241325   0.042399978039223386
0.6213371424872323   0.11030540829241325   0.042399978039223386
0.6213371424872323   0.11030540829241325   0.042399978039223386
0.2774131325945157   0.02725055856793971   0.001960237252931091
0.2774131325945157   0.02725055856793971   0.001960237252931091
0.2774131325945157   0.02725055856793971   0.001960237252931091
0.2774131325945157   0.02725055856793971   0.001960237252931091
0.6045379957570133   0.0669548487174676   0.0017548039630830292
0.6045379957570133   0.0669548487174676   0.0017548039630830292
0.6045379957570133   0.0669548487174676   0.0017548039630830292
0.6045379957570133   0.0669548487174676   0.0017548039630830292
-0.07384786870701562   -0.03647621820133826   0.0036768567647136336
-0.07384786870701562   -0.03647621820133826   0.0036768567647136336
-0.07384786870701562   -0.03647621820133826   0.0036768567647136336
-0.07384786870701562   -0.03647621820133826   0.0036768567647136336
-0.12187688161031454   -0.10004787047447945   -0.0315094226556292
-0.12187688161031454   -0.10004787047447945   -0.0315094226556292
-0.12187688161031454   -0.10004787047447945   -0.0315094226556292
-0.12187688161031454   -0.10004787047447945   -0.0315094226556292
0.5848662961945705   0.08652831680768514   0.04635532121857992
0.5848662961945705   0.08652831680768514   0.04635532121857992
0.5848662961945705   0.08652831680768514   0.04635532121857992
0.5848662961945705   0.08652831680768514   0.04635532121857992
0.23930372715363005   0.0037466713856792525   -0.009842377932045468
0.23930372715363005   0.0037466713856792525   -0.009842377932045468
0.23930372715363005   0.0037466713856792525   -0.009842377932045468
0.23930372715363005   0.0037466713856792525   -0.009842377932045468
0.5686223233052404   0.04557217479639089   0.006091598783228867
0.5686223233052404   0.04557217479639089   0.006091598783228867
0.5686223233052404   0.04557217479639089   0.006091598783228867
0.5686223233052404   0.04557217479639089   0.006091598783228867
-0.10586647357934244   -0.05932529332155254   0.00782004034630443
-0.10586647357934244   -0.05932529332155254   0.00782004034630443
-0.10586647357934244   -0.05932529332155254   0.00782004034630443
-0.10586647357934244   -0.05932529332155254   0.00782004034630443
-0.1524165117827742   -0.11681185447589751   -0.02529433435547335
-0.1524165117827742   -0.11681185447589751   -0.02529433435547335
-0.1524165117827742   -0.11681185447589751   -0.02529433435547335
-0.1524165117827742   -0.11681185447589751   -0.02529433435547335
0.5511937870650846   0.06452167536336387   0.05005650359214794
0.5511937870650846   0.06452167536336387   0.05005650359214794
0.5511937870650846   0.06452167536336387   0.05005650359214794
0.5511937870650846   0.06452167536336387   0.05005650359214794
0.2100391276099428   -0.014097805063899682   -0.019684609875734886
0.2100391276099428   -0.014097805063899682   -0.019684609875734886
0.2100391276099428   -0.014097805063899682   -0.019684609875734886
0.2100391276099428   -0.014097805063899682   -0.019684609875734886
-0.014364890806596052   0.1107938726134521   0.015372151013342836
-0.014364890806596052   0.1107938726134521   0.015372151013342836
-0.014364890806596052   0.1107938726134521   0.015372151013342836
-0.014364890806596052   0.1107938726134521   0.015372151013342836
-0.6962379998126487   -0.030059498077091462   -0.02309516639305121
-0.6962379998126487   -0.030059498077091462   -0.02309516639305121
-0.6962379998126487   -0.030059498077091462   -0.02309516639305121
-0.6962379998126487   -0.030059498077091462   -0.02309516639305121
-0.7281497342194471   -0.05551927254373511   -0.01801881744551768
-0.7281497342194471   -0.05551927254373511   -0.01801881744551768
-0.7281497342194471   -0.05551927254373511   -0.01801881744551768
-0.7281497342194471   -0.05551927254373511   -0.01801881744551768
-0.04577734921153491   0.0890886564916759   0.018464579549103053
-0.04577734921153491   0.0890886564916759   0.018464579549103053
-0.04577734921153491   0.0890886564916759   0.018464579549103053
-0.04577734921153491   0.0890886564916759   0.018464579549103053
-0.3702540243678794   0.028772967165633045   0.007265722275849314
-0.3702540243678794   0.028772967165633045   0.007265722275849314
-0.3702540243678794   0.028772967165633045   0.007265722275849314
-0.3702540243678794   0.028772967165633045   0.007265722275849314
-0.04515611670227434   0.08901257847183922   0.021646820115242577
-0.04515611670227434   0.08901257847183922   0.021646820115242577
-0.04515611670227434   0.08901257847183922   0.021646820115242577
-0.04515611670227434   0.08901257847183922   0.021646820115242577
-0.728172410752929   -0.0548446385481301   -0.018806834108532774
-0.728172410752929   -0.0548446385481301   -0.018806834108532774
-0.728172410752929   -0.0548446385481301   -0.018806834108532774
-0.728172410752929   -0.0548446385481301   -0.018806834108532774
-0.7598416102688014   -0.07709183222873056   -0.012244282841790056
-0.7598416102688014   -0.07709183222873056   -0.012244282841790056
-0.7598416102688014   -0.07709183222873056   -0.012244282841790056
-0.7598416102688014   -0.07709183222873056   -0.012244282841790056
-0.07803325517350108   0.06460484661856516   0.023055992435397226
-0.07803325517350108   0.06460484661856516   0.023055992435397226
-0.07803325517350108   0.06460484661856516   0.023055992435397226
-0.07803325517350108   0.06460484661856516   0.023055992435397226
-0.4022719884552749   0.007500700418164266   -0.0023149231347156414
-0.4022719884552749   0.007500700418164266   -0.0023149231347156414
-0.4022719884552749   0.007500700418164266   -0.0023149231347156414
-0.4022719884552749   0.007500700418164266   -0.0023149231347156414
-0.07677361295764598   0.06730202819042176   0.02665702194281615
-0.07677361295764598   0.06730202819042176   0.02665702194281615
-0.07677361295764598   0.06730202819042176   0.02665702194281615
-0.07677361295764598   0.06730202819042176   0.02665702194281615
-0.7609237106428342   -0.07961147195876489   -0.01513514498191991
-0.7609237106428342   -0.07961147195876489   -0.01513514498191991
-0.7609237106428342   -0.07961147195876489   -0.01513514498191991
-0.7609237106428342   -0.07961147195876489   -0.01513514498191991
-0.7911637140261244   -0.09680243551036816   -0.00652989504589932
-0.7911637140261244   -0.09680243551036816   -0.00652989504589932
-0.7911637140261244   -0.09680243551036816   -0.00652989504589932
-0.7911637140261244   -0.09680243551036816   -0.00652989504589932
-0.1104183973922034   0.040924724061200166   0.02695965906028316
-0.1104183973922034   0.040924724061200166   0.02695965906028316
-0.1104183973922034   0.040924724061200166   0.02695965906028316
-0.1104183973922034   0.040924724061200166   0.02695965906028316
-0.4357541372110112   -0.013952254751762441   -0.01298236860456816
-0.4357541372110112   -0.013952254751762441   -0.01298236860456816
-0.4357541372110112   -0.013952254751762441   -0.01298236860456816
-0.4357541372110112   -0.013952254751762441   -0.01298236860456816
-0.6534530010337724   0.12728828810322643   0.03348204132100879
-0.6534530010337724   0.12728828810322643   0.03348204132100879
-0.6534530010337724   0.12728828810322643   0.03348204132100879
-0.6534530010337724   0.12728828810322643   0.03348204132100879
-1.3359067173363381   -0.051684309808814444   -0.04166778343899896
-1.3359067173363381   -0.051684309808814444   -0.04166778343899896
-1.3359067173363381   -0.051684309808814444   -0.04166778343899896
-1.3359067173363381   -0.051684309808814444   -0.04166778343899896
-1.353353523583035   -0.0347388839820732   0.003891583626555034
-1.353353523583035   -0.0347388839820732   0.003891583626555034
-1.353353523583035   -0.0347388839820732   0.003891583626555034
-1.353353523583035   -0.0347388839820732   0.003891583626555034
-0.7017295296988186   0.06395375447397014   -0.005390821860072871
-0.7017295296988186   0.06395375447397014   -0.005390821860072871
-0.7017295296988186   0.06395375447397014   -0.005390821860072871
-0.7017295296988186   0.06395375447397014   -0.005390821860072871
-1.004552289917041   0.027492787933501905   0.012316261968832731
-1.004552289917041   0.027492787933501905   0.012316261968832731
-1.004552289917041   0.027492787933501905   0.012316261968832731
-1.004552289917041   0.027492787933501905   0.012316261968832731
-0.6842979320053988   0.10619841818696096   0.039522502894028005
-0.6842979320053988   0.10619841818696096   0.039522502894028005
-0.6842979320053988   0.10619841818696096   0.039522502894028005
-0.6842979320053988   0.10619841818696096   0.039522502894028005
-1.3706196329743683   -0.0768180593929684   -0.04035978791921569
-1.3706196329743683   -0.0768180593929684   -0.04035978791921569
-1.3706196329743683   -0.0768180593929684   -0.04035978791921569
-1.3706196329743683   -0.0768180593929684   -0.04035978791921569
-1.3902550460477636   -0.05654507795544078   0.006056977625557763
-1.3902550460477636   -0.05654507795544078   0.006056977625557763
-1.3902550460477636   -0.05654507795544078   0.006056977625557763
-1.3902550460477636   -0.05654507795544078   0.006056977625557763
-0.7338627023552076   0.04127865768068481   -0.0007202331832251233
-0.7338627023552076   0.04127865768068481   -0.0007202331832251233
-0.7338627023552076   0.04127865768068481   -0.0007202331832251233
-0.7338627023552076   0.04127865768068481   -0.0007202331832251233
-1.0316550778044382   0.008502258661446938   0.0033954774806893018
-1.0316550778044382   0.008502258661446938   0.0033954774806893018
-1.0316550778044382   0.008502258661446938   0.0033954774806893018
-1.0316550778044382   0.008502258661446938   0.0033954774806893018
-0.7157054662301089   0.08618530292297302   0.04515930219997202
-0.7157054662301089   0.08618530292297302   0.04515930219997202
-0.7157054662301089   0.08618530292297302   0.04515930219997202
-0.7157054662301089   0.08618530292297302   0.04515930219997202
-1.4074762187446566   -0.1005156597695245   -0.03607830404482263
-1.4074762187446566   -0.1005156597695245   -0.03607830404482263
-1.4074762187446566   -0.1005156597695245   -0.03607830404482263
-1.4074762187446566   -0.1005156597695245   -0.03607830404482263
-1.4237344366341813   -0.08000872366484119   0.012903430676661942
-1.4237344366341813   -0.08000872366484119   0.012903430676661942
-1.4237344366341813   -0.08000872366484119   0.012903430676661942
-1.4237344366341813   -0.08000872366484119   0.012903430676661942
-0.7668947648629867   0.015349563911358194   0.002662851348074577
-0.7668947648629867   0.015349563911358194   0.002662851348074577
-0.7668947648629867   0.015349563911358194   0.002662851348074577
-0.7668947648629867   0.015349563911358194   0.002662851348074577
-1.0728672309606453   -0.015285364048586964   -0.007919563521791559
-1.0728672309606453   -0.015285364048586964   -0.007919563521791559
-1.0728672309606453   -0.015285364048586964   -0.007919563521791559
-1.0728672309606453   -0.015285364048586964   -0.007919563521791559
-1.2849356117812167   0.11415040978705099   0.04735302474074278
-1.2849356117812167   0.11415040978705099   0.04735302474074278
-1.2849356117812167   0.11415040978705099   0.04735302474074278
-1.2849356117812167   0.11415040978705099   0.04735302474074278
-1.9439027634369512   -0.08965086716578807   -0.0460007814687772
-1.9439027634369512   -0.08965086716578807   -0.0460007814687772
-1.9439027634369512   -0.08965086716578807   -0.0460007814687772
-1.9439027634369512   -0.08965086716578807   -0.0460007814687772
-1.9656353035632235   -0.0189313947695528   0.043658759207827094
-1.9656353035632235   -0.0189313947695528   0.043658759207827094
-1.9656353035632235   -0.0189313947695528   0.043658759207827094
-1.9656353035632235   -0.0189313947695528   0.043658759207827094
-1.346150178449185   0.03212419917794851   -0.026954773864215714
-1.346150178449185   0.03212419917794851   -0.026954773864215714
-1.346150178449185   0.03212419917794851   -0.026954773864215714
-1.346150178449185   0.03212419917794851   -0.026954773864215714
-1.562841815332652   0.02573108031285415   0.038227193080458785
-1.562841815332652   0.02573108031285415   0.038227193080458785
-1.562841815332652   0.02573108031285415   0.038227193080458785
-1.562841815332652   0.02573108031285415   0.038227193080458785
-1.3132931493111097   0.11391349870010403   0.05554107230399753
-1.3132931493111097   0.11391349870010403   0.05554107230399753
-1.3132931493111097   0.11391349870010403   0.05554107230399753
-1.3132931493111097   0.11391349870010403   0.05554107230399753
-1.9979338073230284   -0.10016216891343621   -0.036602985447296316
-1.9979338073230284   -0.10016216891343621   -0.036602985447296316
-1.9979338073230284   -0.10016216891343621   -0.036602985447296316
-1.9979338073230284   -0.10016216891343621   -0.036602985447296316
-2.0139337075440014   -0.03043275566592457   0.054616984381028064
-2.0139337075440014   -0.03043275566592457   0.054616984381028064
-2.0139337075440014   -0.03043275566592457   0.054616984381028064
-2.0139337075440014   -0.03043275566592457   0.054616984381028064
-1.3808394254764038   0.019691780889954713   -0.0231017783630382
-1.3808394254764038   0.019691780889954713   -0.0231017783630382
-1.3808394254764038   0.019691780889954713   -0.0231017783630382
-1.3808394254764038   0.019691780889954713   -0.0231017783630382
-1.6302023339771015   0.012887857653198498   0.02319179050052801
-1.6302023339771015   0.012887857653198498   0.02319179050052801
-1.6302023339771015   0.012887857653198498   0.02319179050052801
-1.6302023339771015   0.012887857653198498   0.02319179050052801
-1.3459852922844444   0.10533805350594688   0.0655226149807669
-1.3459852922844444   0.10533805350594688   0.0655226149807669
-1.3459852922844444   0.10533805350594688   0.0655226149807669
-1.3459852922844444   0.10533805350594688   0.0655226149807669
-2.047870107247472   -0.11516129479341453   -0.030336475008816505
-2.047870107247472   -0.11516129479341453   -0.030336475008816505
-2.047870107247472   -0.11516129479341453   -0.030336475008816505
-2.047870107247472   -0.11516129479341453   -0.030336475008816505
-2.077675851755513   -0.07126883270038908   0.05366385321916939
-2.077675851755513   -0.07126883270038908   0.05366385321916939
-2.077675851755513   -0.07126883270038908   0.05366385321916939
-2.077675851755513   -0.07126883270038908   0.05366385321916939
-1.4174599678854116   -0.014800856104385196   -0.02093209313994575
-1.4174599678854116   -0.014800856104385196   -0.02093209313994575
-1.4174599678854116   -0.014800856104385196   -0.02093209313994575
-1.4174599678854116   -0.014800856104385196   -0.02093209313994575
-1.6477124584045721   -0.0030624610251163698   0.018151622158651667
-1.6477124584045721   -0.0030624610251163698   0.018151622158651667
-1.6477124584045721   -0.0030624610251163698   0.018151622158651667
-1.6477124584045721   -0.0030624610251163698   0.018151622158651667
0.904679149709082   0.05112477667825535   -0.061363560835421084
0.904679149709082   0.05112477667825535   -0.061363560835421084
0.904679149709082   0.05112477667825535   -0.061363560835421084
0.904679149709082   0.05112477667825535   -0.061363560835421084
0.38643886602591965   0.024911505414618534   0.026377481809166124
0.38643886602591965   0.024911505414618534   0.026377481809166124
0.38643886602591965   0.024911505414618534   0.026377481809166124
0.38643886602591965   0.024911505414618534   0.026377481809166124
0.3231588270065315   -0.08951047113237025   -0.057198860941873465
0.3231588270065315   -0.08951047113237025   -0.057198860941873465
0.3231588270065315   -0.08951047113237025   -0.057198860941873465
0.3231588270065315   -0.08951047113237025   -0.057198860941873465
0.8833305197983816   0.10293036029945686   0.03204326280133386
0.8833305197983816   0.10293036029945686   0.03204326280133386
0.8833305197983816   0.10293036029945686   0.03204326280133386
0.8833305197983816   0.10293036029945686   0.03204326280133386
0.5913289473404366   0.013124729772189342   -0.016160538637699028
0.5913289473404366   0.013124729772189342   -0.016160538637699028
0.5913289473404366   0.013124729772189342   -0.016160538637699028
0.5913289473404366   0.013124729772189342   -0.016160538637699028
0.8479808522712238   0.015448969334951546   -0.05722368386995683
0.8479808522712238   0.015448969334951546   -0.05722368386995683
0.8479808522712238   0.015448969334951546   -0.05722368386995683
0.8479808522712238   0.015448969334951546   -0.05722368386995683
0.3578447173987898   -0.0026928573027644037   0.029412977189819316
0.3578447173987898   -0.0026928573027644037   0.029412977189819316
0.3578447173987898   -0.0026928573027644037   0.029412977189819316
0.3578447173987898   -0.0026928573027644037   0.029412977189819316
0.2961927357671306   -0.09992701877810477   -0.048670457984065656
0.2961927357671306   -0.09992701877810477   -0.048670457984065656
0.2961927357671306   -0.09992701877810477   -0.048670457984065656
0.2961927357671306   -0.09992701877810477   -0.048670457984065656
0.8389718774158342   0.0881526468263593   0.04127309729091483
0.8389718774158342   0.0881526468263593   0.04127309729091483
0.8389718774158342   0.0881526468263593   0.04127309729091483
0.8389718774158342   0.0881526468263593   0.04127309729091483
0.5633953768399302   -0.004042367683322001   -0.026375471071721536
0.5633953768399302   -0.004042367683322001   -0.026375471071721536
0.5633953768399302   -0.004042367683322001   -0.026375471071721536
0.5633953768399302   -0.004042367683322001   -0.026375471071721536
0.8042080085457974   0.0021095061065484755   -0.04650310633946612
0.8042080085457974   0.0021095061065484755   -0.04650310633946612
0.8042080085457974   0.0021095061065484755   -0.04650310633946612
0.8042080085457974   0.0021095061065484755   -0.04650310633946612
0.32997971957388567   -0.01486076312157665   0.03519820539318355
0.32997971957388567   -0.01486076312157665   0.03519820539318355
0.32997971957388567   -0.01486076312157665   0.03519820539318355
0.32997971957388567   -0.01486076312157665   0.03519820539318355
0.27208076026358313   -0.10944576859047535   -0.040559590558920215
0.27208076026358313   -0.10944576859047535   -0.040559590558920215
0.27208076026358313   -0.10944576859047535   -0.040559590558920215
0.27208076026358313   -0.10944576859047535   -0.040559590558920215
0.7872018840088014   0.06868557507733015   0.04708787799090265
0.7872018840088014   0.06868557507733015   0.04708787799090265
0.7872018840088014   0.06868557507733015   0.04708787799090265
0.7872018840088014   0.06868557507733015   0.04708787799090265
0.5162989772201521   -0.018150062527398605   -0.04037468307840191
0.5162989772201521   -0.018150062527398605   -0.04037468307840191
0.5162989772201521   -0.018150062527398605   -0.04037468307840191
0.5162989772201521   -0.018150062527398605   -0.04037468307840191
0.38895933290544843   0.07502332263086489   -0.011132001009443046
0.38895933290544843   0.07502332263086489   -0.011132001009443046
0.38895933290544843   0.07502332263086489   -0.011132001009443046
0.38895933290544843   0.07502332263086489   -0.011132001009443046
-0.11970303545031938   0.006620336198867864   0.0036218085762889114
-0.11970303545031938   0.006620336198867864   0.0036218085762889114
-0.11970303545031938   0.006620336198867864   0.0036218085762889114
-0.11970303545031938   0.006620336198867864   0.0036218085762889114
-0.1629631498495495   -0.062075737664744474   -0.035205459409783556
-0.1629631498495495   -0.062075737664744474   -0.035205459409783556
-0.1629631498495495   -0.062075737664744474   -0.035205459409783556
-0.1629631498495495   -0.062075737664744474   -0.035205459409783556
0.3781001029586629   0.09022468297802436   0.03777236470839594
0.3781001029586629   0.09022468297802436   0.03777236470839594
0.3781001029586629   0.09022468297802436   0.03777236470839594
0.3781001029586629   0.09022468297802436   0.03777236470839594
0.11843951607609987   0.026117113967347495   0.004535128117516939
0.11843951607609987   0.026117113967347495   0.004535128117516939
0.11843951607609987   0.026117113967347495   0.004535128117516939
0.11843951607609987   0.026117113967347495   0.004535128117516939
0.3610103212474329   0.0485580635522079   -0.006009924421942676
0.3610103212474329   0.0485580635522079   -0.006009924421942676
0.3610103212474329   0.0485580635522079   -0.006009924421942676
0.3610103212474329   0.0485580635522079   -0.006009924421942676
-0.14612397283297093   -0.020659722933589905   0.0075744109419584975
-0.14612397283297093   -0.020659722933589905   0.0075744109419584975
-0.14612397283297093   -0.020659722933589905   0.0075744109419584975
-0.14612397283297093   -0.020659722933589905   0.0075744109419584975
-0.18804667633526362   -0.08301966058972013   -0.02847159323861234
-0.18804667633526362   -0.08301966058972013   -0.02847159323861234
-0.18804667633526362   -0.08301966058972013   -0.02847159323861234
-0.18804667633526362   -0.08301966058972013   -0.02847159323861234
0.3473402504911563   0.0660745346575955   0.04106556220036459
0.3473402504911563   0.0660745346575955   0.04106556220036459
0.3473402504911563   0.0660745346575955   0.04106556220036459
0.3473402504911563   0.0660745346575955   0.04106556220036459
0.08752301207450892   0.0024555523160617113   -0.006831573463425353
0.08752301207450892   0.0024555523160617113   -0.006831573463425353
0.08752301207450892   0.0024555523160617113   -0.006831573463425353
0.08752301207450892   0.0024555523160617113   -0.006831573463425353
0.33079064691938176   0.026100448757289924   -0.0017083697582074286
0.33079064691938176   0.026100448757289924   -0.0017083697582074286
0.33079064691938176   0.026100448757289924   -0.0017083697582074286
0.33079064691938176   0.026100448757289924   -0.0017083697582074286
-0.17213353711964985   -0.04368203904557613   0.011756481295312642
-0.17213353711964985   -0.04368203904557613   0.011756481295312642
-0.17213353711964985   -0.04368203904557613   0.011756481295312642
-0.17213353711964985   -0.04368203904557613   0.011756481295312642
-0.21279907598518644   -0.10273800235336522   -0.022249021941226528
-0.21279907598518644   -0.10273800235336522   -0.022249021941226528
-0.21279907598518644   -0.10273800235336522   -0.022249021941226528
-0.21279907598518644   -0.10273800235336522   -0.022249021941226528
0.3195819812803762   0.04284161297981643   0.044659132954760275
0.3195819812803762   0.04284161297981643   0.044659132954760275
0.3195819812803762   0.04284161297981643   0.044659132954760275
0.3195819812803762   0.04284161297981643   0.044659132954760275
0.06267559147567295   -0.01721405915208776   -0.01688061571791373
0.06267559147567295   -0.01721405915208776   -0.01688061571791373
0.06267559147567295   -0.01721405915208776   -0.01688061571791373
0.06267559147567295   -0.01721405915208776   -0.01688061571791373
-0.10094344565674421   0.09535538731775514   0.008684706425277425
-0.10094344565674421   0.09535538731775514   0.008684706425277425
-0.10094344565674421   0.09535538731775514   0.008684706425277425
-0.10094344565674421   0.09535538731775514   0.008684706425277425
-0.6183621069795862   -0.015472799431918635   -0.018786813989722147
-0.6183621069795862   -0.015472799431918635   -0.018786813989722147
-0.6183621069795862   -0.015472799431918635   -0.018786813989722147
-0.6183621069795862   -0.015472799431918635   -0.018786813989722147
-0.6431008545659906   -0.036833466702808404   -0.013822531068862623
-0.6431008545659906   -0.036833466702808404   -0.013822531068862623
-0.6431008545659906   -0.036833466702808404   -0.013822531068862623
-0.6431008545659906   -0.036833466702808404   -0.013822531068862623
-0.12681971472351972   0.068801310894788   0.014634667660832872
-0.12681971472351972   0.068801310894788   0.014634667660832872
-0.12681971472351972   0.068801310894788   0.014634667660832872
-0.12681971472351972   0.068801310894788   0.014634667660832872
-0.3714015984580978   0.027533751774766094   0.007332207412363113
-0.3714015984580978   0.027533751774766094   0.007332207412363113
-0.3714015984580978   0.027533751774766094   0.007332207412363113
-0.3714015984580978   0.027533751774766094   0.007332207412363113
-0.1260374325466747   0.07234433483566377   0.015003054604182227
-0.1260374325466747   0.07234433483566377   0.015003054604182227
-0.1260374325466747   0.07234433483566377   0.015003054604182227
-0.1260374325466747   0.07234433483566377   0.015003054604182227
-0.6439514602323426   -0.04044481413319108   -0.014464211970239695
-0.6439514602323426   -0.04044481413319108   -0.014464211970239695
-0.6439514602323426   -0.04044481413319108   -0.014464211970239695
-0.6439514602323426   -0.04044481413319108   -0.014464211970239695
-0.6684419206271845   -0.059652548577085907   -0.007822318089174649
-0.6684419206271845   -0.059652548577085907   -0.007822318089174649
-0.6684419206271845   -0.059652548577085907   -0.007822318089174649
-0.6684419206271845   -0.059652548577085907   -0.007822318089174649
-0.15314045497855147   0.043947328213053326   0.019092524742171036
-0.15314045497855147   0.043947328213053326   0.019092524742171036
-0.15314045497855147   0.043947328213053326   0.019092524742171036
-0.15314045497855147   0.043947328213053326   0.019092524742171036
-0.39745616185390265   0.005324287083239454   -0.002443580486215867
-0.39745616185390265   0.005324287083239454   -0.002443580486215867
-0.39745616185390265   0.005324287083239454   -0.002443580486215867
-0.39745616185390265   0.005324287083239454   -0.002443580486215867
-0.15181528038492187   0.04930865689489734   0.020357069028478898
-0.15181528038492187   0.04930865689489734   0.020357069028478898
-0.15181528038492187   0.04930865689489734   0.020357069028478898
-0.15181528038492187   0.04930865689489734   0.020357069028478898
-0.6701686736986644   -0.0654154557367795   -0.010693176286880168
-0.6701686736986644   -0.0654154557367795   -0.010693176286880168
-0.6701686736986644   -0.0654154557367795   -0.010693176286880168
-0.6701686736986644   -0.0654154557367795   -0.010693176286880168
-0.6933588939382896   -0.0814534213645055   -0.0019905715221587676
-0.6933588939382896   -0.0814534213645055   -0.0019905715221587676
-0.6933588939382896   -0.0814534213645055   -0.0019905715221587676
-0.6933588939382896   -0.0814534213645055   -0.0019905715221587676
-0.17923614471760776   0.019796053715384565   0.023031578327913187
-0.17923614471760776   0.019796053715384565   0.023031578327913187
-0.17923614471760776   0.019796053715384565   0.023031578327913187
-0.17923614471760776   0.019796053715384565   0.023031578327913187
-0.424581536713723   -0.016910931322122333   -0.013038540399381137
-0.424581536713723   -0.016910931322122333   -0.013038540399381137
-0.424581536713723   -0.016910931322122333   -0.013038540399381137
-0.424581536713723   -0.016910931322122333   -0.013038540399381137
-0.5833460593471896   0.11277125285406966   0.028049371886272823
-0.5833460593471896   0.11277125285406966   0.028049371886272823
-0.5833460593471896   0.11277125285406966   0.028049371886272823
-0.5833460593471896   0.11277125285406966   0.028049371886272823
-1.1080907352510874   -0.03743621785902446   -0.03827452101676715
-1.1080907352510874   -0.03743621785902446   -0.03827452101676715
-1.1080907352510874   -0.03743621785902446   -0.03827452101676715
-1.1080907352510874   -0.03743621785902446   -0.03827452101676715
-1.1173950848512508   -0.01627803247973486   0.009115798523834422
-1.1173950848512508   -0.01627803247973486   0.009115798523834422
-1.1173950848512508   -0.01627803247973486   0.009115798523834422
-1.1173950848512508   -0.01627803247973486   0.009115798523834422
-0.6256419150505134   0.04482242960268987   -0.008183729796986255
-0.6256419150505134   0.04482242960268987   -0.008183729796986255
-0.6256419150505134   0.04482242960268987   -0.008183729796986255
-0.6256419150505134   0.04482242960268987   -0.008183729796986255
-0.8535351537396358   0.026226438319607387   0.010654311087141086
-0.8535351537396358   0.026226438319607387   0.010654311087141086
-0.8535351537396358   0.026226438319607387   0.010654311087141086
-0.8535351537396358   0.026226438319607387   0.010654311087141086
-0.6079733943081072   0.09064950552307383   0.03433179799467277
-0.6079733943081072   0.09064950552307383   0.03433179799467277
-0.6079733943081072   0.09064950552307383   0.03433179799467277
-0.6079733943081072   0.09064950552307383   0.03433179799467277
-1.1358320399749506   -0.06287354278139115   -0.03647346679301539
-1.1358320399749506   -0.06287354278139115   -0.03647346679301539
-1.1358320399749506   -0.06287354278139115   -0.03647346679301539
-1.1358320399749506   -0.06287354278139115   -0.03647346679301539
-1.1472636332156567   -0.0388775802838916   0.011899507854341983
-1.1472636332156567   -0.0388775802838916   0.011899507854341983
-1.1472636332156567   -0.0388775802838916   0.011899507854341983
-1.1472636332156567   -0.0388775802838916   0.011899507854341983
-0.6512532152070879   0.021920217143968274   -0.0034515567097572614
-0.6512532152070879   0.021920217143968274   -0.0034515567097572614
-0.6512532152070879   0.021920217143968274   -0.0034515567097572614
-0.6512532152070879   0.021920217143968274   -0.0034515567097572614
-0.8754887916180962   0.006076758791328046   0.0008504657194539356
-0.8754887916180962   0.006076758791328046   0.0008504657194539356
-0.8754887916180962   0.006076758791328046   0.0008504657194539356
-0.8754887916180962   0.006076758791328046   0.0008504657194539356
-0.6329501813469309   0.06966831205498744   0.04031551768001156
-0.6329501813469309   0.06966831205498744   0.04031551768001156
-0.6329501813469309   0.06966831205498744   0.04031551768001156
-0.6329501813469309   0.06966831205498744   0.04031551768001156
-1.1656318360541378   -0.08669084417324599   -0.032128242448717405
-1.1656318360541378   -0.08669084417324599   -0.032128242448717405
-1.1656318360541378   -0.08669084417324599   -0.032128242448717405
-1.1656318360541378   -0.08669084417324599   -0.032128242448717405
-1.1738653371333425   -0.06294554163131133   0.018157895905082808
-1.1738653371333425   -0.06294554163131133   0.018157895905082808
-1.1738653371333425   -0.06294554163131133   0.018157895905082808
-1.1738653371333425   -0.06294554163131133   0.018157895905082808
-0.6773108793650805   -0.0034711614565180737   0.00026724143588890276
-0.6773108793650805   -0.0034711614565180737   0.00026724143588890276
-0.6773108793650805   -0.0034711614565180737   0.00026724143588890276
-0.6773108793650805   -0.0034711614565180737   0.00026724143588890276
-0.9083879944077194   -0.01728875882050762   -0.010519782521817345
-0.9083879944077194   -0.01728875882050762   -0.010519782521817345
-0.9083879944077194   -0.01728875882050762   -0.010519782521817345
-0.9083879944077194   -0.01728875882050762   -0.010519782521817345
-1.0632261350273162   0.10450588938207891   0.04410637286098407
-1.0632261350273162   0.10450588938207891   0.04410637286098407
-1.0632261350273162   0.10450588938207891   0.04410637286098407
-1.0632261350273162   0.10450588938207891   0.04410637286098407
-1.5684834647389196   -0.07217194327530335   -0.04978363246685387
-1.5684834647389196   -0.07217194327530335   -0.04978363246685387
-1.5684834647389196   -0.07217194327530335   -0.04978363246685387
-1.5684834647389196   -0.07217194327530335   -0.04978363246685387
-1.5836971567611737   -0.0012501448455198294   0.043720484330431214
-1.5836971567611737   -0.0012501448455198294   0.043720484330431214
-1.5836971567611737   -0.0012501448455198294   0.043720484330431214
-1.5836971567611737   -0.0012501448455198294   0.043720484330431214
-1.1189058995310714   0.01519500245494404   -0.029911309809970657
-1.1189058995310714   0.01519500245494404   -0.029911309809970657
-1.1189058995310714   0.01519500245494404   -0.029911309809970657
-1.1189058995310714   0.01519500245494404   -0.029911309809970657
-1.274916841349864   0.024303615563940062   0.032237815023617125
-1.274916841349864   0.024303615563940062   0.032237815023617125
-1.274916841349864   0.024303615563940062   0.032237815023617125
-1.274916841349864   0.024303615563940062   0.032237815023617125
-1.085549336679277   0.10004051973797137   0.05202598716599052
-1.085549336679277   0.10004051973797137   0.05202598716599052
-1.085549336679277   0.10004051973797137   0.05202598716599052
-1.085549336679277   0.10004051973797137   0.05202598716599052
-1.6177086584673426   -0.08675060098292642   -0.04083656806299045
-1.6177086584673426   -0.08675060098292642   -0.04083656806299045
-1.6177086584673426   -0.08675060098292642   -0.04083656806299045
-1.6177086584673426   -0.08675060098292642   -0.04083656806299045
-1.625884586539629   -0.013676080366321453   0.055104076418806075
-1.625884586539629   -0.013676080366321453   0.055104076418806075
-1.625884586539629   -0.013676080366321453   0.055104076418806075
-1.625884586539629   -0.013676080366321453   0.055104076418806075
-1.14643955934946   0.002635465844213647   -0.025493168942795935
-1.14643955934946   0.002635465844213647   -0.025493168942795935
-1.14643955934946   0.002635465844213647   -0.025493168942795935
-1.14643955934946   0.002635465844213647   -0.025493168942795935
-1.3317455844669677   0.010014579832222481   0.01683536931599723
-1.3317455844669677   0.010014579832222481   0.01683536931599723
-1.3317455844669677   0.010014579832222481   0.01683536931599723
-1.3317455844669677   0.010014579832222481   0.01683536931599723
-1.1115199948897583   0.09043670543323312   0.06130341376670853
-1.1115199948897583   0.09043670543323312   0.06130341376670853
-1.1115199948897583   0.09043670543323312   0.06130341376670853
-1.1115199948897583   0.09043670543323312   0.06130341376670853
-1.6612777419080271   -0.10195091086403496   -0.03358686992547194
-1.6612777419080271   -0.10195091086403496   -0.03358686992547194
-1.6612777419080271   -0.10195091086403496   -0.03358686992547194
-1.6612777419080271   -0.10195091086403496   -0.03358686992547194
-1.6823229568790043   -0.05252707549000285   0.05529979892555888
-1.6823229568790043   -0.05252707549000285   0.05529979892555888
-1.6823229568790043   -0.05252707549000285   0.05529979892555888
-1.6823229568790043   -0.05252707549000285   0.05529979892555888
-1.175243585904305   -0.029138721664128536   -0.022540167916927777
-1.175243585904305   -0.029138721664128536   -0.022540167916927777
-1.175243585904305   -0.029138721664128536   -0.022540167916927777
-1.175243585904305   -0.029138721664128536   -0.022540167916927777
-1.3479172141635722   -0.006271924171093957   0.009491278940365111
-1.3479172141635722   -0.006271924171093957   0.009491278940365111
-1.3479172141635722   -0.006271924171093957   0.009491278940365111
-1.3479172141635722   -0.006271924171093957   0.009491278940365111
0.4964499106008946   0.029640033071009708   -0.05999092448385298
0.4964499106008946   0.029640033071009708   -0.05999092448385298
0.4964499106008946   0.029640033071009708   -0.05999092448385298
0.4964499106008946   0.029640033071009708   -0.05999092448385298
0.14396821183319825   0.036110477080561434   0.028726895023728997
0.14396821183319825   0.036110477080561434   0.028726895023728997
0.14396821183319825   0.036110477080561434   0.028726895023728997
0.14396821183319825   0.036110477080561434   0.028726895023728997
0.08810616627220547   -0.07310149459473461   -0.052891658143447345
0.08810616627220547   -0.07310149459473461   -0.052891658143447345
0.08810616627220547   -0.07310149459473461   -0.052891658143447345
0.08810616627220547   -0.07310149459473461   -0.052891658143447345
0.4826791944985327   0.0848753225534085   0.03456539367682748
0.4826791944985327   0.0848753225534085   0.03456539367682748
0.4826791944985327   0.0848753225534085   0.03456539367682748
0.4826791944985327   0.0848753225534085   0.03456539367682748
0.2850979446311272   0.014146604323060079   -0.006607481594911506
0.2850979446311272   0.014146604323060079   -0.006607481594911506
0.2850979446311272   0.014146604323060079   -0.006607481594911506
0.2850979446311272   0.014146604323060079   -0.006607481594911506
0.4474633336755375   -0.0016495392186062635   -0.054989048666137616
0.4474633336755375   -0.0016495392186062635   -0.054989048666137616
0.4474633336755375   -0.0016495392186062635   -0.054989048666137616
0.4474633336755375   -0.0016495392186062635   -0.054989048666137616
0.12222280056643542   0.012324140648514392   0.03226587808445423
0.12222280056643542   0.012324140648514392   0.03226587808445423
0.12222280056643542   0.012324140648514392   0.03226587808445423
0.12222280056643542   0.012324140648514392   0.03226587808445423
0.0670132522466388   -0.08347567348089807   -0.044909879076238
0.0670132522466388   -0.08347567348089807   -0.044909879076238
0.0670132522466388   -0.08347567348089807   -0.044909879076238
0.0670132522466388   -0.08347567348089807   -0.044909879076238
0.4447654589040535   0.07055825023899727   0.0443873741323118
0.4447654589040535   0.07055825023899727   0.0443873741323118
0.4447654589040535   0.07055825023899727   0.0443873741323118
0.4447654589040535   0.07055825023899727   0.0443873741323118
0.2585903214347433   -0.0020509674353156385   -0.01712712833764151
0.2585903214347433   -0.0020509674353156385   -0.01712712833764151
0.2585903214347433   -0.0020509674353156385   -0.01712712833764151
0.2585903214347433   -0.0020509674353156385   -0.01712712833764151
0.4097553817160743   -0.014971853404567928   -0.04513290816402278
0.4097553817160743   -0.014971853404567928   -0.04513290816402278
0.4097553817160743   -0.014971853404567928   -0.04513290816402278
0.4097553817160743   -0.014971853404567928   -0.04513290816402278
0.10055263206859029   0.000583732796639095   0.03872761375598419
0.10055263206859029   0.000583732796639095   0.03872761375598419
0.10055263206859029   0.000583732796639095   0.03872761375598419
0.10055263206859029   0.000583732796639095   0.03872761375598419
0.048149776030972744   -0.09602244609857591   -0.03740011991079888
0.048149776030972744   -0.09602244609857591   -0.03740011991079888
0.048149776030972744   -0.09602244609857591   -0.03740011991079888
0.048149776030972744   -0.09602244609857591   -0.03740011991079888
0.39782662399759966   0.04763225574210853   0.04926724826744474
0.39782662399759966   0.04763225574210853   0.04926724826744474
0.39782662399759966   0.04763225574210853   0.04926724826744474
0.39782662399759966   0.04763225574210853   0.04926724826744474
0.22203689520958297   -0.01649023097832085   -0.02997292155012491
0.22203689520958297   -0.01649023097832085   -0.02997292155012491
0.22203689520958297   -0.01649023097832085   -0.02997292155012491
0.22203689520958297   -0.01649023097832085   -0.02997292155012491
0.13831859409557817   0.05401513089667927   -0.01742584748049022
0.13831859409557817   0.05401513089667927   -0.01742584748049022
0.13831859409557817   0.05401513089667927   -0.01742584748049022
0.13831859409557817   0.05401513089667927   -0.01742584748049022
-0.20263708275698902   0.017499012859446904   0.007001011109877629
-0.20263708275698902   0.017499012859446904   0.007001011109877629
-0.20263708275698902   0.017499012859446904   0.007001011109877629
-0.20263708275698902   0.017499012859446904   0.007001011109877629
-0.238617211175799   -0.0468440328669409   -0.030853900381968388
-0.238617211175799   -0.0468440328669409   -0.030853900381968388
-0.238617211175799   -0.0468440328669409   -0.030853900381968388
-0.238617211175799   -0.0468440328669409   -0.030853900381968388
0.1332709069698116   0.0670543434290908   0.032776207320758685
0.1332709069698116   0.0670543434290908   0.032776207320758685
0.1332709069698116   0.0670543434290908   0.032776207320758685
0.1332709069698116   0.0670543434290908   0.032776207320758685
-0.04360110461307338   0.021965331594857588   0.005549097368404858
-0.04360110461307338   0.021965331594857588   0.005549097368404858
-0.04360110461307338   0.021965331594857588   0.005549097368404858
-0.04360110461307338   0.021965331594857588   0.005549097368404858
0.11629221719293933   0.027746711046904786   -0.012809609181416949
0.11629221719293933   0.027746711046904786   -0.012809609181416949
0.11629221719293933   0.027746711046904786   -0.012809609181416949
0.11629221719293933   0.027746711046904786   -0.012809609181416949
-0.2225745267740578   -0.008472405859896191   0.010987894619693055
-0.2225745267740578   -0.008472405859896191   0.010987894619693055
-0.2225745267740578   -0.008472405859896191   0.010987894619693055
-0.2225745267740578   -0.008472405859896191   0.010987894619693055
-0.25748751884854615   -0.06793479415136003   -0.02415331250471056
-0.25748751884854615   -0.06793479415136003   -0.02415331250471056
-0.25748751884854615   -0.06793479415136003   -0.02415331250471056
-0.25748751884854615   -0.06793479415136003   -0.02415331250471056
0.10851195957597522   0.0433742519440731   0.035733732145474886
0.10851195957597522   0.0433742519440731   0.035733732145474886
0.10851195957597522   0.0433742519440731   0.035733732145474886
0.10851195957597522   0.0433742519440731   0.035733732145474886
-0.0669104217184193   -0.000772078840926638   -0.0053450578150507425
-0.0669104217184193   -0.000772078840926638   -0.0053450578150507425
-0.0669104217184193   -0.000772078840926638   -0.0053450578150507425
-0.0669104217184193   -0.000772078840926638   -0.0053450578150507425
0.09203589923729918   0.005121740371653605   -0.00839405797548769
0.09203589923729918   0.005121740371653605   -0.00839405797548769
0.09203589923729918   0.005121740371653605   -0.00839405797548769
0.09203589923729918   0.005121740371653605   -0.00839405797548769
-0.2422227924360249   -0.030893616505095072   0.015129141911634201
-0.2422227924360249   -0.030893616505095072   0.015129141911634201
-0.2422227924360249   -0.030893616505095072   0.015129141911634201
-0.2422227924360249   -0.030893616505095072   0.015129141911634201
-0.2762144134409801   -0.0888689060285151   -0.018097067365541203
-0.2762144134409801   -0.0888689060285151   -0.018097067365541203
-0.2762144134409801   -0.0888689060285151   -0.018097067365541203
-0.2762144134409801   -0.0888689060285151   -0.018097067365541203
0.08683437453313263   0.020111009009883163   0.039889417491542435
0.08683437453313263   0.020111009009883163   0.039889417491542435
0.08683437453313263   0.020111009009883163   0.039889417491542435
0.08683437453313263   0.020111009009883163   0.039889417491542435
-0.08709451264726505   -0.021147231554216772   -0.01563730761055599
-0.08709451264726505   -0.021147231554216772   -0.01563730761055599
-0.08709451264726505   -0.021147231554216772   -0.01563730761055599
-0.08709451264726505   -0.021147231554216772   -0.01563730761055599
-0.19220917139302596   0.07403588886763818   0.002603691921501658
-0.19220917139302596   0.07403588886763818   0.002603691921501658
-0.19220917139302596   0.07403588886763818   0.002603691921501658
-0.19220917139302596   0.07403588886763818   0.002603691921501658
-0.5446641713832213   -0.006424995662542718   -0.014952608458493482
-0.5446641713832213   -0.006424995662542718   -0.014952608458493482
-0.5446641713832213   -0.006424995662542718   -0.014952608458493482
-0.5446641713832213   -0.006424995662542718   -0.014952608458493482
-0.5616561893007107   -0.022878262152426485   -0.00892672299804861
-0.5616561893007107   -0.022878262152426485   -0.00892672299804861
-0.5616561893007107   -0.022878262152426485   -0.00892672299804861
-0.5616561893007107   -0.022878262152426485   -0.00892672299804861
-0.21216645617630775   0.044133756578682556   0.010422085169860821
-0.21216645617630775   0.044133756578682556   0.010422085169860821
-0.21216645617630775   0.044133756578682556   0.010422085169860821
-0.21216645617630775   0.044133756578682556   0.010422085169860821
-0.37678027015404997   0.021752825962048666   0.005757737474238456
-0.37678027015404997   0.021752825962048666   0.005757737474238456
-0.37678027015404997   0.021752825962048666   0.005757737474238456
-0.37678027015404997   0.021752825962048666   0.005757737474238456
-0.2111502854726313   0.050779668555154166   0.008857026711775243
-0.2111502854726313   0.050779668555154166   0.008857026711775243
-0.2111502854726313   0.050779668555154166   0.008857026711775243
-0.2111502854726313   0.050779668555154166   0.008857026711775243
-0.563491639074246   -0.030343453198761416   -0.010638780819390167
-0.563491639074246   -0.030343453198761416   -0.010638780819390167
-0.563491639074246   -0.030343453198761416   -0.010638780819390167
-0.563491639074246   -0.030343453198761416   -0.010638780819390167
-0.5804435676181465   -0.04590263894526285   -0.0028541984098148336
-0.5804435676181465   -0.04590263894526285   -0.0028541984098148336
-0.5804435676181465   -0.04590263894526285   -0.0028541984098148336
-0.5804435676181465   -0.04590263894526285   -0.0028541984098148336
-0.2320856063463793   0.020117746647962953   0.014803709206800585
-0.2320856063463793   0.020117746647962953   0.014803709206800585
-0.2320856063463793   0.020117746647962953   0.014803709206800585
-0.2320856063463793   0.020117746647962953   0.014803709206800585
-0.3963828008271931   -0.00011257655095589514   -0.004010551488732528
-0.3963828008271931   -0.00011257655095589514   -0.004010551488732528
-0.3963828008271931   -0.00011257655095589514   -0.004010551488732528
-0.3963828008271931   -0.00011257655095589514   -0.004010551488732528
-0.2307230775779566   0.027465932236761872   0.01426816746011889
-0.2307230775779566   0.027465932236761872   0.01426816746011889
-0.2307230775779566   0.027465932236761872   0.01426816746011889
-0.2307230775779566   0.027465932236761872   0.01426816746011889
-0.5829709452205628   -0.05441567336805471   -0.006978051999104246
-0.5829709452205628   -0.05441567336805471   -0.006978051999104246
-0.5829709452205628   -0.05441567336805471   -0.006978051999104246
-0.5829709452205628   -0.05441567336805471   -0.006978051999104246
-0.5988719478167083   -0.06813288600275491   0.003022682836316364
-0.5988719478167083   -0.06813288600275491   0.003022682836316364
-0.5988719478167083   -0.06813288600275491   0.003022682836316364
-0.5988719478167083   -0.06813288600275491   0.003022682836316364
-0.25166174091712995   -0.003018905242701257   0.01881629446789177
-0.25166174091712995   -0.003018905242701257   0.01881629446789177
-0.25166174091712995   -0.003018905242701257   0.01881629446789177
-0.25166174091712995   -0.003018905242701257   0.01881629446789177
-0.4170065878245211   -0.022031033412431844   -0.014615728161680233
-0.4170065878245211   -0.022031033412431844   -0.014615728161680233
-0.4170065878245211   -0.022031033412431844   -0.014615728161680233
-0.4170065878245211   -0.022031033412431844   -0.014615728161680233
-0.517149333763592   0.09303856953104181   0.023158014446068798
-0.517149333763592   0.09303856953104181   0.023158014446068798
-0.517149333763592   0.09303856953104181   0.023158014446068798
-0.517149333763592   0.09303856953104181   0.023158014446068798
-0.8791502189401788   -0.026041483291956852   -0.03414693323863461
-0.8791502189401788   -0.026041483291956852   -0.03414693323863461
-0.8791502189401788   -0.026041483291956852   -0.03414693323863461
-0.8791502189401788   -0.026041483291956852   -0.03414693323863461
-0.8808341131428564   -0.001715056938588172   0.014321035588966663
-0.8808341131428564   -0.001715056938588172   0.014321035588966663
-0.8808341131428564   -0.001715056938588172   0.014321035588966663
-0.8808341131428564   -0.001715056938588172   0.014321035588966663
-0.552916087031451   0.022677932209538176   -0.01078240601372326
-0.552916087031451   0.022677932209538176   -0.01078240601372326
-0.552916087031451   0.022677932209538176   -0.01078240601372326
-0.552916087031451   0.022677932209538176   -0.01078240601372326
-0.7039161717283346   0.02195081693098702   0.007589134893168932
-0.7039161717283346   0.02195081693098702   0.007589134893168932
-0.7039161717283346   0.02195081693098702   0.007589134893168932
-0.7039161717283346   0.02195081693098702   0.007589134893168932
-0.5353272687798349   0.07040835692250294   0.029431260531400633
-0.5353272687798349   0.07040835692250294   0.029431260531400633
-0.5353272687798349   0.07040835692250294   0.029431260531400633
-0.5353272687798349   0.07040835692250294   0.029431260531400633
-0.8999967496492206   -0.05101929990629575   -0.032187903975154065
-0.8999967496492206   -0.05101929990629575   -0.032187903975154065
-0.8999967496492206   -0.05101929990629575   -0.032187903975154065
-0.8999967496492206   -0.05101929990629575   -0.032187903975154065
-0.9039613454797171   -0.024412522329316733   0.017592876196446935
-0.9039613454797171   -0.024412522329316733   0.017592876196446935
-0.9039613454797171   -0.024412522329316733   0.017592876196446935
-0.9039613454797171   -0.024412522329316733   0.017592876196446935
-0.5718022158513475   0.0005684391783068454   -0.006118517699397016
-0.5718022158513475   0.0005684391783068454   -0.006118517699397016
-0.5718022158513475   0.0005684391783068454   -0.006118517699397016
-0.5718022158513475   0.0005684391783068454   -0.006118517699397016
-0.7205825738344489   0.0015692109385102293   -0.002653339585098606
-0.7205825738344489   0.0015692109385102293   -0.002653339585098606
-0.7205825738344489   0.0015692109385102293   -0.002653339585098606
-0.7205825738344489   0.0015692109385102293   -0.002653339585098606
-0.5537455498502717   0.04921559321178523   0.03551765827251131
-0.5537455498502717   0.04921559321178523   0.03551765827251131
-0.5537455498502717   0.04921559321178523   0.03551765827251131
-0.5537455498502717   0.04921559321178523   0.03551765827251131
-0.9229989547415836   -0.07404061962358688   -0.02796707281862966
-0.9229989547415836   -0.07404061962358688   -0.02796707281862966
-0.9229989547415836   -0.07404061962358688   -0.02796707281862966
-0.9229989547415836   -0.07404061962358688   -0.02796707281862966
-0.9239430534499091   -0.04806407081177713   0.023934868744422126
-0.9239430534499091   -0.04806407081177713   0.023934868744422126
-0.9239430534499091   -0.04806407081177713   0.023934868744422126
-0.9239430534499091   -0.04806407081177713   0.023934868744422126
-0.5909237318157983   -0.023069707097796627   -0.0022994160640999323
-0.5909237318157983   -0.023069707097796627   -0.0022994160640999323
-0.5909237318157983   -0.023069707097796627   -0.0022994160640999323
-0.5909237318157983   -0.023069707097796627   -0.0022994160640999323
-0.7453494937125342   -0.020626272096997134   -0.01381151803724287
-0.7453494937125342   -0.020626272096997134   -0.01381151803724287
-0.7453494937125342   -0.020626272096997134   -0.01381151803724287
-0.7453494937125342   -0.020626272096997134   -0.01381151803724287
-0.840593832434758   0.09156784406517993   0.04102567193133996
-0.840593832434758   0.09156784406517993   0.04102567193133996
-0.840593832434758   0.09156784406517993   0.04102567193133996
-0.840593832434758   0.09156784406517993   0.04102567193133996
-1.18271357783936   -0.054390499140995335   -0.0518885420120262
-1.18271357783936   -0.054390499140995335   -0.0518885420120262
-1.18271357783936   -0.054390499140995335   -0.0518885420120262
-1.18271357783936   -0.054390499140995335   -0.0518885420120262
-1.1913972416884682   0.015304787651152063   0.04312895832852749
-1.1913972416884682   0.015304787651152063   0.04312895832852749
-1.1913972416884682   0.015304787651152063   0.04312895832852749
-1.1913972416884682   0.015304787651152063   0.04312895832852749
-0.8902455506664613   -0.0027445883684677763   -0.031706620599193304
-0.8902455506664613   -0.0027445883684677763   -0.031706620599193304
-0.8902455506664613   -0.0027445883684677763   -0.031706620599193304
-0.8902455506664613   -0.0027445883684677763   -0.031706620599193304
-0.9821451780585131   0.02199901308031521   0.023754581133767806
-0.9821451780585131   0.02199901308031521   0.023754581133767806
-0.9821451780585131   0.02199901308031521   0.023754581133767806
-0.9821451780585131   0.02199901308031521   0.023754581133767806
-0.856998650391758   0.0832628106049676   0.04852048180089523
-0.856998650391758   0.0832628106049676   0.04852048180089523
-0.856998650391758   0.0832628106049676   0.04852048180089523
-0.856998650391758   0.0832628106049676   0.04852048180089523
-1.2263185233486418   -0.07237699270774484   -0.043795669613428595
-1.2263185233486418   -0.07237699270774484   -0.043795669613428595
-1.2263185233486418   -0.07237699270774484   -0.043795669613428595
-1.2263185233486418   -0.07237699270774484   -0.043795669613428595
-1.2274086538276892   0.002557282655658355   0.055085009592656775
-1.2274086538276892   0.002557282655658355   0.055085009592656775
-1.2274086538276892   0.002557282655658355   0.055085009592656775
-1.2274086538276892   0.002557282655658355   0.055085009592656775
-0.9110562182402149   -0.015081726852733013   -0.027212283082640773
-0.9110562182402149   -0.015081726852733013   -0.027212283082640773
-0.9110562182402149   -0.015081726852733013   -0.027212283082640773
-0.9110562182402149   -0.015081726852733013   -0.027212283082640773
-1.0281434788218575   0.006918491590441944   0.00852493018928327
-1.0281434788218575   0.006918491590441944   0.00852493018928327
-1.0281434788218575   0.006918491590441944   0.00852493018928327
-1.0281434788218575   0.006918491590441944   0.00852493018928327
-0.876397599975873   0.07328525648729925   0.057713824899045
-0.876397599975873   0.07328525648729925   0.057713824899045
-0.876397599975873   0.07328525648729925   0.057713824899045
-0.876397599975873   0.07328525648729925   0.057713824899045
-1.263653062339705   -0.0873954909320413   -0.036184259379691955
-1.263653062339705   -0.0873954909320413   -0.036184259379691955
-1.263653062339705   -0.0873954909320413   -0.036184259379691955
-1.263653062339705   -0.0873954909320413   -0.036184259379691955
-1.277214844737188   -0.033647668240644774   0.05688635803337392
-1.277214844737188   -0.033647668240644774   0.05688635803337392
-1.277214844737188   -0.033647668240644774   0.05688635803337392
-1.277214844737188   -0.033647668240644774   0.05688635803337392
-0.9325287358990002   -0.043327257656192636   -0.02373035665663415
-0.9325287358990002   -0.043327257656192636   -0.02373035665663415
-0.9325287358990002   -0.043327257656192636   -0.02373035665663415
-0.9325287358990002   -0.043327257656192636   -0.02373035665663415
-1.0431829736884377   -0.00911111690041827   -0.000543312928002769
-1.0431829736884377   -0.00911111690041827   -0.000543312928002769
-1.0431829736884377   -0.00911111690041827   -0.000543312928002769
-1.0431829736884377   -0.00911111690041827   -0.000543312928002769
0.08831697122211893   0.007269194641435953   -0.05982827656084979
0.08831697122211893   0.007269194641435953   -0.05982827656084979
0.08831697122211893   0.007269194641435953   -0.05982827656084979
0.08831697122211893   0.007269194641435953   -0.05982827656084979
-0.09810158163960406   0.044886913687730984   0.030613145263525973
-0.09810158163960406   0.044886913687730984   0.030613145263525973
-0.09810158163960406   0.044886913687730984   0.030613145263525973
-0.09810158163960406   0.044886913687730984   0.030613145263525973
-0.14685694797443002   -0.057580240778463535   -0.0481762805096007
-0.14685694797443002   -0.057580240778463535   -0.0481762805096007
-0.14685694797443002   -0.057580240778463535   -0.0481762805096007
-0.14685694797443002   -0.057580240778463535   -0.0481762805096007
0.08092964429128473   0.06329910126356539   0.037596936461115185
0.08092964429128473   0.06329910126356539   0.037596936461115185
0.08092964429128473   0.06329910126356539   0.037596936461115185
0.08092964429128473   0.06329910126356539   0.037596936461115185
-0.020925360651150367   0.01388995449157357   0.0052042537642922986
-0.020925360651150367   0.01388995449157357   0.0052042537642922986
-0.020925360651150367   0.01388995449157357   0.0052042537642922986
-0.020925360651150367   0.01388995449157357   0.0052042537642922986
0.04604188450206629   -0.02006147535460539   -0.053481285866806255
0.04604188450206629   -0.02006147535460539   -0.053481285866806255
0.04604188450206629   -0.02006147535460539   -0.053481285866806255
0.04604188450206629   -0.02006147535460539   -0.053481285866806255
-0.11403286610260939   0.023716657922309432   0.034647230148729544
-0.11403286610260939   0.023716657922309432   0.034647230148729544
-0.11403286610260939   0.023716657922309432   0.034647230148729544
-0.11403286610260939   0.023716657922309432   0.034647230148729544
-0.1629180818663864   -0.06802224796657225   -0.0408315761251265
-0.1629180818663864   -0.06802224796657225   -0.0408315761251265
-0.1629180818663864   -0.06802224796657225   -0.0408315761251265
-0.1629180818663864   -0.06802224796657225   -0.0408315761251265
0.04785504425611775   0.049113878948414506   0.05155751129366365
0.04785504425611775   0.049113878948414506   0.05155751129366365
0.04785504425611775   0.049113878948414506   0.05155751129366365
0.04785504425611775   0.049113878948414506   0.05155751129366365
-0.04703600654687702   -0.0017535176985374792   -0.006861190104191329
-0.04703600654687702   -0.0017535176985374792   -0.006861190104191329
-0.04703600654687702   -0.0017535176985374792   -0.006861190104191329
-0.04703600654687702   -0.0017535176985374792   -0.006861190104191329
0.012162839106120999   -0.03366472970719394   -0.04412490580071169
0.012162839106120999   -0.03366472970719394   -0.04412490580071169
0.012162839106120999   -0.03366472970719394   -0.04412490580071169
0.012162839106120999   -0.03366472970719394   -0.04412490580071169
-0.13008892569075123   0.011893311714669244   0.04339864507180634
-0.13008892569075123   0.011893311714669244   0.04339864507180634
-0.13008892569075123   0.011893311714669244   0.04339864507180634
-0.13008892569075123   0.011893311714669244   0.04339864507180634
-0.17762914716493017   -0.08408067278531445   -0.03384162320710964
-0.17762914716493017   -0.08408067278531445   -0.03384162320710964
-0.17762914716493017   -0.08408067278531445   -0.03384162320710964
-0.17762914716493017   -0.08408067278531445   -0.03384162320710964
0.0019223859308660995   0.019374155573241028   0.05877362747256457
0.0019223859308660995   0.019374155573241028   0.05877362747256457
0.0019223859308660995   0.019374155573241028   0.05877362747256457
0.0019223859308660995   0.019374155573241028   0.05877362747256457
-0.07505640113519242   -0.0175075511125661   -0.02076956385850857
-0.07505640113519242   -0.0175075511125661   -0.02076956385850857
-0.07505640113519242   -0.0175075511125661   -0.02076956385850857
-0.07505640113519242   -0.0175075511125661   -0.02076956385850857
-0.11207471924710405   0.02944846460183314   -0.023814093688076167
-0.11207471924710405   0.02944846460183314   -0.023814093688076167
-0.11207471924710405   0.02944846460183314   -0.023814093688076167
-0.11207471924710405   0.02944846460183314   -0.023814093688076167
-0.2867001439231523   0.012058545432578407   0.007994995084582814
-0.2867001439231523   0.012058545432578407   0.007994995084582814
-0.2867001439231523   0.012058545432578407   0.007994995084582814
-0.2867001439231523   0.012058545432578407   0.007994995084582814
-0.3118470042845684   -0.03353399524941922   -0.02504757481741148
-0.3118470042845684   -0.03353399524941922   -0.02504757481741148
-0.3118470042845684   -0.03353399524941922   -0.02504757481741148
-0.3118470042845684   -0.03353399524941922   -0.02504757481741148
-0.11521154670711511   0.02854726294669394   0.023923222101816355
-0.11521154670711511   0.02854726294669394   0.023923222101816355
-0.11521154670711511   0.02854726294669394   0.023923222101816355
-0.11521154670711511   0.02854726294669394   0.023923222101816355
-0.20603442220119064   0.008547442254942972   0.004550381192845419
-0.20603442220119064   0.008547442254942972   0.004550381192845419
-0.20603442220119064   0.008547442254942972   0.004550381192845419
-0.20603442220119064   0.008547442254942972   0.004550381192845419
-0.12878365679300754   0.004175146780154161   -0.019565212161105447
-0.12878365679300754   0.004175146780154161   -0.019565212161105447
-0.12878365679300754   0.004175146780154161   -0.019565212161105447
-0.12878365679300754   0.004175146780154161   -0.019565212161105447
-0.2999682141120552   -0.010855198996259231   0.011667579791990566
-0.2999682141120552   -0.010855198996259231   0.011667579791990566
-0.2999682141120552   -0.010855198996259231   0.011667579791990566
-0.2999682141120552   -0.010855198996259231   0.011667579791990566
-0.3243496276502846   -0.05404098000727964   -0.01848084038502899
-0.3243496276502846   -0.05404098000727964   -0.01848084038502899
-0.3243496276502846   -0.05404098000727964   -0.01848084038502899
-0.3243496276502846   -0.05404098000727964   -0.01848084038502899
-0.13457533956590678   0.0058870696159081595   0.02697281779478981
-0.13457533956590678   0.0058870696159081595   0.02697281779478981
-0.13457533956590678   0.0058870696159081595   0.02697281779478981
-0.13457533956590678   0.0058870696159081595   0.02697281779478981
-0.22182889797845454   -0.012028688247293064   -0.005771715907138543
-0.22182889797845454   -0.012028688247293064   -0.005771715907138543
-0.22182889797845454   -0.012028688247293064   -0.005771715907138543
-0.22182889797845454   -0.012028688247293064   -0.005771715907138543
-0.14765661494707338   -0.017929589407215295   -0.01461690008791846
-0.14765661494707338   -0.017929589407215295   -0.01461690008791846
-0.14765661494707338   -0.017929589407215295   -0.01461690008791846
-0.14765661494707338   -0.017929589407215295   -0.01461690008791846
-0.31308585066674044   -0.03204181938177844   0.01583888390719047
-0.31308585066674044   -0.03204181938177844   0.01583888390719047
-0.31308585066674044   -0.03204181938177844   0.01583888390719047
-0.31308585066674044   -0.03204181938177844   0.01583888390719047
-0.3369346827041522   -0.07515373802507994   -0.012665260445988223
-0.3369346827041522   -0.07515373802507994   -0.012665260445988223
-0.3369346827041522   -0.07515373802507994   -0.012665260445988223
-0.3369346827041522   -0.07515373802507994   -0.012665260445988223
-0.15076849888024518   -0.01708593554997733   0.03346688098097824
-0.15076849888024518   -0.01708593554997733   0.03346688098097824
-0.15076849888024518   -0.01708593554997733   0.03346688098097824
-0.15076849888024518   -0.01708593554997733   0.03346688098097824
-0.23761175845687088   -0.03239186775830434   -0.016272421020743808
-0.23761175845687088   -0.03239186775830434   -0.016272421020743808
-0.23761175845687088   -0.03239186775830434   -0.016272421020743808
-0.23761175845687088   -0.03239186775830434   -0.016272421020743808
-0.2814767840864294   0.04869755952388996   -0.0025272198231220365
-0.2814767840864294   0.04869755952388996   -0.0025272198231220365
-0.2814767840864294   0.04869755952388996   -0.0025272198231220365
-0.2814767840864294   0.04869755952388996   -0.0025272198231220365
-0.47362537592894005   -0.016209429299082742   -0.013374084995940522
-0.47362537592894005   -0.016209429299082742   -0.013374084995940522
-0.47362537592894005   -0.016209429299082742   -0.013374084995940522
-0.47362537592894005   -0.016209429299082742   -0.013374084995940522
-0.47859716707123734   -0.011799629507290854   -0.002814134365045934
-0.47859716707123734   -0.011799629507290854   -0.002814134365045934
-0.47859716707123734   -0.011799629507290854   -0.002814134365045934
-0.47859716707123734   -0.011799629507290854   -0.002814134365045934
-0.29885511710279616   0.002687978733240101   0.0036898871087863785
-0.29885511710279616   0.002687978733240101   0.0036898871087863785
-0.29885511710279616   0.002687978733240101   0.0036898871087863785
-0.29885511710279616   0.002687978733240101   0.0036898871087863785
-0.38233894362138154   0.005472367670591519   0.0015423065248459482
-0.38233894362138154   0.005472367670591519   0.0015423065248459482
-0.38233894362138154   0.005472367670591519   0.0015423065248459482
-0.38233894362138154   0.005472367670591519   0.0015423065248459482
-0.29412301365509896   0.026388087220873782   0.0036502958596388163
-0.29412301365509896   0.026388087220873782   0.0036502958596388163
-0.29412301365509896   0.026388087220873782   0.0036502958596388163
-0.29412301365509896   0.026388087220873782   0.0036502958596388163
-0.48495781244032926   -0.037128279916319215   -0.009288710801477106
-0.48495781244032926   -0.037128279916319215   -0.009288710801477106
-0.48495781244032926   -0.037128279916319215   -0.009288710801477106
-0.48495781244032926   -0.037128279916319215   -0.009288710801477106
-0.4903191635360321   -0.03383002671430507   0.003298399585143885
-0.4903191635360321   -0.03383002671430507   0.003298399585143885
-0.4903191635360321   -0.03383002671430507   0.003298399585143885
-0.4903191635360321   -0.03383002671430507   0.003298399585143885
-0.31211580985007664   -0.01896819319575596   0.007615461804486932
-0.31211580985007664   -0.01896819319575596   0.007615461804486932
-0.31211580985007664   -0.01896819319575596   0.007615461804486932
-0.31211580985007664   -0.01896819319575596   0.007615461804486932
-0.39504768455964295   -0.014563466302390138   -0.007937983915913
-0.39504768455964295   -0.014563466302390138   -0.007937983915913
-0.39504768455964295   -0.014563466302390138   -0.007937983915913
-0.39504768455964295   -0.014563466302390138   -0.007937983915913
-0.3072373623643207   0.003945462342097264   0.009094043695413511
-0.3072373623643207   0.003945462342097264   0.009094043695413511
-0.3072373623643207   0.003945462342097264   0.009094043695413511
-0.3072373623643207   0.003945462342097264   0.009094043695413511
-0.497160767024546   -0.05870683825491625   -0.00603280631681451
-0.497160767024546   -0.05870683825491625   -0.00603280631681451
-0.497160767024546   -0.05870683825491625   -0.00603280631681451
-0.497160767024546   -0.05870683825491625   -0.00603280631681451
-0.5017360406498544   -0.05496522017197373   0.009159019554253805
-0.5017360406498544   -0.05496522017197373   0.009159019554253805
-0.5017360406498544   -0.05496522017197373   0.009159019554253805
-0.5017360406498544   -0.05496522017197373   0.009159019554253805
-0.32484838920966413   -0.03940189256132448   0.012014361562696523
-0.32484838920966413   -0.03940189256132448   0.012014361562696523
-0.32484838920966413   -0.03940189256132448   0.012014361562696523
-0.32484838920966413   -0.03940189256132448   0.012014361562696523
-0.40872335877591104   -0.034724914212771026   -0.018239089146207144
-0.40872335877591104   -0.034724914212771026   -0.018239089146207144
-0.40872335877591104   -0.034724914212771026   -0.018239089146207144
-0.40872335877591104   -0.034724914212771026   -0.018239089146207144
-0.4497087556070211   0.07056342790442988   0.019436159410141464
-0.4497087556070211   0.07056342790442988   0.019436159410141464
-0.4497087556070211   0.07056342790442988   0.019436159410141464
-0.4497087556070211   0.07056342790442988   0.019436159410141464
-0.6531373444661568   -0.02694220870375505   -0.03001013653427518
-0.6531373444661568   -0.02694220870375505   -0.03001013653427518
-0.6531373444661568   -0.02694220870375505   -0.03001013653427518
-0.6531373444661568   -0.02694220870375505   -0.03001013653427518
-0.6443554457798929   0.010573547159330537   0.020135027483680408
-0.6443554457798929   0.010573547159330537   0.020135027483680408
-0.6443554457798929   0.010573547159330537   0.020135027483680408
-0.6443554457798929   0.010573547159330537   0.020135027483680408
-0.4802507384262872   -0.009520290843327131   -0.013361329804258835
-0.4802507384262872   -0.009520290843327131   -0.013361329804258835
-0.4802507384262872   -0.009520290843327131   -0.013361329804258835
-0.4802507384262872   -0.009520290843327131   -0.013361329804258835
-0.5549412910461627   0.011249040837427601   0.0026605790819704545
-0.5549412910461627   0.011249040837427601   0.0026605790819704545
-0.5549412910461627   0.011249040837427601   0.0026605790819704545
-0.5549412910461627   0.011249040837427601   0.0026605790819704545
-0.4608754968703582   0.04836787405909948   0.02562671307295957
-0.4608754968703582   0.04836787405909948   0.02562671307295957
-0.4608754968703582   0.04836787405909948   0.02562671307295957
-0.4608754968703582   0.04836787405909948   0.02562671307295957
-0.6661086872146449   -0.04969261762191517   -0.028365014908841333
-0.6661086872146449   -0.04969261762191517   -0.028365014908841333
-0.6661086872146449   -0.04969261762191517   -0.028365014908841333
-0.6661086872146449   -0.04969261762191517   -0.028365014908841333
-0.6600679089149463   -0.011104844858272428   0.02378075518130547
-0.6600679089149463   -0.011104844858272428   0.02378075518130547
-0.6600679089149463   -0.011104844858272428   0.02378075518130547
-0.6600679089149463   -0.011104844858272428   0.02378075518130547
-0.491871558540936   -0.029206498429454927   -0.009087103724225776
-0.491871558540936   -0.029206498429454927   -0.009087103724225776
-0.491871558540936   -0.029206498429454927   -0.009087103724225776
-0.491871558540936   -0.029206498429454927   -0.009087103724225776
-0.5656157864392717   -0.008058894236684405   -0.0076163067933606235
-0.5656157864392717   -0.008058894236684405   -0.0076163067933606235
-0.5656157864392717   -0.008058894236684405   -0.0076163067933606235
-0.5656157864392717   -0.008058894236684405   -0.0076163067933606235
-0.4722776374538141   0.028026882545066883   0.031649120736869804
-0.4722776374538141   0.028026882545066883   0.031649120736869804
-0.4722776374538141   0.028026882545066883   0.031649120736869804
-0.4722776374538141   0.028026882545066883   0.031649120736869804
-0.6815396395846112   -0.07021603541533852   -0.024466707609968552
-0.6815396395846112   -0.07021603541533852   -0.024466707609968552
-0.6815396395846112   -0.07021603541533852   -0.024466707609968552
-0.6815396395846112   -0.07021603541533852   -0.024466707609968552
-0.6728414008097879   -0.03293629719300528   0.03028530245384635
-0.6728414008097879   -0.03293629719300528   0.03028530245384635
-0.6728414008097879   -0.03293629719300528   0.03028530245384635
-0.6728414008097879   -0.03293629719300528   0.03028530245384635
-0.5035341596691397   -0.04935889876616393   -0.005437896947982591
-0.5035341596691397   -0.04935889876616393   -0.005437896947982591
-0.5035341596691397   -0.04935889876616393   -0.005437896947982591
-0.5035341596691397   -0.04935889876616393   -0.005437896947982591
-0.5816783359323423   -0.027744262334224473   -0.01814594756006304
-0.5816783359323423   -0.027744262334224473   -0.01814594756006304
-0.5816783359323423   -0.027744262334224473   -0.01814594756006304
-0.5816783359323423   -0.027744262334224473   -0.01814594756006304
-0.6187683804547562   0.0764622864184428   0.038430188400529815
-0.6187683804547562   0.0764622864184428   0.038430188400529815
-0.6187683804547562   0.0764622864184428   0.038430188400529815
-0.6187683804547562   0.0764622864184428   0.038430188400529815
-0.7960216573543952   -0.03978762790021098   -0.050232952113769554
-0.7960216573543952   -0.03978762790021098   -0.050232952113769554
-0.7960216573543952   -0.03978762790021098   -0.050232952113769554
-0.7960216573543952   -0.03978762790021098   -0.050232952113769554
-0.7966360433268049   0.03079130225316537   0.04236332516931617
-0.7966360433268049   0.03079130225316537   0.04236332516931617
-0.7966360433268049   0.03079130225316537   0.04236332516931617
-0.7966360433268049   0.03079130225316537   0.04236332516931617
-0.6611535919277564   -0.022547676508717834   -0.030734479587587814
-0.6611535919277564   -0.022547676508717834   -0.030734479587587814
-0.6611535919277564   -0.022547676508717834   -0.030734479587587814
-0.6611535919277564   -0.022547676508717834   -0.030734479587587814
-0.6891015702804714   0.01817254235289642   0.013301005121817054
-0.6891015702804714   0.01817254235289642   0.013301005121817054
-0.6891015702804714   0.01817254235289642   0.013301005121817054
-0.6891015702804714   0.01817254235289642   0.013301005121817054
-0.6284243030592672   0.06502820243502994   0.045336085811101344
-0.6284243030592672   0.06502820243502994   0.045336085811101344
-0.6284243030592672   0.06502820243502994   0.045336085811101344
-0.6284243030592672   0.06502820243502994   0.045336085811101344
-0.8318343026711887   -0.05925354716647849   -0.04358312213292799
-0.8318343026711887   -0.05925354716647849   -0.04358312213292799
-0.8318343026711887   -0.05925354716647849   -0.04358312213292799
-0.8318343026711887   -0.05925354716647849   -0.04358312213292799
-0.8252159341162734   0.018446704107814793   0.05458958759615663
-0.8252159341162734   0.018446704107814793   0.05458958759615663
-0.8252159341162734   0.018446704107814793   0.05458958759615663
-0.8252159341162734   0.018446704107814793   0.05458958759615663
-0.6747617582448323   -0.03386352561325738   -0.026929810713147272
-0.6747617582448323   -0.03386352561325738   -0.026929810713147272
-0.6747617582448323   -0.03386352561325738   -0.026929810713147272
-0.6747617582448323   -0.03386352561325738   -0.026929810713147272
-0.7231092760613252   0.0031591600116205043   -0.0009473593592074434
-0.7231092760613252   0.0031591600116205043   -0.0009473593592074434
-0.7231092760613252   0.0031591600116205043   -0.0009473593592074434
-0.7231092760613252   0.0031591600116205043   -0.0009473593592074434
-0.6406665412366563   0.055312679089501604   0.054370069624973635
-0.6406665412366563   0.055312679089501604   0.054370069624973635
-0.6406665412366563   0.055312679089501604   0.054370069624973635
-0.6406665412366563   0.055312679089501604   0.054370069624973635
-0.8618287228054768   -0.07324707227596663   -0.036780579466079655
-0.8618287228054768   -0.07324707227596663   -0.036780579466079655
-0.8618287228054768   -0.07324707227596663   -0.036780579466079655
-0.8618287228054768   -0.07324707227596663   -0.036780579466079655
-0.8674664668709738   -0.014023230144966842   0.05772751187146843
-0.8674664668709738   -0.014023230144966842   0.05772751187146843
-0.8674664668709738   -0.014023230144966842   0.05772751187146843
-0.8674664668709738   -0.014023230144966842   0.05772751187146843
-0.6884247147250022   -0.05730587396688269   -0.023261690348355596
-0.6884247147250022   -0.05730587396688269   -0.023261690348355596
-0.6884247147250022   -0.05730587396688269   -0.023261690348355596
-0.6884247147250022   -0.05730587396688269   -0.023261690348355596
-0.73618535763528   -0.011708408879474025   -0.011067718478070095
-0.73618535763528   -0.011708408879474025   -0.011067718478070095
-0.73618535763528   -0.011708408879474025   -0.011067718478070095
-0.73618535763528   -0.011708408879474025   -0.011067718478070095
-0.33916608569561774   -0.02215106472288815   -0.06351224273355602
-0.33916608569561774   -0.02215106472288815   -0.06351224273355602
-0.33916608569561774   -0.02215106472288815   -0.06351224273355602
-0.33916608569561774   -0.02215106472288815   -0.06351224273355602
-0.3351807204834983   0.04867504361580202   0.02858031622201088
-0.3351807204834983   0.04867504361580202   0.02858031622201088
-0.3351807204834983   0.04867504361580202   0.02858031622201088
-0.3351807204834983   0.04867504361580202   0.02858031622201088
-0.3770660683676982   -0.044427974504564614   -0.04304272972055196
-0.3770660683676982   -0.044427974504564614   -0.04304272972055196
-0.3770660683676982   -0.044427974504564614   -0.04304272972055196
-0.3770660683676982   -0.044427974504564614   -0.04304272972055196
-0.34614470671530206   0.025356212249535784   0.04296820037679584
-0.34614470671530206   0.025356212249535784   0.04296820037679584
-0.34614470671530206   0.025356212249535784   0.04296820037679584
-0.34614470671530206   0.025356212249535784   0.04296820037679584
-0.3318534658425926   0.008181667447504065   0.02915750245989245
-0.3318534658425926   0.008181667447504065   0.02915750245989245
-0.3318534658425926   0.008181667447504065   0.02915750245989245
-0.3318534658425926   0.008181667447504065   0.02915750245989245
-0.3798557903323406   -0.04701964503762371   -0.053211360421235615
-0.3798557903323406   -0.04701964503762371   -0.053211360421235615
-0.3798557903323406   -0.04701964503762371   -0.053211360421235615
-0.3798557903323406   -0.04701964503762371   -0.053211360421235615
-0.34754808966182593   0.023754777871433902   0.036364411432810315
-0.34754808966182593   0.023754777871433902   0.036364411432810315
-0.34754808966182593   0.023754777871433902   0.036364411432810315
-0.34754808966182593   0.023754777871433902   0.036364411432810315
-0.389658724995781   -0.055983991462053455   -0.036418071506777366
-0.389658724995781   -0.055983991462053455   -0.036418071506777366
-0.389658724995781   -0.055983991462053455   -0.036418071506777366
-0.389658724995781   -0.055983991462053455   -0.036418071506777366
-0.37863823911082467   0.0096187354513972   0.07985268595427641
-0.37863823911082467   0.0096187354513972   0.07985268595427641
-0.37863823911082467   0.0096187354513972   0.07985268595427641
-0.37863823911082467   0.0096187354513972   0.07985268595427641
-0.3618202937808862   -0.011673998484777903   0.011645414845675623
-0.3618202937808862   -0.011673998484777903   0.011645414845675623
-0.3618202937808862   -0.011673998484777903   0.011645414845675623
-0.3618202937808862   -0.011673998484777903   0.011645414845675623
-0.417329001821566   -0.062525759129551   -0.041456633018480155
-0.417329001821566   -0.062525759129551   -0.041456633018480155
-0.417329001821566   -0.062525759129551   -0.041456633018480155
-0.417329001821566   -0.062525759129551   -0.041456633018480155
-0.36088438704504316   0.006244078358891569   0.04522554842596674
-0.36088438704504316   0.006244078358891569   0.04522554842596674
-0.36088438704504316   0.006244078358891569   0.04522554842596674
-0.36088438704504316   0.006244078358891569   0.04522554842596674
-0.3999656465207049   -0.07848880072813513   -0.02865312158274526
-0.3999656465207049   -0.07848880072813513   -0.02865312158274526
-0.3999656465207049   -0.07848880072813513   -0.02865312158274526
-0.3999656465207049   -0.07848880072813513   -0.02865312158274526
-0.4291517346850714   -0.042387610239088644   0.07473411526866841
-0.4291517346850714   -0.042387610239088644   0.07473411526866841
-0.4291517346850714   -0.042387610239088644   0.07473411526866841
-0.4291517346850714   -0.042387610239088644   0.07473411526866841
-0.38775585371060045   -0.03514972627202604   -0.01608640726572263
-0.38775585371060045   -0.03514972627202604   -0.01608640726572263
-0.38775585371060045   -0.03514972627202604   -0.01608640726572263
-0.38775585371060045   -0.03514972627202604   -0.01608640726572263
-0.3592976432639039   -0.01060483688778191   -0.032724417176436565
-0.3592976432639039   -0.01060483688778191   -0.032724417176436565
-0.3592976432639039   -0.01060483688778191   -0.032724417176436565
-0.3592976432639039   -0.01060483688778191   -0.032724417176436565
-0.3637873315887246   -0.04468085589144795   -0.0019013013399333152
-0.3637873315887246   -0.04468085589144795   -0.0019013013399333152
-0.3637873315887246   -0.04468085589144795   -0.0019013013399333152
-0.3637873315887246   -0.04468085589144795   -0.0019013013399333152
-0.36640082035823157   -0.02973604798092548   -0.016304058885133615
-0.36640082035823157   -0.02973604798092548   -0.016304058885133615
-0.36640082035823157   -0.02973604798092548   -0.016304058885133615
-0.36640082035823157   -0.02973604798092548   -0.016304058885133615
-0.37186826040486454   -0.06082455327127169   -0.0006571111396771116
-0.37186826040486454   -0.06082455327127169   -0.0006571111396771116
-0.37186826040486454   -0.06082455327127169   -0.0006571111396771116
-0.37186826040486454   -0.06082455327127169   -0.0006571111396771116
-0.36223115397511163   -0.03804408048386288   -0.0013215157062527374
-0.36223115397511163   -0.03804408048386288   -0.0013215157062527374
-0.36223115397511163   -0.03804408048386288   -0.0013215157062527374
-0.36223115397511163   -0.03804408048386288   -0.0013215157062527374
-0.37188119734393205   -0.03323381785190845   -0.028312531254378666
-0.37188119734393205   -0.03323381785190845   -0.028312531254378666
-0.37188119734393205   -0.03323381785190845   -0.028312531254378666
-0.37188119734393205   -0.03323381785190845   -0.028312531254378666
-0.3687233948391692   -0.05966229482028888   0.0020093155495415423
-0.3687233948391692   -0.05966229482028888   0.0020093155495415423
-0.3687233948391692   -0.05966229482028888   0.0020093155495415423
-0.3687233948391692   -0.05966229482028888   0.0020093155495415423
-0.3725150076336211   -0.04919747435333401   -0.010510233983737466
-0.3725150076336211   -0.04919747435333401   -0.010510233983737466
-0.3725150076336211   -0.04919747435333401   -0.010510233983737466
-0.3725150076336211   -0.04919747435333401   -0.010510233983737466
-0.38529910359827557   -0.0788893408771144   0.008285384895810734
-0.38529910359827557   -0.0788893408771144   0.008285384895810734
-0.38529910359827557   -0.0788893408771144   0.008285384895810734
-0.38529910359827557   -0.0788893408771144   0.008285384895810734
-0.37051992453056465   -0.05376058101193025   -0.010326490478969531
-0.37051992453056465   -0.05376058101193025   -0.010326490478969531
-0.37051992453056465   -0.05376058101193025   -0.010326490478969531
-0.37051992453056465   -0.05376058101193025   -0.010326490478969531
-0.3861855299363608   -0.05403062462623367   -0.02100546304549602
-0.3861855299363608   -0.05403062462623367   -0.02100546304549602
-0.3861855299363608   -0.05403062462623367   -0.02100546304549602
-0.3861855299363608   -0.05403062462623367   -0.02100546304549602
-0.3746158769426556   -0.07704348625133571   0.0068314313690841615
-0.3746158769426556   -0.07704348625133571   0.0068314313690841615
-0.3746158769426556   -0.07704348625133571   0.0068314313690841615
-0.3746158769426556   -0.07704348625133571   0.0068314313690841615
-0.37799941285880057   -0.07017977861756601   -0.004771420378379065
-0.37799941285880057   -0.07017977861756601   -0.004771420378379065
-0.37799941285880057   -0.07017977861756601   -0.004771420378379065
-0.37799941285880057   -0.07017977861756601   -0.004771420378379065
-0.3955725851400761   -0.10184642378576698   0.016669808378028454
-0.3955725851400761   -0.10184642378576698   0.016669808378028454
-0.3955725851400761   -0.10184642378576698   0.016669808378028454
-0.3955725851400761   -0.10184642378576698   0.016669808378028454
-0.3819372258284034   -0.0727606867727915   -0.021787104055527817
-0.3819372258284034   -0.0727606867727915   -0.021787104055527817
-0.3819372258284034   -0.0727606867727915   -0.021787104055527817
-0.3819372258284034   -0.0727606867727915   -0.021787104055527817
-0.35382495080589205   0.009226185051054894   -0.005996438368269644
-0.35382495080589205   0.009226185051054894   -0.005996438368269644
-0.35382495080589205   0.009226185051054894   -0.005996438368269644
-0.35382495080589205   0.009226185051054894   -0.005996438368269644
-0.3999948723983002   -0.07593454140873702   -0.019163149762967988
-0.3999948723983002   -0.07593454140873702   -0.019163149762967988
-0.3999948723983002   -0.07593454140873702   -0.019163149762967988
-0.3999948723983002   -0.07593454140873702   -0.019163149762967988
-0.3836312873515181   -0.013991571898322328   0.005068304199696151
-0.3836312873515181   -0.013991571898322328   0.005068304199696151
-0.3836312873515181   -0.013991571898322328   0.005068304199696151
-0.3836312873515181   -0.013991571898322328   0.005068304199696151
-0.37599550853626634   -0.08217231850423412   -0.0118412292519988
-0.37599550853626634   -0.08217231850423412   -0.0118412292519988
-0.37599550853626634   -0.08217231850423412   -0.0118412292519988
-0.37599550853626634   -0.08217231850423412   -0.0118412292519988
-0.3780974778971245   -0.04200642464039554   -0.008576146010121213
-0.3780974778971245   -0.04200642464039554   -0.008576146010121213
-0.3780974778971245   -0.04200642464039554   -0.008576146010121213
-0.3780974778971245   -0.04200642464039554   -0.008576146010121213
-0.359227196887327   -0.010132343789770376   -3.964572176592268e-05
-0.359227196887327   -0.010132343789770376   -3.964572176592268e-05
-0.359227196887327   -0.010132343789770376   -3.964572176592268e-05
-0.359227196887327   -0.010132343789770376   -3.964572176592268e-05
-0.4025193770449956   -0.08815132465732033   -0.01521239150870061
-0.4025193770449956   -0.08815132465732033   -0.01521239150870061
-0.4025193770449956   -0.08815132465732033   -0.01521239150870061
-0.4025193770449956   -0.08815132465732033   -0.01521239150870061
-0.38801694847394896   -0.03350676009002228   0.010823765957058345
-0.38801694847394896   -0.03350676009002228   0.010823765957058345
-0.38801694847394896   -0.03350676009002228   0.010823765957058345
-0.38801694847394896   -0.03350676009002228   0.010823765957058345
-0.38171797637371824   -0.09755450853687223   -0.00816804350068498
-0.38171797637371824   -0.09755450853687223   -0.00816804350068498
-0.38171797637371824   -0.09755450853687223   -0.00816804350068498
-0.38171797637371824   -0.09755450853687223   -0.00816804350068498
-0.38275860305643516   -0.05687473266560626   -0.01629763312720016
-0.38275860305643516   -0.05687473266560626   -0.01629763312720016
-0.38275860305643516   -0.05687473266560626   -0.01629763312720016
-0.38275860305643516   -0.05687473266560626   -0.01629763312720016
-0.36541599153738247   -0.02999487288774691   0.005782245031868662
-0.36541599153738247   -0.02999487288774691   0.005782245031868662
-0.36541599153738247   -0.02999487288774691   0.005782245031868662
-0.36541599153738247   -0.02999487288774691   0.005782245031868662
-0.4066868376449937   -0.10343430007385523   -0.012598139914339968
-0.4066868376449937   -0.10343430007385523   -0.012598139914339968
-0.4066868376449937   -0.10343430007385523   -0.012598139914339968
-0.4066868376449937   -0.10343430007385523   -0.012598139914339968
-0.39158269347444785   -0.05186124012289872   0.01645192801960902
-0.39158269347444785   -0.05186124012289872   0.01645192801960902
-0.39158269347444785   -0.05186124012289872   0.01645192801960902
-0.39158269347444785   -0.05186124012289872   0.01645192801960902
-0.3859716708122468   -0.11231788217384453   -0.0024946065893358214
-0.3859716708122468   -0.11231788217384453   -0.0024946065893358214
-0.3859716708122468   -0.11231788217384453   -0.0024946065893358214
-0.3859716708122468   -0.11231788217384453   -0.0024946065893358214
-0.3883174081622675   -0.07242594593616074   -0.02478186460495823
-0.3883174081622675   -0.07242594593616074   -0.02478186460495823
-0.3883174081622675   -0.07242594593616074   -0.02478186460495823
-0.3883174081622675   -0.07242594593616074   -0.02478186460495823
-0.36933921475273374   0.039546303297508426   0.018634293758618976
-0.36933921475273374   0.039546303297508426   0.018634293758618976
-0.36933921475273374   0.039546303297508426   0.018634293758618976
-0.36933921475273374   0.039546303297508426   0.018634293758618976
-0.43626360776499395   -0.05660712356369201   -0.026692307221069522
-0.43626360776499395   -0.05660712356369201   -0.026692307221069522
-0.43626360776499395   -0.05660712356369201   -0.026692307221069522
-0.43626360776499395   -0.05660712356369201   -0.026692307221069522
-0.41269588567762217   0.011829442770931467   0.02583248551836907
-0.41269588567762217   0.011829442770931467   0.02583248551836907
-0.41269588567762217   0.011829442770931467   0.02583248551836907
-0.41269588567762217   0.011829442770931467   0.02583248551836907
-0.3977344187659386   -0.06326231167998361   -0.016176613090745175
-0.3977344187659386   -0.06326231167998361   -0.016176613090745175
-0.3977344187659386   -0.06326231167998361   -0.016176613090745175
-0.3977344187659386   -0.06326231167998361   -0.016176613090745175
-0.4039782933199272   -0.016697276420583634   -0.005122325568542908
-0.4039782933199272   -0.016697276420583634   -0.005122325568542908
-0.4039782933199272   -0.016697276420583634   -0.005122325568542908
-0.4039782933199272   -0.016697276420583634   -0.005122325568542908
-0.37307108465959526   0.019469545852545372   0.024408199908442424
-0.37307108465959526   0.019469545852545372   0.024408199908442424
-0.37307108465959526   0.019469545852545372   0.024408199908442424
-0.37307108465959526   0.019469545852545372   0.024408199908442424
-0.440173194950268   -0.07371638992790522   -0.02600822814602379
-0.440173194950268   -0.07371638992790522   -0.02600822814602379
-0.440173194950268   -0.07371638992790522   -0.02600822814602379
-0.440173194950268   -0.07371638992790522   -0.02600822814602379
-0.4203194083114691   -0.007221223707792712   0.029287119654618318
-0.4203194083114691   -0.007221223707792712   0.029287119654618318
-0.4203194083114691   -0.007221223707792712   0.029287119654618318
-0.4203194083114691   -0.007221223707792712   0.029287119654618318
-0.40154822300253035   -0.07745955917260607   -0.012879807603264818
-0.40154822300253035   -0.07745955917260607   -0.012879807603264818
-0.40154822300253035   -0.07745955917260607   -0.012879807603264818
-0.40154822300253035   -0.07745955917260607   -0.012879807603264818
-0.4078129583686921   -0.03281087154067315   -0.014177132901655388
-0.4078129583686921   -0.03281087154067315   -0.014177132901655388
-0.4078129583686921   -0.03281087154067315   -0.014177132901655388
-0.4078129583686921   -0.03281087154067315   -0.014177132901655388
-0.3771654027296564   0.0015559169961203295   0.03001881759237092
-0.3771654027296564   0.0015559169961203295   0.03001881759237092
-0.3771654027296564   0.0015559169961203295   0.03001881759237092
-0.3771654027296564   0.0015559169961203295   0.03001881759237092
-0.4471408541435229   -0.08867532543570279   -0.023366007777740675
-0.4471408541435229   -0.08867532543570279   -0.023366007777740675
-0.4471408541435229   -0.08867532543570279   -0.023366007777740675
-0.4471408541435229   -0.08867532543570279   -0.023366007777740675
-0.4253558121398156   -0.02549270508154658   0.03571472394574937
-0.4253558121398156   -0.02549270508154658   0.03571472394574937
-0.4253558121398156   -0.02549270508154658   0.03571472394574937
-0.4253558121398156   -0.02549270508154658   0.03571472394574937
-0.4048211118836788   -0.09171939116845527   -0.009882012980997
-0.4048211118836788   -0.09171939116845527   -0.009882012980997
-0.4048211118836788   -0.09171939116845527   -0.009882012980997
-0.4048211118836788   -0.09171939116845527   -0.009882012980997
-0.4145402995889643   -0.04799449183160431   -0.022948851210421256
-0.4145402995889643   -0.04799449183160431   -0.022948851210421256
-0.4145402995889643   -0.04799449183160431   -0.022948851210421256
-0.4145402995889643   -0.04799449183160431   -0.022948851210421256
-0.4008182828719548   0.056737563462598214   0.03718963021783588
-0.4008182828719548   0.056737563462598214   0.03718963021783588
-0.4008182828719548   0.056737563462598214   0.03718963021783588
-0.4008182828719548   0.056737563462598214   0.03718963021783588
-0.42807696647429166   -0.03415139831194747   -0.038691110609388055
-0.42807696647429166   -0.03415139831194747   -0.038691110609388055
-0.42807696647429166   -0.03415139831194747   -0.038691110609388055
-0.42807696647429166   -0.03415139831194747   -0.038691110609388055
-0.4184197402622415   0.04041143866545546   0.041327244617794495
-0.4184197402622415   0.04041143866545546   0.041327244617794495
-0.4184197402622415   0.04041143866545546   0.041327244617794495
-0.4184197402622415   0.04041143866545546   0.041327244617794495
-0.4337409053380893   -0.04391402332507741   -0.02364914668796568
-0.4337409053380893   -0.04391402332507741   -0.02364914668796568
-0.4337409053380893   -0.04391402332507741   -0.02364914668796568
-0.4337409053380893   -0.04391402332507741   -0.02364914668796568
-0.40598273306254645   0.010157204257926017   0.0015517704735080254
-0.40598273306254645   0.010157204257926017   0.0015517704735080254
-0.40598273306254645   0.010157204257926017   0.0015517704735080254
-0.40598273306254645   0.010157204257926017   0.0015517704735080254
-0.40285775041363747   0.04385742386122096   0.04299518074798737
-0.40285775041363747   0.04385742386122096   0.04299518074798737
-0.40285775041363747   0.04385742386122096   0.04299518074798737
-0.40285775041363747   0.04385742386122096   0.04299518074798737
-0.45159375167637733   -0.049650865010520594   -0.034480508776908884
-0.45159375167637733   -0.049650865010520594   -0.034480508776908884
-0.45159375167637733   -0.049650865010520594   -0.034480508776908884
-0.45159375167637733   -0.049650865010520594   -0.034480508776908884
-0.436849242566767   0.02974777034295366   0.053214153389842575
-0.436849242566767   0.02974777034295366   0.053214153389842575
-0.436849242566767   0.02974777034295366   0.053214153389842575
-0.436849242566767   0.02974777034295366   0.053214153389842575
-0.4395027810639971   -0.05226675036052807   -0.02158421745529438
-0.4395027810639971   -0.05226675036052807   -0.02158421745529438
-0.4395027810639971   -0.05226675036052807   -0.02158421745529438
-0.4395027810639971   -0.05226675036052807   -0.02158421745529438
-0.4258300033348269   -0.0027663103801976036   -0.009125928190011762
-0.4258300033348269   -0.0027663103801976036   -0.009125928190011762
-0.4258300033348269   -0.0027663103801976036   -0.009125928190011762
-0.4258300033348269   -0.0027663103801976036   -0.009125928190011762
-0.40738087067638074   0.03529194238959528   0.05146664173266431
-0.40738087067638074   0.03529194238959528   0.05146664173266431
-0.40738087067638074   0.03529194238959528   0.05146664173266431
-0.40738087067638074   0.03529194238959528   0.05146664173266431
-0.47195826690405546   -0.06079803635683916   -0.03178516159679142
-0.47195826690405546   -0.06079803635683916   -0.03178516159679142
-0.47195826690405546   -0.06079803635683916   -0.03178516159679142
-0.47195826690405546   -0.06079803635683916   -0.03178516159679142
-0.4693843752532806   0.0025271592677534177   0.05686313635310325
-0.4693843752532806   0.0025271592677534177   0.05686313635310325
-0.4693843752532806   0.0025271592677534177   0.05686313635310325
-0.4693843752532806   0.0025271592677534177   0.05686313635310325
-0.44475732556816405   -0.0680260927516824   -0.018759455525864832
-0.44475732556816405   -0.0680260927516824   -0.018759455525864832
-0.44475732556816405   -0.0680260927516824   -0.018759455525864832
-0.44475732556816405   -0.0680260927516824   -0.018759455525864832
-0.43524351942553374   -0.014652660807619483   -0.018762706603041093
-0.43524351942553374   -0.014652660807619483   -0.018762706603041093
-0.43524351942553374   -0.014652660807619483   -0.018762706603041093
-0.43524351942553374   -0.014652660807619483   -0.018762706603041093
-0.8628257945447858   -0.07881029830068674   -0.0812013192991455
-0.8628257945447858   -0.07881029830068674   -0.0812013192991455
-0.8628257945447858   -0.07881029830068674   -0.0812013192991455
-0.8628257945447858   -0.07881029830068674   -0.0812013192991455
-0.5468777664719905   0.046865003518191534   0.019157346581371443
-0.5468777664719905   0.046865003518191534   0.019157346581371443
-0.5468777664719905   0.046865003518191534   0.019157346581371443
-0.5468777664719905   0.046865003518191534   0.019157346581371443
-0.5742091653944882   -0.03608582901909385   -0.036177547287166226
-0.5742091653944882   -0.03608582901909385   -0.036177547287166226
-0.5742091653944882   -0.03608582901909385   -0.036177547287166226
-0.5742091653944882   -0.03608582901909385   -0.036177547287166226
-0.9170722999838724   -0.10302395473013752   0.09111306059164767
-0.9170722999838724   -0.10302395473013752   0.09111306059164767
-0.9170722999838724   -0.10302395473013752   0.09111306059164767
-0.9170722999838724   -0.10302395473013752   0.09111306059164767
-0.6667861747181139   -0.02528222685843047   0.0883043010542926
-0.6667861747181139   -0.02528222685843047   0.0883043010542926
-0.6667861747181139   -0.02528222685843047   0.0883043010542926
-0.6667861747181139   -0.02528222685843047   0.0883043010542926
-0.9497534401170292   -0.11585207788918495   -0.059464516915080756
-0.9497534401170292   -0.11585207788918495   -0.059464516915080756
-0.9497534401170292   -0.11585207788918495   -0.059464516915080756
-0.9497534401170292   -0.11585207788918495   -0.059464516915080756
-0.5645050596636403   -0.04623474026235398   0.022491892610333217
-0.5645050596636403   -0.04623474026235398   0.022491892610333217
-0.5645050596636403   -0.04623474026235398   0.022491892610333217
-0.5645050596636403   -0.04623474026235398   0.022491892610333217
-0.5829113233800604   -0.05239401746909357   -0.02593799437894184
-0.5829113233800604   -0.05239401746909357   -0.02593799437894184
-0.5829113233800604   -0.05239401746909357   -0.02593799437894184
-0.5829113233800604   -0.05239401746909357   -0.02593799437894184
-0.9461082203477116   -0.1439937755315655   0.002331240748132648
-0.9461082203477116   -0.1439937755315655   0.002331240748132648
-0.9461082203477116   -0.1439937755315655   0.002331240748132648
-0.9461082203477116   -0.1439937755315655   0.002331240748132648
-0.7380327106388552   -0.086889139263866   0.02037494946490404
-0.7380327106388552   -0.086889139263866   0.02037494946490404
-0.7380327106388552   -0.086889139263866   0.02037494946490404
-0.7380327106388552   -0.086889139263866   0.02037494946490404
-0.9535236175633053   -0.13089731800186072   -0.047842202859532695
-0.9535236175633053   -0.13089731800186072   -0.047842202859532695
-0.9535236175633053   -0.13089731800186072   -0.047842202859532695
-0.9535236175633053   -0.13089731800186072   -0.047842202859532695
-0.5824671940255236   -0.07246174285985472   -0.0036496222155013615
-0.5824671940255236   -0.07246174285985472   -0.0036496222155013615
-0.5824671940255236   -0.07246174285985472   -0.0036496222155013615
-0.5824671940255236   -0.07246174285985472   -0.0036496222155013615
-0.583202385336083   -0.0919186841706547   -0.01887060373815027
-0.583202385336083   -0.0919186841706547   -0.01887060373815027
-0.583202385336083   -0.0919186841706547   -0.01887060373815027
-0.583202385336083   -0.0919186841706547   -0.01887060373815027
-0.9685615450236489   -0.21997267330476689   0.01455498566077652
-0.9685615450236489   -0.21997267330476689   0.01455498566077652
-0.9685615450236489   -0.21997267330476689   0.01455498566077652
-0.9685615450236489   -0.21997267330476689   0.01455498566077652
-0.7371134182421415   -0.1194667310097553   0.0014950074451677208
-0.7371134182421415   -0.1194667310097553   0.0014950074451677208
-0.7371134182421415   -0.1194667310097553   0.0014950074451677208
-0.7371134182421415   -0.1194667310097553   0.0014950074451677208
-0.5905529510216069   -0.1001036950331198   -0.05224987761539502
-0.5905529510216069   -0.1001036950331198   -0.05224987761539502
-0.5905529510216069   -0.1001036950331198   -0.05224987761539502
-0.5905529510216069   -0.1001036950331198   -0.05224987761539502
-0.40540673223298657   -0.26162835809686424   -0.04906910765821743
-0.40540673223298657   -0.26162835809686424   -0.04906910765821743
-0.40540673223298657   -0.26162835809686424   -0.04906910765821743
-0.40540673223298657   -0.26162835809686424   -0.04906910765821743
-0.3561135435241354   -0.058154439767638025   -0.0030612605022533887
-0.3561135435241354   -0.058154439767638025   -0.0030612605022533887
-0.3561135435241354   -0.058154439767638025   -0.0030612605022533887
-0.3561135435241354   -0.058154439767638025   -0.0030612605022533887
-0.6276563795130659   -0.2776067251405554   -0.061892721758593006
-0.6276563795130659   -0.2776067251405554   -0.061892721758593006
-0.6276563795130659   -0.2776067251405554   -0.061892721758593006
-0.6276563795130659   -0.2776067251405554   -0.061892721758593006
-0.48918125708444166   -0.18509228112015474   -0.014249299874269917
-0.48918125708444166   -0.18509228112015474   -0.014249299874269917
-0.48918125708444166   -0.18509228112015474   -0.014249299874269917
-0.48918125708444166   -0.18509228112015474   -0.014249299874269917
-0.5900617682512275   -0.11219759227549694   -0.03932879831445593
-0.5900617682512275   -0.11219759227549694   -0.03932879831445593
-0.5900617682512275   -0.11219759227549694   -0.03932879831445593
-0.5900617682512275   -0.11219759227549694   -0.03932879831445593
-0.396102254187013   -0.22595767203373573   -0.03520158155054745
-0.396102254187013   -0.22595767203373573   -0.03520158155054745
-0.396102254187013   -0.22595767203373573   -0.03520158155054745
-0.396102254187013   -0.22595767203373573   -0.03520158155054745
-0.360044927593406   -0.07537509277370025   0.0006024494080118623
-0.360044927593406   -0.07537509277370025   0.0006024494080118623
-0.360044927593406   -0.07537509277370025   0.0006024494080118623
-0.360044927593406   -0.07537509277370025   0.0006024494080118623
-0.6297887509713233   -0.2761677101713518   -0.03655143963300293
-0.6297887509713233   -0.2761677101713518   -0.03655143963300293
-0.6297887509713233   -0.2761677101713518   -0.03655143963300293
-0.6297887509713233   -0.2761677101713518   -0.03655143963300293
-0.483667944324641   -0.1735001385624637   -0.015137587732642257
-0.483667944324641   -0.1735001385624637   -0.015137587732642257
-0.483667944324641   -0.1735001385624637   -0.015137587732642257
-0.483667944324641   -0.1735001385624637   -0.015137587732642257
-0.598975741948677   -0.12917713872048375   -0.029476965970634875
-0.598975741948677   -0.12917713872048375   -0.029476965970634875
-0.598975741948677   -0.12917713872048375   -0.029476965970634875
-0.598975741948677   -0.12917713872048375   -0.029476965970634875
-0.3958064844954525   -0.2273142121039683   -0.026266215771956397
-0.3958064844954525   -0.2273142121039683   -0.026266215771956397
-0.3958064844954525   -0.2273142121039683   -0.026266215771956397
-0.3958064844954525   -0.2273142121039683   -0.026266215771956397
-0.3597674558675837   -0.09685145525000109   0.005839521784365492
-0.3597674558675837   -0.09685145525000109   0.005839521784365492
-0.3597674558675837   -0.09685145525000109   0.005839521784365492
-0.3597674558675837   -0.09685145525000109   0.005839521784365492
-0.6280933672060899   -0.2808014074826689   -0.05444278977617748
-0.6280933672060899   -0.2808014074826689   -0.05444278977617748
-0.6280933672060899   -0.2808014074826689   -0.05444278977617748
-0.6280933672060899   -0.2808014074826689   -0.05444278977617748
-0.4908285429965271   -0.1866492961092126   -0.028106925159289444
-0.4908285429965271   -0.1866492961092126   -0.028106925159289444
-0.4908285429965271   -0.1866492961092126   -0.028106925159289444
-0.4908285429965271   -0.1866492961092126   -0.028106925159289444
-0.3570498769856286   -0.06441295856438956   -0.004500230953902288
-0.3570498769856286   -0.06441295856438956   -0.004500230953902288
-0.3570498769856286   -0.06441295856438956   -0.004500230953902288
-0.3570498769856286   -0.06441295856438956   -0.004500230953902288
-0.29908959100650945   -0.2000909677885781   -0.034542304696969846
-0.29908959100650945   -0.2000909677885781   -0.034542304696969846
-0.29908959100650945   -0.2000909677885781   -0.034542304696969846
-0.29908959100650945   -0.2000909677885781   -0.034542304696969846
-0.25773141865639665   -0.053391630025446286   0.013798123262070685
-0.25773141865639665   -0.053391630025446286   0.013798123262070685
-0.25773141865639665   -0.053391630025446286   0.013798123262070685
-0.25773141865639665   -0.053391630025446286   0.013798123262070685
-0.395034114802165   -0.21762470342280232   -0.03819385323724097
-0.395034114802165   -0.21762470342280232   -0.03819385323724097
-0.395034114802165   -0.21762470342280232   -0.03819385323724097
-0.395034114802165   -0.21762470342280232   -0.03819385323724097
-0.3257788871642748   -0.13576553982947975   -0.015944519065005994
-0.3257788871642748   -0.13576553982947975   -0.015944519065005994
-0.3257788871642748   -0.13576553982947975   -0.015944519065005994
-0.3257788871642748   -0.13576553982947975   -0.015944519065005994
-0.35900003648493706   -0.076278842715291   0.0006306776413875005
-0.35900003648493706   -0.076278842715291   0.0006306776413875005
-0.35900003648493706   -0.076278842715291   0.0006306776413875005
-0.35900003648493706   -0.076278842715291   0.0006306776413875005
-0.29588399853582525   -0.19685599229515832   -0.03350041386536059
-0.29588399853582525   -0.19685599229515832   -0.03350041386536059
-0.29588399853582525   -0.19685599229515832   -0.03350041386536059
-0.29588399853582525   -0.19685599229515832   -0.03350041386536059
-0.2576976446397169   -0.0675420724053866   0.017873805422741862
-0.2576976446397169   -0.0675420724053866   0.017873805422741862
-0.2576976446397169   -0.0675420724053866   0.017873805422741862
-0.2576976446397169   -0.0675420724053866   0.017873805422741862
-0.3961526705575539   -0.22107602314043578   -0.03423533504599573
-0.3961526705575539   -0.22107602314043578   -0.03423533504599573
-0.3961526705575539   -0.22107602314043578   -0.03423533504599573
-0.3961526705575539   -0.22107602314043578   -0.03423533504599573
-0.3250897287675397   -0.14110447898186787   -0.020687778028098035
-0.3250897287675397   -0.14110447898186787   -0.020687778028098035
-0.3250897287675397   -0.14110447898186787   -0.020687778028098035
-0.3250897287675397   -0.14110447898186787   -0.020687778028098035
-0.3618821100653268   -0.0906211981000942   0.006662642374798305
-0.3618821100653268   -0.0906211981000942   0.006662642374798305
-0.3618821100653268   -0.0906211981000942   0.006662642374798305
-0.3618821100653268   -0.0906211981000942   0.006662642374798305
-0.29313144332588964   -0.19916013563966992   -0.027677124773830608
-0.29313144332588964   -0.19916013563966992   -0.027677124773830608
-0.29313144332588964   -0.19916013563966992   -0.027677124773830608
-0.29313144332588964   -0.19916013563966992   -0.027677124773830608
-0.2545212350668548   -0.08106719331634082   0.022308401952790692
-0.2545212350668548   -0.08106719331634082   0.022308401952790692
-0.2545212350668548   -0.08106719331634082   0.022308401952790692
-0.2545212350668548   -0.08106719331634082   0.022308401952790692
-0.3912853727028541   -0.22391863887445362   -0.024682878767533854
-0.3912853727028541   -0.22391863887445362   -0.024682878767533854
-0.3912853727028541   -0.22391863887445362   -0.024682878767533854
-0.3912853727028541   -0.22391863887445362   -0.024682878767533854
-0.32397706507380547   -0.14811836194842562   -0.02396185063176332
-0.32397706507380547   -0.14811836194842562   -0.02396185063176332
-0.32397706507380547   -0.14811836194842562   -0.02396185063176332
-0.32397706507380547   -0.14811836194842562   -0.02396185063176332
-0.24906804266823318   -0.008945546049132697   0.024420015254966287
-0.24906804266823318   -0.008945546049132697   0.024420015254966287
-0.24906804266823318   -0.008945546049132697   0.024420015254966287
-0.24906804266823318   -0.008945546049132697   0.024420015254966287
-0.23509036386288368   -0.10583200610862743   -0.0206399625366637
-0.23509036386288368   -0.10583200610862743   -0.0206399625366637
-0.23509036386288368   -0.10583200610862743   -0.0206399625366637
-0.23509036386288368   -0.10583200610862743   -0.0206399625366637
-0.20258606309854715   -0.015337909003504874   0.02829704462425707
-0.20258606309854715   -0.015337909003504874   0.02829704462425707
-0.20258606309854715   -0.015337909003504874   0.02829704462425707
-0.20258606309854715   -0.015337909003504874   0.02829704462425707
-0.2772243878322273   -0.12242273511510915   -0.014635617527419806
-0.2772243878322273   -0.12242273511510915   -0.014635617527419806
-0.2772243878322273   -0.12242273511510915   -0.014635617527419806
-0.2772243878322273   -0.12242273511510915   -0.014635617527419806
-0.2417999473234641   -0.06255812025095284   -0.00864357347520065
-0.2417999473234641   -0.06255812025095284   -0.00864357347520065
-0.2417999473234641   -0.06255812025095284   -0.00864357347520065
-0.2417999473234641   -0.06255812025095284   -0.00864357347520065
-0.2491136738032695   -0.02466983047404065   0.028165047976300532
-0.2491136738032695   -0.02466983047404065   0.028165047976300532
-0.2491136738032695   -0.02466983047404065   0.028165047976300532
-0.2491136738032695   -0.02466983047404065   0.028165047976300532
-0.23294595566348753   -0.11533999218055595   -0.023500335023393576
-0.23294595566348753   -0.11533999218055595   -0.023500335023393576
-0.23294595566348753   -0.11533999218055595   -0.023500335023393576
-0.23294595566348753   -0.11533999218055595   -0.023500335023393576
-0.20276007246458555   -0.029044200705237975   0.03040883419564615
-0.20276007246458555   -0.029044200705237975   0.03040883419564615
-0.20276007246458555   -0.029044200705237975   0.03040883419564615
-0.20276007246458555   -0.029044200705237975   0.03040883419564615
-0.27700514149365124   -0.12987692271201834   -0.01632882854029792
-0.27700514149365124   -0.12987692271201834   -0.01632882854029792
-0.27700514149365124   -0.12987692271201834   -0.01632882854029792
-0.27700514149365124   -0.12987692271201834   -0.01632882854029792
-0.2406311082373102   -0.07357442675332315   -0.01466158832321269
-0.2406311082373102   -0.07357442675332315   -0.01466158832321269
-0.2406311082373102   -0.07357442675332315   -0.01466158832321269
-0.2406311082373102   -0.07357442675332315   -0.01466158832321269
-0.24894550844299226   -0.03795380994987736   0.032046223950855886
-0.24894550844299226   -0.03795380994987736   0.032046223950855886
-0.24894550844299226   -0.03795380994987736   0.032046223950855886
-0.24894550844299226   -0.03795380994987736   0.032046223950855886
-0.2321812330991712   -0.12232884105130307   -0.023412328631209272
-0.2321812330991712   -0.12232884105130307   -0.023412328631209272
-0.2321812330991712   -0.12232884105130307   -0.023412328631209272
-0.2321812330991712   -0.12232884105130307   -0.023412328631209272
-0.20089603561117933   -0.04191080116102323   0.03523586078366384
-0.20089603561117933   -0.04191080116102323   0.03523586078366384
-0.20089603561117933   -0.04191080116102323   0.03523586078366384
-0.20089603561117933   -0.04191080116102323   0.03523586078366384
-0.2724737315081908   -0.13733976523989422   -0.011181508330335942
-0.2724737315081908   -0.13733976523989422   -0.011181508330335942
-0.2724737315081908   -0.13733976523989422   -0.011181508330335942
-0.2724737315081908   -0.13733976523989422   -0.011181508330335942
-0.23976982915539863   -0.08303061958857261   -0.01883132072494606
-0.23976982915539863   -0.08303061958857261   -0.01883132072494606
-0.23976982915539863   -0.08303061958857261   -0.01883132072494606
-0.23976982915539863   -0.08303061958857261   -0.01883132072494606
-0.19669439566273494   0.027470760369443313   0.03803711198600915
-0.19669439566273494   0.027470760369443313   0.03803711198600915
-0.19669439566273494   0.027470760369443313   0.03803711198600915
-0.19669439566273494   0.027470760369443313   0.03803711198600915
-0.130128050026784   -0.034741122990250166   -0.012666736507442006
-0.130128050026784   -0.034741122990250166   -0.012666736507442006
-0.130128050026784   -0.034741122990250166   -0.012666736507442006
-0.130128050026784   -0.034741122990250166   -0.012666736507442006
-0.11342401019154147   0.03238868448306109   0.03754749720616369
-0.11342401019154147   0.03238868448306109   0.03754749720616369
-0.11342401019154147   0.03238868448306109   0.03754749720616369
-0.11342401019154147   0.03238868448306109   0.03754749720616369
-0.21715562894690685   -0.053335066074419346   -0.006553627546626913
-0.21715562894690685   -0.053335066074419346   -0.006553627546626913
-0.21715562894690685   -0.053335066074419346   -0.006553627546626913
-0.21715562894690685   -0.053335066074419346   -0.006553627546626913
-0.1621176638977413   -0.0033861001730007903   -0.006903377677264852
-0.1621176638977413   -0.0033861001730007903   -0.006903377677264852
-0.1621176638977413   -0.0033861001730007903   -0.006903377677264852
-0.1621176638977413   -0.0033861001730007903   -0.006903377677264852
-0.1934383013836239   0.017179929702068768   0.04151801449329983
-0.1934383013836239   0.017179929702068768   0.04151801449329983
-0.1934383013836239   0.017179929702068768   0.04151801449329983
-0.1934383013836239   0.017179929702068768   0.04151801449329983
-0.13736315876654823   -0.03834813230515335   -0.011411428880655557
-0.13736315876654823   -0.03834813230515335   -0.011411428880655557
-0.13736315876654823   -0.03834813230515335   -0.011411428880655557
-0.13736315876654823   -0.03834813230515335   -0.011411428880655557
-0.1183549378015864   0.02572827831567044   0.047243082663287514
-0.1183549378015864   0.02572827831567044   0.047243082663287514
-0.1183549378015864   0.02572827831567044   0.047243082663287514
-0.1183549378015864   0.02572827831567044   0.047243082663287514
-0.21606694615066627   -0.05676100021273098   -0.008408734727264427
-0.21606694615066627   -0.05676100021273098   -0.008408734727264427
-0.21606694615066627   -0.05676100021273098   -0.008408734727264427
-0.21606694615066627   -0.05676100021273098   -0.008408734727264427
-0.1668379664279126   -0.010662473804119707   -0.009701990730624187
-0.1668379664279126   -0.010662473804119707   -0.009701990730624187
-0.1668379664279126   -0.010662473804119707   -0.009701990730624187
-0.1668379664279126   -0.010662473804119707   -0.009701990730624187
-0.19121781088034284   0.011268562874655004   0.04780737853696679
-0.19121781088034284   0.011268562874655004   0.04780737853696679
-0.19121781088034284   0.011268562874655004   0.04780737853696679
-0.19121781088034284   0.011268562874655004   0.04780737853696679
-0.14490520816886182   -0.04400241986866499   -0.01577757098873892
-0.14490520816886182   -0.04400241986866499   -0.01577757098873892
-0.14490520816886182   -0.04400241986866499   -0.01577757098873892
-0.14490520816886182   -0.04400241986866499   -0.01577757098873892
-0.1354530466093282   0.007418491762460521   0.049159188086013966
-0.1354530466093282   0.007418491762460521   0.049159188086013966
-0.1354530466093282   0.007418491762460521   0.049159188086013966
-0.1354530466093282   0.007418491762460521   0.049159188086013966
-0.21293391456732655   -0.05980603203626289   -0.007058303121832487
-0.21293391456732655   -0.05980603203626289   -0.007058303121832487
-0.21293391456732655   -0.05980603203626289   -0.007058303121832487
-0.21293391456732655   -0.05980603203626289   -0.007058303121832487
-0.16907489400095224   -0.01591164111630638   -0.014261252882176953
-0.16907489400095224   -0.01591164111630638   -0.014261252882176953
-0.16907489400095224   -0.01591164111630638   -0.014261252882176953
-0.16907489400095224   -0.01591164111630638   -0.014261252882176953
-2.032944768118438   -0.2879908276512703   -0.16905480761949096
-2.032944768118438   -0.2879908276512703   -0.16905480761949096
-2.032944768118438   -0.2879908276512703   -0.16905480761949096
-2.032944768118438   -0.2879908276512703   -0.16905480761949096
-0.7054155377513256   -1.109277145555864   -0.13233723607413717
-0.7054155377513256   -1.109277145555864   -0.13233723607413717
-0.7054155377513256   -1.109277145555864   -0.13233723607413717
-0.7054155377513256   -1.109277145555864   -0.13233723607413717
-0.5452529742092818   -0.04673004252863791   0.0007632958245473859
-0.5452529742092818   -0.04673004252863791   0.0007632958245473859
-0.5452529742092818   -0.04673004252863791   0.0007632958245473859
-0.5452529742092818   -0.04673004252863791   0.0007632958245473859
-2.17050712696563   -1.3039782982508117   -0.6948970850432883
-2.17050712696563   -1.3039782982508117   -0.6948970850432883
-2.17050712696563   -1.3039782982508117   -0.6948970850432883
-2.17050712696563   -1.3039782982508117   -0.6948970850432883
-1.329451240521259   -0.6487195909905966   -0.0945263931176032
-1.329451240521259   -0.6487195909905966   -0.0945263931176032
-1.329451240521259   -0.6487195909905966   -0.0945263931176032
-1.329451240521259   -0.6487195909905966   -0.0945263931176032
-1.889002407820814   -0.3615857882748841   -0.22976599929515118
-1.889002407820814   -0.3615857882748841   -0.22976599929515118
-1.889002407820814   -0.3615857882748841   -0.22976599929515118
-1.889002407820814   -0.3615857882748841   -0.22976599929515118
-0.7617540994932859   -0.9241189586437553   -0.20435341448035035
-0.7617540994932859   -0.9241189586437553   -0.20435341448035035
-0.7617540994932859   -0.9241189586437553   -0.20435341448035035
-0.7617540994932859   -0.9241189586437553   -0.20435341448035035
-0.5562283029556784   -0.06229708521031886   0.020934774962332783
-0.5562283029556784   -0.06229708521031886   0.020934774962332783
-0.5562283029556784   -0.06229708521031886   0.020934774962332783
-0.5562283029556784   -0.06229708521031886   0.020934774962332783
-2.031085388853071   -1.163153698783209   -0.638847817527256
-2.031085388853071   -1.163153698783209   -0.638847817527256
-2.031085388853071   -1.163153698783209   -0.638847817527256
-2.031085388853071   -1.163153698783209   -0.638847817527256
-1.2521625160376826   -0.5849631137485227   0.050689116176984295
-1.2521625160376826   -0.5849631137485227   0.050689116176984295
-1.2521625160376826   -0.5849631137485227   0.050689116176984295
-1.2521625160376826   -0.5849631137485227   0.050689116176984295
-1.7738102479580806   -0.3442713263086428   -0.17135448552688462
-1.7738102479580806   -0.3442713263086428   -0.17135448552688462
-1.7738102479580806   -0.3442713263086428   -0.17135448552688462
-1.7738102479580806   -0.3442713263086428   -0.17135448552688462
-0.741275059177466   -0.8089510730116836   -0.15764501834523462
-0.741275059177466   -0.8089510730116836   -0.15764501834523462
-0.741275059177466   -0.8089510730116836   -0.15764501834523462
-0.741275059177466   -0.8089510730116836   -0.15764501834523462
-0.6391378078560394   -0.16364291904721398   -0.03321998021907622
-0.6391378078560394   -0.16364291904721398   -0.03321998021907622
-0.6391378078560394   -0.16364291904721398   -0.03321998021907622
-0.6391378078560394   -0.16364291904721398   -0.03321998021907622
-1.8511738049796664   -0.9775438149727467   -0.5657435239904827
-1.8511738049796664   -0.9775438149727467   -0.5657435239904827
-1.8511738049796664   -0.9775438149727467   -0.5657435239904827
-1.8511738049796664   -0.9775438149727467   -0.5657435239904827
-1.159865482152843   -0.5071381820936562   0.21472460169668706
-1.159865482152843   -0.5071381820936562   0.21472460169668706
-1.159865482152843   -0.5071381820936562   0.21472460169668706
-1.159865482152843   -0.5071381820936562   0.21472460169668706
-0.5222066490688307   -0.28357375631324644   -0.04199618190428412
-0.5222066490688307   -0.28357375631324644   -0.04199618190428412
-0.5222066490688307   -0.28357375631324644   -0.04199618190428412
-0.5222066490688307   -0.28357375631324644   -0.04199618190428412
-0.2413849813315297   -0.3502015712437472   -0.05963903811559294
-0.2413849813315297   -0.3502015712437472   -0.05963903811559294
-0.2413849813315297   -0.3502015712437472   -0.05963903811559294
-0.2413849813315297   -0.3502015712437472   -0.05963903811559294
-0.21295547422164307   -0.18118607981028023   0.005509599601367918
-0.21295547422164307   -0.18118607981028023   0.005509599601367918
-0.21295547422164307   -0.18118607981028023   0.005509599601367918
-0.21295547422164307   -0.18118607981028023   0.005509599601367918
-0.6385923209863049   -0.5129552641493665   0.0002917835601664448
-0.6385923209863049   -0.5129552641493665   0.0002917835601664448
-0.6385923209863049   -0.5129552641493665   0.0002917835601664448
-0.6385923209863049   -0.5129552641493665   0.0002917835601664448
-0.3430375286574785   -0.24878868928450287   0.10988852639983816
-0.3430375286574785   -0.24878868928450287   0.10988852639983816
-0.3430375286574785   -0.24878868928450287   0.10988852639983816
-0.3430375286574785   -0.24878868928450287   0.10988852639983816
-0.5942487643790406   -0.26394649772717554   -0.026999199825711015
-0.5942487643790406   -0.26394649772717554   -0.026999199825711015
-0.5942487643790406   -0.26394649772717554   -0.026999199825711015
-0.5942487643790406   -0.26394649772717554   -0.026999199825711015
-0.2753160992814817   -0.44821191468504634   -0.03926769082305562
-0.2753160992814817   -0.44821191468504634   -0.03926769082305562
-0.2753160992814817   -0.44821191468504634   -0.03926769082305562
-0.2753160992814817   -0.44821191468504634   -0.03926769082305562
-0.22998802411707503   -0.1877653303123584   0.005659732807715617
-0.22998802411707503   -0.1877653303123584   0.005659732807715617
-0.22998802411707503   -0.1877653303123584   0.005659732807715617
-0.22998802411707503   -0.1877653303123584   0.005659732807715617
-0.6697038677721826   -0.5063504649359357   -0.10238966939456559
-0.6697038677721826   -0.5063504649359357   -0.10238966939456559
-0.6697038677721826   -0.5063504649359357   -0.10238966939456559
-0.6697038677721826   -0.5063504649359357   -0.10238966939456559
-0.40899327964925847   -0.31917565104328294   0.050189260635090896
-0.40899327964925847   -0.31917565104328294   0.050189260635090896
-0.40899327964925847   -0.31917565104328294   0.050189260635090896
-0.40899327964925847   -0.31917565104328294   0.050189260635090896
-0.6131630195870101   -0.275616212207348   -0.050419681197297186
-0.6131630195870101   -0.275616212207348   -0.050419681197297186
-0.6131630195870101   -0.275616212207348   -0.050419681197297186
-0.6131630195870101   -0.275616212207348   -0.050419681197297186
-0.2848469517372378   -0.4168176624759368   -0.039582573129516
-0.2848469517372378   -0.4168176624759368   -0.039582573129516
-0.2848469517372378   -0.4168176624759368   -0.039582573129516
-0.2848469517372378   -0.4168176624759368   -0.039582573129516
-0.2562460166518017   -0.19387670351360806   0.008333379514845966
-0.2562460166518017   -0.19387670351360806   0.008333379514845966
-0.2562460166518017   -0.19387670351360806   0.008333379514845966
-0.2562460166518017   -0.19387670351360806   0.008333379514845966
-0.7159990798811334   -0.4919747095901047   -0.08919454980165209
-0.7159990798811334   -0.4919747095901047   -0.08919454980165209
-0.7159990798811334   -0.4919747095901047   -0.08919454980165209
-0.7159990798811334   -0.4919747095901047   -0.08919454980165209
-0.42789829103681853   -0.3008167848702997   0.05310748860919218
-0.42789829103681853   -0.3008167848702997   0.05310748860919218
-0.42789829103681853   -0.3008167848702997   0.05310748860919218
-0.42789829103681853   -0.3008167848702997   0.05310748860919218
-0.19074836557743693   -0.16903813990095476   0.012380609312074395
-0.19074836557743693   -0.16903813990095476   0.012380609312074395
-0.19074836557743693   -0.16903813990095476   0.012380609312074395
-0.19074836557743693   -0.16903813990095476   0.012380609312074395
-0.11645178533185231   -0.10903610265970226   -0.029105288560959845
-0.11645178533185231   -0.10903610265970226   -0.029105288560959845
-0.11645178533185231   -0.10903610265970226   -0.029105288560959845
-0.11645178533185231   -0.10903610265970226   -0.029105288560959845
-0.11295805397076661   -0.15107320974530794   0.012487554318832625
-0.11295805397076661   -0.15107320974530794   0.012487554318832625
-0.11295805397076661   -0.15107320974530794   0.012487554318832625
-0.11295805397076661   -0.15107320974530794   0.012487554318832625
-0.21043894828899765   -0.14973694440612045   -0.013356906139561073
-0.21043894828899765   -0.14973694440612045   -0.013356906139561073
-0.21043894828899765   -0.14973694440612045   -0.013356906139561073
-0.21043894828899765   -0.14973694440612045   -0.013356906139561073
-0.1331484357365218   -0.12209355009375661   0.055096854251974296
-0.1331484357365218   -0.12209355009375661   0.055096854251974296
-0.1331484357365218   -0.12209355009375661   0.055096854251974296
-0.1331484357365218   -0.12209355009375661   0.055096854251974296
-0.20918039412243325   -0.1701461704849824   0.013345090772119171
-0.20918039412243325   -0.1701461704849824   0.013345090772119171
-0.20918039412243325   -0.1701461704849824   0.013345090772119171
-0.20918039412243325   -0.1701461704849824   0.013345090772119171
-0.11603490142214744   -0.13248227695126302   -0.021487615732124165
-0.11603490142214744   -0.13248227695126302   -0.021487615732124165
-0.11603490142214744   -0.13248227695126302   -0.021487615732124165
-0.11603490142214744   -0.13248227695126302   -0.021487615732124165
-0.11416197170538192   -0.15561226913421908   0.011092736132915934
-0.11416197170538192   -0.15561226913421908   0.011092736132915934
-0.11416197170538192   -0.15561226913421908   0.011092736132915934
-0.11416197170538192   -0.15561226913421908   0.011092736132915934
-0.22335606518206952   -0.17476041813620652   0.025814615306594978
-0.22335606518206952   -0.17476041813620652   0.025814615306594978
-0.22335606518206952   -0.17476041813620652   0.025814615306594978
-0.22335606518206952   -0.17476041813620652   0.025814615306594978
-0.14467669220832474   -0.13602186802091754   0.04673261145950668
-0.14467669220832474   -0.13602186802091754   0.04673261145950668
-0.14467669220832474   -0.13602186802091754   0.04673261145950668
-0.14467669220832474   -0.13602186802091754   0.04673261145950668
-0.22525225470455193   -0.17644518587420083   0.018018435432177217
-0.22525225470455193   -0.17644518587420083   0.018018435432177217
-0.22525225470455193   -0.17644518587420083   0.018018435432177217
-0.22525225470455193   -0.17644518587420083   0.018018435432177217
-0.12193135958929727   -0.16359307880262253   -0.01977339361825729
-0.12193135958929727   -0.16359307880262253   -0.01977339361825729
-0.12193135958929727   -0.16359307880262253   -0.01977339361825729
-0.12193135958929727   -0.16359307880262253   -0.01977339361825729
-0.11534635078097605   -0.16067903600411718   0.015576113662262608
-0.11534635078097605   -0.16067903600411718   0.015576113662262608
-0.11534635078097605   -0.16067903600411718   0.015576113662262608
-0.11534635078097605   -0.16067903600411718   0.015576113662262608
-0.26106724053639624   -0.2151552875229757   0.005505844101244717
-0.26106724053639624   -0.2151552875229757   0.005505844101244717
-0.26106724053639624   -0.2151552875229757   0.005505844101244717
-0.26106724053639624   -0.2151552875229757   0.005505844101244717
-0.1614342777215706   -0.15512056514231196   0.022163315601062855
-0.1614342777215706   -0.15512056514231196   0.022163315601062855
-0.1614342777215706   -0.15512056514231196   0.022163315601062855
-0.1614342777215706   -0.15512056514231196   0.022163315601062855
-0.0957461561437643   -0.06729818426126397   0.03268493898104193
-0.0957461561437643   -0.06729818426126397   0.03268493898104193
-0.0957461561437643   -0.06729818426126397   0.03268493898104193
-0.0957461561437643   -0.06729818426126397   0.03268493898104193
-0.06696028083824596   0.0003068136340478693   -0.006523350224734635
-0.06696028083824596   0.0003068136340478693   -0.006523350224734635
-0.06696028083824596   0.0003068136340478693   -0.006523350224734635
-0.06696028083824596   0.0003068136340478693   -0.006523350224734635
-0.06355883103165397   -0.07270411583254943   0.020291922084797753
-0.06355883103165397   -0.07270411583254943   0.020291922084797753
-0.06355883103165397   -0.07270411583254943   0.020291922084797753
-0.06355883103165397   -0.07270411583254943   0.020291922084797753
-0.088569861326803   -0.012435840815546191   -0.004208851391118767
-0.088569861326803   -0.012435840815546191   -0.004208851391118767
-0.088569861326803   -0.012435840815546191   -0.004208851391118767
-0.088569861326803   -0.012435840815546191   -0.004208851391118767
-0.07278835311679942   -0.03662930307912108   0.01621361021697474
-0.07278835311679942   -0.03662930307912108   0.01621361021697474
-0.07278835311679942   -0.03662930307912108   0.01621361021697474
-0.07278835311679942   -0.03662930307912108   0.01621361021697474
-0.09443523369006168   -0.07677674298815185   0.03080518896519342
-0.09443523369006168   -0.07677674298815185   0.03080518896519342
-0.09443523369006168   -0.07677674298815185   0.03080518896519342
-0.09443523369006168   -0.07677674298815185   0.03080518896519342
-0.056019685675962744   -0.006689440667511254   -0.008027026301784332
-0.056019685675962744   -0.006689440667511254   -0.008027026301784332
-0.056019685675962744   -0.006689440667511254   -0.008027026301784332
-0.056019685675962744   -0.006689440667511254   -0.008027026301784332
-0.05817987197798222   -0.07910617403214551   0.01869964534338957
-0.05817987197798222   -0.07910617403214551   0.01869964534338957
-0.05817987197798222   -0.07910617403214551   0.01869964534338957
-0.05817987197798222   -0.07910617403214551   0.01869964534338957
-0.08913443563772545   -0.024808987898361334   0.005427135235340597
-0.08913443563772545   -0.024808987898361334   0.005427135235340597
-0.08913443563772545   -0.024808987898361334   0.005427135235340597
-0.08913443563772545   -0.024808987898361334   0.005427135235340597
-0.06670138566575735   -0.041969198982179254   0.019375815912950185
-0.06670138566575735   -0.041969198982179254   0.019375815912950185
-0.06670138566575735   -0.041969198982179254   0.019375815912950185
-0.06670138566575735   -0.041969198982179254   0.019375815912950185
-0.09485033280734023   -0.08314371914076292   0.03518238062966052
-0.09485033280734023   -0.08314371914076292   0.03518238062966052
-0.09485033280734023   -0.08314371914076292   0.03518238062966052
-0.09485033280734023   -0.08314371914076292   0.03518238062966052
-0.052954213250093626   -0.021261681231471402   -0.013016553817841552
-0.052954213250093626   -0.021261681231471402   -0.013016553817841552
-0.052954213250093626   -0.021261681231471402   -0.013016553817841552
-0.052954213250093626   -0.021261681231471402   -0.013016553817841552
-0.048521300337746695   -0.08620405428486724   0.02054461527436261
-0.048521300337746695   -0.08620405428486724   0.02054461527436261
-0.048521300337746695   -0.08620405428486724   0.02054461527436261
-0.048521300337746695   -0.08620405428486724   0.02054461527436261
-0.0959192305513448   -0.055095807619630004   0.007128486425931736
-0.0959192305513448   -0.055095807619630004   0.007128486425931736
-0.0959192305513448   -0.055095807619630004   0.007128486425931736
-0.0959192305513448   -0.055095807619630004   0.007128486425931736
-0.06405665894128047   -0.05299979741018253   0.016816212377134723
-0.06405665894128047   -0.05299979741018253   0.016816212377134723
-0.06405665894128047   -0.05299979741018253   0.016816212377134723
-0.06405665894128047   -0.05299979741018253   0.016816212377134723
-0.0615293189739447   -0.01191697911002501   0.03285525184084448
-0.0615293189739447   -0.01191697911002501   0.03285525184084448
-0.0615293189739447   -0.01191697911002501   0.03285525184084448
-0.0615293189739447   -0.01191697911002501   0.03285525184084448
-0.010649438149029146   0.007250716626740993   -0.0006633103800663918
-0.010649438149029146   0.007250716626740993   -0.0006633103800663918
-0.010649438149029146   0.007250716626740993   -0.0006633103800663918
-0.010649438149029146   0.007250716626740993   -0.0006633103800663918
0.0037597411862179144   -0.0037806846581550646   0.020302909401577394
0.0037597411862179144   -0.0037806846581550646   0.020302909401577394
0.0037597411862179144   -0.0037806846581550646   0.020302909401577394
0.0037597411862179144   -0.0037806846581550646   0.020302909401577394
-0.0524997480070632   0.005479856467091567   -0.0025966350918894413
-0.0524997480070632   0.005479856467091567   -0.0025966350918894413
-0.0524997480070632   0.005479856467091567   -0.0025966350918894413
-0.0524997480070632   0.005479856467091567   -0.0025966350918894413
-0.030750001302424192   -0.0022948770567114895   -0.00256301548537704
-0.030750001302424192   -0.0022948770567114895   -0.00256301548537704
-0.030750001302424192   -0.0022948770567114895   -0.00256301548537704
-0.030750001302424192   -0.0022948770567114895   -0.00256301548537704
-0.04853942482186484   -0.011470110233206921   0.03415494753440087
-0.04853942482186484   -0.011470110233206921   0.03415494753440087
-0.04853942482186484   -0.011470110233206921   0.03415494753440087
-0.04853942482186484   -0.011470110233206921   0.03415494753440087
0.0016409472206593396   0.015010811261783212   -0.009082556346153757
0.0016409472206593396   0.015010811261783212   -0.009082556346153757
0.0016409472206593396   0.015010811261783212   -0.009082556346153757
0.0016409472206593396   0.015010811261783212   -0.009082556346153757
0.011079948118818796   -0.004646365231136849   0.025017545911221146
0.011079948118818796   -0.004646365231136849   0.025017545911221146
0.011079948118818796   -0.004646365231136849   0.025017545911221146
0.011079948118818796   -0.004646365231136849   0.025017545911221146
-0.0460127221765319   0.004264138155742935   -0.0038349178372472283
-0.0460127221765319   0.004264138155742935   -0.0038349178372472283
-0.0460127221765319   0.004264138155742935   -0.0038349178372472283
-0.0460127221765319   0.004264138155742935   -0.0038349178372472283
-0.020025332324493942   -0.0004923781803642768   0.0032571706808299746
-0.020025332324493942   -0.0004923781803642768   0.0032571706808299746
-0.020025332324493942   -0.0004923781803642768   0.0032571706808299746
-0.020025332324493942   -0.0004923781803642768   0.0032571706808299746
-0.04132512299977319   -0.012797871163868026   0.03666508736615724
-0.04132512299977319   -0.012797871163868026   0.03666508736615724
-0.04132512299977319   -0.012797871163868026   0.03666508736615724
-0.04132512299977319   -0.012797871163868026   0.03666508736615724
0.008057009178370324   0.014080304324784344   -0.008823818346942403
0.008057009178370324   0.014080304324784344   -0.008823818346942403
0.008057009178370324   0.014080304324784344   -0.008823818346942403
0.008057009178370324   0.014080304324784344   -0.008823818346942403
0.018593983255939733   -0.0072335849929695065   0.02427603427136049
0.018593983255939733   -0.0072335849929695065   0.02427603427136049
0.018593983255939733   -0.0072335849929695065   0.02427603427136049
0.018593983255939733   -0.0072335849929695065   0.02427603427136049
-0.03536684705354472   0.004466309785618964   -0.004353482375113697
-0.03536684705354472   0.004466309785618964   -0.004353482375113697
-0.03536684705354472   0.004466309785618964   -0.004353482375113697
-0.03536684705354472   0.004466309785618964   -0.004353482375113697
-0.010430866651901396   0.0006527942810010826   0.008401486732979876
-0.010430866651901396   0.0006527942810010826   0.008401486732979876
-0.010430866651901396   0.0006527942810010826   0.008401486732979876
-0.010430866651901396   0.0006527942810010826   0.008401486732979876
              </DataArray>   
             <DataArray type="Float64" NumberOfComponents="3" Name="Displacements" format="ascii">   
0.0   0.0   0.0
-0.0056574543713262685   -0.0037104179970127893   -0.0018951020828679456
0.0   0.0   0.0
0.0   0.0   0.0
-0.0056574543713262685   -0.0037104179970127893   -0.0018951020828679456
-0.0036002029751275714   -0.0033341701742071617   -0.001392325678078223
0.0   0.0   0.0
-0.0035291894524932784   -0.003501562893390229   -0.00116642193793835
0.0   0.0   0.0
0.0   0.0   0.0
-0.0035291894524932784   -0.003501562893390229   -0.00116642193793835
0.0   0.0   0.0
0.0   0.0   0.0
-0.0035291894524932784   -0.003501562893390229   -0.00116642193793835
-0.00592102479556173   -0.003952981468764137   -0.0015214283817450982
-0.0056574543713262685   -0.0037104179970127893   -0.0018951020828679456
0.0   0.0   0.0
-0.0035291894524932784   -0.003501562893390229   -0.00116642193793835
-0.0056574543713262685   -0.0037104179970127893   -0.0018951020828679456
0.0   0.0   0.0
0.0   0.0   0.0
-0.00592102479556173   -0.003952981468764137   -0.0015214283817450982
0.0   0.0   0.0
0.0   0.0   0.0
-0.00592102479556173   -0.003952981468764137   -0.0015214283817450982
-0.0035291894524932784   -0.003501562893390229   -0.00116642193793835
0.0   0.0   0.0
-0.0035393444281369077   -0.0035873232303069765   -0.0009408205744760858
0.0   0.0   0.0
0.0   0.0   0.0
-0.0035393444281369077   -0.0035873232303069765   -0.0009408205744760858
0.0   0.0   0.0
0.0   0.0   0.0
-0.0035393444281369077   -0.0035873232303069765   -0.0009408205744760858
-0.0061062204730835965   -0.004070923492190208   -0.0011633471616722783
-0.00592102479556173   -0.003952981468764137   -0.0015214283817450982
0.0   0.0   0.0
-0.0035393444281369077   -0.0035873232303069765   -0.0009408205744760858
-0.00592102479556173   -0.003952981468764137   -0.0015214283817450982
0.0   0.0   0.0
0.0   0.0   0.0
-0.0061062204730835965   -0.004070923492190208   -0.0011633471616722783
0.0   0.0   0.0
0.0   0.0   0.0
-0.0061062204730835965   -0.004070923492190208   -0.0011633471616722783
-0.0035393444281369077   -0.0035873232303069765   -0.0009408205744760858
0.0   0.0   0.0
-0.0035377118225245812   -0.003609328357444168   -0.000707517057814445
0.0   0.0   0.0
0.0   0.0   0.0
-0.0035377118225245812   -0.003609328357444168   -0.000707517057814445
0.0   0.0   0.0
0.0   0.0   0.0
-0.0035377118225245812   -0.003609328357444168   -0.000707517057814445
-0.006504982482989268   -0.004160164779726826   -0.000747893563719358
-0.0061062204730835965   -0.004070923492190208   -0.0011633471616722783
0.0   0.0   0.0
-0.0035377118225245812   -0.003609328357444168   -0.000707517057814445
-0.0061062204730835965   -0.004070923492190208   -0.0011633471616722783
0.0   0.0   0.0
0.0   0.0   0.0
-0.0036002029751275714   -0.0033341701742071617   -0.001392325678078223
0.0   0.0   0.0
0.0   0.0   0.0
-0.0036002029751275714   -0.0033341701742071617   -0.001392325678078223
-0.0016393182623533206   -0.0031961376465193866   -0.0010589449471463481
0.0   0.0   0.0
-0.001576870025775771   -0.003305114979491496   -0.0009523223334709724
0.0   0.0   0.0
0.0   0.0   0.0
-0.001576870025775771   -0.003305114979491496   -0.0009523223334709724
0.0   0.0   0.0
0.0   0.0   0.0
-0.001576870025775771   -0.003305114979491496   -0.0009523223334709724
-0.0035291894524932784   -0.003501562893390229   -0.00116642193793835
-0.0036002029751275714   -0.0033341701742071617   -0.001392325678078223
0.0   0.0   0.0
-0.001576870025775771   -0.003305114979491496   -0.0009523223334709724
-0.0036002029751275714   -0.0033341701742071617   -0.001392325678078223
0.0   0.0   0.0
0.0   0.0   0.0
-0.0035291894524932784   -0.003501562893390229   -0.00116642193793835
0.0   0.0   0.0
0.0   0.0   0.0
-0.0035291894524932784   -0.003501562893390229   -0.00116642193793835
-0.001576870025775771   -0.003305114979491496   -0.0009523223334709724
0.0   0.0   0.0
-0.0015418797609498389   -0.003346644870741998   -0.0008484614230396808
0.0   0.0   0.0
0.0   0.0   0.0
-0.0015418797609498389   -0.003346644870741998   -0.0008484614230396808
0.0   0.0   0.0
0.0   0.0   0.0
-0.0015418797609498389   -0.003346644870741998   -0.0008484614230396808
-0.0035393444281369077   -0.0035873232303069765   -0.0009408205744760858
-0.0035291894524932784   -0.003501562893390229   -0.00116642193793835
0.0   0.0   0.0
-0.0015418797609498389   -0.003346644870741998   -0.0008484614230396808
-0.0035291894524932784   -0.003501562893390229   -0.00116642193793835
0.0   0.0   0.0
0.0   0.0   0.0
-0.0035393444281369077   -0.0035873232303069765   -0.0009408205744760858
0.0   0.0   0.0
0.0   0.0   0.0
-0.0035393444281369077   -0.0035873232303069765   -0.0009408205744760858
-0.0015418797609498389   -0.003346644870741998   -0.0008484614230396808
0.0   0.0   0.0
-0.0015100517594576783   -0.003329299750159065   -0.0007410644240465068
0.0   0.0   0.0
0.0   0.0   0.0
-0.0015100517594576783   -0.003329299750159065   -0.0007410644240465068
0.0   0.0   0.0
0.0   0.0   0.0
-0.0015100517594576783   -0.003329299750159065   -0.0007410644240465068
-0.0035377118225245812   -0.003609328357444168   -0.000707517057814445
-0.0035393444281369077   -0.0035873232303069765   -0.0009408205744760858
0.0   0.0   0.0
-0.0015100517594576783   -0.003329299750159065   -0.0007410644240465068
-0.0035393444281369077   -0.0035873232303069765   -0.0009408205744760858
0.0   0.0   0.0
0.0   0.0   0.0
-0.0016393182623533206   -0.0031961376465193866   -0.0010589449471463481
0.0   0.0   0.0
0.0   0.0   0.0
-0.0016393182623533206   -0.0031961376465193866   -0.0010589449471463481
0.00021352209533891198   -0.0032137918208269213   -0.0008464591433448933
0.0   0.0   0.0
0.0002532890463707257   -0.003270300655254459   -0.0008612707147210695
0.0   0.0   0.0
0.0   0.0   0.0
0.0002532890463707257   -0.003270300655254459   -0.0008612707147210695
0.0   0.0   0.0
0.0   0.0   0.0
0.0002532890463707257   -0.003270300655254459   -0.0008612707147210695
-0.001576870025775771   -0.003305114979491496   -0.0009523223334709724
-0.0016393182623533206   -0.0031961376465193866   -0.0010589449471463481
0.0   0.0   0.0
0.0002532890463707257   -0.003270300655254459   -0.0008612707147210695
-0.0016393182623533206   -0.0031961376465193866   -0.0010589449471463481
0.0   0.0   0.0
0.0   0.0   0.0
-0.001576870025775771   -0.003305114979491496   -0.0009523223334709724
0.0   0.0   0.0
0.0   0.0   0.0
-0.001576870025775771   -0.003305114979491496   -0.0009523223334709724
0.0002532890463707257   -0.003270300655254459   -0.0008612707147210695
0.0   0.0   0.0
0.00028464894077718833   -0.0032656375119854033   -0.0008746303399264423
0.0   0.0   0.0
0.0   0.0   0.0
0.00028464894077718833   -0.0032656375119854033   -0.0008746303399264423
0.0   0.0   0.0
0.0   0.0   0.0
0.00028464894077718833   -0.0032656375119854033   -0.0008746303399264423
-0.0015418797609498389   -0.003346644870741998   -0.0008484614230396808
-0.001576870025775771   -0.003305114979491496   -0.0009523223334709724
0.0   0.0   0.0
0.00028464894077718833   -0.0032656375119854033   -0.0008746303399264423
-0.001576870025775771   -0.003305114979491496   -0.0009523223334709724
0.0   0.0   0.0
0.0   0.0   0.0
-0.0015418797609498389   -0.003346644870741998   -0.0008484614230396808
0.0   0.0   0.0
0.0   0.0   0.0
-0.0015418797609498389   -0.003346644870741998   -0.0008484614230396808
0.00028464894077718833   -0.0032656375119854033   -0.0008746303399264423
0.0   0.0   0.0
0.0003269108959065002   -0.003194781877201084   -0.0008883373704115116
0.0   0.0   0.0
0.0   0.0   0.0
0.0003269108959065002   -0.003194781877201084   -0.0008883373704115116
0.0   0.0   0.0
0.0   0.0   0.0
0.0003269108959065002   -0.003194781877201084   -0.0008883373704115116
-0.0015100517594576783   -0.003329299750159065   -0.0007410644240465068
-0.0015418797609498389   -0.003346644870741998   -0.0008484614230396808
0.0   0.0   0.0
0.0003269108959065002   -0.003194781877201084   -0.0008883373704115116
-0.0015418797609498389   -0.003346644870741998   -0.0008484614230396808
0.0   0.0   0.0
0.0   0.0   0.0
0.00021352209533891198   -0.0032137918208269213   -0.0008464591433448933
0.0   0.0   0.0
0.0   0.0   0.0
0.00021352209533891198   -0.0032137918208269213   -0.0008464591433448933
0.0022245803807179705   -0.0033703435160759606   -0.0007413193687466756
0.0   0.0   0.0
0.0022282482649457888   -0.0033883540856367625   -0.0008839050566955938
0.0   0.0   0.0
0.0   0.0   0.0
0.0022282482649457888   -0.0033883540856367625   -0.0008839050566955938
0.0   0.0   0.0
0.0   0.0   0.0
0.0022282482649457888   -0.0033883540856367625   -0.0008839050566955938
0.0002532890463707257   -0.003270300655254459   -0.0008612707147210695
0.00021352209533891198   -0.0032137918208269213   -0.0008464591433448933
0.0   0.0   0.0
0.0022282482649457888   -0.0033883540856367625   -0.0008839050566955938
0.00021352209533891198   -0.0032137918208269213   -0.0008464591433448933
0.0   0.0   0.0
0.0   0.0   0.0
0.0002532890463707257   -0.003270300655254459   -0.0008612707147210695
0.0   0.0   0.0
0.0   0.0   0.0
0.0002532890463707257   -0.003270300655254459   -0.0008612707147210695
0.0022282482649457888   -0.0033883540856367625   -0.0008839050566955938
0.0   0.0   0.0
0.0022184569854157253   -0.003339967606827851   -0.001020667752733912
0.0   0.0   0.0
0.0   0.0   0.0
0.0022184569854157253   -0.003339967606827851   -0.001020667752733912
0.0   0.0   0.0
0.0   0.0   0.0
0.0022184569854157253   -0.003339967606827851   -0.001020667752733912
0.00028464894077718833   -0.0032656375119854033   -0.0008746303399264423
0.0002532890463707257   -0.003270300655254459   -0.0008612707147210695
0.0   0.0   0.0
0.0022184569854157253   -0.003339967606827851   -0.001020667752733912
0.0002532890463707257   -0.003270300655254459   -0.0008612707147210695
0.0   0.0   0.0
0.0   0.0   0.0
0.00028464894077718833   -0.0032656375119854033   -0.0008746303399264423
0.0   0.0   0.0
0.0   0.0   0.0
0.00028464894077718833   -0.0032656375119854033   -0.0008746303399264423
0.0022184569854157253   -0.003339967606827851   -0.001020667752733912
0.0   0.0   0.0
0.0022611835119617204   -0.0032103485034798694   -0.0011548083876949222
0.0   0.0   0.0
0.0   0.0   0.0
0.0022611835119617204   -0.0032103485034798694   -0.0011548083876949222
0.0   0.0   0.0
0.0   0.0   0.0
0.0022611835119617204   -0.0032103485034798694   -0.0011548083876949222
0.0003269108959065002   -0.003194781877201084   -0.0008883373704115116
0.00028464894077718833   -0.0032656375119854033   -0.0008746303399264423
0.0   0.0   0.0
0.0022611835119617204   -0.0032103485034798694   -0.0011548083876949222
0.00028464894077718833   -0.0032656375119854033   -0.0008746303399264423
0.0   0.0   0.0
0.0   0.0   0.0
0.0022245803807179705   -0.0033703435160759606   -0.0007413193687466756
0.0   0.0   0.0
0.0   0.0   0.0
0.0022245803807179705   -0.0033703435160759606   -0.0007413193687466756
0.005020786195869591   -0.003767085174874992   -0.0006993413488720951
0.0   0.0   0.0
0.004714954661692365   -0.003726009308174413   -0.0010225445359795437
0.0   0.0   0.0
0.0   0.0   0.0
0.004714954661692365   -0.003726009308174413   -0.0010225445359795437
0.0   0.0   0.0
0.0   0.0   0.0
0.004714954661692365   -0.003726009308174413   -0.0010225445359795437
0.0022282482649457888   -0.0033883540856367625   -0.0008839050566955938
0.0022245803807179705   -0.0033703435160759606   -0.0007413193687466756
0.0   0.0   0.0
0.004714954661692365   -0.003726009308174413   -0.0010225445359795437
0.0022245803807179705   -0.0033703435160759606   -0.0007413193687466756
0.0   0.0   0.0
0.0   0.0   0.0
0.0022282482649457888   -0.0033883540856367625   -0.0008839050566955938
0.0   0.0   0.0
0.0   0.0   0.0
0.0022282482649457888   -0.0033883540856367625   -0.0008839050566955938
0.004714954661692365   -0.003726009308174413   -0.0010225445359795437
0.0   0.0   0.0
0.004573811486716707   -0.0036485408168151715   -0.0012958365766789126
0.0   0.0   0.0
0.0   0.0   0.0
0.004573811486716707   -0.0036485408168151715   -0.0012958365766789126
0.0   0.0   0.0
0.0   0.0   0.0
0.004573811486716707   -0.0036485408168151715   -0.0012958365766789126
0.0022184569854157253   -0.003339967606827851   -0.001020667752733912
0.0022282482649457888   -0.0033883540856367625   -0.0008839050566955938
0.0   0.0   0.0
0.004573811486716707   -0.0036485408168151715   -0.0012958365766789126
0.0022282482649457888   -0.0033883540856367625   -0.0008839050566955938
0.0   0.0   0.0
0.0   0.0   0.0
0.0022184569854157253   -0.003339967606827851   -0.001020667752733912
0.0   0.0   0.0
0.0   0.0   0.0
0.0022184569854157253   -0.003339967606827851   -0.001020667752733912
0.004573811486716707   -0.0036485408168151715   -0.0012958365766789126
0.0   0.0   0.0
0.004363862348708689   -0.003450286238787086   -0.0015850000185974975
0.0   0.0   0.0
0.0   0.0   0.0
0.004363862348708689   -0.003450286238787086   -0.0015850000185974975
0.0   0.0   0.0
0.0   0.0   0.0
0.004363862348708689   -0.003450286238787086   -0.0015850000185974975
0.0022611835119617204   -0.0032103485034798694   -0.0011548083876949222
0.0022184569854157253   -0.003339967606827851   -0.001020667752733912
0.0   0.0   0.0
0.004363862348708689   -0.003450286238787086   -0.0015850000185974975
0.0022184569854157253   -0.003339967606827851   -0.001020667752733912
0.0   0.0   0.0
-0.0056574543713262685   -0.0037104179970127893   -0.0018951020828679456
-0.010568009568650878   -0.010359413525258095   -0.002553147752008322
-0.0036002029751275714   -0.0033341701742071617   -0.001392325678078223
-0.00592102479556173   -0.003952981468764137   -0.0015214283817450982
-0.010568009568650878   -0.010359413525258095   -0.002553147752008322
-0.006745201808141609   -0.010020990946668163   -0.002101428344440578
-0.0036002029751275714   -0.0033341701742071617   -0.001392325678078223
-0.006753438471199556   -0.010192279392970294   -0.0018924617884190052
-0.00592102479556173   -0.003952981468764137   -0.0015214283817450982
-0.0035291894524932784   -0.003501562893390229   -0.00116642193793835
-0.006753438471199556   -0.010192279392970294   -0.0018924617884190052
-0.0036002029751275714   -0.0033341701742071617   -0.001392325678078223
-0.00592102479556173   -0.003952981468764137   -0.0015214283817450982
-0.006753438471199556   -0.010192279392970294   -0.0018924617884190052
-0.010884990016690504   -0.010598400298485097   -0.002213779437634116
-0.010568009568650878   -0.010359413525258095   -0.002553147752008322
-0.00592102479556173   -0.003952981468764137   -0.0015214283817450982
-0.006753438471199556   -0.010192279392970294   -0.0018924617884190052
-0.010568009568650878   -0.010359413525258095   -0.002553147752008322
-0.0036002029751275714   -0.0033341701742071617   -0.001392325678078223
-0.00592102479556173   -0.003952981468764137   -0.0015214283817450982
-0.010884990016690504   -0.010598400298485097   -0.002213779437634116
-0.0035291894524932784   -0.003501562893390229   -0.00116642193793835
-0.0061062204730835965   -0.004070923492190208   -0.0011633471616722783
-0.010884990016690504   -0.010598400298485097   -0.002213779437634116
-0.006753438471199556   -0.010192279392970294   -0.0018924617884190052
-0.0035291894524932784   -0.003501562893390229   -0.00116642193793835
-0.0067803239290686055   -0.01029667413722342   -0.001691636221706021
-0.0061062204730835965   -0.004070923492190208   -0.0011633471616722783
-0.0035393444281369077   -0.0035873232303069765   -0.0009408205744760858
-0.0067803239290686055   -0.01029667413722342   -0.001691636221706021
-0.0035291894524932784   -0.003501562893390229   -0.00116642193793835
-0.0061062204730835965   -0.004070923492190208   -0.0011633471616722783
-0.0067803239290686055   -0.01029667413722342   -0.001691636221706021
-0.011105338535717362   -0.010733346713570326   -0.0018814560430903465
-0.010884990016690504   -0.010598400298485097   -0.002213779437634116
-0.0061062204730835965   -0.004070923492190208   -0.0011633471616722783
-0.0067803239290686055   -0.01029667413722342   -0.001691636221706021
-0.010884990016690504   -0.010598400298485097   -0.002213779437634116
-0.0035291894524932784   -0.003501562893390229   -0.00116642193793835
-0.0061062204730835965   -0.004070923492190208   -0.0011633471616722783
-0.011105338535717362   -0.010733346713570326   -0.0018814560430903465
-0.0035393444281369077   -0.0035873232303069765   -0.0009408205744760858
-0.006504982482989268   -0.004160164779726826   -0.000747893563719358
-0.011105338535717362   -0.010733346713570326   -0.0018814560430903465
-0.0067803239290686055   -0.01029667413722342   -0.001691636221706021
-0.0035393444281369077   -0.0035873232303069765   -0.0009408205744760858
-0.006760421927994303   -0.010350808094831104   -0.0015036394064417821
-0.006504982482989268   -0.004160164779726826   -0.000747893563719358
-0.0035377118225245812   -0.003609328357444168   -0.000707517057814445
-0.006760421927994303   -0.010350808094831104   -0.0015036394064417821
-0.0035393444281369077   -0.0035873232303069765   -0.0009408205744760858
-0.006504982482989268   -0.004160164779726826   -0.000747893563719358
-0.006760421927994303   -0.010350808094831104   -0.0015036394064417821
-0.011365793978023037   -0.010811740604480742   -0.0015790652849815223
-0.011105338535717362   -0.010733346713570326   -0.0018814560430903465
-0.006504982482989268   -0.004160164779726826   -0.000747893563719358
-0.006760421927994303   -0.010350808094831104   -0.0015036394064417821
-0.011105338535717362   -0.010733346713570326   -0.0018814560430903465
-0.0035393444281369077   -0.0035873232303069765   -0.0009408205744760858
-0.0036002029751275714   -0.0033341701742071617   -0.001392325678078223
-0.006745201808141609   -0.010020990946668163   -0.002101428344440578
-0.0016393182623533206   -0.0031961376465193866   -0.0010589449471463481
-0.0035291894524932784   -0.003501562893390229   -0.00116642193793835
-0.006745201808141609   -0.010020990946668163   -0.002101428344440578
-0.003129290604022266   -0.009863519885152872   -0.0017930466300585524
-0.0016393182623533206   -0.0031961376465193866   -0.0010589449471463481
-0.0031025692044388685   -0.00997255383839839   -0.0016859873624327842
-0.0035291894524932784   -0.003501562893390229   -0.00116642193793835
-0.001576870025775771   -0.003305114979491496   -0.0009523223334709724
-0.0031025692044388685   -0.00997255383839839   -0.0016859873624327842
-0.0016393182623533206   -0.0031961376465193866   -0.0010589449471463481
-0.0035291894524932784   -0.003501562893390229   -0.00116642193793835
-0.0031025692044388685   -0.00997255383839839   -0.0016859873624327842
-0.006753438471199556   -0.010192279392970294   -0.0018924617884190052
-0.006745201808141609   -0.010020990946668163   -0.002101428344440578
-0.0035291894524932784   -0.003501562893390229   -0.00116642193793835
-0.0031025692044388685   -0.00997255383839839   -0.0016859873624327842
-0.006745201808141609   -0.010020990946668163   -0.002101428344440578
-0.0016393182623533206   -0.0031961376465193866   -0.0010589449471463481
-0.0035291894524932784   -0.003501562893390229   -0.00116642193793835
-0.006753438471199556   -0.010192279392970294   -0.0018924617884190052
-0.001576870025775771   -0.003305114979491496   -0.0009523223334709724
-0.0035393444281369077   -0.0035873232303069765   -0.0009408205744760858
-0.006753438471199556   -0.010192279392970294   -0.0018924617884190052
-0.0031025692044388685   -0.00997255383839839   -0.0016859873624327842
-0.001576870025775771   -0.003305114979491496   -0.0009523223334709724
-0.0030789208234701217   -0.010025426566395277   -0.0015889246561545838
-0.0035393444281369077   -0.0035873232303069765   -0.0009408205744760858
-0.0015418797609498389   -0.003346644870741998   -0.0008484614230396808
-0.0030789208234701217   -0.010025426566395277   -0.0015889246561545838
-0.001576870025775771   -0.003305114979491496   -0.0009523223334709724
-0.0035393444281369077   -0.0035873232303069765   -0.0009408205744760858
-0.0030789208234701217   -0.010025426566395277   -0.0015889246561545838
-0.0067803239290686055   -0.01029667413722342   -0.001691636221706021
-0.006753438471199556   -0.010192279392970294   -0.0018924617884190052
-0.0035393444281369077   -0.0035873232303069765   -0.0009408205744760858
-0.0030789208234701217   -0.010025426566395277   -0.0015889246561545838
-0.006753438471199556   -0.010192279392970294   -0.0018924617884190052
-0.001576870025775771   -0.003305114979491496   -0.0009523223334709724
-0.0035393444281369077   -0.0035873232303069765   -0.0009408205744760858
-0.0067803239290686055   -0.01029667413722342   -0.001691636221706021
-0.0015418797609498389   -0.003346644870741998   -0.0008484614230396808
-0.0035377118225245812   -0.003609328357444168   -0.000707517057814445
-0.0067803239290686055   -0.01029667413722342   -0.001691636221706021
-0.0030789208234701217   -0.010025426566395277   -0.0015889246561545838
-0.0015418797609498389   -0.003346644870741998   -0.0008484614230396808
-0.003043501590586046   -0.010024131774992387   -0.0015044066487411867
-0.0035377118225245812   -0.003609328357444168   -0.000707517057814445
-0.0015100517594576783   -0.003329299750159065   -0.0007410644240465068
-0.003043501590586046   -0.010024131774992387   -0.0015044066487411867
-0.0015418797609498389   -0.003346644870741998   -0.0008484614230396808
-0.0035377118225245812   -0.003609328357444168   -0.000707517057814445
-0.003043501590586046   -0.010024131774992387   -0.0015044066487411867
-0.006760421927994303   -0.010350808094831104   -0.0015036394064417821
-0.0067803239290686055   -0.01029667413722342   -0.001691636221706021
-0.0035377118225245812   -0.003609328357444168   -0.000707517057814445
-0.003043501590586046   -0.010024131774992387   -0.0015044066487411867
-0.0067803239290686055   -0.01029667413722342   -0.001691636221706021
-0.0015418797609498389   -0.003346644870741998   -0.0008484614230396808
-0.0016393182623533206   -0.0031961376465193866   -0.0010589449471463481
-0.003129290604022266   -0.009863519885152872   -0.0017930466300585524
0.00021352209533891198   -0.0032137918208269213   -0.0008464591433448933
-0.001576870025775771   -0.003305114979491496   -0.0009523223334709724
-0.003129290604022266   -0.009863519885152872   -0.0017930466300585524
0.0003577212729634509   -0.009868191840172453   -0.0015980380530029588
0.00021352209533891198   -0.0032137918208269213   -0.0008464591433448933
0.00039061363142415715   -0.009919870872546003   -0.0015910002207118192
-0.001576870025775771   -0.003305114979491496   -0.0009523223334709724
0.0002532890463707257   -0.003270300655254459   -0.0008612707147210695
0.00039061363142415715   -0.009919870872546003   -0.0015910002207118192
0.00021352209533891198   -0.0032137918208269213   -0.0008464591433448933
-0.001576870025775771   -0.003305114979491496   -0.0009523223334709724
0.00039061363142415715   -0.009919870872546003   -0.0015910002207118192
-0.0031025692044388685   -0.00997255383839839   -0.0016859873624327842
-0.003129290604022266   -0.009863519885152872   -0.0017930466300585524
-0.001576870025775771   -0.003305114979491496   -0.0009523223334709724
0.00039061363142415715   -0.009919870872546003   -0.0015910002207118192
-0.003129290604022266   -0.009863519885152872   -0.0017930466300585524
0.00021352209533891198   -0.0032137918208269213   -0.0008464591433448933
-0.001576870025775771   -0.003305114979491496   -0.0009523223334709724
-0.0031025692044388685   -0.00997255383839839   -0.0016859873624327842
0.0002532890463707257   -0.003270300655254459   -0.0008612707147210695
-0.0015418797609498389   -0.003346644870741998   -0.0008484614230396808
-0.0031025692044388685   -0.00997255383839839   -0.0016859873624327842
0.00039061363142415715   -0.009919870872546003   -0.0015910002207118192
0.0002532890463707257   -0.003270300655254459   -0.0008612707147210695
0.0004126577168888842   -0.00991670615259017   -0.0015953093764244169
-0.0015418797609498389   -0.003346644870741998   -0.0008484614230396808
0.00028464894077718833   -0.0032656375119854033   -0.0008746303399264423
0.0004126577168888842   -0.00991670615259017   -0.0015953093764244169
0.0002532890463707257   -0.003270300655254459   -0.0008612707147210695
-0.0015418797609498389   -0.003346644870741998   -0.0008484614230396808
0.0004126577168888842   -0.00991670615259017   -0.0015953093764244169
-0.0030789208234701217   -0.010025426566395277   -0.0015889246561545838
-0.0031025692044388685   -0.00997255383839839   -0.0016859873624327842
-0.0015418797609498389   -0.003346644870741998   -0.0008484614230396808
0.0004126577168888842   -0.00991670615259017   -0.0015953093764244169
-0.0031025692044388685   -0.00997255383839839   -0.0016859873624327842
0.0002532890463707257   -0.003270300655254459   -0.0008612707147210695
-0.0015418797609498389   -0.003346644870741998   -0.0008484614230396808
-0.0030789208234701217   -0.010025426566395277   -0.0015889246561545838
0.00028464894077718833   -0.0032656375119854033   -0.0008746303399264423
-0.0015100517594576783   -0.003329299750159065   -0.0007410644240465068
-0.0030789208234701217   -0.010025426566395277   -0.0015889246561545838
0.0004126577168888842   -0.00991670615259017   -0.0015953093764244169
0.00028464894077718833   -0.0032656375119854033   -0.0008746303399264423
0.0004363283085908233   -0.00985702275929425   -0.001611145288788024
-0.0015100517594576783   -0.003329299750159065   -0.0007410644240465068
0.0003269108959065002   -0.003194781877201084   -0.0008883373704115116
0.0004363283085908233   -0.00985702275929425   -0.001611145288788024
0.00028464894077718833   -0.0032656375119854033   -0.0008746303399264423
-0.0015100517594576783   -0.003329299750159065   -0.0007410644240465068
0.0004363283085908233   -0.00985702275929425   -0.001611145288788024
-0.003043501590586046   -0.010024131774992387   -0.0015044066487411867
-0.0030789208234701217   -0.010025426566395277   -0.0015889246561545838
-0.0015100517594576783   -0.003329299750159065   -0.0007410644240465068
0.0004363283085908233   -0.00985702275929425   -0.001611145288788024
-0.0030789208234701217   -0.010025426566395277   -0.0015889246561545838
0.00028464894077718833   -0.0032656375119854033   -0.0008746303399264423
0.00021352209533891198   -0.0032137918208269213   -0.0008464591433448933
0.0003577212729634509   -0.009868191840172453   -0.0015980380530029588
0.0022245803807179705   -0.0033703435160759606   -0.0007413193687466756
0.0002532890463707257   -0.003270300655254459   -0.0008612707147210695
0.0003577212729634509   -0.009868191840172453   -0.0015980380530029588
0.004052824478830416   -0.010029148742326702   -0.0015070103573858057
0.0022245803807179705   -0.0033703435160759606   -0.0007413193687466756
0.004071296099547444   -0.010028727018844583   -0.0016032394075651813
0.0002532890463707257   -0.003270300655254459   -0.0008612707147210695
0.0022282482649457888   -0.0033883540856367625   -0.0008839050566955938
0.004071296099547444   -0.010028727018844583   -0.0016032394075651813
0.0022245803807179705   -0.0033703435160759606   -0.0007413193687466756
0.0002532890463707257   -0.003270300655254459   -0.0008612707147210695
0.004071296099547444   -0.010028727018844583   -0.0016032394075651813
0.00039061363142415715   -0.009919870872546003   -0.0015910002207118192
0.0003577212729634509   -0.009868191840172453   -0.0015980380530029588
0.0002532890463707257   -0.003270300655254459   -0.0008612707147210695
0.004071296099547444   -0.010028727018844583   -0.0016032394075651813
0.0003577212729634509   -0.009868191840172453   -0.0015980380530029588
0.0022245803807179705   -0.0033703435160759606   -0.0007413193687466756
0.0002532890463707257   -0.003270300655254459   -0.0008612707147210695
0.00039061363142415715   -0.009919870872546003   -0.0015910002207118192
0.0022282482649457888   -0.0033883540856367625   -0.0008839050566955938
0.00028464894077718833   -0.0032656375119854033   -0.0008746303399264423
0.00039061363142415715   -0.009919870872546003   -0.0015910002207118192
0.004071296099547444   -0.010028727018844583   -0.0016032394075651813
0.0022282482649457888   -0.0033883540856367625   -0.0008839050566955938
0.004052202537654923   -0.009974519619091725   -0.0017123065514697516
0.00028464894077718833   -0.0032656375119854033   -0.0008746303399264423
0.0022184569854157253   -0.003339967606827851   -0.001020667752733912
0.004052202537654923   -0.009974519619091725   -0.0017123065514697516
0.0022282482649457888   -0.0033883540856367625   -0.0008839050566955938
0.00028464894077718833   -0.0032656375119854033   -0.0008746303399264423
0.004052202537654923   -0.009974519619091725   -0.0017123065514697516
0.0004126577168888842   -0.00991670615259017   -0.0015953093764244169
0.00039061363142415715   -0.009919870872546003   -0.0015910002207118192
0.00028464894077718833   -0.0032656375119854033   -0.0008746303399264423
0.004052202537654923   -0.009974519619091725   -0.0017123065514697516
0.00039061363142415715   -0.009919870872546003   -0.0015910002207118192
0.0022282482649457888   -0.0033883540856367625   -0.0008839050566955938
0.00028464894077718833   -0.0032656375119854033   -0.0008746303399264423
0.0004126577168888842   -0.00991670615259017   -0.0015953093764244169
0.0022184569854157253   -0.003339967606827851   -0.001020667752733912
0.0003269108959065002   -0.003194781877201084   -0.0008883373704115116
0.0004126577168888842   -0.00991670615259017   -0.0015953093764244169
0.004052202537654923   -0.009974519619091725   -0.0017123065514697516
0.0022184569854157253   -0.003339967606827851   -0.001020667752733912
0.004041159120561944   -0.009851693455388501   -0.001830177441642091
0.0003269108959065002   -0.003194781877201084   -0.0008883373704115116
0.0022611835119617204   -0.0032103485034798694   -0.0011548083876949222
0.004041159120561944   -0.009851693455388501   -0.001830177441642091
0.0022184569854157253   -0.003339967606827851   -0.001020667752733912
0.0003269108959065002   -0.003194781877201084   -0.0008883373704115116
0.004041159120561944   -0.009851693455388501   -0.001830177441642091
0.0004363283085908233   -0.00985702275929425   -0.001611145288788024
0.0004126577168888842   -0.00991670615259017   -0.0015953093764244169
0.0003269108959065002   -0.003194781877201084   -0.0008883373704115116
0.004041159120561944   -0.009851693455388501   -0.001830177441642091
0.0004126577168888842   -0.00991670615259017   -0.0015953093764244169
0.0022184569854157253   -0.003339967606827851   -0.001020667752733912
0.0022245803807179705   -0.0033703435160759606   -0.0007413193687466756
0.004052824478830416   -0.010029148742326702   -0.0015070103573858057
0.005020786195869591   -0.003767085174874992   -0.0006993413488720951
0.0022282482649457888   -0.0033883540856367625   -0.0008839050566955938
0.004052824478830416   -0.010029148742326702   -0.0015070103573858057
0.008511397772584339   -0.010328377036517301   -0.001482424573163868
0.005020786195869591   -0.003767085174874992   -0.0006993413488720951
0.008337840053303215   -0.010300250439508139   -0.001698878723291623
0.0022282482649457888   -0.0033883540856367625   -0.0008839050566955938
0.004714954661692365   -0.003726009308174413   -0.0010225445359795437
0.008337840053303215   -0.010300250439508139   -0.001698878723291623
0.005020786195869591   -0.003767085174874992   -0.0006993413488720951
0.0022282482649457888   -0.0033883540856367625   -0.0008839050566955938
0.008337840053303215   -0.010300250439508139   -0.001698878723291623
0.004071296099547444   -0.010028727018844583   -0.0016032394075651813
0.004052824478830416   -0.010029148742326702   -0.0015070103573858057
0.0022282482649457888   -0.0033883540856367625   -0.0008839050566955938
0.008337840053303215   -0.010300250439508139   -0.001698878723291623
0.004052824478830416   -0.010029148742326702   -0.0015070103573858057
0.005020786195869591   -0.003767085174874992   -0.0006993413488720951
0.0022282482649457888   -0.0033883540856367625   -0.0008839050566955938
0.004071296099547444   -0.010028727018844583   -0.0016032394075651813
0.004714954661692365   -0.003726009308174413   -0.0010225445359795437
0.0022184569854157253   -0.003339967606827851   -0.001020667752733912
0.004071296099547444   -0.010028727018844583   -0.0016032394075651813
0.008337840053303215   -0.010300250439508139   -0.001698878723291623
0.004714954661692365   -0.003726009308174413   -0.0010225445359795437
0.008182768377417049   -0.01021666752920674   -0.001942348249470929
0.0022184569854157253   -0.003339967606827851   -0.001020667752733912
0.004573811486716707   -0.0036485408168151715   -0.0012958365766789126
0.008182768377417049   -0.01021666752920674   -0.001942348249470929
0.004714954661692365   -0.003726009308174413   -0.0010225445359795437
0.0022184569854157253   -0.003339967606827851   -0.001020667752733912
0.008182768377417049   -0.01021666752920674   -0.001942348249470929
0.004052202537654923   -0.009974519619091725   -0.0017123065514697516
0.004071296099547444   -0.010028727018844583   -0.0016032394075651813
0.0022184569854157253   -0.003339967606827851   -0.001020667752733912
0.008182768377417049   -0.01021666752920674   -0.001942348249470929
0.004071296099547444   -0.010028727018844583   -0.0016032394075651813
0.004714954661692365   -0.003726009308174413   -0.0010225445359795437
0.0022184569854157253   -0.003339967606827851   -0.001020667752733912
0.004052202537654923   -0.009974519619091725   -0.0017123065514697516
0.004573811486716707   -0.0036485408168151715   -0.0012958365766789126
0.0022611835119617204   -0.0032103485034798694   -0.0011548083876949222
0.004052202537654923   -0.009974519619091725   -0.0017123065514697516
0.008182768377417049   -0.01021666752920674   -0.001942348249470929
0.004573811486716707   -0.0036485408168151715   -0.0012958365766789126
0.007950567626051471   -0.010030620567723195   -0.0021957687000876275
0.0022611835119617204   -0.0032103485034798694   -0.0011548083876949222
0.004363862348708689   -0.003450286238787086   -0.0015850000185974975
0.007950567626051471   -0.010030620567723195   -0.0021957687000876275
0.004573811486716707   -0.0036485408168151715   -0.0012958365766789126
0.0022611835119617204   -0.0032103485034798694   -0.0011548083876949222
0.007950567626051471   -0.010030620567723195   -0.0021957687000876275
0.004041159120561944   -0.009851693455388501   -0.001830177441642091
0.004052202537654923   -0.009974519619091725   -0.0017123065514697516
0.0022611835119617204   -0.0032103485034798694   -0.0011548083876949222
0.007950567626051471   -0.010030620567723195   -0.0021957687000876275
0.004052202537654923   -0.009974519619091725   -0.0017123065514697516
0.004573811486716707   -0.0036485408168151715   -0.0012958365766789126
-0.010568009568650878   -0.010359413525258095   -0.002553147752008322
-0.014481282327756702   -0.019430666269310573   -0.002907881777806295
-0.006745201808141609   -0.010020990946668163   -0.002101428344440578
-0.010884990016690504   -0.010598400298485097   -0.002213779437634116
-0.014481282327756702   -0.019430666269310573   -0.002907881777806295
-0.009310330347501408   -0.01917199594064399   -0.0025414346445874463
-0.006745201808141609   -0.010020990946668163   -0.002101428344440578
-0.009331051583939268   -0.019319867539102458   -0.0023792816926249843
-0.010884990016690504   -0.010598400298485097   -0.002213779437634116
-0.006753438471199556   -0.010192279392970294   -0.0018924617884190052
-0.009331051583939268   -0.019319867539102458   -0.0023792816926249843
-0.006745201808141609   -0.010020990946668163   -0.002101428344440578
-0.010884990016690504   -0.010598400298485097   -0.002213779437634116
-0.009331051583939268   -0.019319867539102458   -0.0023792816926249843
-0.014739211533885323   -0.01963274046136221   -0.002654728626117908
-0.014481282327756702   -0.019430666269310573   -0.002907881777806295
-0.010884990016690504   -0.010598400298485097   -0.002213779437634116
-0.009331051583939268   -0.019319867539102458   -0.0023792816926249843
-0.014481282327756702   -0.019430666269310573   -0.002907881777806295
-0.006745201808141609   -0.010020990946668163   -0.002101428344440578
-0.010884990016690504   -0.010598400298485097   -0.002213779437634116
-0.014739211533885323   -0.01963274046136221   -0.002654728626117908
-0.006753438471199556   -0.010192279392970294   -0.0018924617884190052
-0.011105338535717362   -0.010733346713570326   -0.0018814560430903465
-0.014739211533885323   -0.01963274046136221   -0.002654728626117908
-0.009331051583939268   -0.019319867539102458   -0.0023792816926249843
-0.006753438471199556   -0.010192279392970294   -0.0018924617884190052
-0.009355414943503093   -0.01942275506219849   -0.002228852954005128
-0.011105338535717362   -0.010733346713570326   -0.0018814560430903465
-0.0067803239290686055   -0.01029667413722342   -0.001691636221706021
-0.009355414943503093   -0.01942275506219849   -0.002228852954005128
-0.006753438471199556   -0.010192279392970294   -0.0018924617884190052
-0.011105338535717362   -0.010733346713570326   -0.0018814560430903465
-0.009355414943503093   -0.01942275506219849   -0.002228852954005128
-0.014901954427215699   -0.019759434807184433   -0.002418762557501152
-0.014739211533885323   -0.01963274046136221   -0.002654728626117908
-0.011105338535717362   -0.010733346713570326   -0.0018814560430903465
-0.009355414943503093   -0.01942275506219849   -0.002228852954005128
-0.014739211533885323   -0.01963274046136221   -0.002654728626117908
-0.006753438471199556   -0.010192279392970294   -0.0018924617884190052
-0.011105338535717362   -0.010733346713570326   -0.0018814560430903465
-0.014901954427215699   -0.019759434807184433   -0.002418762557501152
-0.0067803239290686055   -0.01029667413722342   -0.001691636221706021
-0.011365793978023037   -0.010811740604480742   -0.0015790652849815223
-0.014901954427215699   -0.019759434807184433   -0.002418762557501152
-0.009355414943503093   -0.01942275506219849   -0.002228852954005128
-0.0067803239290686055   -0.01029667413722342   -0.001691636221706021
-0.009338203188104294   -0.019490417829692085   -0.002087651367976532
-0.011365793978023037   -0.010811740604480742   -0.0015790652849815223
-0.006760421927994303   -0.010350808094831104   -0.0015036394064417821
-0.009338203188104294   -0.019490417829692085   -0.002087651367976532
-0.0067803239290686055   -0.01029667413722342   -0.001691636221706021
-0.011365793978023037   -0.010811740604480742   -0.0015790652849815223
-0.009338203188104294   -0.019490417829692085   -0.002087651367976532
-0.01508712309799265   -0.01985050604714612   -0.002201590599618711
-0.014901954427215699   -0.019759434807184433   -0.002418762557501152
-0.011365793978023037   -0.010811740604480742   -0.0015790652849815223
-0.009338203188104294   -0.019490417829692085   -0.002087651367976532
-0.014901954427215699   -0.019759434807184433   -0.002418762557501152
-0.0067803239290686055   -0.01029667413722342   -0.001691636221706021
-0.006745201808141609   -0.010020990946668163   -0.002101428344440578
-0.009310330347501408   -0.01917199594064399   -0.0025414346445874463
-0.003129290604022266   -0.009863519885152872   -0.0017930466300585524
-0.006753438471199556   -0.010192279392970294   -0.0018924617884190052
-0.009310330347501408   -0.01917199594064399   -0.0025414346445874463
-0.004434436758186324   -0.01904304560298172   -0.002286832920497916
-0.003129290604022266   -0.009863519885152872   -0.0017930466300585524
-0.004423639723081604   -0.01913761590878501   -0.0021952180468376
-0.006753438471199556   -0.010192279392970294   -0.0018924617884190052
-0.0031025692044388685   -0.00997255383839839   -0.0016859873624327842
-0.004423639723081604   -0.01913761590878501   -0.0021952180468376
-0.003129290604022266   -0.009863519885152872   -0.0017930466300585524
-0.006753438471199556   -0.010192279392970294   -0.0018924617884190052
-0.004423639723081604   -0.01913761590878501   -0.0021952180468376
-0.009331051583939268   -0.019319867539102458   -0.0023792816926249843
-0.009310330347501408   -0.01917199594064399   -0.0025414346445874463
-0.006753438471199556   -0.010192279392970294   -0.0018924617884190052
-0.004423639723081604   -0.01913761590878501   -0.0021952180468376
-0.009310330347501408   -0.01917199594064399   -0.0025414346445874463
-0.003129290604022266   -0.009863519885152872   -0.0017930466300585524
-0.006753438471199556   -0.010192279392970294   -0.0018924617884190052
-0.009331051583939268   -0.019319867539102458   -0.0023792816926249843
-0.0031025692044388685   -0.00997255383839839   -0.0016859873624327842
-0.0067803239290686055   -0.01029667413722342   -0.001691636221706021
-0.009331051583939268   -0.019319867539102458   -0.0023792816926249843
-0.004423639723081604   -0.01913761590878501   -0.0021952180468376
-0.0031025692044388685   -0.00997255383839839   -0.0016859873624327842
-0.0044103429425895345   -0.019193159100265315   -0.0021147690858990867
-0.0067803239290686055   -0.01029667413722342   -0.001691636221706021
-0.0030789208234701217   -0.010025426566395277   -0.0015889246561545838
-0.0044103429425895345   -0.019193159100265315   -0.0021147690858990867
-0.0031025692044388685   -0.00997255383839839   -0.0016859873624327842
-0.0067803239290686055   -0.01029667413722342   -0.001691636221706021
-0.0044103429425895345   -0.019193159100265315   -0.0021147690858990867
-0.009355414943503093   -0.01942275506219849   -0.002228852954005128
-0.009331051583939268   -0.019319867539102458   -0.0023792816926249843
-0.0067803239290686055   -0.01029667413722342   -0.001691636221706021
-0.0044103429425895345   -0.019193159100265315   -0.0021147690858990867
-0.009331051583939268   -0.019319867539102458   -0.0023792816926249843
-0.0031025692044388685   -0.00997255383839839   -0.0016859873624327842
-0.0067803239290686055   -0.01029667413722342   -0.001691636221706021
-0.009355414943503093   -0.01942275506219849   -0.002228852954005128
-0.0030789208234701217   -0.010025426566395277   -0.0015889246561545838
-0.006760421927994303   -0.010350808094831104   -0.0015036394064417821
-0.009355414943503093   -0.01942275506219849   -0.002228852954005128
-0.0044103429425895345   -0.019193159100265315   -0.0021147690858990867
-0.0030789208234701217   -0.010025426566395277   -0.0015889246561545838
-0.004388291702074611   -0.019210469281682487   -0.0020454519598743347
-0.006760421927994303   -0.010350808094831104   -0.0015036394064417821
-0.003043501590586046   -0.010024131774992387   -0.0015044066487411867
-0.004388291702074611   -0.019210469281682487   -0.0020454519598743347
-0.0030789208234701217   -0.010025426566395277   -0.0015889246561545838
-0.006760421927994303   -0.010350808094831104   -0.0015036394064417821
-0.004388291702074611   -0.019210469281682487   -0.0020454519598743347
-0.009338203188104294   -0.019490417829692085   -0.002087651367976532
-0.009355414943503093   -0.01942275506219849   -0.002228852954005128
-0.006760421927994303   -0.010350808094831104   -0.0015036394064417821
-0.004388291702074611   -0.019210469281682487   -0.0020454519598743347
-0.009355414943503093   -0.01942275506219849   -0.002228852954005128
-0.0030789208234701217   -0.010025426566395277   -0.0015889246561545838
-0.003129290604022266   -0.009863519885152872   -0.0017930466300585524
-0.004434436758186324   -0.01904304560298172   -0.002286832920497916
0.0003577212729634509   -0.009868191840172453   -0.0015980380530029588
-0.0031025692044388685   -0.00997255383839839   -0.0016859873624327842
-0.004434436758186324   -0.01904304560298172   -0.002286832920497916
0.00029838475984603934   -0.019036186284795774   -0.0021289372760331144
0.0003577212729634509   -0.009868191840172453   -0.0015980380530029588
0.00031849078647470036   -0.01907829778836436   -0.0021074807180457883
-0.0031025692044388685   -0.00997255383839839   -0.0016859873624327842
0.00039061363142415715   -0.009919870872546003   -0.0015910002207118192
0.00031849078647470036   -0.01907829778836436   -0.0021074807180457883
0.0003577212729634509   -0.009868191840172453   -0.0015980380530029588
-0.0031025692044388685   -0.00997255383839839   -0.0016859873624327842
0.00031849078647470036   -0.01907829778836436   -0.0021074807180457883
-0.004423639723081604   -0.01913761590878501   -0.0021952180468376
-0.004434436758186324   -0.01904304560298172   -0.002286832920497916
-0.0031025692044388685   -0.00997255383839839   -0.0016859873624327842
0.00031849078647470036   -0.01907829778836436   -0.0021074807180457883
-0.004434436758186324   -0.01904304560298172   -0.002286832920497916
0.0003577212729634509   -0.009868191840172453   -0.0015980380530029588
-0.0031025692044388685   -0.00997255383839839   -0.0016859873624327842
-0.004423639723081604   -0.01913761590878501   -0.0021952180468376
0.00039061363142415715   -0.009919870872546003   -0.0015910002207118192
-0.0030789208234701217   -0.010025426566395277   -0.0015889246561545838
-0.004423639723081604   -0.01913761590878501   -0.0021952180468376
0.00031849078647470036   -0.01907829778836436   -0.0021074807180457883
0.00039061363142415715   -0.009919870872546003   -0.0015910002207118192
0.00033127046658837703   -0.019081539393917935   -0.0020968974261887188
-0.0030789208234701217   -0.010025426566395277   -0.0015889246561545838
0.0004126577168888842   -0.00991670615259017   -0.0015953093764244169
0.00033127046658837703   -0.019081539393917935   -0.0020968974261887188
0.00039061363142415715   -0.009919870872546003   -0.0015910002207118192
-0.0030789208234701217   -0.010025426566395277   -0.0015889246561545838
0.00033127046658837703   -0.019081539393917935   -0.0020968974261887188
-0.0044103429425895345   -0.019193159100265315   -0.0021147690858990867
-0.004423639723081604   -0.01913761590878501   -0.0021952180468376
-0.0030789208234701217   -0.010025426566395277   -0.0015889246561545838
0.00033127046658837703   -0.019081539393917935   -0.0020968974261887188
-0.004423639723081604   -0.01913761590878501   -0.0021952180468376
0.00039061363142415715   -0.009919870872546003   -0.0015910002207118192
-0.0030789208234701217   -0.010025426566395277   -0.0015889246561545838
-0.0044103429425895345   -0.019193159100265315   -0.0021147690858990867
0.0004126577168888842   -0.00991670615259017   -0.0015953093764244169
-0.003043501590586046   -0.010024131774992387   -0.0015044066487411867
-0.0044103429425895345   -0.019193159100265315   -0.0021147690858990867
0.00033127046658837703   -0.019081539393917935   -0.0020968974261887188
0.0004126577168888842   -0.00991670615259017   -0.0015953093764244169
0.0003404260754102454   -0.01904533120224787   -0.002097849276052774
-0.003043501590586046   -0.010024131774992387   -0.0015044066487411867
0.0004363283085908233   -0.00985702275929425   -0.001611145288788024
0.0003404260754102454   -0.01904533120224787   -0.002097849276052774
0.0004126577168888842   -0.00991670615259017   -0.0015953093764244169
-0.003043501590586046   -0.010024131774992387   -0.0015044066487411867
0.0003404260754102454   -0.01904533120224787   -0.002097849276052774
-0.004388291702074611   -0.019210469281682487   -0.0020454519598743347
-0.0044103429425895345   -0.019193159100265315   -0.0021147690858990867
-0.003043501590586046   -0.010024131774992387   -0.0015044066487411867
0.0003404260754102454   -0.01904533120224787   -0.002097849276052774
-0.0044103429425895345   -0.019193159100265315   -0.0021147690858990867
0.0004126577168888842   -0.00991670615259017   -0.0015953093764244169
0.0003577212729634509   -0.009868191840172453   -0.0015980380530029588
0.00029838475984603934   -0.019036186284795774   -0.0021289372760331144
0.004052824478830416   -0.010029148742326702   -0.0015070103573858057
0.00039061363142415715   -0.009919870872546003   -0.0015910002207118192
0.00029838475984603934   -0.019036186284795774   -0.0021289372760331144
0.005233122103717206   -0.019144163260805525   -0.0020650416629967466
0.004052824478830416   -0.010029148742326702   -0.0015070103573858057
0.005250616069255457   -0.01913820137070936   -0.002115202722317631
0.00039061363142415715   -0.009919870872546003   -0.0015910002207118192
0.004071296099547444   -0.010028727018844583   -0.0016032394075651813
0.005250616069255457   -0.01913820137070936   -0.002115202722317631
0.004052824478830416   -0.010029148742326702   -0.0015070103573858057
0.00039061363142415715   -0.009919870872546003   -0.0015910002207118192
0.005250616069255457   -0.01913820137070936   -0.002115202722317631
0.00031849078647470036   -0.01907829778836436   -0.0021074807180457883
0.00029838475984603934   -0.019036186284795774   -0.0021289372760331144
0.00039061363142415715   -0.009919870872546003   -0.0015910002207118192
0.005250616069255457   -0.01913820137070936   -0.002115202722317631
0.00029838475984603934   -0.019036186284795774   -0.0021289372760331144
0.004052824478830416   -0.010029148742326702   -0.0015070103573858057
0.00039061363142415715   -0.009919870872546003   -0.0015910002207118192
0.00031849078647470036   -0.01907829778836436   -0.0021074807180457883
0.004071296099547444   -0.010028727018844583   -0.0016032394075651813
0.0004126577168888842   -0.00991670615259017   -0.0015953093764244169
0.00031849078647470036   -0.01907829778836436   -0.0021074807180457883
0.005250616069255457   -0.01913820137070936   -0.002115202722317631
0.004071296099547444   -0.010028727018844583   -0.0016032394075651813
0.0052369953836244295   -0.01909419473038211   -0.0021754380817891185
0.0004126577168888842   -0.00991670615259017   -0.0015953093764244169
0.004052202537654923   -0.009974519619091725   -0.0017123065514697516
0.0052369953836244295   -0.01909419473038211   -0.0021754380817891185
0.004071296099547444   -0.010028727018844583   -0.0016032394075651813
0.0004126577168888842   -0.00991670615259017   -0.0015953093764244169
0.0052369953836244295   -0.01909419473038211   -0.0021754380817891185
0.00033127046658837703   -0.019081539393917935   -0.0020968974261887188
0.00031849078647470036   -0.01907829778836436   -0.0021074807180457883
0.0004126577168888842   -0.00991670615259017   -0.0015953093764244169
0.0052369953836244295   -0.01909419473038211   -0.0021754380817891185
0.00031849078647470036   -0.01907829778836436   -0.0021074807180457883
0.004071296099547444   -0.010028727018844583   -0.0016032394075651813
0.0004126577168888842   -0.00991670615259017   -0.0015953093764244169
0.00033127046658837703   -0.019081539393917935   -0.0020968974261887188
0.004052202537654923   -0.009974519619091725   -0.0017123065514697516
0.0004363283085908233   -0.00985702275929425   -0.001611145288788024
0.00033127046658837703   -0.019081539393917935   -0.0020968974261887188
0.0052369953836244295   -0.01909419473038211   -0.0021754380817891185
0.004052202537654923   -0.009974519619091725   -0.0017123065514697516
0.005216773717623942   -0.019002732172273   -0.002246940452667728
0.0004363283085908233   -0.00985702275929425   -0.001611145288788024
0.004041159120561944   -0.009851693455388501   -0.001830177441642091
0.005216773717623942   -0.019002732172273   -0.002246940452667728
0.004052202537654923   -0.009974519619091725   -0.0017123065514697516
0.0004363283085908233   -0.00985702275929425   -0.001611145288788024
0.005216773717623942   -0.019002732172273   -0.002246940452667728
0.0003404260754102454   -0.01904533120224787   -0.002097849276052774
0.00033127046658837703   -0.019081539393917935   -0.0020968974261887188
0.0004363283085908233   -0.00985702275929425   -0.001611145288788024
0.005216773717623942   -0.019002732172273   -0.002246940452667728
0.00033127046658837703   -0.019081539393917935   -0.0020968974261887188
0.004052202537654923   -0.009974519619091725   -0.0017123065514697516
0.004052824478830416   -0.010029148742326702   -0.0015070103573858057
0.005233122103717206   -0.019144163260805525   -0.0020650416629967466
0.008511397772584339   -0.010328377036517301   -0.001482424573163868
0.004071296099547444   -0.010028727018844583   -0.0016032394075651813
0.005233122103717206   -0.019144163260805525   -0.0020650416629967466
0.010852882059983873   -0.019340070951890505   -0.0020661425841477085
0.008511397772584339   -0.010328377036517301   -0.001482424573163868
0.010758035957688004   -0.019306424423851165   -0.0021971664421095607
0.004071296099547444   -0.010028727018844583   -0.0016032394075651813
0.008337840053303215   -0.010300250439508139   -0.001698878723291623
0.010758035957688004   -0.019306424423851165   -0.0021971664421095607
0.008511397772584339   -0.010328377036517301   -0.001482424573163868
0.004071296099547444   -0.010028727018844583   -0.0016032394075651813
0.010758035957688004   -0.019306424423851165   -0.0021971664421095607
0.005250616069255457   -0.01913820137070936   -0.002115202722317631
0.005233122103717206   -0.019144163260805525   -0.0020650416629967466
0.004071296099547444   -0.010028727018844583   -0.0016032394075651813
0.010758035957688004   -0.019306424423851165   -0.0021971664421095607
0.005233122103717206   -0.019144163260805525   -0.0020650416629967466
0.008511397772584339   -0.010328377036517301   -0.001482424573163868
0.004071296099547444   -0.010028727018844583   -0.0016032394075651813
0.005250616069255457   -0.01913820137070936   -0.002115202722317631
0.008337840053303215   -0.010300250439508139   -0.001698878723291623
0.004052202537654923   -0.009974519619091725   -0.0017123065514697516
0.005250616069255457   -0.01913820137070936   -0.002115202722317631
0.010758035957688004   -0.019306424423851165   -0.0021971664421095607
0.008337840053303215   -0.010300250439508139   -0.001698878723291623
0.010663420715295671   -0.019238653953463802   -0.0023463565652810142
0.004052202537654923   -0.009974519619091725   -0.0017123065514697516
0.008182768377417049   -0.01021666752920674   -0.001942348249470929
0.010663420715295671   -0.019238653953463802   -0.0023463565652810142
0.008337840053303215   -0.010300250439508139   -0.001698878723291623
0.004052202537654923   -0.009974519619091725   -0.0017123065514697516
0.010663420715295671   -0.019238653953463802   -0.0023463565652810142
0.0052369953836244295   -0.01909419473038211   -0.0021754380817891185
0.005250616069255457   -0.01913820137070936   -0.002115202722317631
0.004052202537654923   -0.009974519619091725   -0.0017123065514697516
0.010663420715295671   -0.019238653953463802   -0.0023463565652810142
0.005250616069255457   -0.01913820137070936   -0.002115202722317631
0.008337840053303215   -0.010300250439508139   -0.001698878723291623
0.004052202537654923   -0.009974519619091725   -0.0017123065514697516
0.0052369953836244295   -0.01909419473038211   -0.0021754380817891185
0.008182768377417049   -0.01021666752920674   -0.001942348249470929
0.004041159120561944   -0.009851693455388501   -0.001830177441642091
0.0052369953836244295   -0.01909419473038211   -0.0021754380817891185
0.010663420715295671   -0.019238653953463802   -0.0023463565652810142
0.008182768377417049   -0.01021666752920674   -0.001942348249470929
0.010495608500339513   -0.019096412027241626   -0.002513732176621452
0.004041159120561944   -0.009851693455388501   -0.001830177441642091
0.007950567626051471   -0.010030620567723195   -0.0021957687000876275
0.010495608500339513   -0.019096412027241626   -0.002513732176621452
0.008182768377417049   -0.01021666752920674   -0.001942348249470929
0.004041159120561944   -0.009851693455388501   -0.001830177441642091
0.010495608500339513   -0.019096412027241626   -0.002513732176621452
0.005216773717623942   -0.019002732172273   -0.002246940452667728
0.0052369953836244295   -0.01909419473038211   -0.0021754380817891185
0.004041159120561944   -0.009851693455388501   -0.001830177441642091
0.010495608500339513   -0.019096412027241626   -0.002513732176621452
0.0052369953836244295   -0.01909419473038211   -0.0021754380817891185
0.008182768377417049   -0.01021666752920674   -0.001942348249470929
-0.014481282327756702   -0.019430666269310573   -0.002907881777806295
-0.017294669432360195   -0.03018852199779708   -0.003100992935008222
-0.009310330347501408   -0.01917199594064399   -0.0025414346445874463
-0.014739211533885323   -0.01963274046136221   -0.002654728626117908
-0.017294669432360195   -0.03018852199779708   -0.003100992935008222
-0.011225487213478621   -0.03002390083461711   -0.0028021550152800214
-0.009310330347501408   -0.01917199594064399   -0.0025414346445874463
-0.0112392464335421   -0.030151125007837416   -0.002686069866379671
-0.014739211533885323   -0.01963274046136221   -0.002654728626117908
-0.009331051583939268   -0.019319867539102458   -0.0023792816926249843
-0.0112392464335421   -0.030151125007837416   -0.002686069866379671
-0.009310330347501408   -0.01917199594064399   -0.0025414346445874463
-0.014739211533885323   -0.01963274046136221   -0.002654728626117908
-0.0112392464335421   -0.030151125007837416   -0.002686069866379671
-0.017468562982984895   -0.030360627689700097   -0.0029328436067252188
-0.017294669432360195   -0.03018852199779708   -0.003100992935008222
-0.014739211533885323   -0.01963274046136221   -0.002654728626117908
-0.0112392464335421   -0.030151125007837416   -0.002686069866379671
-0.017294669432360195   -0.03018852199779708   -0.003100992935008222
-0.009310330347501408   -0.01917199594064399   -0.0025414346445874463
-0.014739211533885323   -0.01963274046136221   -0.002654728626117908
-0.017468562982984895   -0.030360627689700097   -0.0029328436067252188
-0.009331051583939268   -0.019319867539102458   -0.0023792816926249843
-0.014901954427215699   -0.019759434807184433   -0.002418762557501152
-0.017468562982984895   -0.030360627689700097   -0.0029328436067252188
-0.0112392464335421   -0.030151125007837416   -0.002686069866379671
-0.009331051583939268   -0.019319867539102458   -0.0023792816926249843
-0.011249144737888862   -0.030251969472038783   -0.0025815482562658934
-0.014901954427215699   -0.019759434807184433   -0.002418762557501152
-0.009355414943503093   -0.01942275506219849   -0.002228852954005128
-0.011249144737888862   -0.030251969472038783   -0.0025815482562658934
-0.009331051583939268   -0.019319867539102458   -0.0023792816926249843
-0.014901954427215699   -0.019759434807184433   -0.002418762557501152
-0.011249144737888862   -0.030251969472038783   -0.0025815482562658934
-0.0175684677109903   -0.030482374890329674   -0.002780818842016138
-0.017468562982984895   -0.030360627689700097   -0.0029328436067252188
-0.014901954427215699   -0.019759434807184433   -0.002418762557501152
-0.011249144737888862   -0.030251969472038783   -0.0025815482562658934
-0.017468562982984895   -0.030360627689700097   -0.0029328436067252188
-0.009331051583939268   -0.019319867539102458   -0.0023792816926249843
-0.014901954427215699   -0.019759434807184433   -0.002418762557501152
-0.0175684677109903   -0.030482374890329674   -0.002780818842016138
-0.009355414943503093   -0.01942275506219849   -0.002228852954005128
-0.01508712309799265   -0.01985050604714612   -0.002201590599618711
-0.0175684677109903   -0.030482374890329674   -0.002780818842016138
-0.011249144737888862   -0.030251969472038783   -0.0025815482562658934
-0.009355414943503093   -0.01942275506219849   -0.002228852954005128
-0.011226130003014933   -0.030334795292442995   -0.002487054596533185
-0.01508712309799265   -0.01985050604714612   -0.002201590599618711
-0.009338203188104294   -0.019490417829692085   -0.002087651367976532
-0.011226130003014933   -0.030334795292442995   -0.002487054596533185
-0.009355414943503093   -0.01942275506219849   -0.002228852954005128
-0.01508712309799265   -0.01985050604714612   -0.002201590599618711
-0.011226130003014933   -0.030334795292442995   -0.002487054596533185
-0.017671395480311682   -0.030591472141572314   -0.0026468338719014477
-0.0175684677109903   -0.030482374890329674   -0.002780818842016138
-0.01508712309799265   -0.01985050604714612   -0.002201590599618711
-0.011226130003014933   -0.030334795292442995   -0.002487054596533185
-0.0175684677109903   -0.030482374890329674   -0.002780818842016138
-0.009355414943503093   -0.01942275506219849   -0.002228852954005128
-0.009310330347501408   -0.01917199594064399   -0.0025414346445874463
-0.011225487213478621   -0.03002390083461711   -0.0028021550152800214
-0.004434436758186324   -0.01904304560298172   -0.002286832920497916
-0.009331051583939268   -0.019319867539102458   -0.0023792816926249843
-0.011225487213478621   -0.03002390083461711   -0.0028021550152800214
-0.005535576838379942   -0.029938836574509898   -0.0025952199336779034
-0.004434436758186324   -0.01904304560298172   -0.002286832920497916
-0.005525310166337104   -0.030018684044261557   -0.002518604272182552
-0.009331051583939268   -0.019319867539102458   -0.0023792816926249843
-0.004423639723081604   -0.01913761590878501   -0.0021952180468376
-0.005525310166337104   -0.030018684044261557   -0.002518604272182552
-0.004434436758186324   -0.01904304560298172   -0.002286832920497916
-0.009331051583939268   -0.019319867539102458   -0.0023792816926249843
-0.005525310166337104   -0.030018684044261557   -0.002518604272182552
-0.0112392464335421   -0.030151125007837416   -0.002686069866379671
-0.011225487213478621   -0.03002390083461711   -0.0028021550152800214
-0.009331051583939268   -0.019319867539102458   -0.0023792816926249843
-0.005525310166337104   -0.030018684044261557   -0.002518604272182552
-0.011225487213478621   -0.03002390083461711   -0.0028021550152800214
-0.004434436758186324   -0.01904304560298172   -0.002286832920497916
-0.009331051583939268   -0.019319867539102458   -0.0023792816926249843
-0.0112392464335421   -0.030151125007837416   -0.002686069866379671
-0.004423639723081604   -0.01913761590878501   -0.0021952180468376
-0.009355414943503093   -0.01942275506219849   -0.002228852954005128
-0.0112392464335421   -0.030151125007837416   -0.002686069866379671
-0.005525310166337104   -0.030018684044261557   -0.002518604272182552
-0.004423639723081604   -0.01913761590878501   -0.0021952180468376
-0.005511190999104204   -0.030076427601808595   -0.0024533795555597942
-0.009355414943503093   -0.01942275506219849   -0.002228852954005128
-0.0044103429425895345   -0.019193159100265315   -0.0021147690858990867
-0.005511190999104204   -0.030076427601808595   -0.0024533795555597942
-0.004423639723081604   -0.01913761590878501   -0.0021952180468376
-0.009355414943503093   -0.01942275506219849   -0.002228852954005128
-0.005511190999104204   -0.030076427601808595   -0.0024533795555597942
-0.011249144737888862   -0.030251969472038783   -0.0025815482562658934
-0.0112392464335421   -0.030151125007837416   -0.002686069866379671
-0.009355414943503093   -0.01942275506219849   -0.002228852954005128
-0.005511190999104204   -0.030076427601808595   -0.0024533795555597942
-0.0112392464335421   -0.030151125007837416   -0.002686069866379671
-0.004423639723081604   -0.01913761590878501   -0.0021952180468376
-0.009355414943503093   -0.01942275506219849   -0.002228852954005128
-0.011249144737888862   -0.030251969472038783   -0.0025815482562658934
-0.0044103429425895345   -0.019193159100265315   -0.0021147690858990867
-0.009338203188104294   -0.019490417829692085   -0.002087651367976532
-0.011249144737888862   -0.030251969472038783   -0.0025815482562658934
-0.005511190999104204   -0.030076427601808595   -0.0024533795555597942
-0.0044103429425895345   -0.019193159100265315   -0.0021147690858990867
-0.005490008823128168   -0.030112445506153322   -0.0023997336667884936
-0.009338203188104294   -0.019490417829692085   -0.002087651367976532
-0.004388291702074611   -0.019210469281682487   -0.0020454519598743347
-0.005490008823128168   -0.030112445506153322   -0.0023997336667884936
-0.0044103429425895345   -0.019193159100265315   -0.0021147690858990867
-0.009338203188104294   -0.019490417829692085   -0.002087651367976532
-0.005490008823128168   -0.030112445506153322   -0.0023997336667884936
-0.011226130003014933   -0.030334795292442995   -0.002487054596533185
-0.011249144737888862   -0.030251969472038783   -0.0025815482562658934
-0.009338203188104294   -0.019490417829692085   -0.002087651367976532
-0.005490008823128168   -0.030112445506153322   -0.0023997336667884936
-0.011249144737888862   -0.030251969472038783   -0.0025815482562658934
-0.0044103429425895345   -0.019193159100265315   -0.0021147690858990867
-0.004434436758186324   -0.01904304560298172   -0.002286832920497916
-0.005535576838379942   -0.029938836574509898   -0.0025952199336779034
0.00029838475984603934   -0.019036186284795774   -0.0021289372760331144
-0.004423639723081604   -0.01913761590878501   -0.0021952180468376
-0.005535576838379942   -0.029938836574509898   -0.0025952199336779034
-1.1885897690162373e-07   -0.029924219782186963   -0.0024746603092157806
0.00029838475984603934   -0.019036186284795774   -0.0021289372760331144
1.9428086685716718e-05   -0.029956442593549414   -0.0024378180149533654
-0.004423639723081604   -0.01913761590878501   -0.0021952180468376
0.00031849078647470036   -0.01907829778836436   -0.0021074807180457883
1.9428086685716718e-05   -0.029956442593549414   -0.0024378180149533654
0.00029838475984603934   -0.019036186284795774   -0.0021289372760331144
-0.004423639723081604   -0.01913761590878501   -0.0021952180468376
1.9428086685716718e-05   -0.029956442593549414   -0.0024378180149533654
-0.005525310166337104   -0.030018684044261557   -0.002518604272182552
-0.005535576838379942   -0.029938836574509898   -0.0025952199336779034
-0.004423639723081604   -0.01913761590878501   -0.0021952180468376
1.9428086685716718e-05   -0.029956442593549414   -0.0024378180149533654
-0.005535576838379942   -0.029938836574509898   -0.0025952199336779034
0.00029838475984603934   -0.019036186284795774   -0.0021289372760331144
-0.004423639723081604   -0.01913761590878501   -0.0021952180468376
-0.005525310166337104   -0.030018684044261557   -0.002518604272182552
0.00031849078647470036   -0.01907829778836436   -0.0021074807180457883
-0.0044103429425895345   -0.019193159100265315   -0.0021147690858990867
-0.005525310166337104   -0.030018684044261557   -0.002518604272182552
1.9428086685716718e-05   -0.029956442593549414   -0.0024378180149533654
0.00031849078647470036   -0.01907829778836436   -0.0021074807180457883
3.327021859278089e-05   -0.02996640938676282   -0.0024122214431054768
-0.0044103429425895345   -0.019193159100265315   -0.0021147690858990867
0.00033127046658837703   -0.019081539393917935   -0.0020968974261887188
3.327021859278089e-05   -0.02996640938676282   -0.0024122214431054768
0.00031849078647470036   -0.01907829778836436   -0.0021074807180457883
-0.0044103429425895345   -0.019193159100265315   -0.0021147690858990867
3.327021859278089e-05   -0.02996640938676282   -0.0024122214431054768
-0.005511190999104204   -0.030076427601808595   -0.0024533795555597942
-0.005525310166337104   -0.030018684044261557   -0.002518604272182552
-0.0044103429425895345   -0.019193159100265315   -0.0021147690858990867
3.327021859278089e-05   -0.02996640938676282   -0.0024122214431054768
-0.005525310166337104   -0.030018684044261557   -0.002518604272182552
0.00031849078647470036   -0.01907829778836436   -0.0021074807180457883
-0.0044103429425895345   -0.019193159100265315   -0.0021147690858990867
-0.005511190999104204   -0.030076427601808595   -0.0024533795555597942
0.00033127046658837703   -0.019081539393917935   -0.0020968974261887188
-0.004388291702074611   -0.019210469281682487   -0.0020454519598743347
-0.005511190999104204   -0.030076427601808595   -0.0024533795555597942
3.327021859278089e-05   -0.02996640938676282   -0.0024122214431054768
0.00033127046658837703   -0.019081539393917935   -0.0020968974261887188
4.196105160984621e-05   -0.029953815192371915   -0.0023983689610246276
-0.004388291702074611   -0.019210469281682487   -0.0020454519598743347
0.0003404260754102454   -0.01904533120224787   -0.002097849276052774
4.196105160984621e-05   -0.029953815192371915   -0.0023983689610246276
0.00033127046658837703   -0.019081539393917935   -0.0020968974261887188
-0.004388291702074611   -0.019210469281682487   -0.0020454519598743347
4.196105160984621e-05   -0.029953815192371915   -0.0023983689610246276
-0.005490008823128168   -0.030112445506153322   -0.0023997336667884936
-0.005511190999104204   -0.030076427601808595   -0.0024533795555597942
-0.004388291702074611   -0.019210469281682487   -0.0020454519598743347
4.196105160984621e-05   -0.029953815192371915   -0.0023983689610246276
-0.005511190999104204   -0.030076427601808595   -0.0024533795555597942
0.00033127046658837703   -0.019081539393917935   -0.0020968974261887188
0.00029838475984603934   -0.019036186284795774   -0.0021289372760331144
-1.1885897690162373e-07   -0.029924219782186963   -0.0024746603092157806
0.005233122103717206   -0.019144163260805525   -0.0020650416629967466
0.00031849078647470036   -0.01907829778836436   -0.0021074807180457883
-1.1885897690162373e-07   -0.029924219782186963   -0.0024746603092157806
0.005725678295580928   -0.02997403830266324   -0.0024399808227507655
0.005233122103717206   -0.019144163260805525   -0.0020650416629967466
0.005749634962365883   -0.0299614127319014   -0.0024437521160462425
0.00031849078647470036   -0.01907829778836436   -0.0021074807180457883
0.005250616069255457   -0.01913820137070936   -0.002115202722317631
0.005749634962365883   -0.0299614127319014   -0.0024437521160462425
0.005233122103717206   -0.019144163260805525   -0.0020650416629967466
0.00031849078647470036   -0.01907829778836436   -0.0021074807180457883
0.005749634962365883   -0.0299614127319014   -0.0024437521160462425
1.9428086685716718e-05   -0.029956442593549414   -0.0024378180149533654
-1.1885897690162373e-07   -0.029924219782186963   -0.0024746603092157806
0.00031849078647470036   -0.01907829778836436   -0.0021074807180457883
0.005749634962365883   -0.0299614127319014   -0.0024437521160462425
-1.1885897690162373e-07   -0.029924219782186963   -0.0024746603092157806
0.005233122103717206   -0.019144163260805525   -0.0020650416629967466
0.00031849078647470036   -0.01907829778836436   -0.0021074807180457883
1.9428086685716718e-05   -0.029956442593549414   -0.0024378180149533654
0.005250616069255457   -0.01913820137070936   -0.002115202722317631
0.00033127046658837703   -0.019081539393917935   -0.0020968974261887188
1.9428086685716718e-05   -0.029956442593549414   -0.0024378180149533654
0.005749634962365883   -0.0299614127319014   -0.0024437521160462425
0.005250616069255457   -0.01913820137070936   -0.002115202722317631
0.005751220088380554   -0.029928225207182562   -0.002458164386083255
0.00033127046658837703   -0.019081539393917935   -0.0020968974261887188
0.0052369953836244295   -0.01909419473038211   -0.0021754380817891185
0.005751220088380554   -0.029928225207182562   -0.002458164386083255
0.005250616069255457   -0.01913820137070936   -0.002115202722317631
0.00033127046658837703   -0.019081539393917935   -0.0020968974261887188
0.005751220088380554   -0.029928225207182562   -0.002458164386083255
3.327021859278089e-05   -0.02996640938676282   -0.0024122214431054768
1.9428086685716718e-05   -0.029956442593549414   -0.0024378180149533654
0.00033127046658837703   -0.019081539393917935   -0.0020968974261887188
0.005751220088380554   -0.029928225207182562   -0.002458164386083255
1.9428086685716718e-05   -0.029956442593549414   -0.0024378180149533654
0.005250616069255457   -0.01913820137070936   -0.002115202722317631
0.00033127046658837703   -0.019081539393917935   -0.0020968974261887188
3.327021859278089e-05   -0.02996640938676282   -0.0024122214431054768
0.0052369953836244295   -0.01909419473038211   -0.0021754380817891185
0.0003404260754102454   -0.01904533120224787   -0.002097849276052774
3.327021859278089e-05   -0.02996640938676282   -0.0024122214431054768
0.005751220088380554   -0.029928225207182562   -0.002458164386083255
0.0052369953836244295   -0.01909419473038211   -0.0021754380817891185
0.005738433877290581   -0.0298661604981386   -0.00248362203112715
0.0003404260754102454   -0.01904533120224787   -0.002097849276052774
0.005216773717623942   -0.019002732172273   -0.002246940452667728
0.005738433877290581   -0.0298661604981386   -0.00248362203112715
0.0052369953836244295   -0.01909419473038211   -0.0021754380817891185
0.0003404260754102454   -0.01904533120224787   -0.002097849276052774
0.005738433877290581   -0.0298661604981386   -0.00248362203112715
4.196105160984621e-05   -0.029953815192371915   -0.0023983689610246276
3.327021859278089e-05   -0.02996640938676282   -0.0024122214431054768
0.0003404260754102454   -0.01904533120224787   -0.002097849276052774
0.005738433877290581   -0.0298661604981386   -0.00248362203112715
3.327021859278089e-05   -0.02996640938676282   -0.0024122214431054768
0.0052369953836244295   -0.01909419473038211   -0.0021754380817891185
0.005233122103717206   -0.019144163260805525   -0.0020650416629967466
0.005725678295580928   -0.02997403830266324   -0.0024399808227507655
0.010852882059983873   -0.019340070951890505   -0.0020661425841477085
0.005250616069255457   -0.01913820137070936   -0.002115202722317631
0.005725678295580928   -0.02997403830266324   -0.0024399808227507655
0.012048393440789947   -0.030065636348398365   -0.0024723834647172372
0.010852882059983873   -0.019340070951890505   -0.0020661425841477085
0.012036905294648315   -0.03002264603826456   -0.002520005160876366
0.005250616069255457   -0.01913820137070936   -0.002115202722317631
0.010758035957688004   -0.019306424423851165   -0.0021971664421095607
0.012036905294648315   -0.03002264603826456   -0.002520005160876366
0.010852882059983873   -0.019340070951890505   -0.0020661425841477085
0.005250616069255457   -0.01913820137070936   -0.002115202722317631
0.012036905294648315   -0.03002264603826456   -0.002520005160876366
0.005749634962365883   -0.0299614127319014   -0.0024437521160462425
0.005725678295580928   -0.02997403830266324   -0.0024399808227507655
0.005250616069255457   -0.01913820137070936   -0.002115202722317631
0.012036905294648315   -0.03002264603826456   -0.002520005160876366
0.005725678295580928   -0.02997403830266324   -0.0024399808227507655
0.010852882059983873   -0.019340070951890505   -0.0020661425841477085
0.005250616069255457   -0.01913820137070936   -0.002115202722317631
0.005749634962365883   -0.0299614127319014   -0.0024437521160462425
0.010758035957688004   -0.019306424423851165   -0.0021971664421095607
0.0052369953836244295   -0.01909419473038211   -0.0021754380817891185
0.005749634962365883   -0.0299614127319014   -0.0024437521160462425
0.012036905294648315   -0.03002264603826456   -0.002520005160876366
0.010758035957688004   -0.019306424423851165   -0.0021971664421095607
0.012006436841737146   -0.029968484934370206   -0.0025848893854267477
0.0052369953836244295   -0.01909419473038211   -0.0021754380817891185
0.010663420715295671   -0.019238653953463802   -0.0023463565652810142
0.012006436841737146   -0.029968484934370206   -0.0025848893854267477
0.010758035957688004   -0.019306424423851165   -0.0021971664421095607
0.0052369953836244295   -0.01909419473038211   -0.0021754380817891185
0.012006436841737146   -0.029968484934370206   -0.0025848893854267477
0.005751220088380554   -0.029928225207182562   -0.002458164386083255
0.005749634962365883   -0.0299614127319014   -0.0024437521160462425
0.0052369953836244295   -0.01909419473038211   -0.0021754380817891185
0.012006436841737146   -0.029968484934370206   -0.0025848893854267477
0.005749634962365883   -0.0299614127319014   -0.0024437521160462425
0.010758035957688004   -0.019306424423851165   -0.0021971664421095607
0.0052369953836244295   -0.01909419473038211   -0.0021754380817891185
0.005751220088380554   -0.029928225207182562   -0.002458164386083255
0.010663420715295671   -0.019238653953463802   -0.0023463565652810142
0.005216773717623942   -0.019002732172273   -0.002246940452667728
0.005751220088380554   -0.029928225207182562   -0.002458164386083255
0.012006436841737146   -0.029968484934370206   -0.0025848893854267477
0.010663420715295671   -0.019238653953463802   -0.0023463565652810142
0.011923850801799156   -0.02986516896220365   -0.0026669110028689834
0.005216773717623942   -0.019002732172273   -0.002246940452667728
0.010495608500339513   -0.019096412027241626   -0.002513732176621452
0.011923850801799156   -0.02986516896220365   -0.0026669110028689834
0.010663420715295671   -0.019238653953463802   -0.0023463565652810142
0.005216773717623942   -0.019002732172273   -0.002246940452667728
0.011923850801799156   -0.02986516896220365   -0.0026669110028689834
0.005738433877290581   -0.0298661604981386   -0.00248362203112715
0.005751220088380554   -0.029928225207182562   -0.002458164386083255
0.005216773717623942   -0.019002732172273   -0.002246940452667728
0.011923850801799156   -0.02986516896220365   -0.0026669110028689834
0.005751220088380554   -0.029928225207182562   -0.002458164386083255
0.010663420715295671   -0.019238653953463802   -0.0023463565652810142
-0.017294669432360195   -0.03018852199779708   -0.003100992935008222
-0.018998696337767226   -0.04190011448837468   -0.0031575768537810945
-0.011225487213478621   -0.03002390083461711   -0.0028021550152800214
-0.017468562982984895   -0.030360627689700097   -0.0029328436067252188
-0.018998696337767226   -0.04190011448837468   -0.0031575768537810945
-0.012483199184964086   -0.041832991682754894   -0.002919487400467613
-0.011225487213478621   -0.03002390083461711   -0.0028021550152800214
-0.012478431999830921   -0.041941531223969486   -0.002848273422025432
-0.017468562982984895   -0.030360627689700097   -0.0029328436067252188
-0.0112392464335421   -0.030151125007837416   -0.002686069866379671
-0.012478431999830921   -0.041941531223969486   -0.002848273422025432
-0.011225487213478621   -0.03002390083461711   -0.0028021550152800214
-0.017468562982984895   -0.030360627689700097   -0.0029328436067252188
-0.012478431999830921   -0.041941531223969486   -0.002848273422025432
-0.01908006036612167   -0.04204601094955536   -0.0030708244487674427
-0.018998696337767226   -0.04190011448837468   -0.0031575768537810945
-0.017468562982984895   -0.030360627689700097   -0.0029328436067252188
-0.012478431999830921   -0.041941531223969486   -0.002848273422025432
-0.018998696337767226   -0.04190011448837468   -0.0031575768537810945
-0.011225487213478621   -0.03002390083461711   -0.0028021550152800214
-0.017468562982984895   -0.030360627689700097   -0.0029328436067252188
-0.01908006036612167   -0.04204601094955536   -0.0030708244487674427
-0.0112392464335421   -0.030151125007837416   -0.002686069866379671
-0.0175684677109903   -0.030482374890329674   -0.002780818842016138
-0.01908006036612167   -0.04204601094955536   -0.0030708244487674427
-0.012478431999830921   -0.041941531223969486   -0.002848273422025432
-0.0112392464335421   -0.030151125007837416   -0.002686069866379671
-0.012461897379903606   -0.04204164318162643   -0.00278888372055998
-0.0175684677109903   -0.030482374890329674   -0.002780818842016138
-0.011249144737888862   -0.030251969472038783   -0.0025815482562658934
-0.012461897379903606   -0.04204164318162643   -0.00278888372055998
-0.0112392464335421   -0.030151125007837416   -0.002686069866379671
-0.0175684677109903   -0.030482374890329674   -0.002780818842016138
-0.012461897379903606   -0.04204164318162643   -0.00278888372055998
-0.019106132631171276   -0.04216498842021545   -0.0030010915484781826
-0.01908006036612167   -0.04204601094955536   -0.0030708244487674427
-0.0175684677109903   -0.030482374890329674   -0.002780818842016138
-0.012461897379903606   -0.04204164318162643   -0.00278888372055998
-0.01908006036612167   -0.04204601094955536   -0.0030708244487674427
-0.0112392464335421   -0.030151125007837416   -0.002686069866379671
-0.0175684677109903   -0.030482374890329674   -0.002780818842016138
-0.019106132631171276   -0.04216498842021545   -0.0030010915484781826
-0.011249144737888862   -0.030251969472038783   -0.0025815482562658934
-0.017671395480311682   -0.030591472141572314   -0.0026468338719014477
-0.019106132631171276   -0.04216498842021545   -0.0030010915484781826
-0.012461897379903606   -0.04204164318162643   -0.00278888372055998
-0.011249144737888862   -0.030251969472038783   -0.0025815482562658934
-0.01242085181573573   -0.04214095719849801   -0.002740491093749059
-0.017671395480311682   -0.030591472141572314   -0.0026468338719014477
-0.011226130003014933   -0.030334795292442995   -0.002487054596533185
-0.01242085181573573   -0.04214095719849801   -0.002740491093749059
-0.011249144737888862   -0.030251969472038783   -0.0025815482562658934
-0.017671395480311682   -0.030591472141572314   -0.0026468338719014477
-0.01242085181573573   -0.04214095719849801   -0.002740491093749059
-0.019115039260357652   -0.042294181802009403   -0.0029498384446713277
-0.019106132631171276   -0.04216498842021545   -0.0030010915484781826
-0.017671395480311682   -0.030591472141572314   -0.0026468338719014477
-0.01242085181573573   -0.04214095719849801   -0.002740491093749059
-0.019106132631171276   -0.04216498842021545   -0.0030010915484781826
-0.011249144737888862   -0.030251969472038783   -0.0025815482562658934
-0.011225487213478621   -0.03002390083461711   -0.0028021550152800214
-0.012483199184964086   -0.041832991682754894   -0.002919487400467613
-0.005535576838379942   -0.029938836574509898   -0.0025952199336779034
-0.0112392464335421   -0.030151125007837416   -0.002686069866379671
-0.012483199184964086   -0.041832991682754894   -0.002919487400467613
-0.006430712404687534   -0.041794504330504946   -0.0027573919620498435
-0.005535576838379942   -0.029938836574509898   -0.0025952199336779034
-0.006408296309626737   -0.04186021331486857   -0.002695331079833936
-0.0112392464335421   -0.030151125007837416   -0.002686069866379671
-0.005525310166337104   -0.030018684044261557   -0.002518604272182552
-0.006408296309626737   -0.04186021331486857   -0.002695331079833936
-0.005535576838379942   -0.029938836574509898   -0.0025952199336779034
-0.0112392464335421   -0.030151125007837416   -0.002686069866379671
-0.006408296309626737   -0.04186021331486857   -0.002695331079833936
-0.012478431999830921   -0.041941531223969486   -0.002848273422025432
-0.012483199184964086   -0.041832991682754894   -0.002919487400467613
-0.0112392464335421   -0.030151125007837416   -0.002686069866379671
-0.006408296309626737   -0.04186021331486857   -0.002695331079833936
-0.012483199184964086   -0.041832991682754894   -0.002919487400467613
-0.005535576838379942   -0.029938836574509898   -0.0025952199336779034
-0.0112392464335421   -0.030151125007837416   -0.002686069866379671
-0.012478431999830921   -0.041941531223969486   -0.002848273422025432
-0.005525310166337104   -0.030018684044261557   -0.002518604272182552
-0.011249144737888862   -0.030251969472038783   -0.0025815482562658934
-0.012478431999830921   -0.041941531223969486   -0.002848273422025432
-0.006408296309626737   -0.04186021331486857   -0.002695331079833936
-0.005525310166337104   -0.030018684044261557   -0.002518604272182552
-0.006380761812352784   -0.04192050721248675   -0.0026451050129135236
-0.011249144737888862   -0.030251969472038783   -0.0025815482562658934
-0.005511190999104204   -0.030076427601808595   -0.0024533795555597942
-0.006380761812352784   -0.04192050721248675   -0.0026451050129135236
-0.005525310166337104   -0.030018684044261557   -0.002518604272182552
-0.011249144737888862   -0.030251969472038783   -0.0025815482562658934
-0.006380761812352784   -0.04192050721248675   -0.0026451050129135236
-0.012461897379903606   -0.04204164318162643   -0.00278888372055998
-0.012478431999830921   -0.041941531223969486   -0.002848273422025432
-0.011249144737888862   -0.030251969472038783   -0.0025815482562658934
-0.006380761812352784   -0.04192050721248675   -0.0026451050129135236
-0.012478431999830921   -0.041941531223969486   -0.002848273422025432
-0.005525310166337104   -0.030018684044261557   -0.002518604272182552
-0.011249144737888862   -0.030251969472038783   -0.0025815482562658934
-0.012461897379903606   -0.04204164318162643   -0.00278888372055998
-0.005511190999104204   -0.030076427601808595   -0.0024533795555597942
-0.011226130003014933   -0.030334795292442995   -0.002487054596533185
-0.012461897379903606   -0.04204164318162643   -0.00278888372055998
-0.006380761812352784   -0.04192050721248675   -0.0026451050129135236
-0.005511190999104204   -0.030076427601808595   -0.0024533795555597942
-0.006347641749410173   -0.04197558398898081   -0.002606997499172856
-0.011226130003014933   -0.030334795292442995   -0.002487054596533185
-0.005490008823128168   -0.030112445506153322   -0.0023997336667884936
-0.006347641749410173   -0.04197558398898081   -0.002606997499172856
-0.005511190999104204   -0.030076427601808595   -0.0024533795555597942
-0.011226130003014933   -0.030334795292442995   -0.002487054596533185
-0.006347641749410173   -0.04197558398898081   -0.002606997499172856
-0.01242085181573573   -0.04214095719849801   -0.002740491093749059
-0.012461897379903606   -0.04204164318162643   -0.00278888372055998
-0.011226130003014933   -0.030334795292442995   -0.002487054596533185
-0.006347641749410173   -0.04197558398898081   -0.002606997499172856
-0.012461897379903606   -0.04204164318162643   -0.00278888372055998
-0.005511190999104204   -0.030076427601808595   -0.0024533795555597942
-0.005535576838379942   -0.029938836574509898   -0.0025952199336779034
-0.006430712404687534   -0.041794504330504946   -0.0027573919620498435
-1.1885897690162373e-07   -0.029924219782186963   -0.0024746603092157806
-0.005525310166337104   -0.030018684044261557   -0.002518604272182552
-0.006430712404687534   -0.041794504330504946   -0.0027573919620498435
-0.0005419921149516175   -0.04177247891445004   -0.0026735085598414057
-1.1885897690162373e-07   -0.029924219782186963   -0.0024746603092157806
-0.0005106001680639617   -0.04179457276020779   -0.00262121913252341
-0.005525310166337104   -0.030018684044261557   -0.002518604272182552
1.9428086685716718e-05   -0.029956442593549414   -0.0024378180149533654
-0.0005106001680639617   -0.04179457276020779   -0.00262121913252341
-1.1885897690162373e-07   -0.029924219782186963   -0.0024746603092157806
-0.005525310166337104   -0.030018684044261557   -0.002518604272182552
-0.0005106001680639617   -0.04179457276020779   -0.00262121913252341
-0.006408296309626737   -0.04186021331486857   -0.002695331079833936
-0.006430712404687534   -0.041794504330504946   -0.0027573919620498435
-0.005525310166337104   -0.030018684044261557   -0.002518604272182552
-0.0005106001680639617   -0.04179457276020779   -0.00262121913252341
-0.006430712404687534   -0.041794504330504946   -0.0027573919620498435
-1.1885897690162373e-07   -0.029924219782186963   -0.0024746603092157806
-0.005525310166337104   -0.030018684044261557   -0.002518604272182552
-0.006408296309626737   -0.04186021331486857   -0.002695331079833936
1.9428086685716718e-05   -0.029956442593549414   -0.0024378180149533654
-0.005511190999104204   -0.030076427601808595   -0.0024533795555597942
-0.006408296309626737   -0.04186021331486857   -0.002695331079833936
-0.0005106001680639617   -0.04179457276020779   -0.00262121913252341
1.9428086685716718e-05   -0.029956442593549414   -0.0024378180149533654
-0.0004834393409243397   -0.041810869038266106   -0.0025806617700794955
-0.005511190999104204   -0.030076427601808595   -0.0024533795555597942
3.327021859278089e-05   -0.02996640938676282   -0.0024122214431054768
-0.0004834393409243397   -0.041810869038266106   -0.0025806617700794955
1.9428086685716718e-05   -0.029956442593549414   -0.0024378180149533654
-0.005511190999104204   -0.030076427601808595   -0.0024533795555597942
-0.0004834393409243397   -0.041810869038266106   -0.0025806617700794955
-0.006380761812352784   -0.04192050721248675   -0.0026451050129135236
-0.006408296309626737   -0.04186021331486857   -0.002695331079833936
-0.005511190999104204   -0.030076427601808595   -0.0024533795555597942
-0.0004834393409243397   -0.041810869038266106   -0.0025806617700794955
-0.006408296309626737   -0.04186021331486857   -0.002695331079833936
1.9428086685716718e-05   -0.029956442593549414   -0.0024378180149533654
-0.005511190999104204   -0.030076427601808595   -0.0024533795555597942
-0.006380761812352784   -0.04192050721248675   -0.0026451050129135236
3.327021859278089e-05   -0.02996640938676282   -0.0024122214431054768
-0.005490008823128168   -0.030112445506153322   -0.0023997336667884936
-0.006380761812352784   -0.04192050721248675   -0.0026451050129135236
-0.0004834393409243397   -0.041810869038266106   -0.0025806617700794955
3.327021859278089e-05   -0.02996640938676282   -0.0024122214431054768
-0.00046278042182066264   -0.04182128465589116   -0.0025522646285875256
-0.005490008823128168   -0.030112445506153322   -0.0023997336667884936
4.196105160984621e-05   -0.029953815192371915   -0.0023983689610246276
-0.00046278042182066264   -0.04182128465589116   -0.0025522646285875256
3.327021859278089e-05   -0.02996640938676282   -0.0024122214431054768
-0.005490008823128168   -0.030112445506153322   -0.0023997336667884936
-0.00046278042182066264   -0.04182128465589116   -0.0025522646285875256
-0.006347641749410173   -0.04197558398898081   -0.002606997499172856
-0.006380761812352784   -0.04192050721248675   -0.0026451050129135236
-0.005490008823128168   -0.030112445506153322   -0.0023997336667884936
-0.00046278042182066264   -0.04182128465589116   -0.0025522646285875256
-0.006380761812352784   -0.04192050721248675   -0.0026451050129135236
3.327021859278089e-05   -0.02996640938676282   -0.0024122214431054768
-1.1885897690162373e-07   -0.029924219782186963   -0.0024746603092157806
-0.0005419921149516175   -0.04177247891445004   -0.0026735085598414057
0.005725678295580928   -0.02997403830266324   -0.0024399808227507655
1.9428086685716718e-05   -0.029956442593549414   -0.0024378180149533654
-0.0005419921149516175   -0.04177247891445004   -0.0026735085598414057
0.005526497557398042   -0.04176312237453836   -0.002668566986111106
0.005725678295580928   -0.02997403830266324   -0.0024399808227507655
0.0055681336439481225   -0.041742974454739123   -0.0026265399220265417
1.9428086685716718e-05   -0.029956442593549414   -0.0024378180149533654
0.005749634962365883   -0.0299614127319014   -0.0024437521160462425
0.0055681336439481225   -0.041742974454739123   -0.0026265399220265417
0.005725678295580928   -0.02997403830266324   -0.0024399808227507655
1.9428086685716718e-05   -0.029956442593549414   -0.0024378180149533654
0.0055681336439481225   -0.041742974454739123   -0.0026265399220265417
-0.0005106001680639617   -0.04179457276020779   -0.00262121913252341
-0.0005419921149516175   -0.04177247891445004   -0.0026735085598414057
1.9428086685716718e-05   -0.029956442593549414   -0.0024378180149533654
0.0055681336439481225   -0.041742974454739123   -0.0026265399220265417
-0.0005419921149516175   -0.04177247891445004   -0.0026735085598414057
0.005725678295580928   -0.02997403830266324   -0.0024399808227507655
1.9428086685716718e-05   -0.029956442593549414   -0.0024378180149533654
-0.0005106001680639617   -0.04179457276020779   -0.00262121913252341
0.005749634962365883   -0.0299614127319014   -0.0024437521160462425
3.327021859278089e-05   -0.02996640938676282   -0.0024122214431054768
-0.0005106001680639617   -0.04179457276020779   -0.00262121913252341
0.0055681336439481225   -0.041742974454739123   -0.0026265399220265417
0.005749634962365883   -0.0299614127319014   -0.0024437521160462425
0.005595937423207134   -0.04171945758442324   -0.002595909202414008
3.327021859278089e-05   -0.02996640938676282   -0.0024122214431054768
0.005751220088380554   -0.029928225207182562   -0.002458164386083255
0.005595937423207134   -0.04171945758442324   -0.002595909202414008
0.005749634962365883   -0.0299614127319014   -0.0024437521160462425
3.327021859278089e-05   -0.02996640938676282   -0.0024122214431054768
0.005595937423207134   -0.04171945758442324   -0.002595909202414008
-0.0004834393409243397   -0.041810869038266106   -0.0025806617700794955
-0.0005106001680639617   -0.04179457276020779   -0.00262121913252341
3.327021859278089e-05   -0.02996640938676282   -0.0024122214431054768
0.005595937423207134   -0.04171945758442324   -0.002595909202414008
-0.0005106001680639617   -0.04179457276020779   -0.00262121913252341
0.005749634962365883   -0.0299614127319014   -0.0024437521160462425
3.327021859278089e-05   -0.02996640938676282   -0.0024122214431054768
-0.0004834393409243397   -0.041810869038266106   -0.0025806617700794955
0.005751220088380554   -0.029928225207182562   -0.002458164386083255
4.196105160984621e-05   -0.029953815192371915   -0.0023983689610246276
-0.0004834393409243397   -0.041810869038266106   -0.0025806617700794955
0.005595937423207134   -0.04171945758442324   -0.002595909202414008
0.005751220088380554   -0.029928225207182562   -0.002458164386083255
0.0056014621681802395   -0.04168484667438648   -0.0025764407207020347
4.196105160984621e-05   -0.029953815192371915   -0.0023983689610246276
0.005738433877290581   -0.0298661604981386   -0.00248362203112715
0.0056014621681802395   -0.04168484667438648   -0.0025764407207020347
0.005751220088380554   -0.029928225207182562   -0.002458164386083255
4.196105160984621e-05   -0.029953815192371915   -0.0023983689610246276
0.0056014621681802395   -0.04168484667438648   -0.0025764407207020347
-0.00046278042182066264   -0.04182128465589116   -0.0025522646285875256
-0.0004834393409243397   -0.041810869038266106   -0.0025806617700794955
4.196105160984621e-05   -0.029953815192371915   -0.0023983689610246276
0.0056014621681802395   -0.04168484667438648   -0.0025764407207020347
-0.0004834393409243397   -0.041810869038266106   -0.0025806617700794955
0.005751220088380554   -0.029928225207182562   -0.002458164386083255
0.005725678295580928   -0.02997403830266324   -0.0024399808227507655
0.005526497557398042   -0.04176312237453836   -0.002668566986111106
0.012048393440789947   -0.030065636348398365   -0.0024723834647172372
0.005749634962365883   -0.0299614127319014   -0.0024437521160462425
0.005526497557398042   -0.04176312237453836   -0.002668566986111106
0.012103080014839177   -0.04175021270190245   -0.0027346226119034783
0.012048393440789947   -0.030065636348398365   -0.0024723834647172372
0.0121846813154782   -0.041696685742800825   -0.002700247265578748
0.005749634962365883   -0.0299614127319014   -0.0024437521160462425
0.012036905294648315   -0.03002264603826456   -0.002520005160876366
0.0121846813154782   -0.041696685742800825   -0.002700247265578748
0.012048393440789947   -0.030065636348398365   -0.0024723834647172372
0.005749634962365883   -0.0299614127319014   -0.0024437521160462425
0.0121846813154782   -0.041696685742800825   -0.002700247265578748
0.0055681336439481225   -0.041742974454739123   -0.0026265399220265417
0.005526497557398042   -0.04176312237453836   -0.002668566986111106
0.005749634962365883   -0.0299614127319014   -0.0024437521160462425
0.0121846813154782   -0.041696685742800825   -0.002700247265578748
0.005526497557398042   -0.04176312237453836   -0.002668566986111106
0.012048393440789947   -0.030065636348398365   -0.0024723834647172372
0.005749634962365883   -0.0299614127319014   -0.0024437521160462425
0.0055681336439481225   -0.041742974454739123   -0.0026265399220265417
0.012036905294648315   -0.03002264603826456   -0.002520005160876366
0.005751220088380554   -0.029928225207182562   -0.002458164386083255
0.0055681336439481225   -0.041742974454739123   -0.0026265399220265417
0.0121846813154782   -0.041696685742800825   -0.002700247265578748
0.012036905294648315   -0.03002264603826456   -0.002520005160876366
0.01222771143631872   -0.04165439202275071   -0.0026831859320708704
0.005751220088380554   -0.029928225207182562   -0.002458164386083255
0.012006436841737146   -0.029968484934370206   -0.0025848893854267477
0.01222771143631872   -0.04165439202275071   -0.0026831859320708704
0.012036905294648315   -0.03002264603826456   -0.002520005160876366
0.005751220088380554   -0.029928225207182562   -0.002458164386083255
0.01222771143631872   -0.04165439202275071   -0.0026831859320708704
0.005595937423207134   -0.04171945758442324   -0.002595909202414008
0.0055681336439481225   -0.041742974454739123   -0.0026265399220265417
0.005751220088380554   -0.029928225207182562   -0.002458164386083255
0.01222771143631872   -0.04165439202275071   -0.0026831859320708704
0.0055681336439481225   -0.041742974454739123   -0.0026265399220265417
0.012036905294648315   -0.03002264603826456   -0.002520005160876366
0.005751220088380554   -0.029928225207182562   -0.002458164386083255
0.005595937423207134   -0.04171945758442324   -0.002595909202414008
0.012006436841737146   -0.029968484934370206   -0.0025848893854267477
0.005738433877290581   -0.0298661604981386   -0.00248362203112715
0.005595937423207134   -0.04171945758442324   -0.002595909202414008
0.01222771143631872   -0.04165439202275071   -0.0026831859320708704
0.012006436841737146   -0.029968484934370206   -0.0025848893854267477
0.012237837792076113   -0.0415864615329648   -0.0026837335451019287
0.005738433877290581   -0.0298661604981386   -0.00248362203112715
0.011923850801799156   -0.02986516896220365   -0.0026669110028689834
0.012237837792076113   -0.0415864615329648   -0.0026837335451019287
0.012006436841737146   -0.029968484934370206   -0.0025848893854267477
0.005738433877290581   -0.0298661604981386   -0.00248362203112715
0.012237837792076113   -0.0415864615329648   -0.0026837335451019287
0.0056014621681802395   -0.04168484667438648   -0.0025764407207020347
0.005595937423207134   -0.04171945758442324   -0.002595909202414008
0.005738433877290581   -0.0298661604981386   -0.00248362203112715
0.012237837792076113   -0.0415864615329648   -0.0026837335451019287
0.005595937423207134   -0.04171945758442324   -0.002595909202414008
0.012006436841737146   -0.029968484934370206   -0.0025848893854267477
-0.018998696337767226   -0.04190011448837468   -0.0031575768537810945
-0.019593311208063235   -0.05382403085255472   -0.00310405538846084
-0.012483199184964086   -0.041832991682754894   -0.002919487400467613
-0.01908006036612167   -0.04204601094955536   -0.0030708244487674427
-0.019593311208063235   -0.05382403085255472   -0.00310405538846084
-0.0130848761401363   -0.053855164290715164   -0.002927964857103295
-0.012483199184964086   -0.041832991682754894   -0.002919487400467613
-0.013049917797553818   -0.05394463665251549   -0.0029009495328143433
-0.01908006036612167   -0.04204601094955536   -0.0030708244487674427
-0.012478431999830921   -0.041941531223969486   -0.002848273422025432
-0.013049917797553818   -0.05394463665251549   -0.0029009495328143433
-0.012483199184964086   -0.041832991682754894   -0.002919487400467613
-0.01908006036612167   -0.04204601094955536   -0.0030708244487674427
-0.013049917797553818   -0.05394463665251549   -0.0029009495328143433
-0.019570961801035614   -0.05394373447265659   -0.0030983792339336013
-0.019593311208063235   -0.05382403085255472   -0.00310405538846084
-0.01908006036612167   -0.04204601094955536   -0.0030708244487674427
-0.013049917797553818   -0.05394463665251549   -0.0029009495328143433
-0.019593311208063235   -0.05382403085255472   -0.00310405538846084
-0.012483199184964086   -0.041832991682754894   -0.002919487400467613
-0.01908006036612167   -0.04204601094955536   -0.0030708244487674427
-0.019570961801035614   -0.05394373447265659   -0.0030983792339336013
-0.012478431999830921   -0.041941531223969486   -0.002848273422025432
-0.019106132631171276   -0.04216498842021545   -0.0030010915484781826
-0.019570961801035614   -0.05394373447265659   -0.0030983792339336013
-0.013049917797553818   -0.05394463665251549   -0.0029009495328143433
-0.012478431999830921   -0.041941531223969486   -0.002848273422025432
-0.012995309989391055   -0.05404374777839573   -0.0028861264679100346
-0.019106132631171276   -0.04216498842021545   -0.0030010915484781826
-0.012461897379903606   -0.04204164318162643   -0.00278888372055998
-0.012995309989391055   -0.05404374777839573   -0.0028861264679100346
-0.012478431999830921   -0.041941531223969486   -0.002848273422025432
-0.019106132631171276   -0.04216498842021545   -0.0030010915484781826
-0.012995309989391055   -0.05404374777839573   -0.0028861264679100346
-0.019511237049207104   -0.0540599365400152   -0.0031109235311792957
-0.019570961801035614   -0.05394373447265659   -0.0030983792339336013
-0.019106132631171276   -0.04216498842021545   -0.0030010915484781826
-0.012995309989391055   -0.05404374777839573   -0.0028861264679100346
-0.019570961801035614   -0.05394373447265659   -0.0030983792339336013
-0.012478431999830921   -0.041941531223969486   -0.002848273422025432
-0.019106132631171276   -0.04216498842021545   -0.0030010915484781826
-0.019511237049207104   -0.0540599365400152   -0.0031109235311792957
-0.012461897379903606   -0.04204164318162643   -0.00278888372055998
-0.019115039260357652   -0.042294181802009403   -0.0029498384446713277
-0.019511237049207104   -0.0540599365400152   -0.0031109235311792957
-0.012995309989391055   -0.05404374777839573   -0.0028861264679100346
-0.012461897379903606   -0.04204164318162643   -0.00278888372055998
-0.012924542717297753   -0.05415932054598817   -0.0028832994435210174
-0.019115039260357652   -0.042294181802009403   -0.0029498384446713277
-0.01242085181573573   -0.04214095719849801   -0.002740491093749059
-0.012924542717297753   -0.05415932054598817   -0.0028832994435210174
-0.012461897379903606   -0.04204164318162643   -0.00278888372055998
-0.019115039260357652   -0.042294181802009403   -0.0029498384446713277
-0.012924542717297753   -0.05415932054598817   -0.0028832994435210174
-0.01941421196040412   -0.054209599702421556   -0.0031426075299854244
-0.019511237049207104   -0.0540599365400152   -0.0031109235311792957
-0.019115039260357652   -0.042294181802009403   -0.0029498384446713277
-0.012924542717297753   -0.05415932054598817   -0.0028832994435210174
-0.019511237049207104   -0.0540599365400152   -0.0031109235311792957
-0.012461897379903606   -0.04204164318162643   -0.00278888372055998
-0.012483199184964086   -0.041832991682754894   -0.002919487400467613
-0.0130848761401363   -0.053855164290715164   -0.002927964857103295
-0.006430712404687534   -0.041794504330504946   -0.0027573919620498435
-0.012478431999830921   -0.041941531223969486   -0.002848273422025432
-0.0130848761401363   -0.053855164290715164   -0.002927964857103295
-0.007123246323103071   -0.0538619427940429   -0.002810917389712285
-0.006430712404687534   -0.041794504330504946   -0.0027573919620498435
-0.007076416358861802   -0.05391327780095885   -0.002762989832376685
-0.012478431999830921   -0.041941531223969486   -0.002848273422025432
-0.006408296309626737   -0.04186021331486857   -0.002695331079833936
-0.007076416358861802   -0.05391327780095885   -0.002762989832376685
-0.006430712404687534   -0.041794504330504946   -0.0027573919620498435
-0.012478431999830921   -0.041941531223969486   -0.002848273422025432
-0.007076416358861802   -0.05391327780095885   -0.002762989832376685
-0.013049917797553818   -0.05394463665251549   -0.0029009495328143433
-0.0130848761401363   -0.053855164290715164   -0.002927964857103295
-0.012478431999830921   -0.041941531223969486   -0.002848273422025432
-0.007076416358861802   -0.05391327780095885   -0.002762989832376685
-0.0130848761401363   -0.053855164290715164   -0.002927964857103295
-0.006430712404687534   -0.041794504330504946   -0.0027573919620498435
-0.012478431999830921   -0.041941531223969486   -0.002848273422025432
-0.013049917797553818   -0.05394463665251549   -0.0029009495328143433
-0.006408296309626737   -0.04186021331486857   -0.002695331079833936
-0.012461897379903606   -0.04204164318162643   -0.00278888372055998
-0.013049917797553818   -0.05394463665251549   -0.0029009495328143433
-0.007076416358861802   -0.05391327780095885   -0.002762989832376685
-0.006408296309626737   -0.04186021331486857   -0.002695331079833936
-0.007023492099217985   -0.053975678082890895   -0.0027273012148295124
-0.012461897379903606   -0.04204164318162643   -0.00278888372055998
-0.006380761812352784   -0.04192050721248675   -0.0026451050129135236
-0.007023492099217985   -0.053975678082890895   -0.0027273012148295124
-0.006408296309626737   -0.04186021331486857   -0.002695331079833936
-0.012461897379903606   -0.04204164318162643   -0.00278888372055998
-0.007023492099217985   -0.053975678082890895   -0.0027273012148295124
-0.012995309989391055   -0.05404374777839573   -0.0028861264679100346
-0.013049917797553818   -0.05394463665251549   -0.0029009495328143433
-0.012461897379903606   -0.04204164318162643   -0.00278888372055998
-0.007023492099217985   -0.053975678082890895   -0.0027273012148295124
-0.013049917797553818   -0.05394463665251549   -0.0029009495328143433
-0.006408296309626737   -0.04186021331486857   -0.002695331079833936
-0.012461897379903606   -0.04204164318162643   -0.00278888372055998
-0.012995309989391055   -0.05404374777839573   -0.0028861264679100346
-0.006380761812352784   -0.04192050721248675   -0.0026451050129135236
-0.01242085181573573   -0.04214095719849801   -0.002740491093749059
-0.012995309989391055   -0.05404374777839573   -0.0028861264679100346
-0.007023492099217985   -0.053975678082890895   -0.0027273012148295124
-0.006380761812352784   -0.04192050721248675   -0.0026451050129135236
-0.006966452478105516   -0.05404933813500407   -0.002704247691656042
-0.01242085181573573   -0.04214095719849801   -0.002740491093749059
-0.006347641749410173   -0.04197558398898081   -0.002606997499172856
-0.006966452478105516   -0.05404933813500407   -0.002704247691656042
-0.006380761812352784   -0.04192050721248675   -0.0026451050129135236
-0.01242085181573573   -0.04214095719849801   -0.002740491093749059
-0.006966452478105516   -0.05404933813500407   -0.002704247691656042
-0.012924542717297753   -0.05415932054598817   -0.0028832994435210174
-0.012995309989391055   -0.05404374777839573   -0.0028861264679100346
-0.01242085181573573   -0.04214095719849801   -0.002740491093749059
-0.006966452478105516   -0.05404933813500407   -0.002704247691656042
-0.012995309989391055   -0.05404374777839573   -0.0028861264679100346
-0.006380761812352784   -0.04192050721248675   -0.0026451050129135236
-0.006430712404687534   -0.041794504330504946   -0.0027573919620498435
-0.007123246323103071   -0.0538619427940429   -0.002810917389712285
-0.0005419921149516175   -0.04177247891445004   -0.0026735085598414057
-0.006408296309626737   -0.04186021331486857   -0.002695331079833936
-0.007123246323103071   -0.0538619427940429   -0.002810917389712285
-0.0013302970056763128   -0.05383036370683592   -0.002763023349826845
-0.0005419921149516175   -0.04177247891445004   -0.0026735085598414057
-0.0012749073413126117   -0.05384228953172152   -0.0026952241435310794
-0.006408296309626737   -0.04186021331486857   -0.002695331079833936
-0.0005106001680639617   -0.04179457276020779   -0.00262121913252341
-0.0012749073413126117   -0.05384228953172152   -0.0026952241435310794
-0.0005419921149516175   -0.04177247891445004   -0.0026735085598414057
-0.006408296309626737   -0.04186021331486857   -0.002695331079833936
-0.0012749073413126117   -0.05384228953172152   -0.0026952241435310794
-0.007076416358861802   -0.05391327780095885   -0.002762989832376685
-0.007123246323103071   -0.0538619427940429   -0.002810917389712285
-0.006408296309626737   -0.04186021331486857   -0.002695331079833936
-0.0012749073413126117   -0.05384228953172152   -0.0026952241435310794
-0.007123246323103071   -0.0538619427940429   -0.002810917389712285
-0.0005419921149516175   -0.04177247891445004   -0.0026735085598414057
-0.006408296309626737   -0.04186021331486857   -0.002695331079833936
-0.007076416358861802   -0.05391327780095885   -0.002762989832376685
-0.0005106001680639617   -0.04179457276020779   -0.00262121913252341
-0.006380761812352784   -0.04192050721248675   -0.0026451050129135236
-0.007076416358861802   -0.05391327780095885   -0.002762989832376685
-0.0012749073413126117   -0.05384228953172152   -0.0026952241435310794
-0.0005106001680639617   -0.04179457276020779   -0.00262121913252341
-0.0012225133173324179   -0.05386441287755673   -0.002639576753759733
-0.006380761812352784   -0.04192050721248675   -0.0026451050129135236
-0.0004834393409243397   -0.041810869038266106   -0.0025806617700794955
-0.0012225133173324179   -0.05386441287755673   -0.002639576753759733
-0.0005106001680639617   -0.04179457276020779   -0.00262121913252341
-0.006380761812352784   -0.04192050721248675   -0.0026451050129135236
-0.0012225133173324179   -0.05386441287755673   -0.002639576753759733
-0.007023492099217985   -0.053975678082890895   -0.0027273012148295124
-0.007076416358861802   -0.05391327780095885   -0.002762989832376685
-0.006380761812352784   -0.04192050721248675   -0.0026451050129135236
-0.0012225133173324179   -0.05386441287755673   -0.002639576753759733
-0.007076416358861802   -0.05391327780095885   -0.002762989832376685
-0.0005106001680639617   -0.04179457276020779   -0.00262121913252341
-0.006380761812352784   -0.04192050721248675   -0.0026451050129135236
-0.007023492099217985   -0.053975678082890895   -0.0027273012148295124
-0.0004834393409243397   -0.041810869038266106   -0.0025806617700794955
-0.006347641749410173   -0.04197558398898081   -0.002606997499172856
-0.007023492099217985   -0.053975678082890895   -0.0027273012148295124
-0.0012225133173324179   -0.05386441287755673   -0.002639576753759733
-0.0004834393409243397   -0.041810869038266106   -0.0025806617700794955
-0.0011780542486523559   -0.053897239266715406   -0.0025965058959822314
-0.006347641749410173   -0.04197558398898081   -0.002606997499172856
-0.00046278042182066264   -0.04182128465589116   -0.0025522646285875256
-0.0011780542486523559   -0.053897239266715406   -0.0025965058959822314
-0.0004834393409243397   -0.041810869038266106   -0.0025806617700794955
-0.006347641749410173   -0.04197558398898081   -0.002606997499172856
-0.0011780542486523559   -0.053897239266715406   -0.0025965058959822314
-0.006966452478105516   -0.05404933813500407   -0.002704247691656042
-0.007023492099217985   -0.053975678082890895   -0.0027273012148295124
-0.006347641749410173   -0.04197558398898081   -0.002606997499172856
-0.0011780542486523559   -0.053897239266715406   -0.0025965058959822314
-0.007023492099217985   -0.053975678082890895   -0.0027273012148295124
-0.0004834393409243397   -0.041810869038266106   -0.0025806617700794955
-0.0005419921149516175   -0.04177247891445004   -0.0026735085598414057
-0.0013302970056763128   -0.05383036370683592   -0.002763023349826845
0.005526497557398042   -0.04176312237453836   -0.002668566986111106
-0.0005106001680639617   -0.04179457276020779   -0.00262121913252341
-0.0013302970056763128   -0.05383036370683592   -0.002763023349826845
0.004637132159526104   -0.05376015624166983   -0.002786563621233011
0.005526497557398042   -0.04176312237453836   -0.002668566986111106
0.0047077914261827915   -0.05373254456449596   -0.0026992473445957158
-0.0005106001680639617   -0.04179457276020779   -0.00262121913252341
0.0055681336439481225   -0.041742974454739123   -0.0026265399220265417
0.0047077914261827915   -0.05373254456449596   -0.0026992473445957158
0.005526497557398042   -0.04176312237453836   -0.002668566986111106
-0.0005106001680639617   -0.04179457276020779   -0.00262121913252341
0.0047077914261827915   -0.05373254456449596   -0.0026992473445957158
-0.0012749073413126117   -0.05384228953172152   -0.0026952241435310794
-0.0013302970056763128   -0.05383036370683592   -0.002763023349826845
-0.0005106001680639617   -0.04179457276020779   -0.00262121913252341
0.0047077914261827915   -0.05373254456449596   -0.0026992473445957158
-0.0013302970056763128   -0.05383036370683592   -0.002763023349826845
0.005526497557398042   -0.04176312237453836   -0.002668566986111106
-0.0005106001680639617   -0.04179457276020779   -0.00262121913252341
-0.0012749073413126117   -0.05384228953172152   -0.0026952241435310794
0.0055681336439481225   -0.041742974454739123   -0.0026265399220265417
-0.0004834393409243397   -0.041810869038266106   -0.0025806617700794955
-0.0012749073413126117   -0.05384228953172152   -0.0026952241435310794
0.0047077914261827915   -0.05373254456449596   -0.0026992473445957158
0.0055681336439481225   -0.041742974454739123   -0.0026265399220265417
0.004773071113110977   -0.053718188165160184   -0.002624046863440779
-0.0004834393409243397   -0.041810869038266106   -0.0025806617700794955
0.005595937423207134   -0.04171945758442324   -0.002595909202414008
0.004773071113110977   -0.053718188165160184   -0.002624046863440779
0.0055681336439481225   -0.041742974454739123   -0.0026265399220265417
-0.0004834393409243397   -0.041810869038266106   -0.0025806617700794955
0.004773071113110977   -0.053718188165160184   -0.002624046863440779
-0.0012225133173324179   -0.05386441287755673   -0.002639576753759733
-0.0012749073413126117   -0.05384228953172152   -0.0026952241435310794
-0.0004834393409243397   -0.041810869038266106   -0.0025806617700794955
0.004773071113110977   -0.053718188165160184   -0.002624046863440779
-0.0012749073413126117   -0.05384228953172152   -0.0026952241435310794
0.0055681336439481225   -0.041742974454739123   -0.0026265399220265417
-0.0004834393409243397   -0.041810869038266106   -0.0025806617700794955
-0.0012225133173324179   -0.05386441287755673   -0.002639576753759733
0.005595937423207134   -0.04171945758442324   -0.002595909202414008
-0.00046278042182066264   -0.04182128465589116   -0.0025522646285875256
-0.0012225133173324179   -0.05386441287755673   -0.002639576753759733
0.004773071113110977   -0.053718188165160184   -0.002624046863440779
0.005595937423207134   -0.04171945758442324   -0.002595909202414008
0.004808044522377151   -0.05371012286929121   -0.0025601712091689074
-0.00046278042182066264   -0.04182128465589116   -0.0025522646285875256
0.0056014621681802395   -0.04168484667438648   -0.0025764407207020347
0.004808044522377151   -0.05371012286929121   -0.0025601712091689074
0.005595937423207134   -0.04171945758442324   -0.002595909202414008
-0.00046278042182066264   -0.04182128465589116   -0.0025522646285875256
0.004808044522377151   -0.05371012286929121   -0.0025601712091689074
-0.0011780542486523559   -0.053897239266715406   -0.0025965058959822314
-0.0012225133173324179   -0.05386441287755673   -0.002639576753759733
-0.00046278042182066264   -0.04182128465589116   -0.0025522646285875256
0.004808044522377151   -0.05371012286929121   -0.0025601712091689074
-0.0012225133173324179   -0.05386441287755673   -0.002639576753759733
0.005595937423207134   -0.04171945758442324   -0.002595909202414008
0.005526497557398042   -0.04176312237453836   -0.002668566986111106
0.004637132159526104   -0.05376015624166983   -0.002786563621233011
0.012103080014839177   -0.04175021270190245   -0.0027346226119034783
0.0055681336439481225   -0.041742974454739123   -0.0026265399220265417
0.004637132159526104   -0.05376015624166983   -0.002786563621233011
0.0110265427416927   -0.05364221293407109   -0.0028852581331662267
0.012103080014839177   -0.04175021270190245   -0.0027346226119034783
0.011211028212815154   -0.05357876474353663   -0.0027706737630470136
0.0055681336439481225   -0.041742974454739123   -0.0026265399220265417
0.0121846813154782   -0.041696685742800825   -0.002700247265578748
0.011211028212815154   -0.05357876474353663   -0.0027706737630470136
0.012103080014839177   -0.04175021270190245   -0.0027346226119034783
0.0055681336439481225   -0.041742974454739123   -0.0026265399220265417
0.011211028212815154   -0.05357876474353663   -0.0027706737630470136
0.0047077914261827915   -0.05373254456449596   -0.0026992473445957158
0.004637132159526104   -0.05376015624166983   -0.002786563621233011
0.0055681336439481225   -0.041742974454739123   -0.0026265399220265417
0.011211028212815154   -0.05357876474353663   -0.0027706737630470136
0.004637132159526104   -0.05376015624166983   -0.002786563621233011
0.012103080014839177   -0.04175021270190245   -0.0027346226119034783
0.0055681336439481225   -0.041742974454739123   -0.0026265399220265417
0.0047077914261827915   -0.05373254456449596   -0.0026992473445957158
0.0121846813154782   -0.041696685742800825   -0.002700247265578748
0.005595937423207134   -0.04171945758442324   -0.002595909202414008
0.0047077914261827915   -0.05373254456449596   -0.0026992473445957158
0.011211028212815154   -0.05357876474353663   -0.0027706737630470136
0.0121846813154782   -0.041696685742800825   -0.002700247265578748
0.011337740234505617   -0.053547999114472125   -0.0026733417545215625
0.005595937423207134   -0.04171945758442324   -0.002595909202414008
0.01222771143631872   -0.04165439202275071   -0.0026831859320708704
0.011337740234505617   -0.053547999114472125   -0.0026733417545215625
0.0121846813154782   -0.041696685742800825   -0.002700247265578748
0.005595937423207134   -0.04171945758442324   -0.002595909202414008
0.011337740234505617   -0.053547999114472125   -0.0026733417545215625
0.004773071113110977   -0.053718188165160184   -0.002624046863440779
0.0047077914261827915   -0.05373254456449596   -0.0026992473445957158
0.005595937423207134   -0.04171945758442324   -0.002595909202414008
0.011337740234505617   -0.053547999114472125   -0.0026733417545215625
0.0047077914261827915   -0.05373254456449596   -0.0026992473445957158
0.0121846813154782   -0.041696685742800825   -0.002700247265578748
0.005595937423207134   -0.04171945758442324   -0.002595909202414008
0.004773071113110977   -0.053718188165160184   -0.002624046863440779
0.01222771143631872   -0.04165439202275071   -0.0026831859320708704
0.0056014621681802395   -0.04168484667438648   -0.0025764407207020347
0.004773071113110977   -0.053718188165160184   -0.002624046863440779
0.011337740234505617   -0.053547999114472125   -0.0026733417545215625
0.01222771143631872   -0.04165439202275071   -0.0026831859320708704
0.011450180793062838   -0.053514485181270846   -0.002593977781589484
0.0056014621681802395   -0.04168484667438648   -0.0025764407207020347
0.012237837792076113   -0.0415864615329648   -0.0026837335451019287
0.011450180793062838   -0.053514485181270846   -0.002593977781589484
0.01222771143631872   -0.04165439202275071   -0.0026831859320708704
0.0056014621681802395   -0.04168484667438648   -0.0025764407207020347
0.011450180793062838   -0.053514485181270846   -0.002593977781589484
0.004808044522377151   -0.05371012286929121   -0.0025601712091689074
0.004773071113110977   -0.053718188165160184   -0.002624046863440779
0.0056014621681802395   -0.04168484667438648   -0.0025764407207020347
0.011450180793062838   -0.053514485181270846   -0.002593977781589484
0.004773071113110977   -0.053718188165160184   -0.002624046863440779
0.01222771143631872   -0.04165439202275071   -0.0026831859320708704
-0.019593311208063235   -0.05382403085255472   -0.00310405538846084
-0.01906899541225873   -0.06521139699937117   -0.002967619809717955
-0.0130848761401363   -0.053855164290715164   -0.002927964857103295
-0.019570961801035614   -0.05394373447265659   -0.0030983792339336013
-0.01906899541225873   -0.06521139699937117   -0.002967619809717955
-0.013031250657283012   -0.06534258932980785   -0.002861523384728053
-0.0130848761401363   -0.053855164290715164   -0.002927964857103295
-0.012954888179322093   -0.06540939778722092   -0.00287754608397391
-0.019570961801035614   -0.05394373447265659   -0.0030983792339336013
-0.013049917797553818   -0.05394463665251549   -0.0029009495328143433
-0.012954888179322093   -0.06540939778722092   -0.00287754608397391
-0.0130848761401363   -0.053855164290715164   -0.002927964857103295
-0.019570961801035614   -0.05394373447265659   -0.0030983792339336013
-0.012954888179322093   -0.06540939778722092   -0.00287754608397391
-0.018931156521681893   -0.06530159968493171   -0.0030432182204328806
-0.01906899541225873   -0.06521139699937117   -0.002967619809717955
-0.019570961801035614   -0.05394373447265659   -0.0030983792339336013
-0.012954888179322093   -0.06540939778722092   -0.00287754608397391
-0.01906899541225873   -0.06521139699937117   -0.002967619809717955
-0.0130848761401363   -0.053855164290715164   -0.002927964857103295
-0.019570961801035614   -0.05394373447265659   -0.0030983792339336013
-0.018931156521681893   -0.06530159968493171   -0.0030432182204328806
-0.013049917797553818   -0.05394463665251549   -0.0029009495328143433
-0.019511237049207104   -0.0540599365400152   -0.0031109235311792957
-0.018931156521681893   -0.06530159968493171   -0.0030432182204328806
-0.012954888179322093   -0.06540939778722092   -0.00287754608397391
-0.013049917797553818   -0.05394463665251549   -0.0029009495328143433
-0.012851481518737013   -0.0655044827475106   -0.0029060745613174307
-0.019511237049207104   -0.0540599365400152   -0.0031109235311792957
-0.012995309989391055   -0.05404374777839573   -0.0028861264679100346
-0.012851481518737013   -0.0655044827475106   -0.0029060745613174307
-0.013049917797553818   -0.05394463665251549   -0.0029009495328143433
-0.019511237049207104   -0.0540599365400152   -0.0031109235311792957
-0.012851481518737013   -0.0655044827475106   -0.0029060745613174307
-0.018773780790494927   -0.06541226868192247   -0.0031384855907675476
-0.018931156521681893   -0.06530159968493171   -0.0030432182204328806
-0.019511237049207104   -0.0540599365400152   -0.0031109235311792957
-0.012851481518737013   -0.0655044827475106   -0.0029060745613174307
-0.018931156521681893   -0.06530159968493171   -0.0030432182204328806
-0.013049917797553818   -0.05394463665251549   -0.0029009495328143433
-0.019511237049207104   -0.0540599365400152   -0.0031109235311792957
-0.018773780790494927   -0.06541226868192247   -0.0031384855907675476
-0.012995309989391055   -0.05404374777839573   -0.0028861264679100346
-0.01941421196040412   -0.054209599702421556   -0.0031426075299854244
-0.018773780790494927   -0.06541226868192247   -0.0031384855907675476
-0.012851481518737013   -0.0655044827475106   -0.0029060745613174307
-0.012995309989391055   -0.05404374777839573   -0.0028861264679100346
-0.012740518402601883   -0.06563364309559341   -0.0029474790044415394
-0.01941421196040412   -0.054209599702421556   -0.0031426075299854244
-0.012924542717297753   -0.05415932054598817   -0.0028832994435210174
-0.012740518402601883   -0.06563364309559341   -0.0029474790044415394
-0.012995309989391055   -0.05404374777839573   -0.0028861264679100346
-0.01941421196040412   -0.054209599702421556   -0.0031426075299854244
-0.012740518402601883   -0.06563364309559341   -0.0029474790044415394
-0.018559455126467915   -0.06558070909510932   -0.003253782810092493
-0.018773780790494927   -0.06541226868192247   -0.0031384855907675476
-0.01941421196040412   -0.054209599702421556   -0.0031426075299854244
-0.012740518402601883   -0.06563364309559341   -0.0029474790044415394
-0.018773780790494927   -0.06541226868192247   -0.0031384855907675476
-0.012995309989391055   -0.05404374777839573   -0.0028861264679100346
-0.0130848761401363   -0.053855164290715164   -0.002927964857103295
-0.013031250657283012   -0.06534258932980785   -0.002861523384728053
-0.007123246323103071   -0.0538619427940429   -0.002810917389712285
-0.013049917797553818   -0.05394463665251549   -0.0029009495328143433
-0.013031250657283012   -0.06534258932980785   -0.002861523384728053
-0.007619302714258398   -0.06539453375795486   -0.0027936086452866942
-0.007123246323103071   -0.0538619427940429   -0.002810917389712285
-0.007536135719706864   -0.06542928176715922   -0.0027587124980594994
-0.013049917797553818   -0.05394463665251549   -0.0029009495328143433
-0.007076416358861802   -0.05391327780095885   -0.002762989832376685
-0.007536135719706864   -0.06542928176715922   -0.0027587124980594994
-0.007123246323103071   -0.0538619427940429   -0.002810917389712285
-0.013049917797553818   -0.05394463665251549   -0.0029009495328143433
-0.007536135719706864   -0.06542928176715922   -0.0027587124980594994
-0.012954888179322093   -0.06540939778722092   -0.00287754608397391
-0.013031250657283012   -0.06534258932980785   -0.002861523384728053
-0.013049917797553818   -0.05394463665251549   -0.0029009495328143433
-0.007536135719706864   -0.06542928176715922   -0.0027587124980594994
-0.013031250657283012   -0.06534258932980785   -0.002861523384728053
-0.007123246323103071   -0.0538619427940429   -0.002810917389712285
-0.013049917797553818   -0.05394463665251549   -0.0029009495328143433
-0.012954888179322093   -0.06540939778722092   -0.00287754608397391
-0.007076416358861802   -0.05391327780095885   -0.002762989832376685
-0.012995309989391055   -0.05404374777839573   -0.0028861264679100346
-0.012954888179322093   -0.06540939778722092   -0.00287754608397391
-0.007536135719706864   -0.06542928176715922   -0.0027587124980594994
-0.007076416358861802   -0.05391327780095885   -0.002762989832376685
-0.007446667953157185   -0.06549121989932956   -0.0027361700175860797
-0.012995309989391055   -0.05404374777839573   -0.0028861264679100346
-0.007023492099217985   -0.053975678082890895   -0.0027273012148295124
-0.007446667953157185   -0.06549121989932956   -0.0027361700175860797
-0.007076416358861802   -0.05391327780095885   -0.002762989832376685
-0.012995309989391055   -0.05404374777839573   -0.0028861264679100346
-0.007446667953157185   -0.06549121989932956   -0.0027361700175860797
-0.012851481518737013   -0.0655044827475106   -0.0029060745613174307
-0.012954888179322093   -0.06540939778722092   -0.00287754608397391
-0.012995309989391055   -0.05404374777839573   -0.0028861264679100346
-0.007446667953157185   -0.06549121989932956   -0.0027361700175860797
-0.012954888179322093   -0.06540939778722092   -0.00287754608397391
-0.007076416358861802   -0.05391327780095885   -0.002762989832376685
-0.012995309989391055   -0.05404374777839573   -0.0028861264679100346
-0.012851481518737013   -0.0655044827475106   -0.0029060745613174307
-0.007023492099217985   -0.053975678082890895   -0.0027273012148295124
-0.012924542717297753   -0.05415932054598817   -0.0028832994435210174
-0.012851481518737013   -0.0655044827475106   -0.0029060745613174307
-0.007446667953157185   -0.06549121989932956   -0.0027361700175860797
-0.007023492099217985   -0.053975678082890895   -0.0027273012148295124
-0.007354705487832243   -0.06558113271775239   -0.002726584562972113
-0.012924542717297753   -0.05415932054598817   -0.0028832994435210174
-0.006966452478105516   -0.05404933813500407   -0.002704247691656042
-0.007354705487832243   -0.06558113271775239   -0.002726584562972113
-0.007023492099217985   -0.053975678082890895   -0.0027273012148295124
-0.012924542717297753   -0.05415932054598817   -0.0028832994435210174
-0.007354705487832243   -0.06558113271775239   -0.002726584562972113
-0.012740518402601883   -0.06563364309559341   -0.0029474790044415394
-0.012851481518737013   -0.0655044827475106   -0.0029060745613174307
-0.012924542717297753   -0.05415932054598817   -0.0028832994435210174
-0.007354705487832243   -0.06558113271775239   -0.002726584562972113
-0.012851481518737013   -0.0655044827475106   -0.0029060745613174307
-0.007023492099217985   -0.053975678082890895   -0.0027273012148295124
-0.007123246323103071   -0.0538619427940429   -0.002810917389712285
-0.007619302714258398   -0.06539453375795486   -0.0027936086452866942
-0.0013302970056763128   -0.05383036370683592   -0.002763023349826845
-0.007076416358861802   -0.05391327780095885   -0.002762989832376685
-0.007619302714258398   -0.06539453375795486   -0.0027936086452866942
-0.0023712959424176993   -0.06535472280432855   -0.002782308567147685
-0.0013302970056763128   -0.05383036370683592   -0.002763023349826845
-0.0022793070219740722   -0.06535555894113304   -0.0026982401491151106
-0.007076416358861802   -0.05391327780095885   -0.002762989832376685
-0.0012749073413126117   -0.05384228953172152   -0.0026952241435310794
-0.0022793070219740722   -0.06535555894113304   -0.0026982401491151106
-0.0013302970056763128   -0.05383036370683592   -0.002763023349826845
-0.007076416358861802   -0.05391327780095885   -0.002762989832376685
-0.0022793070219740722   -0.06535555894113304   -0.0026982401491151106
-0.007536135719706864   -0.06542928176715922   -0.0027587124980594994
-0.007619302714258398   -0.06539453375795486   -0.0027936086452866942
-0.007076416358861802   -0.05391327780095885   -0.002762989832376685
-0.0022793070219740722   -0.06535555894113304   -0.0026982401491151106
-0.007619302714258398   -0.06539453375795486   -0.0027936086452866942
-0.0013302970056763128   -0.05383036370683592   -0.002763023349826845
-0.007076416358861802   -0.05391327780095885   -0.002762989832376685
-0.007536135719706864   -0.06542928176715922   -0.0027587124980594994
-0.0012749073413126117   -0.05384228953172152   -0.0026952241435310794
-0.007023492099217985   -0.053975678082890895   -0.0027273012148295124
-0.007536135719706864   -0.06542928176715922   -0.0027587124980594994
-0.0022793070219740722   -0.06535555894113304   -0.0026982401491151106
-0.0012749073413126117   -0.05384228953172152   -0.0026952241435310794
-0.002189731376864014   -0.06538158977107708   -0.00262655541905803
-0.007023492099217985   -0.053975678082890895   -0.0027273012148295124
-0.0012225133173324179   -0.05386441287755673   -0.002639576753759733
-0.002189731376864014   -0.06538158977107708   -0.00262655541905803
-0.0012749073413126117   -0.05384228953172152   -0.0026952241435310794
-0.007023492099217985   -0.053975678082890895   -0.0027273012148295124
-0.002189731376864014   -0.06538158977107708   -0.00262655541905803
-0.007446667953157185   -0.06549121989932956   -0.0027361700175860797
-0.007536135719706864   -0.06542928176715922   -0.0027587124980594994
-0.007023492099217985   -0.053975678082890895   -0.0027273012148295124
-0.002189731376864014   -0.06538158977107708   -0.00262655541905803
-0.007536135719706864   -0.06542928176715922   -0.0027587124980594994
-0.0012749073413126117   -0.05384228953172152   -0.0026952241435310794
-0.007023492099217985   -0.053975678082890895   -0.0027273012148295124
-0.007446667953157185   -0.06549121989932956   -0.0027361700175860797
-0.0012225133173324179   -0.05386441287755673   -0.002639576753759733
-0.006966452478105516   -0.05404933813500407   -0.002704247691656042
-0.007446667953157185   -0.06549121989932956   -0.0027361700175860797
-0.002189731376864014   -0.06538158977107708   -0.00262655541905803
-0.0012225133173324179   -0.05386441287755673   -0.002639576753759733
-0.0021098163352135596   -0.06543497509232499   -0.0025676851327471883
-0.006966452478105516   -0.05404933813500407   -0.002704247691656042
-0.0011780542486523559   -0.053897239266715406   -0.0025965058959822314
-0.0021098163352135596   -0.06543497509232499   -0.0025676851327471883
-0.0012225133173324179   -0.05386441287755673   -0.002639576753759733
-0.006966452478105516   -0.05404933813500407   -0.002704247691656042
-0.0021098163352135596   -0.06543497509232499   -0.0025676851327471883
-0.007354705487832243   -0.06558113271775239   -0.002726584562972113
-0.007446667953157185   -0.06549121989932956   -0.0027361700175860797
-0.006966452478105516   -0.05404933813500407   -0.002704247691656042
-0.0021098163352135596   -0.06543497509232499   -0.0025676851327471883
-0.007446667953157185   -0.06549121989932956   -0.0027361700175860797
-0.0012225133173324179   -0.05386441287755673   -0.002639576753759733
-0.0013302970056763128   -0.05383036370683592   -0.002763023349826845
-0.0023712959424176993   -0.06535472280432855   -0.002782308567147685
0.004637132159526104   -0.05376015624166983   -0.002786563621233011
-0.0012749073413126117   -0.05384228953172152   -0.0026952241435310794
-0.0023712959424176993   -0.06535472280432855   -0.002782308567147685
0.003057803631316078   -0.06522587718576664   -0.002832068479168043
0.004637132159526104   -0.05376015624166983   -0.002786563621233011
0.0031702712657869048   -0.06519051638890634   -0.0026992942865415007
-0.0012749073413126117   -0.05384228953172152   -0.0026952241435310794
0.0047077914261827915   -0.05373254456449596   -0.0026992473445957158
0.0031702712657869048   -0.06519051638890634   -0.0026992942865415007
0.004637132159526104   -0.05376015624166983   -0.002786563621233011
-0.0012749073413126117   -0.05384228953172152   -0.0026952241435310794
0.0031702712657869048   -0.06519051638890634   -0.0026992942865415007
-0.0022793070219740722   -0.06535555894113304   -0.0026982401491151106
-0.0023712959424176993   -0.06535472280432855   -0.002782308567147685
-0.0012749073413126117   -0.05384228953172152   -0.0026952241435310794
0.0031702712657869048   -0.06519051638890634   -0.0026992942865415007
-0.0023712959424176993   -0.06535472280432855   -0.002782308567147685
0.004637132159526104   -0.05376015624166983   -0.002786563621233011
-0.0012749073413126117   -0.05384228953172152   -0.0026952241435310794
-0.0022793070219740722   -0.06535555894113304   -0.0026982401491151106
0.0047077914261827915   -0.05373254456449596   -0.0026992473445957158
-0.0012225133173324179   -0.05386441287755673   -0.002639576753759733
-0.0022793070219740722   -0.06535555894113304   -0.0026982401491151106
0.0031702712657869048   -0.06519051638890634   -0.0026992942865415007
0.0047077914261827915   -0.05373254456449596   -0.0026992473445957158
0.003285580667673504   -0.06518393794770667   -0.0025796978368589183
-0.0012225133173324179   -0.05386441287755673   -0.002639576753759733
0.004773071113110977   -0.053718188165160184   -0.002624046863440779
0.003285580667673504   -0.06518393794770667   -0.0025796978368589183
0.0047077914261827915   -0.05373254456449596   -0.0026992473445957158
-0.0012225133173324179   -0.05386441287755673   -0.002639576753759733
0.003285580667673504   -0.06518393794770667   -0.0025796978368589183
-0.002189731376864014   -0.06538158977107708   -0.00262655541905803
-0.0022793070219740722   -0.06535555894113304   -0.0026982401491151106
-0.0012225133173324179   -0.05386441287755673   -0.002639576753759733
0.003285580667673504   -0.06518393794770667   -0.0025796978368589183
-0.0022793070219740722   -0.06535555894113304   -0.0026982401491151106
0.0047077914261827915   -0.05373254456449596   -0.0026992473445957158
-0.0012225133173324179   -0.05386441287755673   -0.002639576753759733
-0.002189731376864014   -0.06538158977107708   -0.00262655541905803
0.004773071113110977   -0.053718188165160184   -0.002624046863440779
-0.0011780542486523559   -0.053897239266715406   -0.0025965058959822314
-0.002189731376864014   -0.06538158977107708   -0.00262655541905803
0.003285580667673504   -0.06518393794770667   -0.0025796978368589183
0.004773071113110977   -0.053718188165160184   -0.002624046863440779
0.0033622422940983465   -0.06520082832261957   -0.002471541652788863
-0.0011780542486523559   -0.053897239266715406   -0.0025965058959822314
0.004808044522377151   -0.05371012286929121   -0.0025601712091689074
0.0033622422940983465   -0.06520082832261957   -0.002471541652788863
0.004773071113110977   -0.053718188165160184   -0.002624046863440779
-0.0011780542486523559   -0.053897239266715406   -0.0025965058959822314
0.0033622422940983465   -0.06520082832261957   -0.002471541652788863
-0.0021098163352135596   -0.06543497509232499   -0.0025676851327471883
-0.002189731376864014   -0.06538158977107708   -0.00262655541905803
-0.0011780542486523559   -0.053897239266715406   -0.0025965058959822314
0.0033622422940983465   -0.06520082832261957   -0.002471541652788863
-0.002189731376864014   -0.06538158977107708   -0.00262655541905803
0.004773071113110977   -0.053718188165160184   -0.002624046863440779
0.004637132159526104   -0.05376015624166983   -0.002786563621233011
0.003057803631316078   -0.06522587718576664   -0.002832068479168043
0.0110265427416927   -0.05364221293407109   -0.0028852581331662267
0.0047077914261827915   -0.05373254456449596   -0.0026992473445957158
0.003057803631316078   -0.06522587718576664   -0.002832068479168043
0.008833820165618003   -0.06500437462049784   -0.0029606299224148756
0.0110265427416927   -0.05364221293407109   -0.0028852581331662267
0.009133028446316574   -0.06493144195437694   -0.002767452476445142
0.0047077914261827915   -0.05373254456449596   -0.0026992473445957158
0.011211028212815154   -0.05357876474353663   -0.0027706737630470136
0.009133028446316574   -0.06493144195437694   -0.002767452476445142
0.0110265427416927   -0.05364221293407109   -0.0028852581331662267
0.0047077914261827915   -0.05373254456449596   -0.0026992473445957158
0.009133028446316574   -0.06493144195437694   -0.002767452476445142
0.0031702712657869048   -0.06519051638890634   -0.0026992942865415007
0.003057803631316078   -0.06522587718576664   -0.002832068479168043
0.0047077914261827915   -0.05373254456449596   -0.0026992473445957158
0.009133028446316574   -0.06493144195437694   -0.002767452476445142
0.003057803631316078   -0.06522587718576664   -0.002832068479168043
0.0110265427416927   -0.05364221293407109   -0.0028852581331662267
0.0047077914261827915   -0.05373254456449596   -0.0026992473445957158
0.0031702712657869048   -0.06519051638890634   -0.0026992942865415007
0.011211028212815154   -0.05357876474353663   -0.0027706737630470136
0.004773071113110977   -0.053718188165160184   -0.002624046863440779
0.0031702712657869048   -0.06519051638890634   -0.0026992942865415007
0.009133028446316574   -0.06493144195437694   -0.002767452476445142
0.011211028212815154   -0.05357876474353663   -0.0027706737630470136
0.009354561003815461   -0.06491140379302057   -0.002591797686138783
0.004773071113110977   -0.053718188165160184   -0.002624046863440779
0.011337740234505617   -0.053547999114472125   -0.0026733417545215625
0.009354561003815461   -0.06491140379302057   -0.002591797686138783
0.011211028212815154   -0.05357876474353663   -0.0027706737630470136
0.004773071113110977   -0.053718188165160184   -0.002624046863440779
0.009354561003815461   -0.06491140379302057   -0.002591797686138783
0.003285580667673504   -0.06518393794770667   -0.0025796978368589183
0.0031702712657869048   -0.06519051638890634   -0.0026992942865415007
0.004773071113110977   -0.053718188165160184   -0.002624046863440779
0.009354561003815461   -0.06491140379302057   -0.002591797686138783
0.0031702712657869048   -0.06519051638890634   -0.0026992942865415007
0.011211028212815154   -0.05357876474353663   -0.0027706737630470136
0.004773071113110977   -0.053718188165160184   -0.002624046863440779
0.003285580667673504   -0.06518393794770667   -0.0025796978368589183
0.011337740234505617   -0.053547999114472125   -0.0026733417545215625
0.004808044522377151   -0.05371012286929121   -0.0025601712091689074
0.003285580667673504   -0.06518393794770667   -0.0025796978368589183
0.009354561003815461   -0.06491140379302057   -0.002591797686138783
0.011337740234505617   -0.053547999114472125   -0.0026733417545215625
0.00957910032628731   -0.06491120057824508   -0.0024344625723402113
0.004808044522377151   -0.05371012286929121   -0.0025601712091689074
0.011450180793062838   -0.053514485181270846   -0.002593977781589484
0.00957910032628731   -0.06491120057824508   -0.0024344625723402113
0.011337740234505617   -0.053547999114472125   -0.0026733417545215625
0.004808044522377151   -0.05371012286929121   -0.0025601712091689074
0.00957910032628731   -0.06491120057824508   -0.0024344625723402113
0.0033622422940983465   -0.06520082832261957   -0.002471541652788863
0.003285580667673504   -0.06518393794770667   -0.0025796978368589183
0.004808044522377151   -0.05371012286929121   -0.0025601712091689074
0.00957910032628731   -0.06491120057824508   -0.0024344625723402113
0.003285580667673504   -0.06518393794770667   -0.0025796978368589183
0.011337740234505617   -0.053547999114472125   -0.0026733417545215625
-0.01906899541225873   -0.06521139699937117   -0.002967619809717955
-0.017402593739095577   -0.07528846568716628   -0.002767299308518364
-0.013031250657283012   -0.06534258932980785   -0.002861523384728053
-0.018931156521681893   -0.06530159968493171   -0.0030432182204328806
-0.017402593739095577   -0.07528846568716628   -0.002767299308518364
-0.012320783845111906   -0.0755252456005585   -0.0027501638590283124
-0.013031250657283012   -0.06534258932980785   -0.002861523384728053
-0.012193911405106934   -0.07555949999350633   -0.0028061391871364136
-0.018931156521681893   -0.06530159968493171   -0.0030432182204328806
-0.012954888179322093   -0.06540939778722092   -0.00287754608397391
-0.012193911405106934   -0.07555949999350633   -0.0028061391871364136
-0.013031250657283012   -0.06534258932980785   -0.002861523384728053
-0.018931156521681893   -0.06530159968493171   -0.0030432182204328806
-0.012193911405106934   -0.07555949999350633   -0.0028061391871364136
-0.017138415674104793   -0.07533930818721395   -0.0029239674502786316
-0.017402593739095577   -0.07528846568716628   -0.002767299308518364
-0.018931156521681893   -0.06530159968493171   -0.0030432182204328806
-0.012193911405106934   -0.07555949999350633   -0.0028061391871364136
-0.017402593739095577   -0.07528846568716628   -0.002767299308518364
-0.013031250657283012   -0.06534258932980785   -0.002861523384728053
-0.018931156521681893   -0.06530159968493171   -0.0030432182204328806
-0.017138415674104793   -0.07533930818721395   -0.0029239674502786316
-0.012954888179322093   -0.06540939778722092   -0.00287754608397391
-0.018773780790494927   -0.06541226868192247   -0.0031384855907675476
-0.017138415674104793   -0.07533930818721395   -0.0029239674502786316
-0.012193911405106934   -0.07555949999350633   -0.0028061391871364136
-0.012954888179322093   -0.06540939778722092   -0.00287754608397391
-0.012034559679658148   -0.07564153149544087   -0.0028748107130150426
-0.018773780790494927   -0.06541226868192247   -0.0031384855907675476
-0.012851481518737013   -0.0655044827475106   -0.0029060745613174307
-0.012034559679658148   -0.07564153149544087   -0.0028748107130150426
-0.012954888179322093   -0.06540939778722092   -0.00287754608397391
-0.018773780790494927   -0.06541226868192247   -0.0031384855907675476
-0.012034559679658148   -0.07564153149544087   -0.0028748107130150426
-0.016874871000121812   -0.07543557635426455   -0.0031013092665352873
-0.017138415674104793   -0.07533930818721395   -0.0029239674502786316
-0.018773780790494927   -0.06541226868192247   -0.0031384855907675476
-0.012034559679658148   -0.07564153149544087   -0.0028748107130150426
-0.017138415674104793   -0.07533930818721395   -0.0029239674502786316
-0.012954888179322093   -0.06540939778722092   -0.00287754608397391
-0.018773780790494927   -0.06541226868192247   -0.0031384855907675476
-0.016874871000121812   -0.07543557635426455   -0.0031013092665352873
-0.012851481518737013   -0.0655044827475106   -0.0029060745613174307
-0.018559455126467915   -0.06558070909510932   -0.003253782810092493
-0.016874871000121812   -0.07543557635426455   -0.0031013092665352873
-0.012034559679658148   -0.07564153149544087   -0.0028748107130150426
-0.012851481518737013   -0.0655044827475106   -0.0029060745613174307
-0.011877323110473549   -0.07577599872340852   -0.0029560593439303174
-0.018559455126467915   -0.06558070909510932   -0.003253782810092493
-0.012740518402601883   -0.06563364309559341   -0.0029474790044415394
-0.011877323110473549   -0.07577599872340852   -0.0029560593439303174
-0.012851481518737013   -0.0655044827475106   -0.0029060745613174307
-0.018559455126467915   -0.06558070909510932   -0.003253782810092493
-0.011877323110473549   -0.07577599872340852   -0.0029560593439303174
-0.01653727657262578   -0.07561508748031798   -0.003298940769731352
-0.016874871000121812   -0.07543557635426455   -0.0031013092665352873
-0.018559455126467915   -0.06558070909510932   -0.003253782810092493
-0.011877323110473549   -0.07577599872340852   -0.0029560593439303174
-0.016874871000121812   -0.07543557635426455   -0.0031013092665352873
-0.012851481518737013   -0.0655044827475106   -0.0029060745613174307
-0.013031250657283012   -0.06534258932980785   -0.002861523384728053
-0.012320783845111906   -0.0755252456005585   -0.0027501638590283124
-0.007619302714258398   -0.06539453375795486   -0.0027936086452866942
-0.012954888179322093   -0.06540939778722092   -0.00287754608397391
-0.012320783845111906   -0.0755252456005585   -0.0027501638590283124
-0.007921037687419212   -0.07563623198458189   -0.0027433419913981574
-0.007619302714258398   -0.06539453375795486   -0.0027936086452866942
-0.007790854471224114   -0.0756474765137514   -0.002718311652705135
-0.012954888179322093   -0.06540939778722092   -0.00287754608397391
-0.007536135719706864   -0.06542928176715922   -0.0027587124980594994
-0.007790854471224114   -0.0756474765137514   -0.002718311652705135
-0.007619302714258398   -0.06539453375795486   -0.0027936086452866942
-0.012954888179322093   -0.06540939778722092   -0.00287754608397391
-0.007790854471224114   -0.0756474765137514   -0.002718311652705135
-0.012193911405106934   -0.07555949999350633   -0.0028061391871364136
-0.012320783845111906   -0.0755252456005585   -0.0027501638590283124
-0.012954888179322093   -0.06540939778722092   -0.00287754608397391
-0.007790854471224114   -0.0756474765137514   -0.002718311652705135
-0.012320783845111906   -0.0755252456005585   -0.0027501638590283124
-0.007619302714258398   -0.06539453375795486   -0.0027936086452866942
-0.012954888179322093   -0.06540939778722092   -0.00287754608397391
-0.012193911405106934   -0.07555949999350633   -0.0028061391871364136
-0.007536135719706864   -0.06542928176715922   -0.0027587124980594994
-0.012851481518737013   -0.0655044827475106   -0.0029060745613174307
-0.012193911405106934   -0.07555949999350633   -0.0028061391871364136
-0.007790854471224114   -0.0756474765137514   -0.002718311652705135
-0.007536135719706864   -0.06542928176715922   -0.0027587124980594994
-0.007656495169001146   -0.07570137878780882   -0.0027056016919235182
-0.012851481518737013   -0.0655044827475106   -0.0029060745613174307
-0.007446667953157185   -0.06549121989932956   -0.0027361700175860797
-0.007656495169001146   -0.07570137878780882   -0.0027056016919235182
-0.007536135719706864   -0.06542928176715922   -0.0027587124980594994
-0.012851481518737013   -0.0655044827475106   -0.0029060745613174307
-0.007656495169001146   -0.07570137878780882   -0.0027056016919235182
-0.012034559679658148   -0.07564153149544087   -0.0028748107130150426
-0.012193911405106934   -0.07555949999350633   -0.0028061391871364136
-0.012851481518737013   -0.0655044827475106   -0.0029060745613174307
-0.007656495169001146   -0.07570137878780882   -0.0027056016919235182
-0.012193911405106934   -0.07555949999350633   -0.0028061391871364136
-0.007536135719706864   -0.06542928176715922   -0.0027587124980594994
-0.012851481518737013   -0.0655044827475106   -0.0029060745613174307
-0.012034559679658148   -0.07564153149544087   -0.0028748107130150426
-0.007446667953157185   -0.06549121989932956   -0.0027361700175860797
-0.012740518402601883   -0.06563364309559341   -0.0029474790044415394
-0.012034559679658148   -0.07564153149544087   -0.0028748107130150426
-0.007656495169001146   -0.07570137878780882   -0.0027056016919235182
-0.007446667953157185   -0.06549121989932956   -0.0027361700175860797
-0.007522358495219014   -0.07580045948831023   -0.0027050519253236935
-0.012740518402601883   -0.06563364309559341   -0.0029474790044415394
-0.007354705487832243   -0.06558113271775239   -0.002726584562972113
-0.007522358495219014   -0.07580045948831023   -0.0027050519253236935
-0.007446667953157185   -0.06549121989932956   -0.0027361700175860797
-0.012740518402601883   -0.06563364309559341   -0.0029474790044415394
-0.007522358495219014   -0.07580045948831023   -0.0027050519253236935
-0.011877323110473549   -0.07577599872340852   -0.0029560593439303174
-0.012034559679658148   -0.07564153149544087   -0.0028748107130150426
-0.012740518402601883   -0.06563364309559341   -0.0029474790044415394
-0.007522358495219014   -0.07580045948831023   -0.0027050519253236935
-0.012034559679658148   -0.07564153149544087   -0.0028748107130150426
-0.007446667953157185   -0.06549121989932956   -0.0027361700175860797
-0.007619302714258398   -0.06539453375795486   -0.0027936086452866942
-0.007921037687419212   -0.07563623198458189   -0.0027433419913981574
-0.0023712959424176993   -0.06535472280432855   -0.002782308567147685
-0.007536135719706864   -0.06542928176715922   -0.0027587124980594994
-0.007921037687419212   -0.07563623198458189   -0.0027433419913981574
-0.0036674052683192356   -0.07561622969698538   -0.0027748458284066035
-0.0023712959424176993   -0.06535472280432855   -0.002782308567147685
-0.0035248077771119317   -0.07560163751483923   -0.002671653541468599
-0.007536135719706864   -0.06542928176715922   -0.0027587124980594994
-0.0022793070219740722   -0.06535555894113304   -0.0026982401491151106
-0.0035248077771119317   -0.07560163751483923   -0.002671653541468599
-0.0023712959424176993   -0.06535472280432855   -0.002782308567147685
-0.007536135719706864   -0.06542928176715922   -0.0027587124980594994
-0.0035248077771119317   -0.07560163751483923   -0.002671653541468599
-0.007790854471224114   -0.0756474765137514   -0.002718311652705135
-0.007921037687419212   -0.07563623198458189   -0.0027433419913981574
-0.007536135719706864   -0.06542928176715922   -0.0027587124980594994
-0.0035248077771119317   -0.07560163751483923   -0.002671653541468599
-0.007921037687419212   -0.07563623198458189   -0.0027433419913981574
-0.0023712959424176993   -0.06535472280432855   -0.002782308567147685
-0.007536135719706864   -0.06542928176715922   -0.0027587124980594994
-0.007790854471224114   -0.0756474765137514   -0.002718311652705135
-0.0022793070219740722   -0.06535555894113304   -0.0026982401491151106
-0.007446667953157185   -0.06549121989932956   -0.0027361700175860797
-0.007790854471224114   -0.0756474765137514   -0.002718311652705135
-0.0035248077771119317   -0.07560163751483923   -0.002671653541468599
-0.0022793070219740722   -0.06535555894113304   -0.0026982401491151106
-0.0033864234897712088   -0.07562561035239121   -0.002581593879259824
-0.007446667953157185   -0.06549121989932956   -0.0027361700175860797
-0.002189731376864014   -0.06538158977107708   -0.00262655541905803
-0.0033864234897712088   -0.07562561035239121   -0.002581593879259824
-0.0022793070219740722   -0.06535555894113304   -0.0026982401491151106
-0.007446667953157185   -0.06549121989932956   -0.0027361700175860797
-0.0033864234897712088   -0.07562561035239121   -0.002581593879259824
-0.007656495169001146   -0.07570137878780882   -0.0027056016919235182
-0.007790854471224114   -0.0756474765137514   -0.002718311652705135
-0.007446667953157185   -0.06549121989932956   -0.0027361700175860797
-0.0033864234897712088   -0.07562561035239121   -0.002581593879259824
-0.007790854471224114   -0.0756474765137514   -0.002718311652705135
-0.0022793070219740722   -0.06535555894113304   -0.0026982401491151106
-0.007446667953157185   -0.06549121989932956   -0.0027361700175860797
-0.007656495169001146   -0.07570137878780882   -0.0027056016919235182
-0.002189731376864014   -0.06538158977107708   -0.00262655541905803
-0.007354705487832243   -0.06558113271775239   -0.002726584562972113
-0.007656495169001146   -0.07570137878780882   -0.0027056016919235182
-0.0033864234897712088   -0.07562561035239121   -0.002581593879259824
-0.002189731376864014   -0.06538158977107708   -0.00262655541905803
-0.0032614059082198515   -0.07569375807740165   -0.0025035283892576483
-0.007354705487832243   -0.06558113271775239   -0.002726584562972113
-0.0021098163352135596   -0.06543497509232499   -0.0025676851327471883
-0.0032614059082198515   -0.07569375807740165   -0.0025035283892576483
-0.002189731376864014   -0.06538158977107708   -0.00262655541905803
-0.007354705487832243   -0.06558113271775239   -0.002726584562972113
-0.0032614059082198515   -0.07569375807740165   -0.0025035283892576483
-0.007522358495219014   -0.07580045948831023   -0.0027050519253236935
-0.007656495169001146   -0.07570137878780882   -0.0027056016919235182
-0.007354705487832243   -0.06558113271775239   -0.002726584562972113
-0.0032614059082198515   -0.07569375807740165   -0.0025035283892576483
-0.007656495169001146   -0.07570137878780882   -0.0027056016919235182
-0.002189731376864014   -0.06538158977107708   -0.00262655541905803
-0.0023712959424176993   -0.06535472280432855   -0.002782308567147685
-0.0036674052683192356   -0.07561622969698538   -0.0027748458284066035
0.003057803631316078   -0.06522587718576664   -0.002832068479168043
-0.0022793070219740722   -0.06535555894113304   -0.0026982401491151106
-0.0036674052683192356   -0.07561622969698538   -0.0027748458284066035
0.0007859262813686686   -0.07546055572399747   -0.0028516145226280703
0.003057803631316078   -0.06522587718576664   -0.002832068479168043
0.0009593813576807791   -0.0754131412495618   -0.002670533031851559
-0.0022793070219740722   -0.06535555894113304   -0.0026982401491151106
0.0031702712657869048   -0.06519051638890634   -0.0026992942865415007
0.0009593813576807791   -0.0754131412495618   -0.002670533031851559
0.003057803631316078   -0.06522587718576664   -0.002832068479168043
-0.0022793070219740722   -0.06535555894113304   -0.0026982401491151106
0.0009593813576807791   -0.0754131412495618   -0.002670533031851559
-0.0035248077771119317   -0.07560163751483923   -0.002671653541468599
-0.0036674052683192356   -0.07561622969698538   -0.0027748458284066035
-0.0022793070219740722   -0.06535555894113304   -0.0026982401491151106
0.0009593813576807791   -0.0754131412495618   -0.002670533031851559
-0.0036674052683192356   -0.07561622969698538   -0.0027748458284066035
0.003057803631316078   -0.06522587718576664   -0.002832068479168043
-0.0022793070219740722   -0.06535555894113304   -0.0026982401491151106
-0.0035248077771119317   -0.07560163751483923   -0.002671653541468599
0.0031702712657869048   -0.06519051638890634   -0.0026992942865415007
-0.002189731376864014   -0.06538158977107708   -0.00262655541905803
-0.0035248077771119317   -0.07560163751483923   -0.002671653541468599
0.0009593813576807791   -0.0754131412495618   -0.002670533031851559
0.0031702712657869048   -0.06519051638890634   -0.0026992942865415007
0.0011421503658274731   -0.07540884566155621   -0.0025061008895422947
-0.002189731376864014   -0.06538158977107708   -0.00262655541905803
0.003285580667673504   -0.06518393794770667   -0.0025796978368589183
0.0011421503658274731   -0.07540884566155621   -0.0025061008895422947
0.0031702712657869048   -0.06519051638890634   -0.0026992942865415007
-0.002189731376864014   -0.06538158977107708   -0.00262655541905803
0.0011421503658274731   -0.07540884566155621   -0.0025061008895422947
-0.0033864234897712088   -0.07562561035239121   -0.002581593879259824
-0.0035248077771119317   -0.07560163751483923   -0.002671653541468599
-0.002189731376864014   -0.06538158977107708   -0.00262655541905803
0.0011421503658274731   -0.07540884566155621   -0.0025061008895422947
-0.0035248077771119317   -0.07560163751483923   -0.002671653541468599
0.0031702712657869048   -0.06519051638890634   -0.0026992942865415007
-0.002189731376864014   -0.06538158977107708   -0.00262655541905803
-0.0033864234897712088   -0.07562561035239121   -0.002581593879259824
0.003285580667673504   -0.06518393794770667   -0.0025796978368589183
-0.0021098163352135596   -0.06543497509232499   -0.0025676851327471883
-0.0033864234897712088   -0.07562561035239121   -0.002581593879259824
0.0011421503658274731   -0.07540884566155621   -0.0025061008895422947
0.003285580667673504   -0.06518393794770667   -0.0025796978368589183
0.001275822033544699   -0.07544571065984557   -0.0023531337013717336
-0.0021098163352135596   -0.06543497509232499   -0.0025676851327471883
0.0033622422940983465   -0.06520082832261957   -0.002471541652788863
0.001275822033544699   -0.07544571065984557   -0.0023531337013717336
0.003285580667673504   -0.06518393794770667   -0.0025796978368589183
-0.0021098163352135596   -0.06543497509232499   -0.0025676851327471883
0.001275822033544699   -0.07544571065984557   -0.0023531337013717336
-0.0032614059082198515   -0.07569375807740165   -0.0025035283892576483
-0.0033864234897712088   -0.07562561035239121   -0.002581593879259824
-0.0021098163352135596   -0.06543497509232499   -0.0025676851327471883
0.001275822033544699   -0.07544571065984557   -0.0023531337013717336
-0.0033864234897712088   -0.07562561035239121   -0.002581593879259824
0.003285580667673504   -0.06518393794770667   -0.0025796978368589183
0.003057803631316078   -0.06522587718576664   -0.002832068479168043
0.0007859262813686686   -0.07546055572399747   -0.0028516145226280703
0.008833820165618003   -0.06500437462049784   -0.0029606299224148756
0.0031702712657869048   -0.06519051638890634   -0.0026992942865415007
0.0007859262813686686   -0.07546055572399747   -0.0028516145226280703
0.0055344044402454145   -0.07515443809150689   -0.0030158773888297693
0.008833820165618003   -0.06500437462049784   -0.0029606299224148756
0.005973513838222351   -0.07506341521724577   -0.002738749599383969
0.0031702712657869048   -0.06519051638890634   -0.0026992942865415007
0.009133028446316574   -0.06493144195437694   -0.002767452476445142
0.005973513838222351   -0.07506341521724577   -0.002738749599383969
0.008833820165618003   -0.06500437462049784   -0.0029606299224148756
0.0031702712657869048   -0.06519051638890634   -0.0026992942865415007
0.005973513838222351   -0.07506341521724577   -0.002738749599383969
0.0009593813576807791   -0.0754131412495618   -0.002670533031851559
0.0007859262813686686   -0.07546055572399747   -0.0028516145226280703
0.0031702712657869048   -0.06519051638890634   -0.0026992942865415007
0.005973513838222351   -0.07506341521724577   -0.002738749599383969
0.0007859262813686686   -0.07546055572399747   -0.0028516145226280703
0.008833820165618003   -0.06500437462049784   -0.0029606299224148756
0.0031702712657869048   -0.06519051638890634   -0.0026992942865415007
0.0009593813576807791   -0.0754131412495618   -0.002670533031851559
0.009133028446316574   -0.06493144195437694   -0.002767452476445142
0.003285580667673504   -0.06518393794770667   -0.0025796978368589183
0.0009593813576807791   -0.0754131412495618   -0.002670533031851559
0.005973513838222351   -0.07506341521724577   -0.002738749599383969
0.009133028446316574   -0.06493144195437694   -0.002767452476445142
0.006310173410272827   -0.0750476548552808   -0.0024822676758025244
0.003285580667673504   -0.06518393794770667   -0.0025796978368589183
0.009354561003815461   -0.06491140379302057   -0.002591797686138783
0.006310173410272827   -0.0750476548552808   -0.0024822676758025244
0.009133028446316574   -0.06493144195437694   -0.002767452476445142
0.003285580667673504   -0.06518393794770667   -0.0025796978368589183
0.006310173410272827   -0.0750476548552808   -0.0024822676758025244
0.0011421503658274731   -0.07540884566155621   -0.0025061008895422947
0.0009593813576807791   -0.0754131412495618   -0.002670533031851559
0.003285580667673504   -0.06518393794770667   -0.0025796978368589183
0.006310173410272827   -0.0750476548552808   -0.0024822676758025244
0.0009593813576807791   -0.0754131412495618   -0.002670533031851559
0.009133028446316574   -0.06493144195437694   -0.002767452476445142
0.003285580667673504   -0.06518393794770667   -0.0025796978368589183
0.0011421503658274731   -0.07540884566155621   -0.0025061008895422947
0.009354561003815461   -0.06491140379302057   -0.002591797686138783
0.0033622422940983465   -0.06520082832261957   -0.002471541652788863
0.0011421503658274731   -0.07540884566155621   -0.0025061008895422947
0.006310173410272827   -0.0750476548552808   -0.0024822676758025244
0.009354561003815461   -0.06491140379302057   -0.002591797686138783
0.006658870645477439   -0.07507461392101593   -0.0022485288661830537
0.0033622422940983465   -0.06520082832261957   -0.002471541652788863
0.00957910032628731   -0.06491120057824508   -0.0024344625723402113
0.006658870645477439   -0.07507461392101593   -0.0022485288661830537
0.009354561003815461   -0.06491140379302057   -0.002591797686138783
0.0033622422940983465   -0.06520082832261957   -0.002471541652788863
0.006658870645477439   -0.07507461392101593   -0.0022485288661830537
0.001275822033544699   -0.07544571065984557   -0.0023531337013717336
0.0011421503658274731   -0.07540884566155621   -0.0025061008895422947
0.0033622422940983465   -0.06520082832261957   -0.002471541652788863
0.006658870645477439   -0.07507461392101593   -0.0022485288661830537
0.0011421503658274731   -0.07540884566155621   -0.0025061008895422947
0.009354561003815461   -0.06491140379302057   -0.002591797686138783
-0.017402593739095577   -0.07528846568716628   -0.002767299308518364
-0.014573193982719813   -0.08319886206689883   -0.0025106074390088126
-0.012320783845111906   -0.0755252456005585   -0.0027501638590283124
-0.017138415674104793   -0.07533930818721395   -0.0029239674502786316
-0.014573193982719813   -0.08319886206689883   -0.0025106074390088126
-0.01095688178700895   -0.0835496148268794   -0.0026158406148601983
-0.012320783845111906   -0.0755252456005585   -0.0027501638590283124
-0.010774021063005079   -0.08353150341775703   -0.0027019921189025526
-0.017138415674104793   -0.07533930818721395   -0.0029239674502786316
-0.012193911405106934   -0.07555949999350633   -0.0028061391871364136
-0.010774021063005079   -0.08353150341775703   -0.0027019921189025526
-0.012320783845111906   -0.0755252456005585   -0.0027501638590283124
-0.017138415674104793   -0.07533930818721395   -0.0029239674502786316
-0.010774021063005079   -0.08353150341775703   -0.0027019921189025526
-0.014179184422335648   -0.08318895983349436   -0.002742901161137049
-0.014573193982719813   -0.08319886206689883   -0.0025106074390088126
-0.017138415674104793   -0.07533930818721395   -0.0029239674502786316
-0.010774021063005079   -0.08353150341775703   -0.0027019921189025526
-0.014573193982719813   -0.08319886206689883   -0.0025106074390088126
-0.012320783845111906   -0.0755252456005585   -0.0027501638590283124
-0.017138415674104793   -0.07533930818721395   -0.0029239674502786316
-0.014179184422335648   -0.08318895983349436   -0.002742901161137049
-0.012193911405106934   -0.07555949999350633   -0.0028061391871364136
-0.016874871000121812   -0.07543557635426455   -0.0031013092665352873
-0.014179184422335648   -0.08318895983349436   -0.002742901161137049
-0.010774021063005079   -0.08353150341775703   -0.0027019921189025526
-0.012193911405106934   -0.07555949999350633   -0.0028061391871364136
-0.010558977177780995   -0.08358190998759432   -0.0028011205132483256
-0.016874871000121812   -0.07543557635426455   -0.0031013092665352873
-0.012034559679658148   -0.07564153149544087   -0.0028748107130150426
-0.010558977177780995   -0.08358190998759432   -0.0028011205132483256
-0.012193911405106934   -0.07555949999350633   -0.0028061391871364136
-0.016874871000121812   -0.07543557635426455   -0.0031013092665352873
-0.010558977177780995   -0.08358190998759432   -0.0028011205132483256
-0.013815961228647578   -0.08325125253212996   -0.002993468819232393
-0.014179184422335648   -0.08318895983349436   -0.002742901161137049
-0.016874871000121812   -0.07543557635426455   -0.0031013092665352873
-0.010558977177780995   -0.08358190998759432   -0.0028011205132483256
-0.014179184422335648   -0.08318895983349436   -0.002742901161137049
-0.012193911405106934   -0.07555949999350633   -0.0028061391871364136
-0.016874871000121812   -0.07543557635426455   -0.0031013092665352873
-0.013815961228647578   -0.08325125253212996   -0.002993468819232393
-0.012034559679658148   -0.07564153149544087   -0.0028748107130150426
-0.01653727657262578   -0.07561508748031798   -0.003298940769731352
-0.013815961228647578   -0.08325125253212996   -0.002993468819232393
-0.010558977177780995   -0.08358190998759432   -0.0028011205132483256
-0.012034559679658148   -0.07564153149544087   -0.0028748107130150426
-0.010363888591495653   -0.0837019786272796   -0.002912395189371992
-0.01653727657262578   -0.07561508748031798   -0.003298940769731352
-0.011877323110473549   -0.07577599872340852   -0.0029560593439303174
-0.010363888591495653   -0.0837019786272796   -0.002912395189371992
-0.012034559679658148   -0.07564153149544087   -0.0028748107130150426
-0.01653727657262578   -0.07561508748031798   -0.003298940769731352
-0.010363888591495653   -0.0837019786272796   -0.002912395189371992
-0.013372971741317791   -0.08341770448654147   -0.003261230546550128
-0.013815961228647578   -0.08325125253212996   -0.002993468819232393
-0.01653727657262578   -0.07561508748031798   -0.003298940769731352
-0.010363888591495653   -0.0837019786272796   -0.002912395189371992
-0.013815961228647578   -0.08325125253212996   -0.002993468819232393
-0.012034559679658148   -0.07564153149544087   -0.0028748107130150426
-0.012320783845111906   -0.0755252456005585   -0.0027501638590283124
-0.01095688178700895   -0.0835496148268794   -0.0026158406148601983
-0.007921037687419212   -0.07563623198458189   -0.0027433419913981574
-0.012193911405106934   -0.07555949999350633   -0.0028061391871364136
-0.01095688178700895   -0.0835496148268794   -0.0026158406148601983
-0.008002883152464427   -0.08377717783829026   -0.0026981884039563113
-0.007921037687419212   -0.07563623198458189   -0.0027433419913981574
-0.007815212949321181   -0.08374820842829661   -0.0026718299029635257
-0.012193911405106934   -0.07555949999350633   -0.0028061391871364136
-0.007790854471224114   -0.0756474765137514   -0.002718311652705135
-0.007815212949321181   -0.08374820842829661   -0.0026718299029635257
-0.007921037687419212   -0.07563623198458189   -0.0027433419913981574
-0.012193911405106934   -0.07555949999350633   -0.0028061391871364136
-0.007815212949321181   -0.08374820842829661   -0.0026718299029635257
-0.010774021063005079   -0.08353150341775703   -0.0027019921189025526
-0.01095688178700895   -0.0835496148268794   -0.0026158406148601983
-0.012193911405106934   -0.07555949999350633   -0.0028061391871364136
-0.007815212949321181   -0.08374820842829661   -0.0026718299029635257
-0.01095688178700895   -0.0835496148268794   -0.0026158406148601983
-0.007921037687419212   -0.07563623198458189   -0.0027433419913981574
-0.012193911405106934   -0.07555949999350633   -0.0028061391871364136
-0.010774021063005079   -0.08353150341775703   -0.0027019921189025526
-0.007790854471224114   -0.0756474765137514   -0.002718311652705135
-0.012034559679658148   -0.07564153149544087   -0.0028748107130150426
-0.010774021063005079   -0.08353150341775703   -0.0027019921189025526
-0.007815212949321181   -0.08374820842829661   -0.0026718299029635257
-0.007790854471224114   -0.0756474765137514   -0.002718311652705135
-0.007630199528354325   -0.08377837307570203   -0.00265807345885166
-0.012034559679658148   -0.07564153149544087   -0.0028748107130150426
-0.007656495169001146   -0.07570137878780882   -0.0027056016919235182
-0.007630199528354325   -0.08377837307570203   -0.00265807345885166
-0.007790854471224114   -0.0756474765137514   -0.002718311652705135
-0.012034559679658148   -0.07564153149544087   -0.0028748107130150426
-0.007630199528354325   -0.08377837307570203   -0.00265807345885166
-0.010558977177780995   -0.08358190998759432   -0.0028011205132483256
-0.010774021063005079   -0.08353150341775703   -0.0027019921189025526
-0.012034559679658148   -0.07564153149544087   -0.0028748107130150426
-0.007630199528354325   -0.08377837307570203   -0.00265807345885166
-0.010774021063005079   -0.08353150341775703   -0.0027019921189025526
-0.007790854471224114   -0.0756474765137514   -0.002718311652705135
-0.012034559679658148   -0.07564153149544087   -0.0028748107130150426
-0.010558977177780995   -0.08358190998759432   -0.0028011205132483256
-0.007656495169001146   -0.07570137878780882   -0.0027056016919235182
-0.011877323110473549   -0.07577599872340852   -0.0029560593439303174
-0.010558977177780995   -0.08358190998759432   -0.0028011205132483256
-0.007630199528354325   -0.08377837307570203   -0.00265807345885166
-0.007656495169001146   -0.07570137878780882   -0.0027056016919235182
-0.007459983398133965   -0.08386964411620107   -0.00265956205685388
-0.011877323110473549   -0.07577599872340852   -0.0029560593439303174
-0.007522358495219014   -0.07580045948831023   -0.0027050519253236935
-0.007459983398133965   -0.08386964411620107   -0.00265956205685388
-0.007656495169001146   -0.07570137878780882   -0.0027056016919235182
-0.011877323110473549   -0.07577599872340852   -0.0029560593439303174
-0.007459983398133965   -0.08386964411620107   -0.00265956205685388
-0.010363888591495653   -0.0837019786272796   -0.002912395189371992
-0.010558977177780995   -0.08358190998759432   -0.0028011205132483256
-0.011877323110473549   -0.07577599872340852   -0.0029560593439303174
-0.007459983398133965   -0.08386964411620107   -0.00265956205685388
-0.010558977177780995   -0.08358190998759432   -0.0028011205132483256
-0.007656495169001146   -0.07570137878780882   -0.0027056016919235182
-0.007921037687419212   -0.07563623198458189   -0.0027433419913981574
-0.008002883152464427   -0.08377717783829026   -0.0026981884039563113
-0.0036674052683192356   -0.07561622969698538   -0.0027748458284066035
-0.007790854471224114   -0.0756474765137514   -0.002718311652705135
-0.008002883152464427   -0.08377717783829026   -0.0026981884039563113
-0.005173639137007014   -0.0838970789258465   -0.002795423722189382
-0.0036674052683192356   -0.07561622969698538   -0.0027748458284066035
-0.0049620738544975925   -0.08385532750001495   -0.0026629743627739236
-0.007790854471224114   -0.0756474765137514   -0.002718311652705135
-0.0035248077771119317   -0.07560163751483923   -0.002671653541468599
-0.0049620738544975925   -0.08385532750001495   -0.0026629743627739236
-0.0036674052683192356   -0.07561622969698538   -0.0027748458284066035
-0.007790854471224114   -0.0756474765137514   -0.002718311652705135
-0.0049620738544975925   -0.08385532750001495   -0.0026629743627739236
-0.007815212949321181   -0.08374820842829661   -0.0026718299029635257
-0.008002883152464427   -0.08377717783829026   -0.0026981884039563113
-0.007790854471224114   -0.0756474765137514   -0.002718311652705135
-0.0049620738544975925   -0.08385532750001495   -0.0026629743627739236
-0.008002883152464427   -0.08377717783829026   -0.0026981884039563113
-0.0036674052683192356   -0.07561622969698538   -0.0027748458284066035
-0.007790854471224114   -0.0756474765137514   -0.002718311652705135
-0.007815212949321181   -0.08374820842829661   -0.0026718299029635257
-0.0035248077771119317   -0.07560163751483923   -0.002671653541468599
-0.007656495169001146   -0.07570137878780882   -0.0027056016919235182
-0.007815212949321181   -0.08374820842829661   -0.0026718299029635257
-0.0049620738544975925   -0.08385532750001495   -0.0026629743627739236
-0.0035248077771119317   -0.07560163751483923   -0.002671653541468599
-0.004760414440463907   -0.08386555510894436   -0.0025416561924028564
-0.007656495169001146   -0.07570137878780882   -0.0027056016919235182
-0.0033864234897712088   -0.07562561035239121   -0.002581593879259824
-0.004760414440463907   -0.08386555510894436   -0.0025416561924028564
-0.0035248077771119317   -0.07560163751483923   -0.002671653541468599
-0.007656495169001146   -0.07570137878780882   -0.0027056016919235182
-0.004760414440463907   -0.08386555510894436   -0.0025416561924028564
-0.007630199528354325   -0.08377837307570203   -0.00265807345885166
-0.007815212949321181   -0.08374820842829661   -0.0026718299029635257
-0.007656495169001146   -0.07570137878780882   -0.0027056016919235182
-0.004760414440463907   -0.08386555510894436   -0.0025416561924028564
-0.007815212949321181   -0.08374820842829661   -0.0026718299029635257
-0.0035248077771119317   -0.07560163751483923   -0.002671653541468599
-0.007656495169001146   -0.07570137878780882   -0.0027056016919235182
-0.007630199528354325   -0.08377837307570203   -0.00265807345885166
-0.0033864234897712088   -0.07562561035239121   -0.002581593879259824
-0.007522358495219014   -0.07580045948831023   -0.0027050519253236935
-0.007630199528354325   -0.08377837307570203   -0.00265807345885166
-0.004760414440463907   -0.08386555510894436   -0.0025416561924028564
-0.0033864234897712088   -0.07562561035239121   -0.002581593879259824
-0.004592727870774062   -0.08393792547088227   -0.0024384432434074533
-0.007522358495219014   -0.07580045948831023   -0.0027050519253236935
-0.0032614059082198515   -0.07569375807740165   -0.0025035283892576483
-0.004592727870774062   -0.08393792547088227   -0.0024384432434074533
-0.0033864234897712088   -0.07562561035239121   -0.002581593879259824
-0.007522358495219014   -0.07580045948831023   -0.0027050519253236935
-0.004592727870774062   -0.08393792547088227   -0.0024384432434074533
-0.007459983398133965   -0.08386964411620107   -0.00265956205685388
-0.007630199528354325   -0.08377837307570203   -0.00265807345885166
-0.007522358495219014   -0.07580045948831023   -0.0027050519253236935
-0.004592727870774062   -0.08393792547088227   -0.0024384432434074533
-0.007630199528354325   -0.08377837307570203   -0.00265807345885166
-0.0033864234897712088   -0.07562561035239121   -0.002581593879259824
-0.0036674052683192356   -0.07561622969698538   -0.0027748458284066035
-0.005173639137007014   -0.0838970789258465   -0.002795423722189382
0.0007859262813686686   -0.07546055572399747   -0.0028516145226280703
-0.0035248077771119317   -0.07560163751483923   -0.002671653541468599
-0.005173639137007014   -0.0838970789258465   -0.002795423722189382
-0.0021644662453518394   -0.08386752195026792   -0.0029098969024921187
0.0007859262813686686   -0.07546055572399747   -0.0028516145226280703
-0.0018928349669958084   -0.08380208030804226   -0.002675972239700627
-0.0035248077771119317   -0.07560163751483923   -0.002671653541468599
0.0009593813576807791   -0.0754131412495618   -0.002670533031851559
-0.0018928349669958084   -0.08380208030804226   -0.002675972239700627
0.0007859262813686686   -0.07546055572399747   -0.0028516145226280703
-0.0035248077771119317   -0.07560163751483923   -0.002671653541468599
-0.0018928349669958084   -0.08380208030804226   -0.002675972239700627
-0.0049620738544975925   -0.08385532750001495   -0.0026629743627739236
-0.005173639137007014   -0.0838970789258465   -0.002795423722189382
-0.0035248077771119317   -0.07560163751483923   -0.002671653541468599
-0.0018928349669958084   -0.08380208030804226   -0.002675972239700627
-0.005173639137007014   -0.0838970789258465   -0.002795423722189382
0.0007859262813686686   -0.07546055572399747   -0.0028516145226280703
-0.0035248077771119317   -0.07560163751483923   -0.002671653541468599
-0.0049620738544975925   -0.08385532750001495   -0.0026629743627739236
0.0009593813576807791   -0.0754131412495618   -0.002670533031851559
-0.0033864234897712088   -0.07562561035239121   -0.002581593879259824
-0.0049620738544975925   -0.08385532750001495   -0.0026629743627739236
-0.0018928349669958084   -0.08380208030804226   -0.002675972239700627
0.0009593813576807791   -0.0754131412495618   -0.002670533031851559
-0.0016151900092609714   -0.08379049380138229   -0.0024539603374195322
-0.0033864234897712088   -0.07562561035239121   -0.002581593879259824
0.0011421503658274731   -0.07540884566155621   -0.0025061008895422947
-0.0016151900092609714   -0.08379049380138229   -0.0024539603374195322
0.0009593813576807791   -0.0754131412495618   -0.002670533031851559
-0.0033864234897712088   -0.07562561035239121   -0.002581593879259824
-0.0016151900092609714   -0.08379049380138229   -0.0024539603374195322
-0.004760414440463907   -0.08386555510894436   -0.0025416561924028564
-0.0049620738544975925   -0.08385532750001495   -0.0026629743627739236
-0.0033864234897712088   -0.07562561035239121   -0.002581593879259824
-0.0016151900092609714   -0.08379049380138229   -0.0024539603374195322
-0.0049620738544975925   -0.08385532750001495   -0.0026629743627739236
0.0009593813576807791   -0.0754131412495618   -0.002670533031851559
-0.0033864234897712088   -0.07562561035239121   -0.002581593879259824
-0.004760414440463907   -0.08386555510894436   -0.0025416561924028564
0.0011421503658274731   -0.07540884566155621   -0.0025061008895422947
-0.0032614059082198515   -0.07569375807740165   -0.0025035283892576483
-0.004760414440463907   -0.08386555510894436   -0.0025416561924028564
-0.0016151900092609714   -0.08379049380138229   -0.0024539603374195322
0.0011421503658274731   -0.07540884566155621   -0.0025061008895422947
-0.001409504082314276   -0.08384439934426915   -0.002252360243185788
-0.0032614059082198515   -0.07569375807740165   -0.0025035283892576483
0.001275822033544699   -0.07544571065984557   -0.0023531337013717336
-0.001409504082314276   -0.08384439934426915   -0.002252360243185788
0.0011421503658274731   -0.07540884566155621   -0.0025061008895422947
-0.0032614059082198515   -0.07569375807740165   -0.0025035283892576483
-0.001409504082314276   -0.08384439934426915   -0.002252360243185788
-0.004592727870774062   -0.08393792547088227   -0.0024384432434074533
-0.004760414440463907   -0.08386555510894436   -0.0025416561924028564
-0.0032614059082198515   -0.07569375807740165   -0.0025035283892576483
-0.001409504082314276   -0.08384439934426915   -0.002252360243185788
-0.004760414440463907   -0.08386555510894436   -0.0025416561924028564
0.0011421503658274731   -0.07540884566155621   -0.0025061008895422947
0.0007859262813686686   -0.07546055572399747   -0.0028516145226280703
-0.0021644662453518394   -0.08386752195026792   -0.0029098969024921187
0.0055344044402454145   -0.07515443809150689   -0.0030158773888297693
0.0009593813576807791   -0.0754131412495618   -0.002670533031851559
-0.0021644662453518394   -0.08386752195026792   -0.0029098969024921187
0.0010754345144815317   -0.08357869247740396   -0.0031447104378800475
0.0055344044402454145   -0.07515443809150689   -0.0030158773888297693
0.0017079793282257076   -0.08343621435470143   -0.0027620213003809015
0.0009593813576807791   -0.0754131412495618   -0.002670533031851559
0.005973513838222351   -0.07506341521724577   -0.002738749599383969
0.0017079793282257076   -0.08343621435470143   -0.0027620213003809015
0.0055344044402454145   -0.07515443809150689   -0.0030158773888297693
0.0009593813576807791   -0.0754131412495618   -0.002670533031851559
0.0017079793282257076   -0.08343621435470143   -0.0027620213003809015
-0.0018928349669958084   -0.08380208030804226   -0.002675972239700627
-0.0021644662453518394   -0.08386752195026792   -0.0029098969024921187
0.0009593813576807791   -0.0754131412495618   -0.002670533031851559
0.0017079793282257076   -0.08343621435470143   -0.0027620213003809015
-0.0021644662453518394   -0.08386752195026792   -0.0029098969024921187
0.0055344044402454145   -0.07515443809150689   -0.0030158773888297693
0.0009593813576807791   -0.0754131412495618   -0.002670533031851559
-0.0018928349669958084   -0.08380208030804226   -0.002675972239700627
0.005973513838222351   -0.07506341521724577   -0.002738749599383969
0.0011421503658274731   -0.07540884566155621   -0.0025061008895422947
-0.0018928349669958084   -0.08380208030804226   -0.002675972239700627
0.0017079793282257076   -0.08343621435470143   -0.0027620213003809015
0.005973513838222351   -0.07506341521724577   -0.002738749599383969
0.0022051094413656235   -0.08340732504035542   -0.002402744417944385
0.0011421503658274731   -0.07540884566155621   -0.0025061008895422947
0.006310173410272827   -0.0750476548552808   -0.0024822676758025244
0.0022051094413656235   -0.08340732504035542   -0.002402744417944385
0.005973513838222351   -0.07506341521724577   -0.002738749599383969
0.0011421503658274731   -0.07540884566155621   -0.0025061008895422947
0.0022051094413656235   -0.08340732504035542   -0.002402744417944385
-0.0016151900092609714   -0.08379049380138229   -0.0024539603374195322
-0.0018928349669958084   -0.08380208030804226   -0.002675972239700627
0.0011421503658274731   -0.07540884566155621   -0.0025061008895422947
0.0022051094413656235   -0.08340732504035542   -0.002402744417944385
-0.0018928349669958084   -0.08380208030804226   -0.002675972239700627
0.005973513838222351   -0.07506341521724577   -0.002738749599383969
0.0011421503658274731   -0.07540884566155621   -0.0025061008895422947
-0.0016151900092609714   -0.08379049380138229   -0.0024539603374195322
0.006310173410272827   -0.0750476548552808   -0.0024822676758025244
0.001275822033544699   -0.07544571065984557   -0.0023531337013717336
-0.0016151900092609714   -0.08379049380138229   -0.0024539603374195322
0.0022051094413656235   -0.08340732504035542   -0.002402744417944385
0.006310173410272827   -0.0750476548552808   -0.0024822676758025244
0.0027215971596242705   -0.08343144574997287   -0.0020746787210057403
0.001275822033544699   -0.07544571065984557   -0.0023531337013717336
0.006658870645477439   -0.07507461392101593   -0.0022485288661830537
0.0027215971596242705   -0.08343144574997287   -0.0020746787210057403
0.006310173410272827   -0.0750476548552808   -0.0024822676758025244
0.001275822033544699   -0.07544571065984557   -0.0023531337013717336
0.0027215971596242705   -0.08343144574997287   -0.0020746787210057403
-0.001409504082314276   -0.08384439934426915   -0.002252360243185788
-0.0016151900092609714   -0.08379049380138229   -0.0024539603374195322
0.001275822033544699   -0.07544571065984557   -0.0023531337013717336
0.0027215971596242705   -0.08343144574997287   -0.0020746787210057403
-0.0016151900092609714   -0.08379049380138229   -0.0024539603374195322
0.006310173410272827   -0.0750476548552808   -0.0024822676758025244
-0.014573193982719813   -0.08319886206689883   -0.0025106074390088126
-0.010682296005994261   -0.08789998878510617   -0.002209193239463152
-0.01095688178700895   -0.0835496148268794   -0.0026158406148601983
-0.014179184422335648   -0.08318895983349436   -0.002742901161137049
-0.010682296005994261   -0.08789998878510617   -0.002209193239463152
-0.009000675361630545   -0.08834369107648997   -0.0024759717357890555
-0.01095688178700895   -0.0835496148268794   -0.0026158406148601983
-0.00876988274287077   -0.08825591252396395   -0.0025676026563229448
-0.014179184422335648   -0.08318895983349436   -0.002742901161137049
-0.010774021063005079   -0.08353150341775703   -0.0027019921189025526
-0.00876988274287077   -0.08825591252396395   -0.0025676026563229448
-0.01095688178700895   -0.0835496148268794   -0.0026158406148601983
-0.014179184422335648   -0.08318895983349436   -0.002742901161137049
-0.00876988274287077   -0.08825591252396395   -0.0025676026563229448
-0.010191153540947375   -0.08780111137594988   -0.0024879082921616265
-0.010682296005994261   -0.08789998878510617   -0.002209193239463152
-0.014179184422335648   -0.08318895983349436   -0.002742901161137049
-0.00876988274287077   -0.08825591252396395   -0.0025676026563229448
-0.010682296005994261   -0.08789998878510617   -0.002209193239463152
-0.01095688178700895   -0.0835496148268794   -0.0026158406148601983
-0.014179184422335648   -0.08318895983349436   -0.002742901161137049
-0.010191153540947375   -0.08780111137594988   -0.0024879082921616265
-0.010774021063005079   -0.08353150341775703   -0.0027019921189025526
-0.013815961228647578   -0.08325125253212996   -0.002993468819232393
-0.010191153540947375   -0.08780111137594988   -0.0024879082921616265
-0.00876988274287077   -0.08825591252396395   -0.0025676026563229448
-0.010774021063005079   -0.08353150341775703   -0.0027019921189025526
-0.008514321391920453   -0.08826011203987974   -0.0026601598338176933
-0.013815961228647578   -0.08325125253212996   -0.002993468819232393
-0.010558977177780995   -0.08358190998759432   -0.0028011205132483256
-0.008514321391920453   -0.08826011203987974   -0.0026601598338176933
-0.010774021063005079   -0.08353150341775703   -0.0027019921189025526
-0.013815961228647578   -0.08325125253212996   -0.002993468819232393
-0.008514321391920453   -0.08826011203987974   -0.0026601598338176933
-0.009767382298675424   -0.08780941520257028   -0.0027655377247192657
-0.010191153540947375   -0.08780111137594988   -0.0024879082921616265
-0.013815961228647578   -0.08325125253212996   -0.002993468819232393
-0.008514321391920453   -0.08826011203987974   -0.0026601598338176933
-0.010191153540947375   -0.08780111137594988   -0.0024879082921616265
-0.010774021063005079   -0.08353150341775703   -0.0027019921189025526
-0.013815961228647578   -0.08325125253212996   -0.002993468819232393
-0.009767382298675424   -0.08780941520257028   -0.0027655377247192657
-0.010558977177780995   -0.08358190998759432   -0.0028011205132483256
-0.013372971741317791   -0.08341770448654147   -0.003261230546550128
-0.009767382298675424   -0.08780941520257028   -0.0027655377247192657
-0.008514321391920453   -0.08826011203987974   -0.0026601598338176933
-0.010558977177780995   -0.08358190998759432   -0.0028011205132483256
-0.008276881383987562   -0.08835671030758965   -0.002754031127712603
-0.013372971741317791   -0.08341770448654147   -0.003261230546550128
-0.010363888591495653   -0.0837019786272796   -0.002912395189371992
-0.008276881383987562   -0.08835671030758965   -0.002754031127712603
-0.010558977177780995   -0.08358190998759432   -0.0028011205132483256
-0.013372971741317791   -0.08341770448654147   -0.003261230546550128
-0.008276881383987562   -0.08835671030758965   -0.002754031127712603
-0.009264775452774623   -0.08793103986173421   -0.003049151071880046
-0.009767382298675424   -0.08780941520257028   -0.0027655377247192657
-0.013372971741317791   -0.08341770448654147   -0.003261230546550128
-0.008276881383987562   -0.08835671030758965   -0.002754031127712603
-0.009767382298675424   -0.08780941520257028   -0.0027655377247192657
-0.010558977177780995   -0.08358190998759432   -0.0028011205132483256
-0.01095688178700895   -0.0835496148268794   -0.0026158406148601983
-0.009000675361630545   -0.08834369107648997   -0.0024759717357890555
-0.008002883152464427   -0.08377717783829026   -0.0026981884039563113
-0.010774021063005079   -0.08353150341775703   -0.0027019921189025526
-0.009000675361630545   -0.08834369107648997   -0.0024759717357890555
-0.00776966928921442   -0.08878947457301971   -0.0027117846016138903
-0.008002883152464427   -0.08377717783829026   -0.0026981884039563113
-0.007526121537997893   -0.08869943616504929   -0.0026474469411450333
-0.010774021063005079   -0.08353150341775703   -0.0027019921189025526
-0.007815212949321181   -0.08374820842829661   -0.0026718299029635257
-0.007526121537997893   -0.08869943616504929   -0.0026474469411450333
-0.008002883152464427   -0.08377717783829026   -0.0026981884039563113
-0.010774021063005079   -0.08353150341775703   -0.0027019921189025526
-0.007526121537997893   -0.08869943616504929   -0.0026474469411450333
-0.00876988274287077   -0.08825591252396395   -0.0025676026563229448
-0.009000675361630545   -0.08834369107648997   -0.0024759717357890555
-0.010774021063005079   -0.08353150341775703   -0.0027019921189025526
-0.007526121537997893   -0.08869943616504929   -0.0026474469411450333
-0.009000675361630545   -0.08834369107648997   -0.0024759717357890555
-0.008002883152464427   -0.08377717783829026   -0.0026981884039563113
-0.010774021063005079   -0.08353150341775703   -0.0027019921189025526
-0.00876988274287077   -0.08825591252396395   -0.0025676026563229448
-0.007815212949321181   -0.08374820842829661   -0.0026718299029635257
-0.010558977177780995   -0.08358190998759432   -0.0028011205132483256
-0.00876988274287077   -0.08825591252396395   -0.0025676026563229448
-0.007526121537997893   -0.08869943616504929   -0.0026474469411450333
-0.007815212949321181   -0.08374820842829661   -0.0026718299029635257
-0.007290667768502848   -0.08869771861932939   -0.0025823060095043985
-0.010558977177780995   -0.08358190998759432   -0.0028011205132483256
-0.007630199528354325   -0.08377837307570203   -0.00265807345885166
-0.007290667768502848   -0.08869771861932939   -0.0025823060095043985
-0.007815212949321181   -0.08374820842829661   -0.0026718299029635257
-0.010558977177780995   -0.08358190998759432   -0.0028011205132483256
-0.007290667768502848   -0.08869771861932939   -0.0025823060095043985
-0.008514321391920453   -0.08826011203987974   -0.0026601598338176933
-0.00876988274287077   -0.08825591252396395   -0.0025676026563229448
-0.010558977177780995   -0.08358190998759432   -0.0028011205132483256
-0.007290667768502848   -0.08869771861932939   -0.0025823060095043985
-0.00876988274287077   -0.08825591252396395   -0.0025676026563229448
-0.007815212949321181   -0.08374820842829661   -0.0026718299029635257
-0.010558977177780995   -0.08358190998759432   -0.0028011205132483256
-0.008514321391920453   -0.08826011203987974   -0.0026601598338176933
-0.007630199528354325   -0.08377837307570203   -0.00265807345885166
-0.010363888591495653   -0.0837019786272796   -0.002912395189371992
-0.008514321391920453   -0.08826011203987974   -0.0026601598338176933
-0.007290667768502848   -0.08869771861932939   -0.0025823060095043985
-0.007630199528354325   -0.08377837307570203   -0.00265807345885166
-0.007045181771395874   -0.08878247192832367   -0.00251972985479457
-0.010363888591495653   -0.0837019786272796   -0.002912395189371992
-0.007459983398133965   -0.08386964411620107   -0.00265956205685388
-0.007045181771395874   -0.08878247192832367   -0.00251972985479457
-0.007630199528354325   -0.08377837307570203   -0.00265807345885166
-0.010363888591495653   -0.0837019786272796   -0.002912395189371992
-0.007045181771395874   -0.08878247192832367   -0.00251972985479457
-0.008276881383987562   -0.08835671030758965   -0.002754031127712603
-0.008514321391920453   -0.08826011203987974   -0.0026601598338176933
-0.010363888591495653   -0.0837019786272796   -0.002912395189371992
-0.007045181771395874   -0.08878247192832367   -0.00251972985479457
-0.008514321391920453   -0.08826011203987974   -0.0026601598338176933
-0.007630199528354325   -0.08377837307570203   -0.00265807345885166
-0.008002883152464427   -0.08377717783829026   -0.0026981884039563113
-0.00776966928921442   -0.08878947457301971   -0.0027117846016138903
-0.005173639137007014   -0.0838970789258465   -0.002795423722189382
-0.007815212949321181   -0.08374820842829661   -0.0026718299029635257
-0.00776966928921442   -0.08878947457301971   -0.0027117846016138903
-0.006645648571443393   -0.08932793908005016   -0.002971398494866922
-0.005173639137007014   -0.0838970789258465   -0.002795423722189382
-0.006347055320751319   -0.08924985305741907   -0.0027423331785840503
-0.007815212949321181   -0.08374820842829661   -0.0026718299029635257
-0.0049620738544975925   -0.08385532750001495   -0.0026629743627739236
-0.006347055320751319   -0.08924985305741907   -0.0027423331785840503
-0.005173639137007014   -0.0838970789258465   -0.002795423722189382
-0.007815212949321181   -0.08374820842829661   -0.0026718299029635257
-0.006347055320751319   -0.08924985305741907   -0.0027423331785840503
-0.007526121537997893   -0.08869943616504929   -0.0026474469411450333
-0.00776966928921442   -0.08878947457301971   -0.0027117846016138903
-0.007815212949321181   -0.08374820842829661   -0.0026718299029635257
-0.006347055320751319   -0.08924985305741907   -0.0027423331785840503
-0.00776966928921442   -0.08878947457301971   -0.0027117846016138903
-0.005173639137007014   -0.0838970789258465   -0.002795423722189382
-0.007815212949321181   -0.08374820842829661   -0.0026718299029635257
-0.007526121537997893   -0.08869943616504929   -0.0026474469411450333
-0.0049620738544975925   -0.08385532750001495   -0.0026629743627739236
-0.007630199528354325   -0.08377837307570203   -0.00265807345885166
-0.007526121537997893   -0.08869943616504929   -0.0026474469411450333
-0.006347055320751319   -0.08924985305741907   -0.0027423331785840503
-0.0049620738544975925   -0.08385532750001495   -0.0026629743627739236
-0.0060704157231192685   -0.08924561373860902   -0.0025140619732685323
-0.007630199528354325   -0.08377837307570203   -0.00265807345885166
-0.004760414440463907   -0.08386555510894436   -0.0025416561924028564
-0.0060704157231192685   -0.08924561373860902   -0.0025140619732685323
-0.0049620738544975925   -0.08385532750001495   -0.0026629743627739236
-0.007630199528354325   -0.08377837307570203   -0.00265807345885166
-0.0060704157231192685   -0.08924561373860902   -0.0025140619732685323
-0.007290667768502848   -0.08869771861932939   -0.0025823060095043985
-0.007526121537997893   -0.08869943616504929   -0.0026474469411450333
-0.007630199528354325   -0.08377837307570203   -0.00265807345885166
-0.0060704157231192685   -0.08924561373860902   -0.0025140619732685323
-0.007526121537997893   -0.08869943616504929   -0.0026474469411450333
-0.0049620738544975925   -0.08385532750001495   -0.0026629743627739236
-0.007630199528354325   -0.08377837307570203   -0.00265807345885166
-0.007290667768502848   -0.08869771861932939   -0.0025823060095043985
-0.004760414440463907   -0.08386555510894436   -0.0025416561924028564
-0.007459983398133965   -0.08386964411620107   -0.00265956205685388
-0.007290667768502848   -0.08869771861932939   -0.0025823060095043985
-0.0060704157231192685   -0.08924561373860902   -0.0025140619732685323
-0.004760414440463907   -0.08386555510894436   -0.0025416561924028564
-0.005773369439953572   -0.0893112172336348   -0.0022852480788407795
-0.007459983398133965   -0.08386964411620107   -0.00265956205685388
-0.004592727870774062   -0.08393792547088227   -0.0024384432434074533
-0.005773369439953572   -0.0893112172336348   -0.0022852480788407795
-0.004760414440463907   -0.08386555510894436   -0.0025416561924028564
-0.007459983398133965   -0.08386964411620107   -0.00265956205685388
-0.005773369439953572   -0.0893112172336348   -0.0022852480788407795
-0.007045181771395874   -0.08878247192832367   -0.00251972985479457
-0.007290667768502848   -0.08869771861932939   -0.0025823060095043985
-0.007459983398133965   -0.08386964411620107   -0.00265956205685388
-0.005773369439953572   -0.0893112172336348   -0.0022852480788407795
-0.007290667768502848   -0.08869771861932939   -0.0025823060095043985
-0.004760414440463907   -0.08386555510894436   -0.0025416561924028564
-0.005173639137007014   -0.0838970789258465   -0.002795423722189382
-0.006645648571443393   -0.08932793908005016   -0.002971398494866922
-0.0021644662453518394   -0.08386752195026792   -0.0029098969024921187
-0.0049620738544975925   -0.08385532750001495   -0.0026629743627739236
-0.006645648571443393   -0.08932793908005016   -0.002971398494866922
-0.005539416043878071   -0.09   -0.0031705758895465485
-0.0021644662453518394   -0.08386752195026792   -0.0029098969024921187
-0.005163939394446363   -0.09   -0.0028228782762080703
-0.0049620738544975925   -0.08385532750001495   -0.0026629743627739236
-0.0018928349669958084   -0.08380208030804226   -0.002675972239700627
-0.005163939394446363   -0.09   -0.0028228782762080703
-0.0021644662453518394   -0.08386752195026792   -0.0029098969024921187
-0.0049620738544975925   -0.08385532750001495   -0.0026629743627739236
-0.005163939394446363   -0.09   -0.0028228782762080703
-0.006347055320751319   -0.08924985305741907   -0.0027423331785840503
-0.006645648571443393   -0.08932793908005016   -0.002971398494866922
-0.0049620738544975925   -0.08385532750001495   -0.0026629743627739236
-0.005163939394446363   -0.09   -0.0028228782762080703
-0.006645648571443393   -0.08932793908005016   -0.002971398494866922
-0.0021644662453518394   -0.08386752195026792   -0.0029098969024921187
-0.0049620738544975925   -0.08385532750001495   -0.0026629743627739236
-0.006347055320751319   -0.08924985305741907   -0.0027423331785840503
-0.0018928349669958084   -0.08380208030804226   -0.002675972239700627
-0.004760414440463907   -0.08386555510894436   -0.0025416561924028564
-0.006347055320751319   -0.08924985305741907   -0.0027423331785840503
-0.005163939394446363   -0.09   -0.0028228782762080703
-0.0018928349669958084   -0.08380208030804226   -0.002675972239700627
-0.004786739362685724   -0.09   -0.0024710551699692234
-0.004760414440463907   -0.08386555510894436   -0.0025416561924028564
-0.0016151900092609714   -0.08379049380138229   -0.0024539603374195322
-0.004786739362685724   -0.09   -0.0024710551699692234
-0.0018928349669958084   -0.08380208030804226   -0.002675972239700627
-0.004760414440463907   -0.08386555510894436   -0.0025416561924028564
-0.004786739362685724   -0.09   -0.0024710551699692234
-0.0060704157231192685   -0.08924561373860902   -0.0025140619732685323
-0.006347055320751319   -0.08924985305741907   -0.0027423331785840503
-0.004760414440463907   -0.08386555510894436   -0.0025416561924028564
-0.004786739362685724   -0.09   -0.0024710551699692234
-0.006347055320751319   -0.08924985305741907   -0.0027423331785840503
-0.0018928349669958084   -0.08380208030804226   -0.002675972239700627
-0.004760414440463907   -0.08386555510894436   -0.0025416561924028564
-0.0060704157231192685   -0.08924561373860902   -0.0025140619732685323
-0.0016151900092609714   -0.08379049380138229   -0.0024539603374195322
-0.004592727870774062   -0.08393792547088227   -0.0024384432434074533
-0.0060704157231192685   -0.08924561373860902   -0.0025140619732685323
-0.004786739362685724   -0.09   -0.0024710551699692234
-0.0016151900092609714   -0.08379049380138229   -0.0024539603374195322
-0.004417940520192588   -0.09   -0.0021238780332558127
-0.004592727870774062   -0.08393792547088227   -0.0024384432434074533
-0.001409504082314276   -0.08384439934426915   -0.002252360243185788
-0.004417940520192588   -0.09   -0.0021238780332558127
-0.0016151900092609714   -0.08379049380138229   -0.0024539603374195322
-0.004592727870774062   -0.08393792547088227   -0.0024384432434074533
-0.004417940520192588   -0.09   -0.0021238780332558127
-0.005773369439953572   -0.0893112172336348   -0.0022852480788407795
-0.0060704157231192685   -0.08924561373860902   -0.0025140619732685323
-0.004592727870774062   -0.08393792547088227   -0.0024384432434074533
-0.004417940520192588   -0.09   -0.0021238780332558127
-0.0060704157231192685   -0.08924561373860902   -0.0025140619732685323
-0.0016151900092609714   -0.08379049380138229   -0.0024539603374195322
-0.0021644662453518394   -0.08386752195026792   -0.0029098969024921187
-0.005539416043878071   -0.09   -0.0031705758895465485
0.0010754345144815317   -0.08357869247740396   -0.0031447104378800475
-0.0018928349669958084   -0.08380208030804226   -0.002675972239700627
-0.005539416043878071   -0.09   -0.0031705758895465485
-0.00473764448136721   -0.09   -0.003411801434013887
0.0010754345144815317   -0.08357869247740396   -0.0031447104378800475
-0.0039530790229584355   -0.09   -0.0029089011921150433
-0.0018928349669958084   -0.08380208030804226   -0.002675972239700627
0.0017079793282257076   -0.08343621435470143   -0.0027620213003809015
-0.0039530790229584355   -0.09   -0.0029089011921150433
0.0010754345144815317   -0.08357869247740396   -0.0031447104378800475
-0.0018928349669958084   -0.08380208030804226   -0.002675972239700627
-0.0039530790229584355   -0.09   -0.0029089011921150433
-0.005163939394446363   -0.09   -0.0028228782762080703
-0.005539416043878071   -0.09   -0.0031705758895465485
-0.0018928349669958084   -0.08380208030804226   -0.002675972239700627
-0.0039530790229584355   -0.09   -0.0029089011921150433
-0.005539416043878071   -0.09   -0.0031705758895465485
0.0010754345144815317   -0.08357869247740396   -0.0031447104378800475
-0.0018928349669958084   -0.08380208030804226   -0.002675972239700627
-0.005163939394446363   -0.09   -0.0028228782762080703
0.0017079793282257076   -0.08343621435470143   -0.0027620213003809015
-0.0016151900092609714   -0.08379049380138229   -0.0024539603374195322
-0.005163939394446363   -0.09   -0.0028228782762080703
-0.0039530790229584355   -0.09   -0.0029089011921150433
0.0017079793282257076   -0.08343621435470143   -0.0027620213003809015
-0.003327394558716219   -0.09   -0.0024278078533673444
-0.0016151900092609714   -0.08379049380138229   -0.0024539603374195322
0.0022051094413656235   -0.08340732504035542   -0.002402744417944385
-0.003327394558716219   -0.09   -0.0024278078533673444
0.0017079793282257076   -0.08343621435470143   -0.0027620213003809015
-0.0016151900092609714   -0.08379049380138229   -0.0024539603374195322
-0.003327394558716219   -0.09   -0.0024278078533673444
-0.004786739362685724   -0.09   -0.0024710551699692234
-0.005163939394446363   -0.09   -0.0028228782762080703
-0.0016151900092609714   -0.08379049380138229   -0.0024539603374195322
-0.003327394558716219   -0.09   -0.0024278078533673444
-0.005163939394446363   -0.09   -0.0028228782762080703
0.0017079793282257076   -0.08343621435470143   -0.0027620213003809015
-0.0016151900092609714   -0.08379049380138229   -0.0024539603374195322
-0.004786739362685724   -0.09   -0.0024710551699692234
0.0022051094413656235   -0.08340732504035542   -0.002402744417944385
-0.001409504082314276   -0.08384439934426915   -0.002252360243185788
-0.004786739362685724   -0.09   -0.0024710551699692234
-0.003327394558716219   -0.09   -0.0024278078533673444
0.0022051094413656235   -0.08340732504035542   -0.002402744417944385
-0.002554463266918554   -0.09   -0.0019283845713881516
-0.001409504082314276   -0.08384439934426915   -0.002252360243185788
0.0027215971596242705   -0.08343144574997287   -0.0020746787210057403
-0.002554463266918554   -0.09   -0.0019283845713881516
0.0022051094413656235   -0.08340732504035542   -0.002402744417944385
-0.001409504082314276   -0.08384439934426915   -0.002252360243185788
-0.002554463266918554   -0.09   -0.0019283845713881516
-0.004417940520192588   -0.09   -0.0021238780332558127
-0.004786739362685724   -0.09   -0.0024710551699692234
-0.001409504082314276   -0.08384439934426915   -0.002252360243185788
-0.002554463266918554   -0.09   -0.0019283845713881516
-0.004786739362685724   -0.09   -0.0024710551699692234
0.0022051094413656235   -0.08340732504035542   -0.002402744417944385
-0.010682296005994261   -0.08789998878510617   -0.002209193239463152
-0.006377609582995779   -0.08813252776410804   -0.001890776814014892
-0.009000675361630545   -0.08834369107648997   -0.0024759717357890555
-0.010191153540947375   -0.08780111137594988   -0.0024879082921616265
-0.006377609582995779   -0.08813252776410804   -0.001890776814014892
-0.006766838342925762   -0.08847424429780745   -0.0022342616404724368
-0.009000675361630545   -0.08834369107648997   -0.0024759717357890555
-0.006592329051570304   -0.08835439564375006   -0.0023593541790055948
-0.010191153540947375   -0.08780111137594988   -0.0024879082921616265
-0.00876988274287077   -0.08825591252396395   -0.0025676026563229448
-0.006592329051570304   -0.08835439564375006   -0.0023593541790055948
-0.009000675361630545   -0.08834369107648997   -0.0024759717357890555
-0.010191153540947375   -0.08780111137594988   -0.0024879082921616265
-0.006592329051570304   -0.08835439564375006   -0.0023593541790055948
-0.005932625494259448   -0.08797865513545584   -0.0021835992667560036
-0.006377609582995779   -0.08813252776410804   -0.001890776814014892
-0.010191153540947375   -0.08780111137594988   -0.0024879082921616265
-0.006592329051570304   -0.08835439564375006   -0.0023593541790055948
-0.006377609582995779   -0.08813252776410804   -0.001890776814014892
-0.009000675361630545   -0.08834369107648997   -0.0024759717357890555
-0.010191153540947375   -0.08780111137594988   -0.0024879082921616265
-0.005932625494259448   -0.08797865513545584   -0.0021835992667560036
-0.00876988274287077   -0.08825591252396395   -0.0025676026563229448
-0.009767382298675424   -0.08780941520257028   -0.0027655377247192657
-0.005932625494259448   -0.08797865513545584   -0.0021835992667560036
-0.006592329051570304   -0.08835439564375006   -0.0023593541790055948
-0.00876988274287077   -0.08825591252396395   -0.0025676026563229448
-0.0063876750715619185   -0.08831001135212269   -0.00247474053627564
-0.009767382298675424   -0.08780941520257028   -0.0027655377247192657
-0.008514321391920453   -0.08826011203987974   -0.0026601598338176933
-0.0063876750715619185   -0.08831001135212269   -0.00247474053627564
-0.00876988274287077   -0.08825591252396395   -0.0025676026563229448
-0.009767382298675424   -0.08780941520257028   -0.0027655377247192657
-0.0063876750715619185   -0.08831001135212269   -0.00247474053627564
-0.005562207437116278   -0.08793112633042689   -0.0024643756130623626
-0.005932625494259448   -0.08797865513545584   -0.0021835992667560036
-0.009767382298675424   -0.08780941520257028   -0.0027655377247192657
-0.0063876750715619185   -0.08831001135212269   -0.00247474053627564
-0.005932625494259448   -0.08797865513545584   -0.0021835992667560036
-0.00876988274287077   -0.08825591252396395   -0.0025676026563229448
-0.009767382298675424   -0.08780941520257028   -0.0027655377247192657
-0.005562207437116278   -0.08793112633042689   -0.0024643756130623626
-0.008514321391920453   -0.08826011203987974   -0.0026601598338176933
-0.009264775452774623   -0.08793103986173421   -0.003049151071880046
-0.005562207437116278   -0.08793112633042689   -0.0024643756130623626
-0.0063876750715619185   -0.08831001135212269   -0.00247474053627564
-0.008514321391920453   -0.08826011203987974   -0.0026601598338176933
-0.006212339168116254   -0.08834172652951398   -0.002579814568405816
-0.009264775452774623   -0.08793103986173421   -0.003049151071880046
-0.008276881383987562   -0.08835671030758965   -0.002754031127712603
-0.006212339168116254   -0.08834172652951398   -0.002579814568405816
-0.008514321391920453   -0.08826011203987974   -0.0026601598338176933
-0.009264775452774623   -0.08793103986173421   -0.003049151071880046
-0.006212339168116254   -0.08834172652951398   -0.002579814568405816
-0.0051431928282325776   -0.08797070054252934   -0.0027318528626659637
-0.005562207437116278   -0.08793112633042689   -0.0024643756130623626
-0.009264775452774623   -0.08793103986173421   -0.003049151071880046
-0.006212339168116254   -0.08834172652951398   -0.002579814568405816
-0.005562207437116278   -0.08793112633042689   -0.0024643756130623626
-0.008514321391920453   -0.08826011203987974   -0.0026601598338176933
-0.009000675361630545   -0.08834369107648997   -0.0024759717357890555
-0.006766838342925762   -0.08847424429780745   -0.0022342616404724368
-0.00776966928921442   -0.08878947457301971   -0.0027117846016138903
-0.00876988274287077   -0.08825591252396395   -0.0025676026563229448
-0.006766838342925762   -0.08847424429780745   -0.0022342616404724368
-0.007292673464543421   -0.08868575394855918   -0.0025089325505331913
-0.00776966928921442   -0.08878947457301971   -0.0027117846016138903
-0.007138203618641483   -0.08857874651301242   -0.0025122434805315936
-0.00876988274287077   -0.08825591252396395   -0.0025676026563229448
-0.007526121537997893   -0.08869943616504929   -0.0026474469411450333
-0.007138203618641483   -0.08857874651301242   -0.0025122434805315936
-0.00776966928921442   -0.08878947457301971   -0.0027117846016138903
-0.00876988274287077   -0.08825591252396395   -0.0025676026563229448
-0.007138203618641483   -0.08857874651301242   -0.0025122434805315936
-0.006592329051570304   -0.08835439564375006   -0.0023593541790055948
-0.006766838342925762   -0.08847424429780745   -0.0022342616404724368
-0.00876988274287077   -0.08825591252396395   -0.0025676026563229448
-0.007138203618641483   -0.08857874651301242   -0.0025122434805315936
-0.006766838342925762   -0.08847424429780745   -0.0022342616404724368
-0.00776966928921442   -0.08878947457301971   -0.0027117846016138903
-0.00876988274287077   -0.08825591252396395   -0.0025676026563229448
-0.006592329051570304   -0.08835439564375006   -0.0023593541790055948
-0.007526121537997893   -0.08869943616504929   -0.0026474469411450333
-0.008514321391920453   -0.08826011203987974   -0.0026601598338176933
-0.006592329051570304   -0.08835439564375006   -0.0023593541790055948
-0.007138203618641483   -0.08857874651301242   -0.0025122434805315936
-0.007526121537997893   -0.08869943616504929   -0.0026474469411450333
-0.0069662594424936925   -0.08854008997851909   -0.002502970250111918
-0.008514321391920453   -0.08826011203987974   -0.0026601598338176933
-0.007290667768502848   -0.08869771861932939   -0.0025823060095043985
-0.0069662594424936925   -0.08854008997851909   -0.002502970250111918
-0.007526121537997893   -0.08869943616504929   -0.0026474469411450333
-0.008514321391920453   -0.08826011203987974   -0.0026601598338176933
-0.0069662594424936925   -0.08854008997851909   -0.002502970250111918
-0.0063876750715619185   -0.08831001135212269   -0.00247474053627564
-0.006592329051570304   -0.08835439564375006   -0.0023593541790055948
-0.008514321391920453   -0.08826011203987974   -0.0026601598338176933
-0.0069662594424936925   -0.08854008997851909   -0.002502970250111918
-0.006592329051570304   -0.08835439564375006   -0.0023593541790055948
-0.007526121537997893   -0.08869943616504929   -0.0026474469411450333
-0.008514321391920453   -0.08826011203987974   -0.0026601598338176933
-0.0063876750715619185   -0.08831001135212269   -0.00247474053627564
-0.007290667768502848   -0.08869771861932939   -0.0025823060095043985
-0.008276881383987562   -0.08835671030758965   -0.002754031127712603
-0.0063876750715619185   -0.08831001135212269   -0.00247474053627564
-0.0069662594424936925   -0.08854008997851909   -0.002502970250111918
-0.007290667768502848   -0.08869771861932939   -0.0025823060095043985
-0.006791427037583872   -0.08856664869404289   -0.0024838229302399446
-0.008276881383987562   -0.08835671030758965   -0.002754031127712603
-0.007045181771395874   -0.08878247192832367   -0.00251972985479457
-0.006791427037583872   -0.08856664869404289   -0.0024838229302399446
-0.007290667768502848   -0.08869771861932939   -0.0025823060095043985
-0.008276881383987562   -0.08835671030758965   -0.002754031127712603
-0.006791427037583872   -0.08856664869404289   -0.0024838229302399446
-0.006212339168116254   -0.08834172652951398   -0.002579814568405816
-0.0063876750715619185   -0.08831001135212269   -0.00247474053627564
-0.008276881383987562   -0.08835671030758965   -0.002754031127712603
-0.006791427037583872   -0.08856664869404289   -0.0024838229302399446
-0.0063876750715619185   -0.08831001135212269   -0.00247474053627564
-0.007290667768502848   -0.08869771861932939   -0.0025823060095043985
-0.00776966928921442   -0.08878947457301971   -0.0027117846016138903
-0.007292673464543421   -0.08868575394855918   -0.0025089325505331913
-0.006645648571443393   -0.08932793908005016   -0.002971398494866922
-0.007526121537997893   -0.08869943616504929   -0.0026474469411450333
-0.007292673464543421   -0.08868575394855918   -0.0025089325505331913
-0.007856236077215478   -0.08877503157860119   -0.0027792324048738254
-0.006645648571443393   -0.08932793908005016   -0.002971398494866922
-0.0076962235326744205   -0.08867302953675732   -0.0026654459346327057
-0.007526121537997893   -0.08869943616504929   -0.0026474469411450333
-0.006347055320751319   -0.08924985305741907   -0.0027423331785840503
-0.0076962235326744205   -0.08867302953675732   -0.0026654459346327057
-0.006645648571443393   -0.08932793908005016   -0.002971398494866922
-0.007526121537997893   -0.08869943616504929   -0.0026474469411450333
-0.0076962235326744205   -0.08867302953675732   -0.0026654459346327057
-0.007138203618641483   -0.08857874651301242   -0.0025122434805315936
-0.007292673464543421   -0.08868575394855918   -0.0025089325505331913
-0.007526121537997893   -0.08869943616504929   -0.0026474469411450333
-0.0076962235326744205   -0.08867302953675732   -0.0026654459346327057
-0.007292673464543421   -0.08868575394855918   -0.0025089325505331913
-0.006645648571443393   -0.08932793908005016   -0.002971398494866922
-0.007526121537997893   -0.08869943616504929   -0.0026474469411450333
-0.007138203618641483   -0.08857874651301242   -0.0025122434805315936
-0.006347055320751319   -0.08924985305741907   -0.0027423331785840503
-0.007290667768502848   -0.08869771861932939   -0.0025823060095043985
-0.007138203618641483   -0.08857874651301242   -0.0025122434805315936
-0.0076962235326744205   -0.08867302953675732   -0.0026654459346327057
-0.006347055320751319   -0.08924985305741907   -0.0027423331785840503
-0.007504264329168885   -0.08864049890621149   -0.0025363341197636724
-0.007290667768502848   -0.08869771861932939   -0.0025823060095043985
-0.0060704157231192685   -0.08924561373860902   -0.0025140619732685323
-0.007504264329168885   -0.08864049890621149   -0.0025363341197636724
-0.006347055320751319   -0.08924985305741907   -0.0027423331785840503
-0.007290667768502848   -0.08869771861932939   -0.0025823060095043985
-0.007504264329168885   -0.08864049890621149   -0.0025363341197636724
-0.0069662594424936925   -0.08854008997851909   -0.002502970250111918
-0.007138203618641483   -0.08857874651301242   -0.0025122434805315936
-0.007290667768502848   -0.08869771861932939   -0.0025823060095043985
-0.007504264329168885   -0.08864049890621149   -0.0025363341197636724
-0.007138203618641483   -0.08857874651301242   -0.0025122434805315936
-0.006347055320751319   -0.08924985305741907   -0.0027423331785840503
-0.007290667768502848   -0.08869771861932939   -0.0025823060095043985
-0.0069662594424936925   -0.08854008997851909   -0.002502970250111918
-0.0060704157231192685   -0.08924561373860902   -0.0025140619732685323
-0.007045181771395874   -0.08878247192832367   -0.00251972985479457
-0.0069662594424936925   -0.08854008997851909   -0.002502970250111918
-0.007504264329168885   -0.08864049890621149   -0.0025363341197636724
-0.0060704157231192685   -0.08924561373860902   -0.0025140619732685323
-0.0073068390143596305   -0.08866649099574483   -0.0023987970531712207
-0.007045181771395874   -0.08878247192832367   -0.00251972985479457
-0.005773369439953572   -0.0893112172336348   -0.0022852480788407795
-0.0073068390143596305   -0.08866649099574483   -0.0023987970531712207
-0.0060704157231192685   -0.08924561373860902   -0.0025140619732685323
-0.007045181771395874   -0.08878247192832367   -0.00251972985479457
-0.0073068390143596305   -0.08866649099574483   -0.0023987970531712207
-0.006791427037583872   -0.08856664869404289   -0.0024838229302399446
-0.0069662594424936925   -0.08854008997851909   -0.002502970250111918
-0.007045181771395874   -0.08878247192832367   -0.00251972985479457
-0.0073068390143596305   -0.08866649099574483   -0.0023987970531712207
-0.0069662594424936925   -0.08854008997851909   -0.002502970250111918
-0.0060704157231192685   -0.08924561373860902   -0.0025140619732685323
-0.006645648571443393   -0.08932793908005016   -0.002971398494866922
-0.007856236077215478   -0.08877503157860119   -0.0027792324048738254
-0.005539416043878071   -0.09   -0.0031705758895465485
-0.006347055320751319   -0.08924985305741907   -0.0027423331785840503
-0.007856236077215478   -0.08877503157860119   -0.0027792324048738254
-0.008672335338726907   -0.08867998881944637   -0.0030359387470504096
-0.005539416043878071   -0.09   -0.0031705758895465485
-0.008463311495378614   -0.08858374890992865   -0.0028106901538421884
-0.006347055320751319   -0.08924985305741907   -0.0027423331785840503
-0.005163939394446363   -0.09   -0.0028228782762080703
-0.008463311495378614   -0.08858374890992865   -0.0028106901538421884
-0.005539416043878071   -0.09   -0.0031705758895465485
-0.006347055320751319   -0.08924985305741907   -0.0027423331785840503
-0.008463311495378614   -0.08858374890992865   -0.0028106901538421884
-0.0076962235326744205   -0.08867302953675732   -0.0026654459346327057
-0.007856236077215478   -0.08877503157860119   -0.0027792324048738254
-0.006347055320751319   -0.08924985305741907   -0.0027423331785840503
-0.008463311495378614   -0.08858374890992865   -0.0028106901538421884
-0.007856236077215478   -0.08877503157860119   -0.0027792324048738254
-0.005539416043878071   -0.09   -0.0031705758895465485
-0.006347055320751319   -0.08924985305741907   -0.0027423331785840503
-0.0076962235326744205   -0.08867302953675732   -0.0026654459346327057
-0.005163939394446363   -0.09   -0.0028228782762080703
-0.0060704157231192685   -0.08924561373860902   -0.0025140619732685323
-0.0076962235326744205   -0.08867302953675732   -0.0026654459346327057
-0.008463311495378614   -0.08858374890992865   -0.0028106901538421884
-0.005163939394446363   -0.09   -0.0028228782762080703
-0.00818758171118488   -0.08856177910309646   -0.0025683865038660047
-0.0060704157231192685   -0.08924561373860902   -0.0025140619732685323
-0.004786739362685724   -0.09   -0.0024710551699692234
-0.00818758171118488   -0.08856177910309646   -0.0025683865038660047
-0.005163939394446363   -0.09   -0.0028228782762080703
-0.0060704157231192685   -0.08924561373860902   -0.0025140619732685323
-0.00818758171118488   -0.08856177910309646   -0.0025683865038660047
-0.007504264329168885   -0.08864049890621149   -0.0025363341197636724
-0.0076962235326744205   -0.08867302953675732   -0.0026654459346327057
-0.0060704157231192685   -0.08924561373860902   -0.0025140619732685323
-0.00818758171118488   -0.08856177910309646   -0.0025683865038660047
-0.0076962235326744205   -0.08867302953675732   -0.0026654459346327057
-0.005163939394446363   -0.09   -0.0028228782762080703
-0.0060704157231192685   -0.08924561373860902   -0.0025140619732685323
-0.007504264329168885   -0.08864049890621149   -0.0025363341197636724
-0.004786739362685724   -0.09   -0.0024710551699692234
-0.005773369439953572   -0.0893112172336348   -0.0022852480788407795
-0.007504264329168885   -0.08864049890621149   -0.0025363341197636724
-0.00818758171118488   -0.08856177910309646   -0.0025683865038660047
-0.004786739362685724   -0.09   -0.0024710551699692234
-0.007928094664050608   -0.0885997204874351   -0.0023167034982176943
-0.005773369439953572   -0.0893112172336348   -0.0022852480788407795
-0.004417940520192588   -0.09   -0.0021238780332558127
-0.007928094664050608   -0.0885997204874351   -0.0023167034982176943
-0.004786739362685724   -0.09   -0.0024710551699692234
-0.005773369439953572   -0.0893112172336348   -0.0022852480788407795
-0.007928094664050608   -0.0885997204874351   -0.0023167034982176943
-0.0073068390143596305   -0.08866649099574483   -0.0023987970531712207
-0.007504264329168885   -0.08864049890621149   -0.0025363341197636724
-0.005773369439953572   -0.0893112172336348   -0.0022852480788407795
-0.007928094664050608   -0.0885997204874351   -0.0023167034982176943
-0.007504264329168885   -0.08864049890621149   -0.0025363341197636724
-0.004786739362685724   -0.09   -0.0024710551699692234
-0.005539416043878071   -0.09   -0.0031705758895465485
-0.008672335338726907   -0.08867998881944637   -0.0030359387470504096
-0.00473764448136721   -0.09   -0.003411801434013887
-0.005163939394446363   -0.09   -0.0028228782762080703
-0.008672335338726907   -0.08867998881944637   -0.0030359387470504096
-0.01025725942555367   -0.08824587779199303   -0.0033079346318613586
-0.00473764448136721   -0.09   -0.003411801434013887
-0.009702396809559428   -0.08816486585537545   -0.0029383684040655044
-0.005163939394446363   -0.09   -0.0028228782762080703
-0.0039530790229584355   -0.09   -0.0029089011921150433
-0.009702396809559428   -0.08816486585537545   -0.0029383684040655044
-0.00473764448136721   -0.09   -0.003411801434013887
-0.005163939394446363   -0.09   -0.0028228782762080703
-0.009702396809559428   -0.08816486585537545   -0.0029383684040655044
-0.008463311495378614   -0.08858374890992865   -0.0028106901538421884
-0.008672335338726907   -0.08867998881944637   -0.0030359387470504096
-0.005163939394446363   -0.09   -0.0028228782762080703
-0.009702396809559428   -0.08816486585537545   -0.0029383684040655044
-0.008672335338726907   -0.08867998881944637   -0.0030359387470504096
-0.00473764448136721   -0.09   -0.003411801434013887
-0.005163939394446363   -0.09   -0.0028228782762080703
-0.008463311495378614   -0.08858374890992865   -0.0028106901538421884
-0.0039530790229584355   -0.09   -0.0029089011921150433
-0.004786739362685724   -0.09   -0.0024710551699692234
-0.008463311495378614   -0.08858374890992865   -0.0028106901538421884
-0.009702396809559428   -0.08816486585537545   -0.0029383684040655044
-0.0039530790229584355   -0.09   -0.0029089011921150433
-0.009192416112575789   -0.088153676711381   -0.0025438202336593957
-0.004786739362685724   -0.09   -0.0024710551699692234
-0.003327394558716219   -0.09   -0.0024278078533673444
-0.009192416112575789   -0.088153676711381   -0.0025438202336593957
-0.0039530790229584355   -0.09   -0.0029089011921150433
-0.004786739362685724   -0.09   -0.0024710551699692234
-0.009192416112575789   -0.088153676711381   -0.0025438202336593957
-0.00818758171118488   -0.08856177910309646   -0.0025683865038660047
-0.008463311495378614   -0.08858374890992865   -0.0028106901538421884
-0.004786739362685724   -0.09   -0.0024710551699692234
-0.009192416112575789   -0.088153676711381   -0.0025438202336593957
-0.008463311495378614   -0.08858374890992865   -0.0028106901538421884
-0.0039530790229584355   -0.09   -0.0029089011921150433
-0.004786739362685724   -0.09   -0.0024710551699692234
-0.00818758171118488   -0.08856177910309646   -0.0025683865038660047
-0.003327394558716219   -0.09   -0.0024278078533673444
-0.004417940520192588   -0.09   -0.0021238780332558127
-0.00818758171118488   -0.08856177910309646   -0.0025683865038660047
-0.009192416112575789   -0.088153676711381   -0.0025438202336593957
-0.003327394558716219   -0.09   -0.0024278078533673444
-0.00854839734099082   -0.08826002456263062   -0.0021311156893888466
-0.004417940520192588   -0.09   -0.0021238780332558127
-0.002554463266918554   -0.09   -0.0019283845713881516
-0.00854839734099082   -0.08826002456263062   -0.0021311156893888466
-0.003327394558716219   -0.09   -0.0024278078533673444
-0.004417940520192588   -0.09   -0.0021238780332558127
-0.00854839734099082   -0.08826002456263062   -0.0021311156893888466
-0.007928094664050608   -0.0885997204874351   -0.0023167034982176943
-0.00818758171118488   -0.08856177910309646   -0.0025683865038660047
-0.004417940520192588   -0.09   -0.0021238780332558127
-0.00854839734099082   -0.08826002456263062   -0.0021311156893888466
-0.00818758171118488   -0.08856177910309646   -0.0025683865038660047
-0.003327394558716219   -0.09   -0.0024278078533673444
-0.006377609582995779   -0.08813252776410804   -0.001890776814014892
-0.002592799310814027   -0.08479553980085545   -0.00163404014282521
-0.006766838342925762   -0.08847424429780745   -0.0022342616404724368
-0.005932625494259448   -0.08797865513545584   -0.0021835992667560036
-0.002592799310814027   -0.08479553980085545   -0.00163404014282521
-0.004852346590217486   -0.08505310633618157   -0.0019988254878102983
-0.006766838342925762   -0.08847424429780745   -0.0022342616404724368
-0.004728441619541034   -0.084908099106161   -0.0021103077559213707
-0.005932625494259448   -0.08797865513545584   -0.0021835992667560036
-0.006592329051570304   -0.08835439564375006   -0.0023593541790055948
-0.004728441619541034   -0.084908099106161   -0.0021103077559213707
-0.006766838342925762   -0.08847424429780745   -0.0022342616404724368
-0.005932625494259448   -0.08797865513545584   -0.0021835992667560036
-0.004728441619541034   -0.084908099106161   -0.0021103077559213707
-0.002238197737768333   -0.08461613519970311   -0.0018869845683270987
-0.002592799310814027   -0.08479553980085545   -0.00163404014282521
-0.005932625494259448   -0.08797865513545584   -0.0021835992667560036
-0.004728441619541034   -0.084908099106161   -0.0021103077559213707
-0.002592799310814027   -0.08479553980085545   -0.00163404014282521
-0.006766838342925762   -0.08847424429780745   -0.0022342616404724368
-0.005932625494259448   -0.08797865513545584   -0.0021835992667560036
-0.002238197737768333   -0.08461613519970311   -0.0018869845683270987
-0.006592329051570304   -0.08835439564375006   -0.0023593541790055948
-0.005562207437116278   -0.08793112633042689   -0.0024643756130623626
-0.002238197737768333   -0.08461613519970311   -0.0018869845683270987
-0.004728441619541034   -0.084908099106161   -0.0021103077559213707
-0.006592329051570304   -0.08835439564375006   -0.0023593541790055948
-0.004588995962266652   -0.08482758960621474   -0.0022117138851403604
-0.005562207437116278   -0.08793112633042689   -0.0024643756130623626
-0.0063876750715619185   -0.08831001135212269   -0.00247474053627564
-0.004588995962266652   -0.08482758960621474   -0.0022117138851403604
-0.006592329051570304   -0.08835439564375006   -0.0023593541790055948
-0.005562207437116278   -0.08793112633042689   -0.0024643756130623626
-0.004588995962266652   -0.08482758960621474   -0.0022117138851403604
-0.001959172934187171   -0.08453050244881266   -0.002124991939904249
-0.002238197737768333   -0.08461613519970311   -0.0018869845683270987
-0.005562207437116278   -0.08793112633042689   -0.0024643756130623626
-0.004588995962266652   -0.08482758960621474   -0.0022117138851403604
-0.002238197737768333   -0.08461613519970311   -0.0018869845683270987
-0.006592329051570304   -0.08835439564375006   -0.0023593541790055948
-0.005562207437116278   -0.08793112633042689   -0.0024643756130623626
-0.001959172934187171   -0.08453050244881266   -0.002124991939904249
-0.0063876750715619185   -0.08831001135212269   -0.00247474053627564
-0.0051431928282325776   -0.08797070054252934   -0.0027318528626659637
-0.001959172934187171   -0.08453050244881266   -0.002124991939904249
-0.004588995962266652   -0.08482758960621474   -0.0022117138851403604
-0.0063876750715619185   -0.08831001135212269   -0.00247474053627564
-0.0044820690069809965   -0.08480933081372308   -0.002303364160981919
-0.0051431928282325776   -0.08797070054252934   -0.0027318528626659637
-0.006212339168116254   -0.08834172652951398   -0.002579814568405816
-0.0044820690069809965   -0.08480933081372308   -0.002303364160981919
-0.0063876750715619185   -0.08831001135212269   -0.00247474053627564
-0.0051431928282325776   -0.08797070054252934   -0.0027318528626659637
-0.0044820690069809965   -0.08480933081372308   -0.002303364160981919
-0.0016545580116685348   -0.0845140764940296   -0.0023474287679336775
-0.001959172934187171   -0.08453050244881266   -0.002124991939904249
-0.0051431928282325776   -0.08797070054252934   -0.0027318528626659637
-0.0044820690069809965   -0.08480933081372308   -0.002303364160981919
-0.001959172934187171   -0.08453050244881266   -0.002124991939904249
-0.0063876750715619185   -0.08831001135212269   -0.00247474053627564
-0.006766838342925762   -0.08847424429780745   -0.0022342616404724368
-0.004852346590217486   -0.08505310633618157   -0.0019988254878102983
-0.007292673464543421   -0.08868575394855918   -0.0025089325505331913
-0.006592329051570304   -0.08835439564375006   -0.0023593541790055948
-0.004852346590217486   -0.08505310633618157   -0.0019988254878102983
-0.007082074846275959   -0.08514404144562562   -0.0022964423129983374
-0.007292673464543421   -0.08868575394855918   -0.0025089325505331913
-0.006977866361900479   -0.08501752814932031   -0.0023026238174315185
-0.006592329051570304   -0.08835439564375006   -0.0023593541790055948
-0.007138203618641483   -0.08857874651301242   -0.0025122434805315936
-0.006977866361900479   -0.08501752814932031   -0.0023026238174315185
-0.007292673464543421   -0.08868575394855918   -0.0025089325505331913
-0.006592329051570304   -0.08835439564375006   -0.0023593541790055948
-0.006977866361900479   -0.08501752814932031   -0.0023026238174315185
-0.004728441619541034   -0.084908099106161   -0.0021103077559213707
-0.004852346590217486   -0.08505310633618157   -0.0019988254878102983
-0.006592329051570304   -0.08835439564375006   -0.0023593541790055948
-0.006977866361900479   -0.08501752814932031   -0.0023026238174315185
-0.004852346590217486   -0.08505310633618157   -0.0019988254878102983
-0.007292673464543421   -0.08868575394855918   -0.0025089325505331913
-0.006592329051570304   -0.08835439564375006   -0.0023593541790055948
-0.004728441619541034   -0.084908099106161   -0.0021103077559213707
-0.007138203618641483   -0.08857874651301242   -0.0025122434805315936
-0.0063876750715619185   -0.08831001135212269   -0.00247474053627564
-0.004728441619541034   -0.084908099106161   -0.0021103077559213707
-0.006977866361900479   -0.08501752814932031   -0.0023026238174315185
-0.007138203618641483   -0.08857874651301242   -0.0025122434805315936
-0.006870091251259128   -0.08494915916609234   -0.0022994743511675774
-0.0063876750715619185   -0.08831001135212269   -0.00247474053627564
-0.0069662594424936925   -0.08854008997851909   -0.002502970250111918
-0.006870091251259128   -0.08494915916609234   -0.0022994743511675774
-0.007138203618641483   -0.08857874651301242   -0.0025122434805315936
-0.0063876750715619185   -0.08831001135212269   -0.00247474053627564
-0.006870091251259128   -0.08494915916609234   -0.0022994743511675774
-0.004588995962266652   -0.08482758960621474   -0.0022117138851403604
-0.004728441619541034   -0.084908099106161   -0.0021103077559213707
-0.0063876750715619185   -0.08831001135212269   -0.00247474053627564
-0.006870091251259128   -0.08494915916609234   -0.0022994743511675774
-0.004728441619541034   -0.084908099106161   -0.0021103077559213707
-0.007138203618641483   -0.08857874651301242   -0.0025122434805315936
-0.0063876750715619185   -0.08831001135212269   -0.00247474053627564
-0.004588995962266652   -0.08482758960621474   -0.0022117138851403604
-0.0069662594424936925   -0.08854008997851909   -0.002502970250111918
-0.006212339168116254   -0.08834172652951398   -0.002579814568405816
-0.004588995962266652   -0.08482758960621474   -0.0022117138851403604
-0.006870091251259128   -0.08494915916609234   -0.0022994743511675774
-0.0069662594424936925   -0.08854008997851909   -0.002502970250111918
-0.0067661465771577806   -0.08493612086107576   -0.002286903196852649
-0.006212339168116254   -0.08834172652951398   -0.002579814568405816
-0.006791427037583872   -0.08856664869404289   -0.0024838229302399446
-0.0067661465771577806   -0.08493612086107576   -0.002286903196852649
-0.0069662594424936925   -0.08854008997851909   -0.002502970250111918
-0.006212339168116254   -0.08834172652951398   -0.002579814568405816
-0.0067661465771577806   -0.08493612086107576   -0.002286903196852649
-0.0044820690069809965   -0.08480933081372308   -0.002303364160981919
-0.004588995962266652   -0.08482758960621474   -0.0022117138851403604
-0.006212339168116254   -0.08834172652951398   -0.002579814568405816
-0.0067661465771577806   -0.08493612086107576   -0.002286903196852649
-0.004588995962266652   -0.08482758960621474   -0.0022117138851403604
-0.0069662594424936925   -0.08854008997851909   -0.002502970250111918
-0.007292673464543421   -0.08868575394855918   -0.0025089325505331913
-0.007082074846275959   -0.08514404144562562   -0.0022964423129983374
-0.007856236077215478   -0.08877503157860119   -0.0027792324048738254
-0.007138203618641483   -0.08857874651301242   -0.0025122434805315936
-0.007082074846275959   -0.08514404144562562   -0.0022964423129983374
-0.009296269651333351   -0.0850633399454602   -0.0025749633375445544
-0.007856236077215478   -0.08877503157860119   -0.0027792324048738254
-0.00919288413871188   -0.08495099726526643   -0.0024801829638253286
-0.007138203618641483   -0.08857874651301242   -0.0025122434805315936
-0.0076962235326744205   -0.08867302953675732   -0.0026654459346327057
-0.00919288413871188   -0.08495099726526643   -0.0024801829638253286
-0.007856236077215478   -0.08877503157860119   -0.0027792324048738254
-0.007138203618641483   -0.08857874651301242   -0.0025122434805315936
-0.00919288413871188   -0.08495099726526643   -0.0024801829638253286
-0.006977866361900479   -0.08501752814932031   -0.0023026238174315185
-0.007082074846275959   -0.08514404144562562   -0.0022964423129983374
-0.007138203618641483   -0.08857874651301242   -0.0025122434805315936
-0.00919288413871188   -0.08495099726526643   -0.0024801829638253286
-0.007082074846275959   -0.08514404144562562   -0.0022964423129983374
-0.007856236077215478   -0.08877503157860119   -0.0027792324048738254
-0.007138203618641483   -0.08857874651301242   -0.0025122434805315936
-0.006977866361900479   -0.08501752814932031   -0.0023026238174315185
-0.0076962235326744205   -0.08867302953675732   -0.0026654459346327057
-0.0069662594424936925   -0.08854008997851909   -0.002502970250111918
-0.006977866361900479   -0.08501752814932031   -0.0023026238174315185
-0.00919288413871188   -0.08495099726526643   -0.0024801829638253286
-0.0076962235326744205   -0.08867302953675732   -0.0026654459346327057
-0.009076861145479936   -0.08489581963129585   -0.002376208320874943
-0.0069662594424936925   -0.08854008997851909   -0.002502970250111918
-0.007504264329168885   -0.08864049890621149   -0.0025363341197636724
-0.009076861145479936   -0.08489581963129585   -0.002376208320874943
-0.0076962235326744205   -0.08867302953675732   -0.0026654459346327057
-0.0069662594424936925   -0.08854008997851909   -0.002502970250111918
-0.009076861145479936   -0.08489581963129585   -0.002376208320874943
-0.006870091251259128   -0.08494915916609234   -0.0022994743511675774
-0.006977866361900479   -0.08501752814932031   -0.0023026238174315185
-0.0069662594424936925   -0.08854008997851909   -0.002502970250111918
-0.009076861145479936   -0.08489581963129585   -0.002376208320874943
-0.006977866361900479   -0.08501752814932031   -0.0023026238174315185
-0.0076962235326744205   -0.08867302953675732   -0.0026654459346327057
-0.0069662594424936925   -0.08854008997851909   -0.002502970250111918
-0.006870091251259128   -0.08494915916609234   -0.0022994743511675774
-0.007504264329168885   -0.08864049890621149   -0.0025363341197636724
-0.006791427037583872   -0.08856664869404289   -0.0024838229302399446
-0.006870091251259128   -0.08494915916609234   -0.0022994743511675774
-0.009076861145479936   -0.08489581963129585   -0.002376208320874943
-0.007504264329168885   -0.08864049890621149   -0.0025363341197636724
-0.008960340870248707   -0.08489228686465713   -0.0022619189481504166
-0.006791427037583872   -0.08856664869404289   -0.0024838229302399446
-0.0073068390143596305   -0.08866649099574483   -0.0023987970531712207
-0.008960340870248707   -0.08489228686465713   -0.0022619189481504166
-0.007504264329168885   -0.08864049890621149   -0.0025363341197636724
-0.006791427037583872   -0.08856664869404289   -0.0024838229302399446
-0.008960340870248707   -0.08489228686465713   -0.0022619189481504166
-0.0067661465771577806   -0.08493612086107576   -0.002286903196852649
-0.006870091251259128   -0.08494915916609234   -0.0022994743511675774
-0.006791427037583872   -0.08856664869404289   -0.0024838229302399446
-0.008960340870248707   -0.08489228686465713   -0.0022619189481504166
-0.006870091251259128   -0.08494915916609234   -0.0022994743511675774
-0.007504264329168885   -0.08864049890621149   -0.0025363341197636724
-0.007856236077215478   -0.08877503157860119   -0.0027792324048738254
-0.009296269651333351   -0.0850633399454602   -0.0025749633375445544
-0.008672335338726907   -0.08867998881944637   -0.0030359387470504096
-0.0076962235326744205   -0.08867302953675732   -0.0026654459346327057
-0.009296269651333351   -0.0850633399454602   -0.0025749633375445544
-0.011729226592936785   -0.08480028885740953   -0.0028307288860055613
-0.008672335338726907   -0.08867998881944637   -0.0030359387470504096
-0.01160271599966065   -0.08470216114971633   -0.0026372533988733
-0.0076962235326744205   -0.08867302953675732   -0.0026654459346327057
-0.008463311495378614   -0.08858374890992865   -0.0028106901538421884
-0.01160271599966065   -0.08470216114971633   -0.0026372533988733
-0.008672335338726907   -0.08867998881944637   -0.0030359387470504096
-0.0076962235326744205   -0.08867302953675732   -0.0026654459346327057
-0.01160271599966065   -0.08470216114971633   -0.0026372533988733
-0.00919288413871188   -0.08495099726526643   -0.0024801829638253286
-0.009296269651333351   -0.0850633399454602   -0.0025749633375445544
-0.0076962235326744205   -0.08867302953675732   -0.0026654459346327057
-0.01160271599966065   -0.08470216114971633   -0.0026372533988733
-0.009296269651333351   -0.0850633399454602   -0.0025749633375445544
-0.008672335338726907   -0.08867998881944637   -0.0030359387470504096
-0.0076962235326744205   -0.08867302953675732   -0.0026654459346327057
-0.00919288413871188   -0.08495099726526643   -0.0024801829638253286
-0.008463311495378614   -0.08858374890992865   -0.0028106901538421884
-0.007504264329168885   -0.08864049890621149   -0.0025363341197636724
-0.00919288413871188   -0.08495099726526643   -0.0024801829638253286
-0.01160271599966065   -0.08470216114971633   -0.0026372533988733
-0.008463311495378614   -0.08858374890992865   -0.0028106901538421884
-0.011428092924958796   -0.08466012218160164   -0.0024352537255923415
-0.007504264329168885   -0.08864049890621149   -0.0025363341197636724
-0.00818758171118488   -0.08856177910309646   -0.0025683865038660047
-0.011428092924958796   -0.08466012218160164   -0.0024352537255923415
-0.008463311495378614   -0.08858374890992865   -0.0028106901538421884
-0.007504264329168885   -0.08864049890621149   -0.0025363341197636724
-0.011428092924958796   -0.08466012218160164   -0.0024352537255923415
-0.009076861145479936   -0.08489581963129585   -0.002376208320874943
-0.00919288413871188   -0.08495099726526643   -0.0024801829638253286
-0.007504264329168885   -0.08864049890621149   -0.0025363341197636724
-0.011428092924958796   -0.08466012218160164   -0.0024352537255923415
-0.00919288413871188   -0.08495099726526643   -0.0024801829638253286
-0.008463311495378614   -0.08858374890992865   -0.0028106901538421884
-0.007504264329168885   -0.08864049890621149   -0.0025363341197636724
-0.009076861145479936   -0.08489581963129585   -0.002376208320874943
-0.00818758171118488   -0.08856177910309646   -0.0025683865038660047
-0.0073068390143596305   -0.08866649099574483   -0.0023987970531712207
-0.009076861145479936   -0.08489581963129585   -0.002376208320874943
-0.011428092924958796   -0.08466012218160164   -0.0024352537255923415
-0.00818758171118488   -0.08856177910309646   -0.0025683865038660047
-0.011275600585211517   -0.08467424266799861   -0.00221908884686484
-0.0073068390143596305   -0.08866649099574483   -0.0023987970531712207
-0.007928094664050608   -0.0885997204874351   -0.0023167034982176943
-0.011275600585211517   -0.08467424266799861   -0.00221908884686484
-0.00818758171118488   -0.08856177910309646   -0.0025683865038660047
-0.0073068390143596305   -0.08866649099574483   -0.0023987970531712207
-0.011275600585211517   -0.08467424266799861   -0.00221908884686484
-0.008960340870248707   -0.08489228686465713   -0.0022619189481504166
-0.009076861145479936   -0.08489581963129585   -0.002376208320874943
-0.0073068390143596305   -0.08866649099574483   -0.0023987970531712207
-0.011275600585211517   -0.08467424266799861   -0.00221908884686484
-0.009076861145479936   -0.08489581963129585   -0.002376208320874943
-0.00818758171118488   -0.08856177910309646   -0.0025683865038660047
-0.008672335338726907   -0.08867998881944637   -0.0030359387470504096
-0.011729226592936785   -0.08480028885740953   -0.0028307288860055613
-0.01025725942555367   -0.08824587779199303   -0.0033079346318613586
-0.008463311495378614   -0.08858374890992865   -0.0028106901538421884
-0.011729226592936785   -0.08480028885740953   -0.0028307288860055613
-0.014862357792203117   -0.08437248288891186   -0.0030760006914086653
-0.01025725942555367   -0.08824587779199303   -0.0033079346318613586
-0.01445559296270793   -0.08426618908444133   -0.0027705589003150454
-0.008463311495378614   -0.08858374890992865   -0.0028106901538421884
-0.009702396809559428   -0.08816486585537545   -0.0029383684040655044
-0.01445559296270793   -0.08426618908444133   -0.0027705589003150454
-0.01025725942555367   -0.08824587779199303   -0.0033079346318613586
-0.008463311495378614   -0.08858374890992865   -0.0028106901538421884
-0.01445559296270793   -0.08426618908444133   -0.0027705589003150454
-0.01160271599966065   -0.08470216114971633   -0.0026372533988733
-0.011729226592936785   -0.08480028885740953   -0.0028307288860055613
-0.008463311495378614   -0.08858374890992865   -0.0028106901538421884
-0.01445559296270793   -0.08426618908444133   -0.0027705589003150454
-0.011729226592936785   -0.08480028885740953   -0.0028307288860055613
-0.01025725942555367   -0.08824587779199303   -0.0033079346318613586
-0.008463311495378614   -0.08858374890992865   -0.0028106901538421884
-0.01160271599966065   -0.08470216114971633   -0.0026372533988733
-0.009702396809559428   -0.08816486585537545   -0.0029383684040655044
-0.00818758171118488   -0.08856177910309646   -0.0025683865038660047
-0.01160271599966065   -0.08470216114971633   -0.0026372533988733
-0.01445559296270793   -0.08426618908444133   -0.0027705589003150454
-0.009702396809559428   -0.08816486585537545   -0.0029383684040655044
-0.01409084597887086   -0.08422730430209888   -0.0024472517902143468
-0.00818758171118488   -0.08856177910309646   -0.0025683865038660047
-0.009192416112575789   -0.088153676711381   -0.0025438202336593957
-0.01409084597887086   -0.08422730430209888   -0.0024472517902143468
-0.009702396809559428   -0.08816486585537545   -0.0029383684040655044
-0.00818758171118488   -0.08856177910309646   -0.0025683865038660047
-0.01409084597887086   -0.08422730430209888   -0.0024472517902143468
-0.011428092924958796   -0.08466012218160164   -0.0024352537255923415
-0.01160271599966065   -0.08470216114971633   -0.0026372533988733
-0.00818758171118488   -0.08856177910309646   -0.0025683865038660047
-0.01409084597887086   -0.08422730430209888   -0.0024472517902143468
-0.01160271599966065   -0.08470216114971633   -0.0026372533988733
-0.009702396809559428   -0.08816486585537545   -0.0029383684040655044
-0.00818758171118488   -0.08856177910309646   -0.0025683865038660047
-0.011428092924958796   -0.08466012218160164   -0.0024352537255923415
-0.009192416112575789   -0.088153676711381   -0.0025438202336593957
-0.007928094664050608   -0.0885997204874351   -0.0023167034982176943
-0.011428092924958796   -0.08466012218160164   -0.0024352537255923415
-0.01409084597887086   -0.08422730430209888   -0.0024472517902143468
-0.009192416112575789   -0.088153676711381   -0.0025438202336593957
-0.01361809761320462   -0.08427584487697201   -0.0021091570020636123
-0.007928094664050608   -0.0885997204874351   -0.0023167034982176943
-0.00854839734099082   -0.08826002456263062   -0.0021311156893888466
-0.01361809761320462   -0.08427584487697201   -0.0021091570020636123
-0.009192416112575789   -0.088153676711381   -0.0025438202336593957
-0.007928094664050608   -0.0885997204874351   -0.0023167034982176943
-0.01361809761320462   -0.08427584487697201   -0.0021091570020636123
-0.011275600585211517   -0.08467424266799861   -0.00221908884686484
-0.011428092924958796   -0.08466012218160164   -0.0024352537255923415
-0.007928094664050608   -0.0885997204874351   -0.0023167034982176943
-0.01361809761320462   -0.08427584487697201   -0.0021091570020636123
-0.011428092924958796   -0.08466012218160164   -0.0024352537255923415
-0.009192416112575789   -0.088153676711381   -0.0025438202336593957
-0.002592799310814027   -0.08479553980085545   -0.00163404014282521
0.00047522685028325763   -0.07866090569253906   -0.001351931481720737
-0.004852346590217486   -0.08505310633618157   -0.0019988254878102983
-0.002238197737768333   -0.08461613519970311   -0.0018869845683270987
0.00047522685028325763   -0.07866090569253906   -0.001351931481720737
-0.0033331473394202045   -0.0788496231031113   -0.0017100093899451376
-0.004852346590217486   -0.08505310633618157   -0.0019988254878102983
-0.003267529863125813   -0.07869766790097112   -0.0017983899886391784
-0.002238197737768333   -0.08461613519970311   -0.0018869845683270987
-0.004728441619541034   -0.084908099106161   -0.0021103077559213707
-0.003267529863125813   -0.07869766790097112   -0.0017983899886391784
-0.004852346590217486   -0.08505310633618157   -0.0019988254878102983
-0.002238197737768333   -0.08461613519970311   -0.0018869845683270987
-0.003267529863125813   -0.07869766790097112   -0.0017983899886391784
0.0007226196270883611   -0.07847866450637887   -0.0015531930895991359
0.00047522685028325763   -0.07866090569253906   -0.001351931481720737
-0.002238197737768333   -0.08461613519970311   -0.0018869845683270987
-0.003267529863125813   -0.07869766790097112   -0.0017983899886391784
0.00047522685028325763   -0.07866090569253906   -0.001351931481720737
-0.004852346590217486   -0.08505310633618157   -0.0019988254878102983
-0.002238197737768333   -0.08461613519970311   -0.0018869845683270987
0.0007226196270883611   -0.07847866450637887   -0.0015531930895991359
-0.004728441619541034   -0.084908099106161   -0.0021103077559213707
-0.001959172934187171   -0.08453050244881266   -0.002124991939904249
0.0007226196270883611   -0.07847866450637887   -0.0015531930895991359
-0.003267529863125813   -0.07869766790097112   -0.0017983899886391784
-0.004728441619541034   -0.084908099106161   -0.0021103077559213707
-0.003192845454056432   -0.07859826881510204   -0.0018764487430159823
-0.001959172934187171   -0.08453050244881266   -0.002124991939904249
-0.004588995962266652   -0.08482758960621474   -0.0022117138851403604
-0.003192845454056432   -0.07859826881510204   -0.0018764487430159823
-0.004728441619541034   -0.084908099106161   -0.0021103077559213707
-0.001959172934187171   -0.08453050244881266   -0.002124991939904249
-0.003192845454056432   -0.07859826881510204   -0.0018764487430159823
0.0009045786869322976   -0.07837317365894424   -0.0017400077345792013
0.0007226196270883611   -0.07847866450637887   -0.0015531930895991359
-0.001959172934187171   -0.08453050244881266   -0.002124991939904249
-0.003192845454056432   -0.07859826881510204   -0.0018764487430159823
0.0007226196270883611   -0.07847866450637887   -0.0015531930895991359
-0.004728441619541034   -0.084908099106161   -0.0021103077559213707
-0.001959172934187171   -0.08453050244881266   -0.002124991939904249
0.0009045786869322976   -0.07837317365894424   -0.0017400077345792013
-0.004588995962266652   -0.08482758960621474   -0.0022117138851403604
-0.0016545580116685348   -0.0845140764940296   -0.0023474287679336775
0.0009045786869322976   -0.07837317365894424   -0.0017400077345792013
-0.003192845454056432   -0.07859826881510204   -0.0018764487430159823
-0.004588995962266652   -0.08482758960621474   -0.0022117138851403604
-0.0031481990755611346   -0.07854848988905466   -0.00194520451500485
-0.0016545580116685348   -0.0845140764940296   -0.0023474287679336775
-0.0044820690069809965   -0.08480933081372308   -0.002303364160981919
-0.0031481990755611346   -0.07854848988905466   -0.00194520451500485
-0.004588995962266652   -0.08482758960621474   -0.0022117138851403604
-0.0016545580116685348   -0.0845140764940296   -0.0023474287679336775
-0.0031481990755611346   -0.07854848988905466   -0.00194520451500485
0.0010992729107182223   -0.07832089443124646   -0.0019123031429975526
0.0009045786869322976   -0.07837317365894424   -0.0017400077345792013
-0.0016545580116685348   -0.0845140764940296   -0.0023474287679336775
-0.0031481990755611346   -0.07854848988905466   -0.00194520451500485
0.0009045786869322976   -0.07837317365894424   -0.0017400077345792013
-0.004588995962266652   -0.08482758960621474   -0.0022117138851403604
-0.004852346590217486   -0.08505310633618157   -0.0019988254878102983
-0.0033331473394202045   -0.0788496231031113   -0.0017100093899451376
-0.007082074846275959   -0.08514404144562562   -0.0022964423129983374
-0.004728441619541034   -0.084908099106161   -0.0021103077559213707
-0.0033331473394202045   -0.0788496231031113   -0.0017100093899451376
-0.007016671740023528   -0.07888570391622139   -0.0020051675024686647
-0.007082074846275959   -0.08514404144562562   -0.0022964423129983374
-0.0069684098661936785   -0.07875523367258937   -0.0020074723583862314
-0.004728441619541034   -0.084908099106161   -0.0021103077559213707
-0.006977866361900479   -0.08501752814932031   -0.0023026238174315185
-0.0069684098661936785   -0.07875523367258937   -0.0020074723583862314
-0.007082074846275959   -0.08514404144562562   -0.0022964423129983374
-0.004728441619541034   -0.084908099106161   -0.0021103077559213707
-0.0069684098661936785   -0.07875523367258937   -0.0020074723583862314
-0.003267529863125813   -0.07869766790097112   -0.0017983899886391784
-0.0033331473394202045   -0.0788496231031113   -0.0017100093899451376
-0.004728441619541034   -0.084908099106161   -0.0021103077559213707
-0.0069684098661936785   -0.07875523367258937   -0.0020074723583862314
-0.0033331473394202045   -0.0788496231031113   -0.0017100093899451376
-0.007082074846275959   -0.08514404144562562   -0.0022964423129983374
-0.004728441619541034   -0.084908099106161   -0.0021103077559213707
-0.003267529863125813   -0.07869766790097112   -0.0017983899886391784
-0.006977866361900479   -0.08501752814932031   -0.0023026238174315185
-0.004588995962266652   -0.08482758960621474   -0.0022117138851403604
-0.003267529863125813   -0.07869766790097112   -0.0017983899886391784
-0.0069684098661936785   -0.07875523367258937   -0.0020074723583862314
-0.006977866361900479   -0.08501752814932031   -0.0023026238174315185
-0.006918787127284736   -0.0786718065638172   -0.0019998895976316203
-0.004588995962266652   -0.08482758960621474   -0.0022117138851403604
-0.006870091251259128   -0.08494915916609234   -0.0022994743511675774
-0.006918787127284736   -0.0786718065638172   -0.0019998895976316203
-0.006977866361900479   -0.08501752814932031   -0.0023026238174315185
-0.004588995962266652   -0.08482758960621474   -0.0022117138851403604
-0.006918787127284736   -0.0786718065638172   -0.0019998895976316203
-0.003192845454056432   -0.07859826881510204   -0.0018764487430159823
-0.003267529863125813   -0.07869766790097112   -0.0017983899886391784
-0.004588995962266652   -0.08482758960621474   -0.0022117138851403604
-0.006918787127284736   -0.0786718065638172   -0.0019998895976316203
-0.003267529863125813   -0.07869766790097112   -0.0017983899886391784
-0.006977866361900479   -0.08501752814932031   -0.0023026238174315185
-0.004588995962266652   -0.08482758960621474   -0.0022117138851403604
-0.003192845454056432   -0.07859826881510204   -0.0018764487430159823
-0.006870091251259128   -0.08494915916609234   -0.0022994743511675774
-0.0044820690069809965   -0.08480933081372308   -0.002303364160981919
-0.003192845454056432   -0.07859826881510204   -0.0018764487430159823
-0.006918787127284736   -0.0786718065638172   -0.0019998895976316203
-0.006870091251259128   -0.08494915916609234   -0.0022994743511675774
-0.006875382927900879   -0.07863464149885846   -0.001983074910413563
-0.0044820690069809965   -0.08480933081372308   -0.002303364160981919
-0.0067661465771577806   -0.08493612086107576   -0.002286903196852649
-0.006875382927900879   -0.07863464149885846   -0.001983074910413563
-0.006870091251259128   -0.08494915916609234   -0.0022994743511675774
-0.0044820690069809965   -0.08480933081372308   -0.002303364160981919
-0.006875382927900879   -0.07863464149885846   -0.001983074910413563
-0.0031481990755611346   -0.07854848988905466   -0.00194520451500485
-0.003192845454056432   -0.07859826881510204   -0.0018764487430159823
-0.0044820690069809965   -0.08480933081372308   -0.002303364160981919
-0.006875382927900879   -0.07863464149885846   -0.001983074910413563
-0.003192845454056432   -0.07859826881510204   -0.0018764487430159823
-0.006870091251259128   -0.08494915916609234   -0.0022994743511675774
-0.007082074846275959   -0.08514404144562562   -0.0022964423129983374
-0.007016671740023528   -0.07888570391622139   -0.0020051675024686647
-0.009296269651333351   -0.0850633399454602   -0.0025749633375445544
-0.006977866361900479   -0.08501752814932031   -0.0023026238174315185
-0.007016671740023528   -0.07888570391622139   -0.0020051675024686647
-0.01064214673161531   -0.07876846813469619   -0.002271609004815
-0.009296269651333351   -0.0850633399454602   -0.0025749633375445544
-0.010597212265486522   -0.0786558897456043   -0.0021899158458591
-0.006977866361900479   -0.08501752814932031   -0.0023026238174315185
-0.00919288413871188   -0.08495099726526643   -0.0024801829638253286
-0.010597212265486522   -0.0786558897456043   -0.0021899158458591
-0.009296269651333351   -0.0850633399454602   -0.0025749633375445544
-0.006977866361900479   -0.08501752814932031   -0.0023026238174315185
-0.010597212265486522   -0.0786558897456043   -0.0021899158458591
-0.0069684098661936785   -0.07875523367258937   -0.0020074723583862314
-0.007016671740023528   -0.07888570391622139   -0.0020051675024686647
-0.006977866361900479   -0.08501752814932031   -0.0023026238174315185
-0.010597212265486522   -0.0786558897456043   -0.0021899158458591
-0.007016671740023528   -0.07888570391622139   -0.0020051675024686647
-0.009296269651333351   -0.0850633399454602   -0.0025749633375445544
-0.006977866361900479   -0.08501752814932031   -0.0023026238174315185
-0.0069684098661936785   -0.07875523367258937   -0.0020074723583862314
-0.00919288413871188   -0.08495099726526643   -0.0024801829638253286
-0.006870091251259128   -0.08494915916609234   -0.0022994743511675774
-0.0069684098661936785   -0.07875523367258937   -0.0020074723583862314
-0.010597212265486522   -0.0786558897456043   -0.0021899158458591
-0.00919288413871188   -0.08495099726526643   -0.0024801829638253286
-0.010542917979138606   -0.07858983623195141   -0.0020985481157897736
-0.006870091251259128   -0.08494915916609234   -0.0022994743511675774
-0.009076861145479936   -0.08489581963129585   -0.002376208320874943
-0.010542917979138606   -0.07858983623195141   -0.0020985481157897736
-0.00919288413871188   -0.08495099726526643   -0.0024801829638253286
-0.006870091251259128   -0.08494915916609234   -0.0022994743511675774
-0.010542917979138606   -0.07858983623195141   -0.0020985481157897736
-0.006918787127284736   -0.0786718065638172   -0.0019998895976316203
-0.0069684098661936785   -0.07875523367258937   -0.0020074723583862314
-0.006870091251259128   -0.08494915916609234   -0.0022994743511675774
-0.010542917979138606   -0.07858983623195141   -0.0020985481157897736
-0.0069684098661936785   -0.07875523367258937   -0.0020074723583862314
-0.00919288413871188   -0.08495099726526643   -0.0024801829638253286
-0.006870091251259128   -0.08494915916609234   -0.0022994743511675774
-0.006918787127284736   -0.0786718065638172   -0.0019998895976316203
-0.009076861145479936   -0.08489581963129585   -0.002376208320874943
-0.0067661465771577806   -0.08493612086107576   -0.002286903196852649
-0.006918787127284736   -0.0786718065638172   -0.0019998895976316203
-0.010542917979138606   -0.07858983623195141   -0.0020985481157897736
-0.009076861145479936   -0.08489581963129585   -0.002376208320874943
-0.01049009991788253   -0.07856813660171637   -0.001997804102326052
-0.0067661465771577806   -0.08493612086107576   -0.002286903196852649
-0.008960340870248707   -0.08489228686465713   -0.0022619189481504166
-0.01049009991788253   -0.07856813660171637   -0.001997804102326052
-0.009076861145479936   -0.08489581963129585   -0.002376208320874943
-0.0067661465771577806   -0.08493612086107576   -0.002286903196852649
-0.01049009991788253   -0.07856813660171637   -0.001997804102326052
-0.006875382927900879   -0.07863464149885846   -0.001983074910413563
-0.006918787127284736   -0.0786718065638172   -0.0019998895976316203
-0.0067661465771577806   -0.08493612086107576   -0.002286903196852649
-0.01049009991788253   -0.07856813660171637   -0.001997804102326052
-0.006918787127284736   -0.0786718065638172   -0.0019998895976316203
-0.009076861145479936   -0.08489581963129585   -0.002376208320874943
-0.009296269651333351   -0.0850633399454602   -0.0025749633375445544
-0.01064214673161531   -0.07876846813469619   -0.002271609004815
-0.011729226592936785   -0.08480028885740953   -0.0028307288860055613
-0.00919288413871188   -0.08495099726526643   -0.0024801829638253286
-0.01064214673161531   -0.07876846813469619   -0.002271609004815
-0.01444170128950189   -0.0785020909473685   -0.0025082840881611567
-0.011729226592936785   -0.08480028885740953   -0.0028307288860055613
-0.014383051398221986   -0.07840661041273232   -0.0023424948860766006
-0.00919288413871188   -0.08495099726526643   -0.0024801829638253286
-0.01160271599966065   -0.08470216114971633   -0.0026372533988733
-0.014383051398221986   -0.07840661041273232   -0.0023424948860766006
-0.011729226592936785   -0.08480028885740953   -0.0028307288860055613
-0.00919288413871188   -0.08495099726526643   -0.0024801829638253286
-0.014383051398221986   -0.07840661041273232   -0.0023424948860766006
-0.010597212265486522   -0.0786558897456043   -0.0021899158458591
-0.01064214673161531   -0.07876846813469619   -0.002271609004815
-0.00919288413871188   -0.08495099726526643   -0.0024801829638253286
-0.014383051398221986   -0.07840661041273232   -0.0023424948860766006
-0.01064214673161531   -0.07876846813469619   -0.002271609004815
-0.011729226592936785   -0.08480028885740953   -0.0028307288860055613
-0.00919288413871188   -0.08495099726526643   -0.0024801829638253286
-0.010597212265486522   -0.0786558897456043   -0.0021899158458591
-0.01160271599966065   -0.08470216114971633   -0.0026372533988733
-0.009076861145479936   -0.08489581963129585   -0.002376208320874943
-0.010597212265486522   -0.0786558897456043   -0.0021899158458591
-0.014383051398221986   -0.07840661041273232   -0.0023424948860766006
-0.01160271599966065   -0.08470216114971633   -0.0026372533988733
-0.014283650588662673   -0.07835630845556024   -0.0021685154971330207
-0.009076861145479936   -0.08489581963129585   -0.002376208320874943
-0.011428092924958796   -0.08466012218160164   -0.0024352537255923415
-0.014283650588662673   -0.07835630845556024   -0.0021685154971330207
-0.01160271599966065   -0.08470216114971633   -0.0026372533988733
-0.009076861145479936   -0.08489581963129585   -0.002376208320874943
-0.014283650588662673   -0.07835630845556024   -0.0021685154971330207
-0.010542917979138606   -0.07858983623195141   -0.0020985481157897736
-0.010597212265486522   -0.0786558897456043   -0.0021899158458591
-0.009076861145479936   -0.08489581963129585   -0.002376208320874943
-0.014283650588662673   -0.07835630845556024   -0.0021685154971330207
-0.010597212265486522   -0.0786558897456043   -0.0021899158458591
-0.01160271599966065   -0.08470216114971633   -0.0026372533988733
-0.009076861145479936   -0.08489581963129585   -0.002376208320874943
-0.010542917979138606   -0.07858983623195141   -0.0020985481157897736
-0.011428092924958796   -0.08466012218160164   -0.0024352537255923415
-0.008960340870248707   -0.08489228686465713   -0.0022619189481504166
-0.010542917979138606   -0.07858983623195141   -0.0020985481157897736
-0.014283650588662673   -0.07835630845556024   -0.0021685154971330207
-0.011428092924958796   -0.08466012218160164   -0.0024352537255923415
-0.014202855010802193   -0.07835383538879058   -0.0019837969678418157
-0.008960340870248707   -0.08489228686465713   -0.0022619189481504166
-0.011275600585211517   -0.08467424266799861   -0.00221908884686484
-0.014202855010802193   -0.07835383538879058   -0.0019837969678418157
-0.011428092924958796   -0.08466012218160164   -0.0024352537255923415
-0.008960340870248707   -0.08489228686465713   -0.0022619189481504166
-0.014202855010802193   -0.07835383538879058   -0.0019837969678418157
-0.01049009991788253   -0.07856813660171637   -0.001997804102326052
-0.010542917979138606   -0.07858983623195141   -0.0020985481157897736
-0.008960340870248707   -0.08489228686465713   -0.0022619189481504166
-0.014202855010802193   -0.07835383538879058   -0.0019837969678418157
-0.010542917979138606   -0.07858983623195141   -0.0020985481157897736
-0.011428092924958796   -0.08466012218160164   -0.0024352537255923415
-0.011729226592936785   -0.08480028885740953   -0.0028307288860055613
-0.01444170128950189   -0.0785020909473685   -0.0025082840881611567
-0.014862357792203117   -0.08437248288891186   -0.0030760006914086653
-0.01160271599966065   -0.08470216114971633   -0.0026372533988733
-0.01444170128950189   -0.0785020909473685   -0.0025082840881611567
-0.018872960211812524   -0.07811869844504149   -0.0027287990534019023
-0.014862357792203117   -0.08437248288891186   -0.0030760006914086653
-0.018573055664852355   -0.07801919283594624   -0.0024693337419328895
-0.01160271599966065   -0.08470216114971633   -0.0026372533988733
-0.01445559296270793   -0.08426618908444133   -0.0027705589003150454
-0.018573055664852355   -0.07801919283594624   -0.0024693337419328895
-0.014862357792203117   -0.08437248288891186   -0.0030760006914086653
-0.01160271599966065   -0.08470216114971633   -0.0026372533988733
-0.018573055664852355   -0.07801919283594624   -0.0024693337419328895
-0.014383051398221986   -0.07840661041273232   -0.0023424948860766006
-0.01444170128950189   -0.0785020909473685   -0.0025082840881611567
-0.01160271599966065   -0.08470216114971633   -0.0026372533988733
-0.018573055664852355   -0.07801919283594624   -0.0024693337419328895
-0.01444170128950189   -0.0785020909473685   -0.0025082840881611567
-0.014862357792203117   -0.08437248288891186   -0.0030760006914086653
-0.01160271599966065   -0.08470216114971633   -0.0026372533988733
-0.014383051398221986   -0.07840661041273232   -0.0023424948860766006
-0.01445559296270793   -0.08426618908444133   -0.0027705589003150454
-0.011428092924958796   -0.08466012218160164   -0.0024352537255923415
-0.014383051398221986   -0.07840661041273232   -0.0023424948860766006
-0.018573055664852355   -0.07801919283594624   -0.0024693337419328895
-0.01445559296270793   -0.08426618908444133   -0.0027705589003150454
-0.018312668831294367   -0.07797316648845776   -0.002196371270187887
-0.011428092924958796   -0.08466012218160164   -0.0024352537255923415
-0.01409084597887086   -0.08422730430209888   -0.0024472517902143468
-0.018312668831294367   -0.07797316648845776   -0.002196371270187887
-0.01445559296270793   -0.08426618908444133   -0.0027705589003150454
-0.011428092924958796   -0.08466012218160164   -0.0024352537255923415
-0.018312668831294367   -0.07797316648845776   -0.002196371270187887
-0.014283650588662673   -0.07835630845556024   -0.0021685154971330207
-0.014383051398221986   -0.07840661041273232   -0.0023424948860766006
-0.011428092924958796   -0.08466012218160164   -0.0024352537255923415
-0.018312668831294367   -0.07797316648845776   -0.002196371270187887
-0.014383051398221986   -0.07840661041273232   -0.0023424948860766006
-0.01445559296270793   -0.08426618908444133   -0.0027705589003150454
-0.011428092924958796   -0.08466012218160164   -0.0024352537255923415
-0.014283650588662673   -0.07835630845556024   -0.0021685154971330207
-0.01409084597887086   -0.08422730430209888   -0.0024472517902143468
-0.011275600585211517   -0.08467424266799861   -0.00221908884686484
-0.014283650588662673   -0.07835630845556024   -0.0021685154971330207
-0.018312668831294367   -0.07797316648845776   -0.002196371270187887
-0.01409084597887086   -0.08422730430209888   -0.0024472517902143468
-0.017961817245344666   -0.07800026623648647   -0.0019116523125257256
-0.011275600585211517   -0.08467424266799861   -0.00221908884686484
-0.01361809761320462   -0.08427584487697201   -0.0021091570020636123
-0.017961817245344666   -0.07800026623648647   -0.0019116523125257256
-0.01409084597887086   -0.08422730430209888   -0.0024472517902143468
-0.011275600585211517   -0.08467424266799861   -0.00221908884686484
-0.017961817245344666   -0.07800026623648647   -0.0019116523125257256
-0.014202855010802193   -0.07835383538879058   -0.0019837969678418157
-0.014283650588662673   -0.07835630845556024   -0.0021685154971330207
-0.011275600585211517   -0.08467424266799861   -0.00221908884686484
-0.017961817245344666   -0.07800026623648647   -0.0019116523125257256
-0.014283650588662673   -0.07835630845556024   -0.0021685154971330207
-0.01409084597887086   -0.08422730430209888   -0.0024472517902143468
0.00047522685028325763   -0.07866090569253906   -0.001351931481720737
0.0028026797760838324   -0.07033707818089673   -0.0010303193533758997
-0.0033331473394202045   -0.0788496231031113   -0.0017100093899451376
0.0007226196270883611   -0.07847866450637887   -0.0015531930895991359
0.0028026797760838324   -0.07033707818089673   -0.0010303193533758997
-0.002237293603951467   -0.07046167712905553   -0.0013720811067194387
-0.0033331473394202045   -0.0788496231031113   -0.0017100093899451376
-0.002223720560615382   -0.07031053816149807   -0.001433287544950714
0.0007226196270883611   -0.07847866450637887   -0.0015531930895991359
-0.003267529863125813   -0.07869766790097112   -0.0017983899886391784
-0.002223720560615382   -0.07031053816149807   -0.001433287544950714
-0.0033331473394202045   -0.0788496231031113   -0.0017100093899451376
0.0007226196270883611   -0.07847866450637887   -0.0015531930895991359
-0.002223720560615382   -0.07031053816149807   -0.001433287544950714
0.0029493895362658873   -0.07015926346431224   -0.0011790380495554575
0.0028026797760838324   -0.07033707818089673   -0.0010303193533758997
0.0007226196270883611   -0.07847866450637887   -0.0015531930895991359
-0.002223720560615382   -0.07031053816149807   -0.001433287544950714
0.0028026797760838324   -0.07033707818089673   -0.0010303193533758997
-0.0033331473394202045   -0.0788496231031113   -0.0017100093899451376
0.0007226196270883611   -0.07847866450637887   -0.0015531930895991359
0.0029493895362658873   -0.07015926346431224   -0.0011790380495554575
-0.003267529863125813   -0.07869766790097112   -0.0017983899886391784
0.0009045786869322976   -0.07837317365894424   -0.0017400077345792013
0.0029493895362658873   -0.07015926346431224   -0.0011790380495554575
-0.002223720560615382   -0.07031053816149807   -0.001433287544950714
-0.003267529863125813   -0.07869766790097112   -0.0017983899886391784
-0.002206468124393328   -0.0702008261558578   -0.0014850682289211917
0.0009045786869322976   -0.07837317365894424   -0.0017400077345792013
-0.003192845454056432   -0.07859826881510204   -0.0018764487430159823
-0.002206468124393328   -0.0702008261558578   -0.0014850682289211917
-0.003267529863125813   -0.07869766790097112   -0.0017983899886391784
0.0009045786869322976   -0.07837317365894424   -0.0017400077345792013
-0.002206468124393328   -0.0702008261558578   -0.0014850682289211917
0.003043126313682131   -0.07004241823253478   -0.0013144383135078675
0.0029493895362658873   -0.07015926346431224   -0.0011790380495554575
0.0009045786869322976   -0.07837317365894424   -0.0017400077345792013
-0.002206468124393328   -0.0702008261558578   -0.0014850682289211917
0.0029493895362658873   -0.07015926346431224   -0.0011790380495554575
-0.003267529863125813   -0.07869766790097112   -0.0017983899886391784
0.0009045786869322976   -0.07837317365894424   -0.0017400077345792013
0.003043126313682131   -0.07004241823253478   -0.0013144383135078675
-0.003192845454056432   -0.07859826881510204   -0.0018764487430159823
0.0010992729107182223   -0.07832089443124646   -0.0019123031429975526
0.003043126313682131   -0.07004241823253478   -0.0013144383135078675
-0.002206468124393328   -0.0702008261558578   -0.0014850682289211917
-0.003192845454056432   -0.07859826881510204   -0.0018764487430159823
-0.0022148454514021557   -0.07012903849288339   -0.0015281109785640313
0.0010992729107182223   -0.07832089443124646   -0.0019123031429975526
-0.0031481990755611346   -0.07854848988905466   -0.00194520451500485
-0.0022148454514021557   -0.07012903849288339   -0.0015281109785640313
-0.003192845454056432   -0.07859826881510204   -0.0018764487430159823
0.0010992729107182223   -0.07832089443124646   -0.0019123031429975526
-0.0022148454514021557   -0.07012903849288339   -0.0015281109785640313
0.0031392732057602614   -0.06996393248313279   -0.0014367979184960508
0.003043126313682131   -0.07004241823253478   -0.0013144383135078675
0.0010992729107182223   -0.07832089443124646   -0.0019123031429975526
-0.0022148454514021557   -0.07012903849288339   -0.0015281109785640313
0.003043126313682131   -0.07004241823253478   -0.0013144383135078675
-0.003192845454056432   -0.07859826881510204   -0.0018764487430159823
-0.0033331473394202045   -0.0788496231031113   -0.0017100093899451376
-0.002237293603951467   -0.07046167712905553   -0.0013720811067194387
-0.007016671740023528   -0.07888570391622139   -0.0020051675024686647
-0.003267529863125813   -0.07869766790097112   -0.0017983899886391784
-0.002237293603951467   -0.07046167712905553   -0.0013720811067194387
-0.00708663303954995   -0.07046225183974282   -0.0016540926135125249
-0.007016671740023528   -0.07888570391622139   -0.0020051675024686647
-0.0070872932520941925   -0.07033432828426792   -0.001648319752444754
-0.003267529863125813   -0.07869766790097112   -0.0017983899886391784
-0.0069684098661936785   -0.07875523367258937   -0.0020074723583862314
-0.0070872932520941925   -0.07033432828426792   -0.001648319752444754
-0.007016671740023528   -0.07888570391622139   -0.0020051675024686647
-0.003267529863125813   -0.07869766790097112   -0.0017983899886391784
-0.0070872932520941925   -0.07033432828426792   -0.001648319752444754
-0.002223720560615382   -0.07031053816149807   -0.001433287544950714
-0.002237293603951467   -0.07046167712905553   -0.0013720811067194387
-0.003267529863125813   -0.07869766790097112   -0.0017983899886391784
-0.0070872932520941925   -0.07033432828426792   -0.001648319752444754
-0.002237293603951467   -0.07046167712905553   -0.0013720811067194387
-0.007016671740023528   -0.07888570391622139   -0.0020051675024686647
-0.003267529863125813   -0.07869766790097112   -0.0017983899886391784
-0.002223720560615382   -0.07031053816149807   -0.001433287544950714
-0.0069684098661936785   -0.07875523367258937   -0.0020074723583862314
-0.003192845454056432   -0.07859826881510204   -0.0018764487430159823
-0.002223720560615382   -0.07031053816149807   -0.001433287544950714
-0.0070872932520941925   -0.07033432828426792   -0.001648319752444754
-0.0069684098661936785   -0.07875523367258937   -0.0020074723583862314
-0.007087630630790554   -0.07024292792971817   -0.001633159755892113
-0.003192845454056432   -0.07859826881510204   -0.0018764487430159823
-0.006918787127284736   -0.0786718065638172   -0.0019998895976316203
-0.007087630630790554   -0.07024292792971817   -0.001633159755892113
-0.0069684098661936785   -0.07875523367258937   -0.0020074723583862314
-0.003192845454056432   -0.07859826881510204   -0.0018764487430159823
-0.007087630630790554   -0.07024292792971817   -0.001633159755892113
-0.002206468124393328   -0.0702008261558578   -0.0014850682289211917
-0.002223720560615382   -0.07031053816149807   -0.001433287544950714
-0.003192845454056432   -0.07859826881510204   -0.0018764487430159823
-0.007087630630790554   -0.07024292792971817   -0.001633159755892113
-0.002223720560615382   -0.07031053816149807   -0.001433287544950714
-0.0069684098661936785   -0.07875523367258937   -0.0020074723583862314
-0.003192845454056432   -0.07859826881510204   -0.0018764487430159823
-0.002206468124393328   -0.0702008261558578   -0.0014850682289211917
-0.006918787127284736   -0.0786718065638172   -0.0019998895976316203
-0.0031481990755611346   -0.07854848988905466   -0.00194520451500485
-0.002206468124393328   -0.0702008261558578   -0.0014850682289211917
-0.007087630630790554   -0.07024292792971817   -0.001633159755892113
-0.006918787127284736   -0.0786718065638172   -0.0019998895976316203
-0.007094455850191515   -0.07018811451701917   -0.0016090970976315219
-0.0031481990755611346   -0.07854848988905466   -0.00194520451500485
-0.006875382927900879   -0.07863464149885846   -0.001983074910413563
-0.007094455850191515   -0.07018811451701917   -0.0016090970976315219
-0.006918787127284736   -0.0786718065638172   -0.0019998895976316203
-0.0031481990755611346   -0.07854848988905466   -0.00194520451500485
-0.007094455850191515   -0.07018811451701917   -0.0016090970976315219
-0.0022148454514021557   -0.07012903849288339   -0.0015281109785640313
-0.002206468124393328   -0.0702008261558578   -0.0014850682289211917
-0.0031481990755611346   -0.07854848988905466   -0.00194520451500485
-0.007094455850191515   -0.07018811451701917   -0.0016090970976315219
-0.002206468124393328   -0.0702008261558578   -0.0014850682289211917
-0.006918787127284736   -0.0786718065638172   -0.0019998895976316203
-0.007016671740023528   -0.07888570391622139   -0.0020051675024686647
-0.00708663303954995   -0.07046225183974282   -0.0016540926135125249
-0.01064214673161531   -0.07876846813469619   -0.002271609004815
-0.0069684098661936785   -0.07875523367258937   -0.0020074723583862314
-0.00708663303954995   -0.07046225183974282   -0.0016540926135125249
-0.011853466637831952   -0.07034160823356185   -0.0019011741749897662
-0.01064214673161531   -0.07876846813469619   -0.002271609004815
-0.01185771070404058   -0.07023409731915396   -0.0018292281601576714
-0.0069684098661936785   -0.07875523367258937   -0.0020074723583862314
-0.010597212265486522   -0.0786558897456043   -0.0021899158458591
-0.01185771070404058   -0.07023409731915396   -0.0018292281601576714
-0.01064214673161531   -0.07876846813469619   -0.002271609004815
-0.0069684098661936785   -0.07875523367258937   -0.0020074723583862314
-0.01185771070404058   -0.07023409731915396   -0.0018292281601576714
-0.0070872932520941925   -0.07033432828426792   -0.001648319752444754
-0.00708663303954995   -0.07046225183974282   -0.0016540926135125249
-0.0069684098661936785   -0.07875523367258937   -0.0020074723583862314
-0.01185771070404058   -0.07023409731915396   -0.0018292281601576714
-0.00708663303954995   -0.07046225183974282   -0.0016540926135125249
-0.01064214673161531   -0.07876846813469619   -0.002271609004815
-0.0069684098661936785   -0.07875523367258937   -0.0020074723583862314
-0.0070872932520941925   -0.07033432828426792   -0.001648319752444754
-0.010597212265486522   -0.0786558897456043   -0.0021899158458591
-0.006918787127284736   -0.0786718065638172   -0.0019998895976316203
-0.0070872932520941925   -0.07033432828426792   -0.001648319752444754
-0.01185771070404058   -0.07023409731915396   -0.0018292281601576714
-0.010597212265486522   -0.0786558897456043   -0.0021899158458591
-0.011853826790542666   -0.0701627862698247   -0.0017480758776184022
-0.006918787127284736   -0.0786718065638172   -0.0019998895976316203
-0.010542917979138606   -0.07858983623195141   -0.0020985481157897736
-0.011853826790542666   -0.0701627862698247   -0.0017480758776184022
-0.010597212265486522   -0.0786558897456043   -0.0021899158458591
-0.006918787127284736   -0.0786718065638172   -0.0019998895976316203
-0.011853826790542666   -0.0701627862698247   -0.0017480758776184022
-0.007087630630790554   -0.07024292792971817   -0.001633159755892113
-0.0070872932520941925   -0.07033432828426792   -0.001648319752444754
-0.006918787127284736   -0.0786718065638172   -0.0019998895976316203
-0.011853826790542666   -0.0701627862698247   -0.0017480758776184022
-0.0070872932520941925   -0.07033432828426792   -0.001648319752444754
-0.010597212265486522   -0.0786558897456043   -0.0021899158458591
-0.006918787127284736   -0.0786718065638172   -0.0019998895976316203
-0.007087630630790554   -0.07024292792971817   -0.001633159755892113
-0.010542917979138606   -0.07858983623195141   -0.0020985481157897736
-0.006875382927900879   -0.07863464149885846   -0.001983074910413563
-0.007087630630790554   -0.07024292792971817   -0.001633159755892113
-0.011853826790542666   -0.0701627862698247   -0.0017480758776184022
-0.010542917979138606   -0.07858983623195141   -0.0020985481157897736
-0.011851402476036013   -0.07012703698515248   -0.0016579864244155753
-0.006875382927900879   -0.07863464149885846   -0.001983074910413563
-0.01049009991788253   -0.07856813660171637   -0.001997804102326052
-0.011851402476036013   -0.07012703698515248   -0.0016579864244155753
-0.010542917979138606   -0.07858983623195141   -0.0020985481157897736
-0.006875382927900879   -0.07863464149885846   -0.001983074910413563
-0.011851402476036013   -0.07012703698515248   -0.0016579864244155753
-0.007094455850191515   -0.07018811451701917   -0.0016090970976315219
-0.007087630630790554   -0.07024292792971817   -0.001633159755892113
-0.006875382927900879   -0.07863464149885846   -0.001983074910413563
-0.011851402476036013   -0.07012703698515248   -0.0016579864244155753
-0.007087630630790554   -0.07024292792971817   -0.001633159755892113
-0.010542917979138606   -0.07858983623195141   -0.0020985481157897736
-0.01064214673161531   -0.07876846813469619   -0.002271609004815
-0.011853466637831952   -0.07034160823356185   -0.0019011741749897662
-0.01444170128950189   -0.0785020909473685   -0.0025082840881611567
-0.010597212265486522   -0.0786558897456043   -0.0021899158458591
-0.011853466637831952   -0.07034160823356185   -0.0019011741749897662
-0.016768973902022696   -0.07010433198937854   -0.0021137674451239493
-0.01444170128950189   -0.0785020909473685   -0.0025082840881611567
-0.016763235256016914   -0.07001638231054716   -0.001974868492244072
-0.010597212265486522   -0.0786558897456043   -0.0021899158458591
-0.014383051398221986   -0.07840661041273232   -0.0023424948860766006
-0.016763235256016914   -0.07001638231054716   -0.001974868492244072
-0.01444170128950189   -0.0785020909473685   -0.0025082840881611567
-0.010597212265486522   -0.0786558897456043   -0.0021899158458591
-0.016763235256016914   -0.07001638231054716   -0.001974868492244072
-0.01185771070404058   -0.07023409731915396   -0.0018292281601576714
-0.011853466637831952   -0.07034160823356185   -0.0019011741749897662
-0.010597212265486522   -0.0786558897456043   -0.0021899158458591
-0.016763235256016914   -0.07001638231054716   -0.001974868492244072
-0.011853466637831952   -0.07034160823356185   -0.0019011741749897662
-0.01444170128950189   -0.0785020909473685   -0.0025082840881611567
-0.010597212265486522   -0.0786558897456043   -0.0021899158458591
-0.01185771070404058   -0.07023409731915396   -0.0018292281601576714
-0.014383051398221986   -0.07840661041273232   -0.0023424948860766006
-0.010542917979138606   -0.07858983623195141   -0.0020985481157897736
-0.01185771070404058   -0.07023409731915396   -0.0018292281601576714
-0.016763235256016914   -0.07001638231054716   -0.001974868492244072
-0.014383051398221986   -0.07840661041273232   -0.0023424948860766006
-0.01672209127060929   -0.06996328601033172   -0.0018281501468057615
-0.010542917979138606   -0.07858983623195141   -0.0020985481157897736
-0.014283650588662673   -0.07835630845556024   -0.0021685154971330207
-0.01672209127060929   -0.06996328601033172   -0.0018281501468057615
-0.014383051398221986   -0.07840661041273232   -0.0023424948860766006
-0.010542917979138606   -0.07858983623195141   -0.0020985481157897736
-0.01672209127060929   -0.06996328601033172   -0.0018281501468057615
-0.011853826790542666   -0.0701627862698247   -0.0017480758776184022
-0.01185771070404058   -0.07023409731915396   -0.0018292281601576714
-0.010542917979138606   -0.07858983623195141   -0.0020985481157897736
-0.01672209127060929   -0.06996328601033172   -0.0018281501468057615
-0.01185771070404058   -0.07023409731915396   -0.0018292281601576714
-0.014383051398221986   -0.07840661041273232   -0.0023424948860766006
-0.010542917979138606   -0.07858983623195141   -0.0020985481157897736
-0.011853826790542666   -0.0701627862698247   -0.0017480758776184022
-0.014283650588662673   -0.07835630845556024   -0.0021685154971330207
-0.01049009991788253   -0.07856813660171637   -0.001997804102326052
-0.011853826790542666   -0.0701627862698247   -0.0017480758776184022
-0.01672209127060929   -0.06996328601033172   -0.0018281501468057615
-0.014283650588662673   -0.07835630845556024   -0.0021685154971330207
-0.016694574759983365   -0.06994873739510193   -0.0016717779020130564
-0.01049009991788253   -0.07856813660171637   -0.001997804102326052
-0.014202855010802193   -0.07835383538879058   -0.0019837969678418157
-0.016694574759983365   -0.06994873739510193   -0.0016717779020130564
-0.014283650588662673   -0.07835630845556024   -0.0021685154971330207
-0.01049009991788253   -0.07856813660171637   -0.001997804102326052
-0.016694574759983365   -0.06994873739510193   -0.0016717779020130564
-0.011851402476036013   -0.07012703698515248   -0.0016579864244155753
-0.011853826790542666   -0.0701627862698247   -0.0017480758776184022
-0.01049009991788253   -0.07856813660171637   -0.001997804102326052
-0.016694574759983365   -0.06994873739510193   -0.0016717779020130564
-0.011853826790542666   -0.0701627862698247   -0.0017480758776184022
-0.014283650588662673   -0.07835630845556024   -0.0021685154971330207
-0.01444170128950189   -0.0785020909473685   -0.0025082840881611567
-0.016768973902022696   -0.07010433198937854   -0.0021137674451239493
-0.018872960211812524   -0.07811869844504149   -0.0027287990534019023
-0.014383051398221986   -0.07840661041273232   -0.0023424948860766006
-0.016768973902022696   -0.07010433198937854   -0.0021137674451239493
-0.022259483946282556   -0.06977748056695944   -0.0023053785997772447
-0.018872960211812524   -0.07811869844504149   -0.0027287990534019023
-0.02205464714268077   -0.06969121073142281   -0.002092946359110713
-0.014383051398221986   -0.07840661041273232   -0.0023424948860766006
-0.018573055664852355   -0.07801919283594624   -0.0024693337419328895
-0.02205464714268077   -0.06969121073142281   -0.002092946359110713
-0.018872960211812524   -0.07811869844504149   -0.0027287990534019023
-0.014383051398221986   -0.07840661041273232   -0.0023424948860766006
-0.02205464714268077   -0.06969121073142281   -0.002092946359110713
-0.016763235256016914   -0.07001638231054716   -0.001974868492244072
-0.016768973902022696   -0.07010433198937854   -0.0021137674451239493
-0.014383051398221986   -0.07840661041273232   -0.0023424948860766006
-0.02205464714268077   -0.06969121073142281   -0.002092946359110713
-0.016768973902022696   -0.07010433198937854   -0.0021137674451239493
-0.018872960211812524   -0.07811869844504149   -0.0027287990534019023
-0.014383051398221986   -0.07840661041273232   -0.0023424948860766006
-0.016763235256016914   -0.07001638231054716   -0.001974868492244072
-0.018573055664852355   -0.07801919283594624   -0.0024693337419328895
-0.014283650588662673   -0.07835630845556024   -0.0021685154971330207
-0.016763235256016914   -0.07001638231054716   -0.001974868492244072
-0.02205464714268077   -0.06969121073142281   -0.002092946359110713
-0.018573055664852355   -0.07801919283594624   -0.0024693337419328895
-0.021879401257596534   -0.06964475595203719   -0.0018673773309599493
-0.014283650588662673   -0.07835630845556024   -0.0021685154971330207
-0.018312668831294367   -0.07797316648845776   -0.002196371270187887
-0.021879401257596534   -0.06964475595203719   -0.0018673773309599493
-0.018573055664852355   -0.07801919283594624   -0.0024693337419328895
-0.014283650588662673   -0.07835630845556024   -0.0021685154971330207
-0.021879401257596534   -0.06964475595203719   -0.0018673773309599493
-0.01672209127060929   -0.06996328601033172   -0.0018281501468057615
-0.016763235256016914   -0.07001638231054716   -0.001974868492244072
-0.014283650588662673   -0.07835630845556024   -0.0021685154971330207
-0.021879401257596534   -0.06964475595203719   -0.0018673773309599493
-0.016763235256016914   -0.07001638231054716   -0.001974868492244072
-0.018573055664852355   -0.07801919283594624   -0.0024693337419328895
-0.014283650588662673   -0.07835630845556024   -0.0021685154971330207
-0.01672209127060929   -0.06996328601033172   -0.0018281501468057615
-0.018312668831294367   -0.07797316648845776   -0.002196371270187887
-0.014202855010802193   -0.07835383538879058   -0.0019837969678418157
-0.01672209127060929   -0.06996328601033172   -0.0018281501468057615
-0.021879401257596534   -0.06964475595203719   -0.0018673773309599493
-0.018312668831294367   -0.07797316648845776   -0.002196371270187887
-0.02162640179633278   -0.06965946790100228   -0.0016304693183572631
-0.014202855010802193   -0.07835383538879058   -0.0019837969678418157
-0.017961817245344666   -0.07800026623648647   -0.0019116523125257256
-0.02162640179633278   -0.06965946790100228   -0.0016304693183572631
-0.018312668831294367   -0.07797316648845776   -0.002196371270187887
-0.014202855010802193   -0.07835383538879058   -0.0019837969678418157
-0.02162640179633278   -0.06965946790100228   -0.0016304693183572631
-0.016694574759983365   -0.06994873739510193   -0.0016717779020130564
-0.01672209127060929   -0.06996328601033172   -0.0018281501468057615
-0.014202855010802193   -0.07835383538879058   -0.0019837969678418157
-0.02162640179633278   -0.06965946790100228   -0.0016304693183572631
-0.01672209127060929   -0.06996328601033172   -0.0018281501468057615
-0.018312668831294367   -0.07797316648845776   -0.002196371270187887
0.0028026797760838324   -0.07033707818089673   -0.0010303193533758997
0.0044046707770388095   -0.060329137951249154   -0.0006862493890735504
-0.002237293603951467   -0.07046167712905553   -0.0013720811067194387
0.0029493895362658873   -0.07015926346431224   -0.0011790380495554575
0.0044046707770388095   -0.060329137951249154   -0.0006862493890735504
-0.0015726627407338636   -0.060390252895580324   -0.0010078024318921285
-0.002237293603951467   -0.07046167712905553   -0.0013720811067194387
-0.0016009278160546406   -0.060242785668771004   -0.0010407191530222473
0.0029493895362658873   -0.07015926346431224   -0.0011790380495554575
-0.002223720560615382   -0.07031053816149807   -0.001433287544950714
-0.0016009278160546406   -0.060242785668771004   -0.0010407191530222473
-0.002237293603951467   -0.07046167712905553   -0.0013720811067194387
0.0029493895362658873   -0.07015926346431224   -0.0011790380495554575
-0.0016009278160546406   -0.060242785668771004   -0.0010407191530222473
0.004462350305132009   -0.06015782694486236   -0.0007835455688251607
0.0044046707770388095   -0.060329137951249154   -0.0006862493890735504
0.0029493895362658873   -0.07015926346431224   -0.0011790380495554575
-0.0016009278160546406   -0.060242785668771004   -0.0010407191530222473
0.0044046707770388095   -0.060329137951249154   -0.0006862493890735504
-0.002237293603951467   -0.07046167712905553   -0.0013720811067194387
0.0029493895362658873   -0.07015926346431224   -0.0011790380495554575
0.004462350305132009   -0.06015782694486236   -0.0007835455688251607
-0.002223720560615382   -0.07031053816149807   -0.001433287544950714
0.003043126313682131   -0.07004241823253478   -0.0013144383135078675
0.004462350305132009   -0.06015782694486236   -0.0007835455688251607
-0.0016009278160546406   -0.060242785668771004   -0.0010407191530222473
-0.002223720560615382   -0.07031053816149807   -0.001433287544950714
-0.0016306514616379133   -0.06012598902756759   -0.0010652288083987996
0.003043126313682131   -0.07004241823253478   -0.0013144383135078675
-0.002206468124393328   -0.0702008261558578   -0.0014850682289211917
-0.0016306514616379133   -0.06012598902756759   -0.0010652288083987996
-0.002223720560615382   -0.07031053816149807   -0.001433287544950714
0.003043126313682131   -0.07004241823253478   -0.0013144383135078675
-0.0016306514616379133   -0.06012598902756759   -0.0010652288083987996
0.004479675304128034   -0.06003281268680966   -0.0008684406262795328
0.004462350305132009   -0.06015782694486236   -0.0007835455688251607
0.003043126313682131   -0.07004241823253478   -0.0013144383135078675
-0.0016306514616379133   -0.06012598902756759   -0.0010652288083987996
0.004462350305132009   -0.06015782694486236   -0.0007835455688251607
-0.002223720560615382   -0.07031053816149807   -0.001433287544950714
0.003043126313682131   -0.07004241823253478   -0.0013144383135078675
0.004479675304128034   -0.06003281268680966   -0.0008684406262795328
-0.002206468124393328   -0.0702008261558578   -0.0014850682289211917
0.0031392732057602614   -0.06996393248313279   -0.0014367979184960508
0.004479675304128034   -0.06003281268680966   -0.0008684406262795328
-0.0016306514616379133   -0.06012598902756759   -0.0010652288083987996
-0.002206468124393328   -0.0702008261558578   -0.0014850682289211917
-0.001681131967138089   -0.06003620506642899   -0.0010816160792452532
0.0031392732057602614   -0.06996393248313279   -0.0014367979184960508
-0.0022148454514021557   -0.07012903849288339   -0.0015281109785640313
-0.001681131967138089   -0.06003620506642899   -0.0010816160792452532
-0.002206468124393328   -0.0702008261558578   -0.0014850682289211917
0.0031392732057602614   -0.06996393248313279   -0.0014367979184960508
-0.001681131967138089   -0.06003620506642899   -0.0010816160792452532
0.004489179907871845   -0.05993213540848983   -0.0009415204930794881
0.004479675304128034   -0.06003281268680966   -0.0008684406262795328
0.0031392732057602614   -0.06996393248313279   -0.0014367979184960508
-0.001681131967138089   -0.06003620506642899   -0.0010816160792452532
0.004479675304128034   -0.06003281268680966   -0.0008684406262795328
-0.002206468124393328   -0.0702008261558578   -0.0014850682289211917
-0.002237293603951467   -0.07046167712905553   -0.0013720811067194387
-0.0015726627407338636   -0.060390252895580324   -0.0010078024318921285
-0.00708663303954995   -0.07046225183974282   -0.0016540926135125249
-0.002223720560615382   -0.07031053816149807   -0.001433287544950714
-0.0015726627407338636   -0.060390252895580324   -0.0010078024318921285
-0.007301741633905693   -0.0603586240105199   -0.00127277166076544
-0.00708663303954995   -0.07046225183974282   -0.0016540926135125249
-0.007340839030247274   -0.060235311969713115   -0.001257319158747431
-0.002223720560615382   -0.07031053816149807   -0.001433287544950714
-0.0070872932520941925   -0.07033432828426792   -0.001648319752444754
-0.007340839030247274   -0.060235311969713115   -0.001257319158747431
-0.00708663303954995   -0.07046225183974282   -0.0016540926135125249
-0.002223720560615382   -0.07031053816149807   -0.001433287544950714
-0.007340839030247274   -0.060235311969713115   -0.001257319158747431
-0.0016009278160546406   -0.060242785668771004   -0.0010407191530222473
-0.0015726627407338636   -0.060390252895580324   -0.0010078024318921285
-0.002223720560615382   -0.07031053816149807   -0.001433287544950714
-0.007340839030247274   -0.060235311969713115   -0.001257319158747431
-0.0015726627407338636   -0.060390252895580324   -0.0010078024318921285
-0.00708663303954995   -0.07046225183974282   -0.0016540926135125249
-0.002223720560615382   -0.07031053816149807   -0.001433287544950714
-0.0016009278160546406   -0.060242785668771004   -0.0010407191530222473
-0.0070872932520941925   -0.07033432828426792   -0.001648319752444754
-0.002206468124393328   -0.0702008261558578   -0.0014850682289211917
-0.0016009278160546406   -0.060242785668771004   -0.0010407191530222473
-0.007340839030247274   -0.060235311969713115   -0.001257319158747431
-0.0070872932520941925   -0.07033432828426792   -0.001648319752444754
-0.0073804723720795945   -0.06013829287337753   -0.0012332136522131137
-0.002206468124393328   -0.0702008261558578   -0.0014850682289211917
-0.007087630630790554   -0.07024292792971817   -0.001633159755892113
-0.0073804723720795945   -0.06013829287337753   -0.0012332136522131137
-0.0070872932520941925   -0.07033432828426792   -0.001648319752444754
-0.002206468124393328   -0.0702008261558578   -0.0014850682289211917
-0.0073804723720795945   -0.06013829287337753   -0.0012332136522131137
-0.0016306514616379133   -0.06012598902756759   -0.0010652288083987996
-0.0016009278160546406   -0.060242785668771004   -0.0010407191530222473
-0.002206468124393328   -0.0702008261558578   -0.0014850682289211917
-0.0073804723720795945   -0.06013829287337753   -0.0012332136522131137
-0.0016009278160546406   -0.060242785668771004   -0.0010407191530222473
-0.0070872932520941925   -0.07033432828426792   -0.001648319752444754
-0.002206468124393328   -0.0702008261558578   -0.0014850682289211917
-0.0016306514616379133   -0.06012598902756759   -0.0010652288083987996
-0.007087630630790554   -0.07024292792971817   -0.001633159755892113
-0.0022148454514021557   -0.07012903849288339   -0.0015281109785640313
-0.0016306514616379133   -0.06012598902756759   -0.0010652288083987996
-0.0073804723720795945   -0.06013829287337753   -0.0012332136522131137
-0.007087630630790554   -0.07024292792971817   -0.001633159755892113
-0.007426260922852765   -0.06006801419349671   -0.0012008699557888747
-0.0022148454514021557   -0.07012903849288339   -0.0015281109785640313
-0.007094455850191515   -0.07018811451701917   -0.0016090970976315219
-0.007426260922852765   -0.06006801419349671   -0.0012008699557888747
-0.007087630630790554   -0.07024292792971817   -0.001633159755892113
-0.0022148454514021557   -0.07012903849288339   -0.0015281109785640313
-0.007426260922852765   -0.06006801419349671   -0.0012008699557888747
-0.001681131967138089   -0.06003620506642899   -0.0010816160792452532
-0.0016306514616379133   -0.06012598902756759   -0.0010652288083987996
-0.0022148454514021557   -0.07012903849288339   -0.0015281109785640313
-0.007426260922852765   -0.06006801419349671   -0.0012008699557888747
-0.0016306514616379133   -0.06012598902756759   -0.0010652288083987996
-0.007087630630790554   -0.07024292792971817   -0.001633159755892113
-0.00708663303954995   -0.07046225183974282   -0.0016540926135125249
-0.007301741633905693   -0.0603586240105199   -0.00127277166076544
-0.011853466637831952   -0.07034160823356185   -0.0019011741749897662
-0.0070872932520941925   -0.07033432828426792   -0.001648319752444754
-0.007301741633905693   -0.0603586240105199   -0.00127277166076544
-0.012933873323865978   -0.060239941694517844   -0.0014995769748266609
-0.011853466637831952   -0.07034160823356185   -0.0019011741749897662
-0.012976031649290854   -0.060138592902249516   -0.0014359844145836816
-0.0070872932520941925   -0.07033432828426792   -0.001648319752444754
-0.01185771070404058   -0.07023409731915396   -0.0018292281601576714
-0.012976031649290854   -0.060138592902249516   -0.0014359844145836816
-0.011853466637831952   -0.07034160823356185   -0.0019011741749897662
-0.0070872932520941925   -0.07033432828426792   -0.001648319752444754
-0.012976031649290854   -0.060138592902249516   -0.0014359844145836816
-0.007340839030247274   -0.060235311969713115   -0.001257319158747431
-0.007301741633905693   -0.0603586240105199   -0.00127277166076544
-0.0070872932520941925   -0.07033432828426792   -0.001648319752444754
-0.012976031649290854   -0.060138592902249516   -0.0014359844145836816
-0.007301741633905693   -0.0603586240105199   -0.00127277166076544
-0.011853466637831952   -0.07034160823356185   -0.0019011741749897662
-0.0070872932520941925   -0.07033432828426792   -0.001648319752444754
-0.007340839030247274   -0.060235311969713115   -0.001257319158747431
-0.01185771070404058   -0.07023409731915396   -0.0018292281601576714
-0.007087630630790554   -0.07024292792971817   -0.001633159755892113
-0.007340839030247274   -0.060235311969713115   -0.001257319158747431
-0.012976031649290854   -0.060138592902249516   -0.0014359844145836816
-0.01185771070404058   -0.07023409731915396   -0.0018292281601576714
-0.013010976874100848   -0.060063285543772944   -0.0013638907497410039
-0.007087630630790554   -0.07024292792971817   -0.001633159755892113
-0.011853826790542666   -0.0701627862698247   -0.0017480758776184022
-0.013010976874100848   -0.060063285543772944   -0.0013638907497410039
-0.01185771070404058   -0.07023409731915396   -0.0018292281601576714
-0.007087630630790554   -0.07024292792971817   -0.001633159755892113
-0.013010976874100848   -0.060063285543772944   -0.0013638907497410039
-0.0073804723720795945   -0.06013829287337753   -0.0012332136522131137
-0.007340839030247274   -0.060235311969713115   -0.001257319158747431
-0.007087630630790554   -0.07024292792971817   -0.001633159755892113
-0.013010976874100848   -0.060063285543772944   -0.0013638907497410039
-0.007340839030247274   -0.060235311969713115   -0.001257319158747431
-0.01185771070404058   -0.07023409731915396   -0.0018292281601576714
-0.007087630630790554   -0.07024292792971817   -0.001633159755892113
-0.0073804723720795945   -0.06013829287337753   -0.0012332136522131137
-0.011853826790542666   -0.0701627862698247   -0.0017480758776184022
-0.007094455850191515   -0.07018811451701917   -0.0016090970976315219
-0.0073804723720795945   -0.06013829287337753   -0.0012332136522131137
-0.013010976874100848   -0.060063285543772944   -0.0013638907497410039
-0.011853826790542666   -0.0701627862698247   -0.0017480758776184022
-0.013046932679853957   -0.060013911401631   -0.0012835470220612579
-0.007094455850191515   -0.07018811451701917   -0.0016090970976315219
-0.011851402476036013   -0.07012703698515248   -0.0016579864244155753
-0.013046932679853957   -0.060013911401631   -0.0012835470220612579
-0.011853826790542666   -0.0701627862698247   -0.0017480758776184022
-0.007094455850191515   -0.07018811451701917   -0.0016090970976315219
-0.013046932679853957   -0.060013911401631   -0.0012835470220612579
-0.007426260922852765   -0.06006801419349671   -0.0012008699557888747
-0.0073804723720795945   -0.06013829287337753   -0.0012332136522131137
-0.007094455850191515   -0.07018811451701917   -0.0016090970976315219
-0.013046932679853957   -0.060013911401631   -0.0012835470220612579
-0.0073804723720795945   -0.06013829287337753   -0.0012332136522131137
-0.011853826790542666   -0.0701627862698247   -0.0017480758776184022
-0.011853466637831952   -0.07034160823356185   -0.0019011741749897662
-0.012933873323865978   -0.060239941694517844   -0.0014995769748266609
-0.016768973902022696   -0.07010433198937854   -0.0021137674451239493
-0.01185771070404058   -0.07023409731915396   -0.0018292281601576714
-0.012933873323865978   -0.060239941694517844   -0.0014995769748266609
-0.01869997847353494   -0.06003658109374624   -0.001689062526732257
-0.016768973902022696   -0.07010433198937854   -0.0021137674451239493
-0.018734900694285586   -0.059956697963833766   -0.0015766768555866414
-0.01185771070404058   -0.07023409731915396   -0.0018292281601576714
-0.016763235256016914   -0.07001638231054716   -0.001974868492244072
-0.018734900694285586   -0.059956697963833766   -0.0015766768555866414
-0.016768973902022696   -0.07010433198937854   -0.0021137674451239493
-0.01185771070404058   -0.07023409731915396   -0.0018292281601576714
-0.018734900694285586   -0.059956697963833766   -0.0015766768555866414
-0.012976031649290854   -0.060138592902249516   -0.0014359844145836816
-0.012933873323865978   -0.060239941694517844   -0.0014995769748266609
-0.01185771070404058   -0.07023409731915396   -0.0018292281601576714
-0.018734900694285586   -0.059956697963833766   -0.0015766768555866414
-0.012933873323865978   -0.060239941694517844   -0.0014995769748266609
-0.016768973902022696   -0.07010433198937854   -0.0021137674451239493
-0.01185771070404058   -0.07023409731915396   -0.0018292281601576714
-0.012976031649290854   -0.060138592902249516   -0.0014359844145836816
-0.016763235256016914   -0.07001638231054716   -0.001974868492244072
-0.011853826790542666   -0.0701627862698247   -0.0017480758776184022
-0.012976031649290854   -0.060138592902249516   -0.0014359844145836816
-0.018734900694285586   -0.059956697963833766   -0.0015766768555866414
-0.016763235256016914   -0.07001638231054716   -0.001974868492244072
-0.018739525932675978   -0.05990124189904432   -0.0014569668145040422
-0.011853826790542666   -0.0701627862698247   -0.0017480758776184022
-0.01672209127060929   -0.06996328601033172   -0.0018281501468057615
-0.018739525932675978   -0.05990124189904432   -0.0014569668145040422
-0.016763235256016914   -0.07001638231054716   -0.001974868492244072
-0.011853826790542666   -0.0701627862698247   -0.0017480758776184022
-0.018739525932675978   -0.05990124189904432   -0.0014569668145040422
-0.013010976874100848   -0.060063285543772944   -0.0013638907497410039
-0.012976031649290854   -0.060138592902249516   -0.0014359844145836816
-0.011853826790542666   -0.0701627862698247   -0.0017480758776184022
-0.018739525932675978   -0.05990124189904432   -0.0014569668145040422
-0.012976031649290854   -0.060138592902249516   -0.0014359844145836816
-0.016763235256016914   -0.07001638231054716   -0.001974868492244072
-0.011853826790542666   -0.0701627862698247   -0.0017480758776184022
-0.013010976874100848   -0.060063285543772944   -0.0013638907497410039
-0.01672209127060929   -0.06996328601033172   -0.0018281501468057615
-0.011851402476036013   -0.07012703698515248   -0.0016579864244155753
-0.013010976874100848   -0.060063285543772944   -0.0013638907497410039
-0.018739525932675978   -0.05990124189904432   -0.0014569668145040422
-0.01672209127060929   -0.06996328601033172   -0.0018281501468057615
-0.0187527157634959   -0.0598740482573243   -0.0013283824248710861
-0.011851402476036013   -0.07012703698515248   -0.0016579864244155753
-0.016694574759983365   -0.06994873739510193   -0.0016717779020130564
-0.0187527157634959   -0.0598740482573243   -0.0013283824248710861
-0.01672209127060929   -0.06996328601033172   -0.0018281501468057615
-0.011851402476036013   -0.07012703698515248   -0.0016579864244155753
-0.0187527157634959   -0.0598740482573243   -0.0013283824248710861
-0.013046932679853957   -0.060013911401631   -0.0012835470220612579
-0.013010976874100848   -0.060063285543772944   -0.0013638907497410039
-0.011851402476036013   -0.07012703698515248   -0.0016579864244155753
-0.0187527157634959   -0.0598740482573243   -0.0013283824248710861
-0.013010976874100848   -0.060063285543772944   -0.0013638907497410039
-0.01672209127060929   -0.06996328601033172   -0.0018281501468057615
-0.016768973902022696   -0.07010433198937854   -0.0021137674451239493
-0.01869997847353494   -0.06003658109374624   -0.001689062526732257
-0.022259483946282556   -0.06977748056695944   -0.0023053785997772447
-0.016763235256016914   -0.07001638231054716   -0.001974868492244072
-0.01869997847353494   -0.06003658109374624   -0.001689062526732257
-0.0249875623024495   -0.05976999295646795   -0.0018509192354282033
-0.022259483946282556   -0.06977748056695944   -0.0023053785997772447
-0.02486770584349024   -0.059697024701300394   -0.0016869925869382203
-0.016763235256016914   -0.07001638231054716   -0.001974868492244072
-0.02205464714268077   -0.06969121073142281   -0.002092946359110713
-0.02486770584349024   -0.059697024701300394   -0.0016869925869382203
-0.022259483946282556   -0.06977748056695944   -0.0023053785997772447
-0.016763235256016914   -0.07001638231054716   -0.001974868492244072
-0.02486770584349024   -0.059697024701300394   -0.0016869925869382203
-0.018734900694285586   -0.059956697963833766   -0.0015766768555866414
-0.01869997847353494   -0.06003658109374624   -0.001689062526732257
-0.016763235256016914   -0.07001638231054716   -0.001974868492244072
-0.02486770584349024   -0.059697024701300394   -0.0016869925869382203
-0.01869997847353494   -0.06003658109374624   -0.001689062526732257
-0.022259483946282556   -0.06977748056695944   -0.0023053785997772447
-0.016763235256016914   -0.07001638231054716   -0.001974868492244072
-0.018734900694285586   -0.059956697963833766   -0.0015766768555866414
-0.02205464714268077   -0.06969121073142281   -0.002092946359110713
-0.01672209127060929   -0.06996328601033172   -0.0018281501468057615
-0.018734900694285586   -0.059956697963833766   -0.0015766768555866414
-0.02486770584349024   -0.059697024701300394   -0.0016869925869382203
-0.02205464714268077   -0.06969121073142281   -0.002092946359110713
-0.024766627734186867   -0.0596499818161793   -0.0015102815835064986
-0.01672209127060929   -0.06996328601033172   -0.0018281501468057615
-0.021879401257596534   -0.06964475595203719   -0.0018673773309599493
-0.024766627734186867   -0.0596499818161793   -0.0015102815835064986
-0.02205464714268077   -0.06969121073142281   -0.002092946359110713
-0.01672209127060929   -0.06996328601033172   -0.0018281501468057615
-0.024766627734186867   -0.0596499818161793   -0.0015102815835064986
-0.018739525932675978   -0.05990124189904432   -0.0014569668145040422
-0.018734900694285586   -0.059956697963833766   -0.0015766768555866414
-0.01672209127060929   -0.06996328601033172   -0.0018281501468057615
-0.024766627734186867   -0.0596499818161793   -0.0015102815835064986
-0.018734900694285586   -0.059956697963833766   -0.0015766768555866414
-0.02205464714268077   -0.06969121073142281   -0.002092946359110713
-0.01672209127060929   -0.06996328601033172   -0.0018281501468057615
-0.018739525932675978   -0.05990124189904432   -0.0014569668145040422
-0.021879401257596534   -0.06964475595203719   -0.0018673773309599493
-0.016694574759983365   -0.06994873739510193   -0.0016717779020130564
-0.018739525932675978   -0.05990124189904432   -0.0014569668145040422
-0.024766627734186867   -0.0596499818161793   -0.0015102815835064986
-0.021879401257596534   -0.06964475595203719   -0.0018673773309599493
-0.024599683601219918   -0.05965099027594608   -0.001322378838730915
-0.016694574759983365   -0.06994873739510193   -0.0016717779020130564
-0.02162640179633278   -0.06965946790100228   -0.0016304693183572631
-0.024599683601219918   -0.05965099027594608   -0.001322378838730915
-0.021879401257596534   -0.06964475595203719   -0.0018673773309599493
-0.016694574759983365   -0.06994873739510193   -0.0016717779020130564
-0.024599683601219918   -0.05965099027594608   -0.001322378838730915
-0.0187527157634959   -0.0598740482573243   -0.0013283824248710861
-0.018739525932675978   -0.05990124189904432   -0.0014569668145040422
-0.016694574759983365   -0.06994873739510193   -0.0016717779020130564
-0.024599683601219918   -0.05965099027594608   -0.001322378838730915
-0.018739525932675978   -0.05990124189904432   -0.0014569668145040422
-0.021879401257596534   -0.06964475595203719   -0.0018673773309599493
0.0044046707770388095   -0.060329137951249154   -0.0006862493890735504
0.00529251545704493   -0.04910275112825463   -0.00034925865323818866
-0.0015726627407338636   -0.060390252895580324   -0.0010078024318921285
0.004462350305132009   -0.06015782694486236   -0.0007835455688251607
0.00529251545704493   -0.04910275112825463   -0.00034925865323818866
-0.0013412126746343224   -0.04910108527414596   -0.0006474989909885935
-0.0015726627407338636   -0.060390252895580324   -0.0010078024318921285
-0.0014007426626626938   -0.04895842020570109   -0.0006517915956758856
0.004462350305132009   -0.06015782694486236   -0.0007835455688251607
-0.0016009278160546406   -0.060242785668771004   -0.0010407191530222473
-0.0014007426626626938   -0.04895842020570109   -0.0006517915956758856
-0.0015726627407338636   -0.060390252895580324   -0.0010078024318921285
0.004462350305132009   -0.06015782694486236   -0.0007835455688251607
-0.0014007426626626938   -0.04895842020570109   -0.0006517915956758856
0.005272935201337816   -0.04893873088229297   -0.0003957518862968229
0.00529251545704493   -0.04910275112825463   -0.00034925865323818866
0.004462350305132009   -0.06015782694486236   -0.0007835455688251607
-0.0014007426626626938   -0.04895842020570109   -0.0006517915956758856
0.00529251545704493   -0.04910275112825463   -0.00034925865323818866
-0.0015726627407338636   -0.060390252895580324   -0.0010078024318921285
0.004462350305132009   -0.06015782694486236   -0.0007835455688251607
0.005272935201337816   -0.04893873088229297   -0.0003957518862968229
-0.0016009278160546406   -0.060242785668771004   -0.0010407191530222473
0.004479675304128034   -0.06003281268680966   -0.0008684406262795328
0.005272935201337816   -0.04893873088229297   -0.0003957518862968229
-0.0014007426626626938   -0.04895842020570109   -0.0006517915956758856
-0.0016009278160546406   -0.060242785668771004   -0.0010407191530222473
-0.0014668875698392104   -0.048835493460871716   -0.0006486370080189567
0.004479675304128034   -0.06003281268680966   -0.0008684406262795328
-0.0016306514616379133   -0.06012598902756759   -0.0010652288083987996
-0.0014668875698392104   -0.048835493460871716   -0.0006486370080189567
-0.0016009278160546406   -0.060242785668771004   -0.0010407191530222473
0.004479675304128034   -0.06003281268680966   -0.0008684406262795328
-0.0014668875698392104   -0.048835493460871716   -0.0006486370080189567
0.005224863173438622   -0.048806582878149166   -0.00043030863994599747
0.005272935201337816   -0.04893873088229297   -0.0003957518862968229
0.004479675304128034   -0.06003281268680966   -0.0008684406262795328
-0.0014668875698392104   -0.048835493460871716   -0.0006486370080189567
0.005272935201337816   -0.04893873088229297   -0.0003957518862968229
-0.0016009278160546406   -0.060242785668771004   -0.0010407191530222473
0.004479675304128034   -0.06003281268680966   -0.0008684406262795328
0.005224863173438622   -0.048806582878149166   -0.00043030863994599747
-0.0016306514616379133   -0.06012598902756759   -0.0010652288083987996
0.004489179907871845   -0.05993213540848983   -0.0009415204930794881
0.005224863173438622   -0.048806582878149166   -0.00043030863994599747
-0.0014668875698392104   -0.048835493460871716   -0.0006486370080189567
-0.0016306514616379133   -0.06012598902756759   -0.0010652288083987996
-0.0015489159084228104   -0.048729131433722074   -0.0006377416365331267
0.004489179907871845   -0.05993213540848983   -0.0009415204930794881
-0.001681131967138089   -0.06003620506642899   -0.0010816160792452532
-0.0015489159084228104   -0.048729131433722074   -0.0006377416365331267
-0.0016306514616379133   -0.06012598902756759   -0.0010652288083987996
0.004489179907871845   -0.05993213540848983   -0.0009415204930794881
-0.0015489159084228104   -0.048729131433722074   -0.0006377416365331267
0.005157813694436668   -0.04868483477077765   -0.0004537624253879863
0.005224863173438622   -0.048806582878149166   -0.00043030863994599747
0.004489179907871845   -0.05993213540848983   -0.0009415204930794881
-0.0015489159084228104   -0.048729131433722074   -0.0006377416365331267
0.005224863173438622   -0.048806582878149166   -0.00043030863994599747
-0.0016306514616379133   -0.06012598902756759   -0.0010652288083987996
-0.0015726627407338636   -0.060390252895580324   -0.0010078024318921285
-0.0013412126746343224   -0.04910108527414596   -0.0006474989909885935
-0.007301741633905693   -0.0603586240105199   -0.00127277166076544
-0.0016009278160546406   -0.060242785668771004   -0.0010407191530222473
-0.0013412126746343224   -0.04910108527414596   -0.0006474989909885935
-0.007668414933465506   -0.04904105747147224   -0.0008938483898656438
-0.007301741633905693   -0.0603586240105199   -0.00127277166076544
-0.007734969108915149   -0.048922542198028676   -0.0008679186931109996
-0.0016009278160546406   -0.060242785668771004   -0.0010407191530222473
-0.007340839030247274   -0.060235311969713115   -0.001257319158747431
-0.007734969108915149   -0.048922542198028676   -0.0008679186931109996
-0.007301741633905693   -0.0603586240105199   -0.00127277166076544
-0.0016009278160546406   -0.060242785668771004   -0.0010407191530222473
-0.007734969108915149   -0.048922542198028676   -0.0008679186931109996
-0.0014007426626626938   -0.04895842020570109   -0.0006517915956758856
-0.0013412126746343224   -0.04910108527414596   -0.0006474989909885935
-0.0016009278160546406   -0.060242785668771004   -0.0010407191530222473
-0.007734969108915149   -0.048922542198028676   -0.0008679186931109996
-0.0013412126746343224   -0.04910108527414596   -0.0006474989909885935
-0.007301741633905693   -0.0603586240105199   -0.00127277166076544
-0.0016009278160546406   -0.060242785668771004   -0.0010407191530222473
-0.0014007426626626938   -0.04895842020570109   -0.0006517915956758856
-0.007340839030247274   -0.060235311969713115   -0.001257319158747431
-0.0016306514616379133   -0.06012598902756759   -0.0010652288083987996
-0.0014007426626626938   -0.04895842020570109   -0.0006517915956758856
-0.007734969108915149   -0.048922542198028676   -0.0008679186931109996
-0.007340839030247274   -0.060235311969713115   -0.001257319158747431
-0.007802857350025411   -0.048820095813946154   -0.0008342336040965802
-0.0016306514616379133   -0.06012598902756759   -0.0010652288083987996
-0.0073804723720795945   -0.06013829287337753   -0.0012332136522131137
-0.007802857350025411   -0.048820095813946154   -0.0008342336040965802
-0.007340839030247274   -0.060235311969713115   -0.001257319158747431
-0.0016306514616379133   -0.06012598902756759   -0.0010652288083987996
-0.007802857350025411   -0.048820095813946154   -0.0008342336040965802
-0.0014668875698392104   -0.048835493460871716   -0.0006486370080189567
-0.0014007426626626938   -0.04895842020570109   -0.0006517915956758856
-0.0016306514616379133   -0.06012598902756759   -0.0010652288083987996
-0.007802857350025411   -0.048820095813946154   -0.0008342336040965802
-0.0014007426626626938   -0.04895842020570109   -0.0006517915956758856
-0.007340839030247274   -0.060235311969713115   -0.001257319158747431
-0.0016306514616379133   -0.06012598902756759   -0.0010652288083987996
-0.0014668875698392104   -0.048835493460871716   -0.0006486370080189567
-0.0073804723720795945   -0.06013829287337753   -0.0012332136522131137
-0.001681131967138089   -0.06003620506642899   -0.0010816160792452532
-0.0014668875698392104   -0.048835493460871716   -0.0006486370080189567
-0.007802857350025411   -0.048820095813946154   -0.0008342336040965802
-0.0073804723720795945   -0.06013829287337753   -0.0012332136522131137
-0.007876475090277092   -0.04873467957795711   -0.0007931544381956037
-0.001681131967138089   -0.06003620506642899   -0.0010816160792452532
-0.007426260922852765   -0.06006801419349671   -0.0012008699557888747
-0.007876475090277092   -0.04873467957795711   -0.0007931544381956037
-0.0073804723720795945   -0.06013829287337753   -0.0012332136522131137
-0.001681131967138089   -0.06003620506642899   -0.0010816160792452532
-0.007876475090277092   -0.04873467957795711   -0.0007931544381956037
-0.0015489159084228104   -0.048729131433722074   -0.0006377416365331267
-0.0014668875698392104   -0.048835493460871716   -0.0006486370080189567
-0.001681131967138089   -0.06003620506642899   -0.0010816160792452532
-0.007876475090277092   -0.04873467957795711   -0.0007931544381956037
-0.0014668875698392104   -0.048835493460871716   -0.0006486370080189567
-0.0073804723720795945   -0.06013829287337753   -0.0012332136522131137
-0.007301741633905693   -0.0603586240105199   -0.00127277166076544
-0.007668414933465506   -0.04904105747147224   -0.0008938483898656438
-0.012933873323865978   -0.060239941694517844   -0.0014995769748266609
-0.007340839030247274   -0.060235311969713115   -0.001257319158747431
-0.007668414933465506   -0.04904105747147224   -0.0008938483898656438
-0.013888623589871304   -0.04892922175383359   -0.001101794528869128
-0.012933873323865978   -0.060239941694517844   -0.0014995769748266609
-0.013957118561429751   -0.048832984638897965   -0.0010456901561066666
-0.007340839030247274   -0.060235311969713115   -0.001257319158747431
-0.012976031649290854   -0.060138592902249516   -0.0014359844145836816
-0.013957118561429751   -0.048832984638897965   -0.0010456901561066666
-0.012933873323865978   -0.060239941694517844   -0.0014995769748266609
-0.007340839030247274   -0.060235311969713115   -0.001257319158747431
-0.013957118561429751   -0.048832984638897965   -0.0010456901561066666
-0.007734969108915149   -0.048922542198028676   -0.0008679186931109996
-0.007668414933465506   -0.04904105747147224   -0.0008938483898656438
-0.007340839030247274   -0.060235311969713115   -0.001257319158747431
-0.013957118561429751   -0.048832984638897965   -0.0010456901561066666
-0.007668414933465506   -0.04904105747147224   -0.0008938483898656438
-0.012933873323865978   -0.060239941694517844   -0.0014995769748266609
-0.007340839030247274   -0.060235311969713115   -0.001257319158747431
-0.007734969108915149   -0.048922542198028676   -0.0008679186931109996
-0.012976031649290854   -0.060138592902249516   -0.0014359844145836816
-0.0073804723720795945   -0.06013829287337753   -0.0012332136522131137
-0.007734969108915149   -0.048922542198028676   -0.0008679186931109996
-0.013957118561429751   -0.048832984638897965   -0.0010456901561066666
-0.012976031649290854   -0.060138592902249516   -0.0014359844145836816
-0.014019266980367862   -0.04875270274743462   -0.0009820103930706175
-0.0073804723720795945   -0.06013829287337753   -0.0012332136522131137
-0.013010976874100848   -0.060063285543772944   -0.0013638907497410039
-0.014019266980367862   -0.04875270274743462   -0.0009820103930706175
-0.012976031649290854   -0.060138592902249516   -0.0014359844145836816
-0.0073804723720795945   -0.06013829287337753   -0.0012332136522131137
-0.014019266980367862   -0.04875270274743462   -0.0009820103930706175
-0.007802857350025411   -0.048820095813946154   -0.0008342336040965802
-0.007734969108915149   -0.048922542198028676   -0.0008679186931109996
-0.0073804723720795945   -0.06013829287337753   -0.0012332136522131137
-0.014019266980367862   -0.04875270274743462   -0.0009820103930706175
-0.007734969108915149   -0.048922542198028676   -0.0008679186931109996
-0.012976031649290854   -0.060138592902249516   -0.0014359844145836816
-0.0073804723720795945   -0.06013829287337753   -0.0012332136522131137
-0.007802857350025411   -0.048820095813946154   -0.0008342336040965802
-0.013010976874100848   -0.060063285543772944   -0.0013638907497410039
-0.007426260922852765   -0.06006801419349671   -0.0012008699557888747
-0.007802857350025411   -0.048820095813946154   -0.0008342336040965802
-0.014019266980367862   -0.04875270274743462   -0.0009820103930706175
-0.013010976874100848   -0.060063285543772944   -0.0013638907497410039
-0.014082003187245158   -0.04868851330511561   -0.0009110449798087687
-0.007426260922852765   -0.06006801419349671   -0.0012008699557888747
-0.013046932679853957   -0.060013911401631   -0.0012835470220612579
-0.014082003187245158   -0.04868851330511561   -0.0009110449798087687
-0.013010976874100848   -0.060063285543772944   -0.0013638907497410039
-0.007426260922852765   -0.06006801419349671   -0.0012008699557888747
-0.014082003187245158   -0.04868851330511561   -0.0009110449798087687
-0.007876475090277092   -0.04873467957795711   -0.0007931544381956037
-0.007802857350025411   -0.048820095813946154   -0.0008342336040965802
-0.007426260922852765   -0.06006801419349671   -0.0012008699557888747
-0.014082003187245158   -0.04868851330511561   -0.0009110449798087687
-0.007802857350025411   -0.048820095813946154   -0.0008342336040965802
-0.013010976874100848   -0.060063285543772944   -0.0013638907497410039
-0.012933873323865978   -0.060239941694517844   -0.0014995769748266609
-0.013888623589871304   -0.04892922175383359   -0.001101794528869128
-0.01869997847353494   -0.06003658109374624   -0.001689062526732257
-0.012976031649290854   -0.060138592902249516   -0.0014359844145836816
-0.013888623589871304   -0.04892922175383359   -0.001101794528869128
-0.02023197941988487   -0.048763195661455   -0.001271790777356052
-0.01869997847353494   -0.06003658109374624   -0.001689062526732257
-0.020295599119856136   -0.04868943238007969   -0.001185282292545809
-0.012976031649290854   -0.060138592902249516   -0.0014359844145836816
-0.018734900694285586   -0.059956697963833766   -0.0015766768555866414
-0.020295599119856136   -0.04868943238007969   -0.001185282292545809
-0.01869997847353494   -0.06003658109374624   -0.001689062526732257
-0.012976031649290854   -0.060138592902249516   -0.0014359844145836816
-0.020295599119856136   -0.04868943238007969   -0.001185282292545809
-0.013957118561429751   -0.048832984638897965   -0.0010456901561066666
-0.013888623589871304   -0.04892922175383359   -0.001101794528869128
-0.012976031649290854   -0.060138592902249516   -0.0014359844145836816
-0.020295599119856136   -0.04868943238007969   -0.001185282292545809
-0.013888623589871304   -0.04892922175383359   -0.001101794528869128
-0.01869997847353494   -0.06003658109374624   -0.001689062526732257
-0.012976031649290854   -0.060138592902249516   -0.0014359844145836816
-0.013957118561429751   -0.048832984638897965   -0.0010456901561066666
-0.018734900694285586   -0.059956697963833766   -0.0015766768555866414
-0.013010976874100848   -0.060063285543772944   -0.0013638907497410039
-0.013957118561429751   -0.048832984638897965   -0.0010456901561066666
-0.020295599119856136   -0.04868943238007969   -0.001185282292545809
-0.018734900694285586   -0.059956697963833766   -0.0015766768555866414
-0.02033422101439531   -0.048629572797729545   -0.0010922226306282889
-0.013010976874100848   -0.060063285543772944   -0.0013638907497410039
-0.018739525932675978   -0.05990124189904432   -0.0014569668145040422
-0.02033422101439531   -0.048629572797729545   -0.0010922226306282889
-0.018734900694285586   -0.059956697963833766   -0.0015766768555866414
-0.013010976874100848   -0.060063285543772944   -0.0013638907497410039
-0.02033422101439531   -0.048629572797729545   -0.0010922226306282889
-0.014019266980367862   -0.04875270274743462   -0.0009820103930706175
-0.013957118561429751   -0.048832984638897965   -0.0010456901561066666
-0.013010976874100848   -0.060063285543772944   -0.0013638907497410039
-0.02033422101439531   -0.048629572797729545   -0.0010922226306282889
-0.013957118561429751   -0.048832984638897965   -0.0010456901561066666
-0.018734900694285586   -0.059956697963833766   -0.0015766768555866414
-0.013010976874100848   -0.060063285543772944   -0.0013638907497410039
-0.014019266980367862   -0.04875270274743462   -0.0009820103930706175
-0.018739525932675978   -0.05990124189904432   -0.0014569668145040422
-0.013046932679853957   -0.060013911401631   -0.0012835470220612579
-0.014019266980367862   -0.04875270274743462   -0.0009820103930706175
-0.02033422101439531   -0.048629572797729545   -0.0010922226306282889
-0.018739525932675978   -0.05990124189904432   -0.0014569668145040422
-0.020376597765327062   -0.048587197132877256   -0.0009912562925514898
-0.013046932679853957   -0.060013911401631   -0.0012835470220612579
-0.0187527157634959   -0.0598740482573243   -0.0013283824248710861
-0.020376597765327062   -0.048587197132877256   -0.0009912562925514898
-0.018739525932675978   -0.05990124189904432   -0.0014569668145040422
-0.013046932679853957   -0.060013911401631   -0.0012835470220612579
-0.020376597765327062   -0.048587197132877256   -0.0009912562925514898
-0.014082003187245158   -0.04868851330511561   -0.0009110449798087687
-0.014019266980367862   -0.04875270274743462   -0.0009820103930706175
-0.013046932679853957   -0.060013911401631   -0.0012835470220612579
-0.020376597765327062   -0.048587197132877256   -0.0009912562925514898
-0.014019266980367862   -0.04875270274743462   -0.0009820103930706175
-0.018739525932675978   -0.05990124189904432   -0.0014569668145040422
-0.01869997847353494   -0.06003658109374624   -0.001689062526732257
-0.02023197941988487   -0.048763195661455   -0.001271790777356052
-0.0249875623024495   -0.05976999295646795   -0.0018509192354282033
-0.018734900694285586   -0.059956697963833766   -0.0015766768555866414
-0.02023197941988487   -0.048763195661455   -0.001271790777356052
-0.027039607831793593   -0.04855910033478084   -0.0014070252921359117
-0.0249875623024495   -0.05976999295646795   -0.0018509192354282033
-0.026993295933392017   -0.04849687494627969   -0.0012918708319568514
-0.018734900694285586   -0.059956697963833766   -0.0015766768555866414
-0.02486770584349024   -0.059697024701300394   -0.0016869925869382203
-0.026993295933392017   -0.04849687494627969   -0.0012918708319568514
-0.0249875623024495   -0.05976999295646795   -0.0018509192354282033
-0.018734900694285586   -0.059956697963833766   -0.0015766768555866414
-0.026993295933392017   -0.04849687494627969   -0.0012918708319568514
-0.020295599119856136   -0.04868943238007969   -0.001185282292545809
-0.02023197941988487   -0.048763195661455   -0.001271790777356052
-0.018734900694285586   -0.059956697963833766   -0.0015766768555866414
-0.026993295933392017   -0.04849687494627969   -0.0012918708319568514
-0.02023197941988487   -0.048763195661455   -0.001271790777356052
-0.0249875623024495   -0.05976999295646795   -0.0018509192354282033
-0.018734900694285586   -0.059956697963833766   -0.0015766768555866414
-0.020295599119856136   -0.04868943238007969   -0.001185282292545809
-0.02486770584349024   -0.059697024701300394   -0.0016869925869382203
-0.018739525932675978   -0.05990124189904432   -0.0014569668145040422
-0.020295599119856136   -0.04868943238007969   -0.001185282292545809
-0.026993295933392017   -0.04849687494627969   -0.0012918708319568514
-0.02486770584349024   -0.059697024701300394   -0.0016869925869382203
-0.02695556256153202   -0.048446634310013816   -0.0011646956649380947
-0.018739525932675978   -0.05990124189904432   -0.0014569668145040422
-0.024766627734186867   -0.0596499818161793   -0.0015102815835064986
-0.02695556256153202   -0.048446634310013816   -0.0011646956649380947
-0.02486770584349024   -0.059697024701300394   -0.0016869925869382203
-0.018739525932675978   -0.05990124189904432   -0.0014569668145040422
-0.02695556256153202   -0.048446634310013816   -0.0011646956649380947
-0.02033422101439531   -0.048629572797729545   -0.0010922226306282889
-0.020295599119856136   -0.04868943238007969   -0.001185282292545809
-0.018739525932675978   -0.05990124189904432   -0.0014569668145040422
-0.02695556256153202   -0.048446634310013816   -0.0011646956649380947
-0.020295599119856136   -0.04868943238007969   -0.001185282292545809
-0.02486770584349024   -0.059697024701300394   -0.0016869925869382203
-0.018739525932675978   -0.05990124189904432   -0.0014569668145040422
-0.02033422101439531   -0.048629572797729545   -0.0010922226306282889
-0.024766627734186867   -0.0596499818161793   -0.0015102815835064986
-0.0187527157634959   -0.0598740482573243   -0.0013283824248710861
-0.02033422101439531   -0.048629572797729545   -0.0010922226306282889
-0.02695556256153202   -0.048446634310013816   -0.0011646956649380947
-0.024766627734186867   -0.0596499818161793   -0.0015102815835064986
-0.02686445848230779   -0.048430386644338456   -0.0010268714886868245
-0.0187527157634959   -0.0598740482573243   -0.0013283824248710861
-0.024599683601219918   -0.05965099027594608   -0.001322378838730915
-0.02686445848230779   -0.048430386644338456   -0.0010268714886868245
-0.024766627734186867   -0.0596499818161793   -0.0015102815835064986
-0.0187527157634959   -0.0598740482573243   -0.0013283824248710861
-0.02686445848230779   -0.048430386644338456   -0.0010268714886868245
-0.020376597765327062   -0.048587197132877256   -0.0009912562925514898
-0.02033422101439531   -0.048629572797729545   -0.0010922226306282889
-0.0187527157634959   -0.0598740482573243   -0.0013283824248710861
-0.02686445848230779   -0.048430386644338456   -0.0010268714886868245
-0.02033422101439531   -0.048629572797729545   -0.0010922226306282889
-0.024766627734186867   -0.0596499818161793   -0.0015102815835064986
0.00529251545704493   -0.04910275112825463   -0.00034925865323818866
0.0054671246224265585   -0.03710427353624248   -5.406471910552258e-05
-0.0013412126746343224   -0.04910108527414596   -0.0006474989909885935
0.005272935201337816   -0.04893873088229297   -0.0003957518862968229
0.0054671246224265585   -0.03710427353624248   -5.406471910552258e-05
-0.0015412154898814168   -0.037042381733101544   -0.0003223214874377439
-0.0013412126746343224   -0.04910108527414596   -0.0006474989909885935
-0.0016228374395475297   -0.03690580428388996   -0.00029802462121047616
0.005272935201337816   -0.04893873088229297   -0.0003957518862968229
-0.0014007426626626938   -0.04895842020570109   -0.0006517915956758856
-0.0016228374395475297   -0.03690580428388996   -0.00029802462121047616
-0.0013412126746343224   -0.04910108527414596   -0.0006474989909885935
0.005272935201337816   -0.04893873088229297   -0.0003957518862968229
-0.0016228374395475297   -0.03690580428388996   -0.00029802462121047616
0.005380268128451506   -0.03694777649425719   -4.891089852239821e-05
0.0054671246224265585   -0.03710427353624248   -5.406471910552258e-05
0.005272935201337816   -0.04893873088229297   -0.0003957518862968229
-0.0016228374395475297   -0.03690580428388996   -0.00029802462121047616
0.0054671246224265585   -0.03710427353624248   -5.406471910552258e-05
-0.0013412126746343224   -0.04910108527414596   -0.0006474989909885935
0.005272935201337816   -0.04893873088229297   -0.0003957518862968229
0.005380268128451506   -0.03694777649425719   -4.891089852239821e-05
-0.0014007426626626938   -0.04895842020570109   -0.0006517915956758856
0.005224863173438622   -0.048806582878149166   -0.00043030863994599747
0.005380268128451506   -0.03694777649425719   -4.891089852239821e-05
-0.0016228374395475297   -0.03690580428388996   -0.00029802462121047616
-0.0014007426626626938   -0.04895842020570109   -0.0006517915956758856
-0.0017162644550831087   -0.036776802937097466   -0.0002669819405362774
0.005224863173438622   -0.048806582878149166   -0.00043030863994599747
-0.0014668875698392104   -0.048835493460871716   -0.0006486370080189567
-0.0017162644550831087   -0.036776802937097466   -0.0002669819405362774
-0.0014007426626626938   -0.04895842020570109   -0.0006517915956758856
0.005224863173438622   -0.048806582878149166   -0.00043030863994599747
-0.0017162644550831087   -0.036776802937097466   -0.0002669819405362774
0.005273839792180145   -0.03680779025282728   -2.9968774463059447e-05
0.005380268128451506   -0.03694777649425719   -4.891089852239821e-05
0.005224863173438622   -0.048806582878149166   -0.00043030863994599747
-0.0017162644550831087   -0.036776802937097466   -0.0002669819405362774
0.005380268128451506   -0.03694777649425719   -4.891089852239821e-05
-0.0014007426626626938   -0.04895842020570109   -0.0006517915956758856
0.005224863173438622   -0.048806582878149166   -0.00043030863994599747
0.005273839792180145   -0.03680779025282728   -2.9968774463059447e-05
-0.0014668875698392104   -0.048835493460871716   -0.0006486370080189567
0.005157813694436668   -0.04868483477077765   -0.0004537624253879863
0.005273839792180145   -0.03680779025282728   -2.9968774463059447e-05
-0.0017162644550831087   -0.036776802937097466   -0.0002669819405362774
-0.0014668875698392104   -0.048835493460871716   -0.0006486370080189567
-0.001821079668080841   -0.03665361712763886   -0.00022750151187489763
0.005157813694436668   -0.04868483477077765   -0.0004537624253879863
-0.0015489159084228104   -0.048729131433722074   -0.0006377416365331267
-0.001821079668080841   -0.03665361712763886   -0.00022750151187489763
-0.0014668875698392104   -0.048835493460871716   -0.0006486370080189567
0.005157813694436668   -0.04868483477077765   -0.0004537624253879863
-0.001821079668080841   -0.03665361712763886   -0.00022750151187489763
0.005133596078397277   -0.03666128668900906   2.1362427170013267e-06
0.005273839792180145   -0.03680779025282728   -2.9968774463059447e-05
0.005157813694436668   -0.04868483477077765   -0.0004537624253879863
-0.001821079668080841   -0.03665361712763886   -0.00022750151187489763
0.005273839792180145   -0.03680779025282728   -2.9968774463059447e-05
-0.0014668875698392104   -0.048835493460871716   -0.0006486370080189567
-0.0013412126746343224   -0.04910108527414596   -0.0006474989909885935
-0.0015412154898814168   -0.037042381733101544   -0.0003223214874377439
-0.007668414933465506   -0.04904105747147224   -0.0008938483898656438
-0.0014007426626626938   -0.04895842020570109   -0.0006517915956758856
-0.0015412154898814168   -0.037042381733101544   -0.0003223214874377439
-0.008182038346940037   -0.036970509391899824   -0.0005495536411201452
-0.007668414933465506   -0.04904105747147224   -0.0008938483898656438
-0.00826523534614342   -0.03685618775258139   -0.0005124963297051288
-0.0014007426626626938   -0.04895842020570109   -0.0006517915956758856
-0.007734969108915149   -0.048922542198028676   -0.0008679186931109996
-0.00826523534614342   -0.03685618775258139   -0.0005124963297051288
-0.007668414933465506   -0.04904105747147224   -0.0008938483898656438
-0.0014007426626626938   -0.04895842020570109   -0.0006517915956758856
-0.00826523534614342   -0.03685618775258139   -0.0005124963297051288
-0.0016228374395475297   -0.03690580428388996   -0.00029802462121047616
-0.0015412154898814168   -0.037042381733101544   -0.0003223214874377439
-0.0014007426626626938   -0.04895842020570109   -0.0006517915956758856
-0.00826523534614342   -0.03685618775258139   -0.0005124963297051288
-0.0015412154898814168   -0.037042381733101544   -0.0003223214874377439
-0.007668414933465506   -0.04904105747147224   -0.0008938483898656438
-0.0014007426626626938   -0.04895842020570109   -0.0006517915956758856
-0.0016228374395475297   -0.03690580428388996   -0.00029802462121047616
-0.007734969108915149   -0.048922542198028676   -0.0008679186931109996
-0.0014668875698392104   -0.048835493460871716   -0.0006486370080189567
-0.0016228374395475297   -0.03690580428388996   -0.00029802462121047616
-0.00826523534614342   -0.03685618775258139   -0.0005124963297051288
-0.007734969108915149   -0.048922542198028676   -0.0008679186931109996
-0.008350287144321919   -0.0367477489717581   -0.00046901443193501485
-0.0014668875698392104   -0.048835493460871716   -0.0006486370080189567
-0.007802857350025411   -0.048820095813946154   -0.0008342336040965802
-0.008350287144321919   -0.0367477489717581   -0.00046901443193501485
-0.007734969108915149   -0.048922542198028676   -0.0008679186931109996
-0.0014668875698392104   -0.048835493460871716   -0.0006486370080189567
-0.008350287144321919   -0.0367477489717581   -0.00046901443193501485
-0.0017162644550831087   -0.036776802937097466   -0.0002669819405362774
-0.0016228374395475297   -0.03690580428388996   -0.00029802462121047616
-0.0014668875698392104   -0.048835493460871716   -0.0006486370080189567
-0.008350287144321919   -0.0367477489717581   -0.00046901443193501485
-0.0016228374395475297   -0.03690580428388996   -0.00029802462121047616
-0.007734969108915149   -0.048922542198028676   -0.0008679186931109996
-0.0014668875698392104   -0.048835493460871716   -0.0006486370080189567
-0.0017162644550831087   -0.036776802937097466   -0.0002669819405362774
-0.007802857350025411   -0.048820095813946154   -0.0008342336040965802
-0.0015489159084228104   -0.048729131433722074   -0.0006377416365331267
-0.0017162644550831087   -0.036776802937097466   -0.0002669819405362774
-0.008350287144321919   -0.0367477489717581   -0.00046901443193501485
-0.007802857350025411   -0.048820095813946154   -0.0008342336040965802
-0.008440734600895358   -0.03664685982584041   -0.00041903538722541867
-0.0015489159084228104   -0.048729131433722074   -0.0006377416365331267
-0.007876475090277092   -0.04873467957795711   -0.0007931544381956037
-0.008440734600895358   -0.03664685982584041   -0.00041903538722541867
-0.007802857350025411   -0.048820095813946154   -0.0008342336040965802
-0.0015489159084228104   -0.048729131433722074   -0.0006377416365331267
-0.008440734600895358   -0.03664685982584041   -0.00041903538722541867
-0.001821079668080841   -0.03665361712763886   -0.00022750151187489763
-0.0017162644550831087   -0.036776802937097466   -0.0002669819405362774
-0.0015489159084228104   -0.048729131433722074   -0.0006377416365331267
-0.008440734600895358   -0.03664685982584041   -0.00041903538722541867
-0.0017162644550831087   -0.036776802937097466   -0.0002669819405362774
-0.007802857350025411   -0.048820095813946154   -0.0008342336040965802
-0.007668414933465506   -0.04904105747147224   -0.0008938483898656438
-0.008182038346940037   -0.036970509391899824   -0.0005495536411201452
-0.013888623589871304   -0.04892922175383359   -0.001101794528869128
-0.007734969108915149   -0.048922542198028676   -0.0008679186931109996
-0.008182038346940037   -0.036970509391899824   -0.0005495536411201452
-0.014714964001655641   -0.03688444176339888   -0.0007426530532149379
-0.013888623589871304   -0.04892922175383359   -0.001101794528869128
-0.01479753272096468   -0.03679075910445555   -0.000692833927155065
-0.007734969108915149   -0.048922542198028676   -0.0008679186931109996
-0.013957118561429751   -0.048832984638897965   -0.0010456901561066666
-0.01479753272096468   -0.03679075910445555   -0.000692833927155065
-0.013888623589871304   -0.04892922175383359   -0.001101794528869128
-0.007734969108915149   -0.048922542198028676   -0.0008679186931109996
-0.01479753272096468   -0.03679075910445555   -0.000692833927155065
-0.00826523534614342   -0.03685618775258139   -0.0005124963297051288
-0.008182038346940037   -0.036970509391899824   -0.0005495536411201452
-0.007734969108915149   -0.048922542198028676   -0.0008679186931109996
-0.01479753272096468   -0.03679075910445555   -0.000692833927155065
-0.008182038346940037   -0.036970509391899824   -0.0005495536411201452
-0.013888623589871304   -0.04892922175383359   -0.001101794528869128
-0.007734969108915149   -0.048922542198028676   -0.0008679186931109996
-0.00826523534614342   -0.03685618775258139   -0.0005124963297051288
-0.013957118561429751   -0.048832984638897965   -0.0010456901561066666
-0.007802857350025411   -0.048820095813946154   -0.0008342336040965802
-0.00826523534614342   -0.03685618775258139   -0.0005124963297051288
-0.01479753272096468   -0.03679075910445555   -0.000692833927155065
-0.013957118561429751   -0.048832984638897965   -0.0010456901561066666
-0.014874766694343483   -0.03670329821937645   -0.0006368100710479669
-0.007802857350025411   -0.048820095813946154   -0.0008342336040965802
-0.014019266980367862   -0.04875270274743462   -0.0009820103930706175
-0.014874766694343483   -0.03670329821937645   -0.0006368100710479669
-0.013957118561429751   -0.048832984638897965   -0.0010456901561066666
-0.007802857350025411   -0.048820095813946154   -0.0008342336040965802
-0.014874766694343483   -0.03670329821937645   -0.0006368100710479669
-0.008350287144321919   -0.0367477489717581   -0.00046901443193501485
-0.00826523534614342   -0.03685618775258139   -0.0005124963297051288
-0.007802857350025411   -0.048820095813946154   -0.0008342336040965802
-0.014874766694343483   -0.03670329821937645   -0.0006368100710479669
-0.00826523534614342   -0.03685618775258139   -0.0005124963297051288
-0.013957118561429751   -0.048832984638897965   -0.0010456901561066666
-0.007802857350025411   -0.048820095813946154   -0.0008342336040965802
-0.008350287144321919   -0.0367477489717581   -0.00046901443193501485
-0.014019266980367862   -0.04875270274743462   -0.0009820103930706175
-0.007876475090277092   -0.04873467957795711   -0.0007931544381956037
-0.008350287144321919   -0.0367477489717581   -0.00046901443193501485
-0.014874766694343483   -0.03670329821937645   -0.0006368100710479669
-0.014019266980367862   -0.04875270274743462   -0.0009820103930706175
-0.01495227668640825   -0.03662230338099793   -0.0005748897443465075
-0.007876475090277092   -0.04873467957795711   -0.0007931544381956037
-0.014082003187245158   -0.04868851330511561   -0.0009110449798087687
-0.01495227668640825   -0.03662230338099793   -0.0005748897443465075
-0.014019266980367862   -0.04875270274743462   -0.0009820103930706175
-0.007876475090277092   -0.04873467957795711   -0.0007931544381956037
-0.01495227668640825   -0.03662230338099793   -0.0005748897443465075
-0.008440734600895358   -0.03664685982584041   -0.00041903538722541867
-0.008350287144321919   -0.0367477489717581   -0.00046901443193501485
-0.007876475090277092   -0.04873467957795711   -0.0007931544381956037
-0.01495227668640825   -0.03662230338099793   -0.0005748897443465075
-0.008350287144321919   -0.0367477489717581   -0.00046901443193501485
-0.014019266980367862   -0.04875270274743462   -0.0009820103930706175
-0.013888623589871304   -0.04892922175383359   -0.001101794528869128
-0.014714964001655641   -0.03688444176339888   -0.0007426530532149379
-0.02023197941988487   -0.048763195661455   -0.001271790777356052
-0.013957118561429751   -0.048832984638897965   -0.0010456901561066666
-0.014714964001655641   -0.03688444176339888   -0.0007426530532149379
-0.021365807821684433   -0.036768165486901004   -0.0008999714105375095
-0.02023197941988487   -0.048763195661455   -0.001271790777356052
-0.02144488738965913   -0.03669619855024765   -0.0008375416260264924
-0.013957118561429751   -0.048832984638897965   -0.0010456901561066666
-0.020295599119856136   -0.04868943238007969   -0.001185282292545809
-0.02144488738965913   -0.03669619855024765   -0.0008375416260264924
-0.02023197941988487   -0.048763195661455   -0.001271790777356052
-0.013957118561429751   -0.048832984638897965   -0.0010456901561066666
-0.02144488738965913   -0.03669619855024765   -0.0008375416260264924
-0.01479753272096468   -0.03679075910445555   -0.000692833927155065
-0.014714964001655641   -0.03688444176339888   -0.0007426530532149379
-0.013957118561429751   -0.048832984638897965   -0.0010456901561066666
-0.02144488738965913   -0.03669619855024765   -0.0008375416260264924
-0.014714964001655641   -0.03688444176339888   -0.0007426530532149379
-0.02023197941988487   -0.048763195661455   -0.001271790777356052
-0.013957118561429751   -0.048832984638897965   -0.0010456901561066666
-0.01479753272096468   -0.03679075910445555   -0.000692833927155065
-0.020295599119856136   -0.04868943238007969   -0.001185282292545809
-0.014019266980367862   -0.04875270274743462   -0.0009820103930706175
-0.01479753272096468   -0.03679075910445555   -0.000692833927155065
-0.02144488738965913   -0.03669619855024765   -0.0008375416260264924
-0.020295599119856136   -0.04868943238007969   -0.001185282292545809
-0.021504897853581798   -0.036628048854687144   -0.0007699354740485945
-0.014019266980367862   -0.04875270274743462   -0.0009820103930706175
-0.02033422101439531   -0.048629572797729545   -0.0010922226306282889
-0.021504897853581798   -0.036628048854687144   -0.0007699354740485945
-0.020295599119856136   -0.04868943238007969   -0.001185282292545809
-0.014019266980367862   -0.04875270274743462   -0.0009820103930706175
-0.021504897853581798   -0.036628048854687144   -0.0007699354740485945
-0.014874766694343483   -0.03670329821937645   -0.0006368100710479669
-0.01479753272096468   -0.03679075910445555   -0.000692833927155065
-0.014019266980367862   -0.04875270274743462   -0.0009820103930706175
-0.021504897853581798   -0.036628048854687144   -0.0007699354740485945
-0.01479753272096468   -0.03679075910445555   -0.000692833927155065
-0.020295599119856136   -0.04868943238007969   -0.001185282292545809
-0.014019266980367862   -0.04875270274743462   -0.0009820103930706175
-0.014874766694343483   -0.03670329821937645   -0.0006368100710479669
-0.02033422101439531   -0.048629572797729545   -0.0010922226306282889
-0.014082003187245158   -0.04868851330511561   -0.0009110449798087687
-0.014874766694343483   -0.03670329821937645   -0.0006368100710479669
-0.021504897853581798   -0.036628048854687144   -0.0007699354740485945
-0.02033422101439531   -0.048629572797729545   -0.0010922226306282889
-0.021564426743881752   -0.0365667180319973   -0.0006957985910156018
-0.014082003187245158   -0.04868851330511561   -0.0009110449798087687
-0.020376597765327062   -0.048587197132877256   -0.0009912562925514898
-0.021564426743881752   -0.0365667180319973   -0.0006957985910156018
-0.02033422101439531   -0.048629572797729545   -0.0010922226306282889
-0.014082003187245158   -0.04868851330511561   -0.0009110449798087687
-0.021564426743881752   -0.0365667180319973   -0.0006957985910156018
-0.01495227668640825   -0.03662230338099793   -0.0005748897443465075
-0.014874766694343483   -0.03670329821937645   -0.0006368100710479669
-0.014082003187245158   -0.04868851330511561   -0.0009110449798087687
-0.021564426743881752   -0.0365667180319973   -0.0006957985910156018
-0.014874766694343483   -0.03670329821937645   -0.0006368100710479669
-0.02033422101439531   -0.048629572797729545   -0.0010922226306282889
-0.02023197941988487   -0.048763195661455   -0.001271790777356052
-0.021365807821684433   -0.036768165486901004   -0.0008999714105375095
-0.027039607831793593   -0.04855910033478084   -0.0014070252921359117
-0.020295599119856136   -0.04868943238007969   -0.001185282292545809
-0.021365807821684433   -0.036768165486901004   -0.0008999714105375095
-0.028414197127467792   -0.03663092524591858   -0.001016858864498925
-0.027039607831793593   -0.04855910033478084   -0.0014070252921359117
-0.0284266298005498   -0.036573410630324314   -0.0009479961407432407
-0.020295599119856136   -0.04868943238007969   -0.001185282292545809
-0.026993295933392017   -0.04849687494627969   -0.0012918708319568514
-0.0284266298005498   -0.036573410630324314   -0.0009479961407432407
-0.027039607831793593   -0.04855910033478084   -0.0014070252921359117
-0.020295599119856136   -0.04868943238007969   -0.001185282292545809
-0.0284266298005498   -0.036573410630324314   -0.0009479961407432407
-0.02144488738965913   -0.03669619855024765   -0.0008375416260264924
-0.021365807821684433   -0.036768165486901004   -0.0008999714105375095
-0.020295599119856136   -0.04868943238007969   -0.001185282292545809
-0.0284266298005498   -0.036573410630324314   -0.0009479961407432407
-0.021365807821684433   -0.036768165486901004   -0.0008999714105375095
-0.027039607831793593   -0.04855910033478084   -0.0014070252921359117
-0.020295599119856136   -0.04868943238007969   -0.001185282292545809
-0.02144488738965913   -0.03669619855024765   -0.0008375416260264924
-0.026993295933392017   -0.04849687494627969   -0.0012918708319568514
-0.02033422101439531   -0.048629572797729545   -0.0010922226306282889
-0.02144488738965913   -0.03669619855024765   -0.0008375416260264924
-0.0284266298005498   -0.036573410630324314   -0.0009479961407432407
-0.026993295933392017   -0.04849687494627969   -0.0012918708319568514
-0.028439349120643446   -0.03651517805449809   -0.000868706124350658
-0.02033422101439531   -0.048629572797729545   -0.0010922226306282889
-0.02695556256153202   -0.048446634310013816   -0.0011646956649380947
-0.028439349120643446   -0.03651517805449809   -0.000868706124350658
-0.026993295933392017   -0.04849687494627969   -0.0012918708319568514
-0.02033422101439531   -0.048629572797729545   -0.0010922226306282889
-0.028439349120643446   -0.03651517805449809   -0.000868706124350658
-0.021504897853581798   -0.036628048854687144   -0.0007699354740485945
-0.02144488738965913   -0.03669619855024765   -0.0008375416260264924
-0.02033422101439531   -0.048629572797729545   -0.0010922226306282889
-0.028439349120643446   -0.03651517805449809   -0.000868706124350658
-0.02144488738965913   -0.03669619855024765   -0.0008375416260264924
-0.026993295933392017   -0.04849687494627969   -0.0012918708319568514
-0.02033422101439531   -0.048629572797729545   -0.0010922226306282889
-0.021504897853581798   -0.036628048854687144   -0.0007699354740485945
-0.02695556256153202   -0.048446634310013816   -0.0011646956649380947
-0.020376597765327062   -0.048587197132877256   -0.0009912562925514898
-0.021504897853581798   -0.036628048854687144   -0.0007699354740485945
-0.028439349120643446   -0.03651517805449809   -0.000868706124350658
-0.02695556256153202   -0.048446634310013816   -0.0011646956649380947
-0.02841252795795492   -0.036476578731239925   -0.000780228751235105
-0.020376597765327062   -0.048587197132877256   -0.0009912562925514898
-0.02686445848230779   -0.048430386644338456   -0.0010268714886868245
-0.02841252795795492   -0.036476578731239925   -0.000780228751235105
-0.02695556256153202   -0.048446634310013816   -0.0011646956649380947
-0.020376597765327062   -0.048587197132877256   -0.0009912562925514898
-0.02841252795795492   -0.036476578731239925   -0.000780228751235105
-0.021564426743881752   -0.0365667180319973   -0.0006957985910156018
-0.021504897853581798   -0.036628048854687144   -0.0007699354740485945
-0.020376597765327062   -0.048587197132877256   -0.0009912562925514898
-0.02841252795795492   -0.036476578731239925   -0.000780228751235105
-0.021504897853581798   -0.036628048854687144   -0.0007699354740485945
-0.02695556256153202   -0.048446634310013816   -0.0011646956649380947
0.0054671246224265585   -0.03710427353624248   -5.406471910552258e-05
0.004898160975422444   -0.0247525580142927   0.00014964533836947554
-0.0015412154898814168   -0.037042381733101544   -0.0003223214874377439
0.005380268128451506   -0.03694777649425719   -4.891089852239821e-05
0.004898160975422444   -0.0247525580142927   0.00014964533836947554
-0.002160706289264917   -0.024635955408849487   -6.375213353628816e-05
-0.0015412154898814168   -0.037042381733101544   -0.0003223214874377439
-0.0022581235305769907   -0.0245122548387896   -1.3174129063054805e-05
0.005380268128451506   -0.03694777649425719   -4.891089852239821e-05
-0.0016228374395475297   -0.03690580428388996   -0.00029802462121047616
-0.0022581235305769907   -0.0245122548387896   -1.3174129063054805e-05
-0.0015412154898814168   -0.037042381733101544   -0.0003223214874377439
0.005380268128451506   -0.03694777649425719   -4.891089852239821e-05
-0.0022581235305769907   -0.0245122548387896   -1.3174129063054805e-05
0.004744562140393965   -0.024603411920256637   0.00021273479612562936
0.004898160975422444   -0.0247525580142927   0.00014964533836947554
0.005380268128451506   -0.03694777649425719   -4.891089852239821e-05
-0.0022581235305769907   -0.0245122548387896   -1.3174129063054805e-05
0.004898160975422444   -0.0247525580142927   0.00014964533836947554
-0.0015412154898814168   -0.037042381733101544   -0.0003223214874377439
0.005380268128451506   -0.03694777649425719   -4.891089852239821e-05
0.004744562140393965   -0.024603411920256637   0.00021273479612562936
-0.0016228374395475297   -0.03690580428388996   -0.00029802462121047616
0.005273839792180145   -0.03680779025282728   -2.9968774463059447e-05
0.004744562140393965   -0.024603411920256637   0.00021273479612562936
-0.0022581235305769907   -0.0245122548387896   -1.3174129063054805e-05
-0.0016228374395475297   -0.03690580428388996   -0.00029802462121047616
-0.0023720565264647602   -0.024381664368411732   4.638009578434733e-05
0.005273839792180145   -0.03680779025282728   -2.9968774463059447e-05
-0.0017162644550831087   -0.036776802937097466   -0.0002669819405362774
-0.0023720565264647602   -0.024381664368411732   4.638009578434733e-05
-0.0016228374395475297   -0.03690580428388996   -0.00029802462121047616
0.005273839792180145   -0.03680779025282728   -2.9968774463059447e-05
-0.0023720565264647602   -0.024381664368411732   4.638009578434733e-05
0.004573252295021206   -0.024455207668146052   0.00030322748557566593
0.004744562140393965   -0.024603411920256637   0.00021273479612562936
0.005273839792180145   -0.03680779025282728   -2.9968774463059447e-05
-0.0023720565264647602   -0.024381664368411732   4.638009578434733e-05
0.004744562140393965   -0.024603411920256637   0.00021273479612562936
-0.0016228374395475297   -0.03690580428388996   -0.00029802462121047616
0.005273839792180145   -0.03680779025282728   -2.9968774463059447e-05
0.004573252295021206   -0.024455207668146052   0.00030322748557566593
-0.0017162644550831087   -0.036776802937097466   -0.0002669819405362774
0.005133596078397277   -0.03666128668900906   2.1362427170013267e-06
0.004573252295021206   -0.024455207668146052   0.00030322748557566593
-0.0023720565264647602   -0.024381664368411732   4.638009578434733e-05
-0.0017162644550831087   -0.036776802937097466   -0.0002669819405362774
-0.0024898734173008567   -0.024242973273223885   0.0001147862266225082
0.005133596078397277   -0.03666128668900906   2.1362427170013267e-06
-0.001821079668080841   -0.03665361712763886   -0.00022750151187489763
-0.0024898734173008567   -0.024242973273223885   0.0001147862266225082
-0.0017162644550831087   -0.036776802937097466   -0.0002669819405362774
0.005133596078397277   -0.03666128668900906   2.1362427170013267e-06
-0.0024898734173008567   -0.024242973273223885   0.0001147862266225082
0.004363947605445002   -0.024273180955532214   0.0004027810687638288
0.004573252295021206   -0.024455207668146052   0.00030322748557566593
0.005133596078397277   -0.03666128668900906   2.1362427170013267e-06
-0.0024898734173008567   -0.024242973273223885   0.0001147862266225082
0.004573252295021206   -0.024455207668146052   0.00030322748557566593
-0.0017162644550831087   -0.036776802937097466   -0.0002669819405362774
-0.0015412154898814168   -0.037042381733101544   -0.0003223214874377439
-0.002160706289264917   -0.024635955408849487   -6.375213353628816e-05
-0.008182038346940037   -0.036970509391899824   -0.0005495536411201452
-0.0016228374395475297   -0.03690580428388996   -0.00029802462121047616
-0.002160706289264917   -0.024635955408849487   -6.375213353628816e-05
-0.008808312022103373   -0.02460578911482728   -0.0002695363205749423
-0.008182038346940037   -0.036970509391899824   -0.0005495536411201452
-0.008896318029862536   -0.02449775251966843   -0.0002225443675972619
-0.0016228374395475297   -0.03690580428388996   -0.00029802462121047616
-0.00826523534614342   -0.03685618775258139   -0.0005124963297051288
-0.008896318029862536   -0.02449775251966843   -0.0002225443675972619
-0.008182038346940037   -0.036970509391899824   -0.0005495536411201452
-0.0016228374395475297   -0.03690580428388996   -0.00029802462121047616
-0.008896318029862536   -0.02449775251966843   -0.0002225443675972619
-0.0022581235305769907   -0.0245122548387896   -1.3174129063054805e-05
-0.002160706289264917   -0.024635955408849487   -6.375213353628816e-05
-0.0016228374395475297   -0.03690580428388996   -0.00029802462121047616
-0.008896318029862536   -0.02449775251966843   -0.0002225443675972619
-0.002160706289264917   -0.024635955408849487   -6.375213353628816e-05
-0.008182038346940037   -0.036970509391899824   -0.0005495536411201452
-0.0016228374395475297   -0.03690580428388996   -0.00029802462121047616
-0.0022581235305769907   -0.0245122548387896   -1.3174129063054805e-05
-0.00826523534614342   -0.03685618775258139   -0.0005124963297051288
-0.0017162644550831087   -0.036776802937097466   -0.0002669819405362774
-0.0022581235305769907   -0.0245122548387896   -1.3174129063054805e-05
-0.008896318029862536   -0.02449775251966843   -0.0002225443675972619
-0.00826523534614342   -0.03685618775258139   -0.0005124963297051288
-0.008987342737901789   -0.024385360407779177   -0.00017090334670124708
-0.0017162644550831087   -0.036776802937097466   -0.0002669819405362774
-0.008350287144321919   -0.0367477489717581   -0.00046901443193501485
-0.008987342737901789   -0.024385360407779177   -0.00017090334670124708
-0.00826523534614342   -0.03685618775258139   -0.0005124963297051288
-0.0017162644550831087   -0.036776802937097466   -0.0002669819405362774
-0.008987342737901789   -0.024385360407779177   -0.00017090334670124708
-0.0023720565264647602   -0.024381664368411732   4.638009578434733e-05
-0.0022581235305769907   -0.0245122548387896   -1.3174129063054805e-05
-0.0017162644550831087   -0.036776802937097466   -0.0002669819405362774
-0.008987342737901789   -0.024385360407779177   -0.00017090334670124708
-0.0022581235305769907   -0.0245122548387896   -1.3174129063054805e-05
-0.00826523534614342   -0.03685618775258139   -0.0005124963297051288
-0.0017162644550831087   -0.036776802937097466   -0.0002669819405362774
-0.0023720565264647602   -0.024381664368411732   4.638009578434733e-05
-0.008350287144321919   -0.0367477489717581   -0.00046901443193501485
-0.001821079668080841   -0.03665361712763886   -0.00022750151187489763
-0.0023720565264647602   -0.024381664368411732   4.638009578434733e-05
-0.008987342737901789   -0.024385360407779177   -0.00017090334670124708
-0.008350287144321919   -0.0367477489717581   -0.00046901443193501485
-0.009082093563898204   -0.024270604935874088   -0.00011368114174960835
-0.001821079668080841   -0.03665361712763886   -0.00022750151187489763
-0.008440734600895358   -0.03664685982584041   -0.00041903538722541867
-0.009082093563898204   -0.024270604935874088   -0.00011368114174960835
-0.008350287144321919   -0.0367477489717581   -0.00046901443193501485
-0.001821079668080841   -0.03665361712763886   -0.00022750151187489763
-0.009082093563898204   -0.024270604935874088   -0.00011368114174960835
-0.0024898734173008567   -0.024242973273223885   0.0001147862266225082
-0.0023720565264647602   -0.024381664368411732   4.638009578434733e-05
-0.001821079668080841   -0.03665361712763886   -0.00022750151187489763
-0.009082093563898204   -0.024270604935874088   -0.00011368114174960835
-0.0023720565264647602   -0.024381664368411732   4.638009578434733e-05
-0.008350287144321919   -0.0367477489717581   -0.00046901443193501485
-0.008182038346940037   -0.036970509391899824   -0.0005495536411201452
-0.008808312022103373   -0.02460578911482728   -0.0002695363205749423
-0.014714964001655641   -0.03688444176339888   -0.0007426530532149379
-0.00826523534614342   -0.03685618775258139   -0.0005124963297051288
-0.008808312022103373   -0.02460578911482728   -0.0002695363205749423
-0.015388065298765111   -0.024597417669926024   -0.00045560203348620794
-0.014714964001655641   -0.03688444176339888   -0.0007426530532149379
-0.015472173416745233   -0.02450263411431145   -0.0004108301059252896
-0.00826523534614342   -0.03685618775258139   -0.0005124963297051288
-0.01479753272096468   -0.03679075910445555   -0.000692833927155065
-0.015472173416745233   -0.02450263411431145   -0.0004108301059252896
-0.014714964001655641   -0.03688444176339888   -0.0007426530532149379
-0.00826523534614342   -0.03685618775258139   -0.0005124963297051288
-0.015472173416745233   -0.02450263411431145   -0.0004108301059252896
-0.008896318029862536   -0.02449775251966843   -0.0002225443675972619
-0.008808312022103373   -0.02460578911482728   -0.0002695363205749423
-0.00826523534614342   -0.03685618775258139   -0.0005124963297051288
-0.015472173416745233   -0.02450263411431145   -0.0004108301059252896
-0.008808312022103373   -0.02460578911482728   -0.0002695363205749423
-0.014714964001655641   -0.03688444176339888   -0.0007426530532149379
-0.00826523534614342   -0.03685618775258139   -0.0005124963297051288
-0.008896318029862536   -0.02449775251966843   -0.0002225443675972619
-0.01479753272096468   -0.03679075910445555   -0.000692833927155065
-0.008350287144321919   -0.0367477489717581   -0.00046901443193501485
-0.008896318029862536   -0.02449775251966843   -0.0002225443675972619
-0.015472173416745233   -0.02450263411431145   -0.0004108301059252896
-0.01479753272096468   -0.03679075910445555   -0.000692833927155065
-0.01555229381386178   -0.02440611373416998   -0.00036199515372754956
-0.008350287144321919   -0.0367477489717581   -0.00046901443193501485
-0.014874766694343483   -0.03670329821937645   -0.0006368100710479669
-0.01555229381386178   -0.02440611373416998   -0.00036199515372754956
-0.01479753272096468   -0.03679075910445555   -0.000692833927155065
-0.008350287144321919   -0.0367477489717581   -0.00046901443193501485
-0.01555229381386178   -0.02440611373416998   -0.00036199515372754956
-0.008987342737901789   -0.024385360407779177   -0.00017090334670124708
-0.008896318029862536   -0.02449775251966843   -0.0002225443675972619
-0.008350287144321919   -0.0367477489717581   -0.00046901443193501485
-0.01555229381386178   -0.02440611373416998   -0.00036199515372754956
-0.008896318029862536   -0.02449775251966843   -0.0002225443675972619
-0.01479753272096468   -0.03679075910445555   -0.000692833927155065
-0.008350287144321919   -0.0367477489717581   -0.00046901443193501485
-0.008987342737901789   -0.024385360407779177   -0.00017090334670124708
-0.014874766694343483   -0.03670329821937645   -0.0006368100710479669
-0.008440734600895358   -0.03664685982584041   -0.00041903538722541867
-0.008987342737901789   -0.024385360407779177   -0.00017090334670124708
-0.01555229381386178   -0.02440611373416998   -0.00036199515372754956
-0.014874766694343483   -0.03670329821937645   -0.0006368100710479669
-0.01563160677660929   -0.02430730948713931   -0.0003093296133097463
-0.008440734600895358   -0.03664685982584041   -0.00041903538722541867
-0.01495227668640825   -0.03662230338099793   -0.0005748897443465075
-0.01563160677660929   -0.02430730948713931   -0.0003093296133097463
-0.014874766694343483   -0.03670329821937645   -0.0006368100710479669
-0.008440734600895358   -0.03664685982584041   -0.00041903538722541867
-0.01563160677660929   -0.02430730948713931   -0.0003093296133097463
-0.009082093563898204   -0.024270604935874088   -0.00011368114174960835
-0.008987342737901789   -0.024385360407779177   -0.00017090334670124708
-0.008440734600895358   -0.03664685982584041   -0.00041903538722541867
-0.01563160677660929   -0.02430730948713931   -0.0003093296133097463
-0.008987342737901789   -0.024385360407779177   -0.00017090334670124708
-0.014874766694343483   -0.03670329821937645   -0.0006368100710479669
-0.014714964001655641   -0.03688444176339888   -0.0007426530532149379
-0.015388065298765111   -0.024597417669926024   -0.00045560203348620794
-0.021365807821684433   -0.036768165486901004   -0.0008999714105375095
-0.01479753272096468   -0.03679075910445555   -0.000692833927155065
-0.015388065298765111   -0.024597417669926024   -0.00045560203348620794
-0.022107157153147403   -0.024559272023883423   -0.0006120070447164435
-0.021365807821684433   -0.036768165486901004   -0.0008999714105375095
-0.022187340165870227   -0.02448194164644076   -0.0005696738061742363
-0.01479753272096468   -0.03679075910445555   -0.000692833927155065
-0.02144488738965913   -0.03669619855024765   -0.0008375416260264924
-0.022187340165870227   -0.02448194164644076   -0.0005696738061742363
-0.021365807821684433   -0.036768165486901004   -0.0008999714105375095
-0.01479753272096468   -0.03679075910445555   -0.000692833927155065
-0.022187340165870227   -0.02448194164644076   -0.0005696738061742363
-0.015472173416745233   -0.02450263411431145   -0.0004108301059252896
-0.015388065298765111   -0.024597417669926024   -0.00045560203348620794
-0.01479753272096468   -0.03679075910445555   -0.000692833927155065
-0.022187340165870227   -0.02448194164644076   -0.0005696738061742363
-0.015388065298765111   -0.024597417669926024   -0.00045560203348620794
-0.021365807821684433   -0.036768165486901004   -0.0008999714105375095
-0.01479753272096468   -0.03679075910445555   -0.000692833927155065
-0.015472173416745233   -0.02450263411431145   -0.0004108301059252896
-0.02144488738965913   -0.03669619855024765   -0.0008375416260264924
-0.014874766694343483   -0.03670329821937645   -0.0006368100710479669
-0.015472173416745233   -0.02450263411431145   -0.0004108301059252896
-0.022187340165870227   -0.02448194164644076   -0.0005696738061742363
-0.02144488738965913   -0.03669619855024765   -0.0008375416260264924
-0.022255308785562068   -0.0244003617409383   -0.0005244619752969626
-0.014874766694343483   -0.03670329821937645   -0.0006368100710479669
-0.021504897853581798   -0.036628048854687144   -0.0007699354740485945
-0.022255308785562068   -0.0244003617409383   -0.0005244619752969626
-0.02144488738965913   -0.03669619855024765   -0.0008375416260264924
-0.014874766694343483   -0.03670329821937645   -0.0006368100710479669
-0.022255308785562068   -0.0244003617409383   -0.0005244619752969626
-0.01555229381386178   -0.02440611373416998   -0.00036199515372754956
-0.015472173416745233   -0.02450263411431145   -0.0004108301059252896
-0.014874766694343483   -0.03670329821937645   -0.0006368100710479669
-0.022255308785562068   -0.0244003617409383   -0.0005244619752969626
-0.015472173416745233   -0.02450263411431145   -0.0004108301059252896
-0.02144488738965913   -0.03669619855024765   -0.0008375416260264924
-0.014874766694343483   -0.03670329821937645   -0.0006368100710479669
-0.01555229381386178   -0.02440611373416998   -0.00036199515372754956
-0.021504897853581798   -0.036628048854687144   -0.0007699354740485945
-0.01495227668640825   -0.03662230338099793   -0.0005748897443465075
-0.01555229381386178   -0.02440611373416998   -0.00036199515372754956
-0.022255308785562068   -0.0244003617409383   -0.0005244619752969626
-0.021504897853581798   -0.036628048854687144   -0.0007699354740485945
-0.022319550800264536   -0.024316615599714066   -0.0004751114286903051
-0.01495227668640825   -0.03662230338099793   -0.0005748897443465075
-0.021564426743881752   -0.0365667180319973   -0.0006957985910156018
-0.022319550800264536   -0.024316615599714066   -0.0004751114286903051
-0.021504897853581798   -0.036628048854687144   -0.0007699354740485945
-0.01495227668640825   -0.03662230338099793   -0.0005748897443465075
-0.022319550800264536   -0.024316615599714066   -0.0004751114286903051
-0.01563160677660929   -0.02430730948713931   -0.0003093296133097463
-0.01555229381386178   -0.02440611373416998   -0.00036199515372754956
-0.01495227668640825   -0.03662230338099793   -0.0005748897443465075
-0.022319550800264536   -0.024316615599714066   -0.0004751114286903051
-0.01555229381386178   -0.02440611373416998   -0.00036199515372754956
-0.021504897853581798   -0.036628048854687144   -0.0007699354740485945
-0.021365807821684433   -0.036768165486901004   -0.0008999714105375095
-0.022107157153147403   -0.024559272023883423   -0.0006120070447164435
-0.028414197127467792   -0.03663092524591858   -0.001016858864498925
-0.02144488738965913   -0.03669619855024765   -0.0008375416260264924
-0.022107157153147403   -0.024559272023883423   -0.0006120070447164435
-0.029144777453775254   -0.024496513489850078   -0.0007279089768749738
-0.028414197127467792   -0.03663092524591858   -0.001016858864498925
-0.02919477021913441   -0.0244315204587233   -0.0006962514018762343
-0.02144488738965913   -0.03669619855024765   -0.0008375416260264924
-0.0284266298005498   -0.036573410630324314   -0.0009479961407432407
-0.02919477021913441   -0.0244315204587233   -0.0006962514018762343
-0.028414197127467792   -0.03663092524591858   -0.001016858864498925
-0.02144488738965913   -0.03669619855024765   -0.0008375416260264924
-0.02919477021913441   -0.0244315204587233   -0.0006962514018762343
-0.022187340165870227   -0.02448194164644076   -0.0005696738061742363
-0.022107157153147403   -0.024559272023883423   -0.0006120070447164435
-0.02144488738965913   -0.03669619855024765   -0.0008375416260264924
-0.02919477021913441   -0.0244315204587233   -0.0006962514018762343
-0.022107157153147403   -0.024559272023883423   -0.0006120070447164435
-0.028414197127467792   -0.03663092524591858   -0.001016858864498925
-0.02144488738965913   -0.03669619855024765   -0.0008375416260264924
-0.022187340165870227   -0.02448194164644076   -0.0005696738061742363
-0.0284266298005498   -0.036573410630324314   -0.0009479961407432407
-0.021504897853581798   -0.036628048854687144   -0.0007699354740485945
-0.022187340165870227   -0.02448194164644076   -0.0005696738061742363
-0.02919477021913441   -0.0244315204587233   -0.0006962514018762343
-0.0284266298005498   -0.036573410630324314   -0.0009479961407432407
-0.029240482737804805   -0.024358011229266924   -0.0006575185311103505
-0.021504897853581798   -0.036628048854687144   -0.0007699354740485945
-0.028439349120643446   -0.03651517805449809   -0.000868706124350658
-0.029240482737804805   -0.024358011229266924   -0.0006575185311103505
-0.0284266298005498   -0.036573410630324314   -0.0009479961407432407
-0.021504897853581798   -0.036628048854687144   -0.0007699354740485945
-0.029240482737804805   -0.024358011229266924   -0.0006575185311103505
-0.022255308785562068   -0.0244003617409383   -0.0005244619752969626
-0.022187340165870227   -0.02448194164644076   -0.0005696738061742363
-0.021504897853581798   -0.036628048854687144   -0.0007699354740485945
-0.029240482737804805   -0.024358011229266924   -0.0006575185311103505
-0.022187340165870227   -0.02448194164644076   -0.0005696738061742363
-0.0284266298005498   -0.036573410630324314   -0.0009479961407432407
-0.021504897853581798   -0.036628048854687144   -0.0007699354740485945
-0.022255308785562068   -0.0244003617409383   -0.0005244619752969626
-0.028439349120643446   -0.03651517805449809   -0.000868706124350658
-0.021564426743881752   -0.0365667180319973   -0.0006957985910156018
-0.022255308785562068   -0.0244003617409383   -0.0005244619752969626
-0.029240482737804805   -0.024358011229266924   -0.0006575185311103505
-0.028439349120643446   -0.03651517805449809   -0.000868706124350658
-0.02926281494448752   -0.0242904559564627   -0.000613486670653703
-0.021564426743881752   -0.0365667180319973   -0.0006957985910156018
-0.02841252795795492   -0.036476578731239925   -0.000780228751235105
-0.02926281494448752   -0.0242904559564627   -0.000613486670653703
-0.028439349120643446   -0.03651517805449809   -0.000868706124350658
-0.021564426743881752   -0.0365667180319973   -0.0006957985910156018
-0.02926281494448752   -0.0242904559564627   -0.000613486670653703
-0.022319550800264536   -0.024316615599714066   -0.0004751114286903051
-0.022255308785562068   -0.0244003617409383   -0.0005244619752969626
-0.021564426743881752   -0.0365667180319973   -0.0006957985910156018
-0.02926281494448752   -0.0242904559564627   -0.000613486670653703
-0.022255308785562068   -0.0244003617409383   -0.0005244619752969626
-0.028439349120643446   -0.03651517805449809   -0.000868706124350658
0.004898160975422444   -0.0247525580142927   0.00014964533836947554
0.003430274984212513   -0.012427412867317167   0.0001605946556766244
-0.002160706289264917   -0.024635955408849487   -6.375213353628816e-05
0.004744562140393965   -0.024603411920256637   0.00021273479612562936
0.003430274984212513   -0.012427412867317167   0.0001605946556766244
-0.0031502508767064434   -0.012265848463610824   8.097230997646877e-05
-0.002160706289264917   -0.024635955408849487   -6.375213353628816e-05
-0.0032470925944166327   -0.01220317860584588   0.00015114892904132828
0.004744562140393965   -0.024603411920256637   0.00021273479612562936
-0.0022581235305769907   -0.0245122548387896   -1.3174129063054805e-05
-0.0032470925944166327   -0.01220317860584588   0.00015114892904132828
-0.002160706289264917   -0.024635955408849487   -6.375213353628816e-05
0.004744562140393965   -0.024603411920256637   0.00021273479612562936
-0.0032470925944166327   -0.01220317860584588   0.00015114892904132828
0.0031285018556657376   -0.01226908096607377   0.00033440638213978703
0.003430274984212513   -0.012427412867317167   0.0001605946556766244
0.004744562140393965   -0.024603411920256637   0.00021273479612562936
-0.0032470925944166327   -0.01220317860584588   0.00015114892904132828
0.003430274984212513   -0.012427412867317167   0.0001605946556766244
-0.002160706289264917   -0.024635955408849487   -6.375213353628816e-05
0.004744562140393965   -0.024603411920256637   0.00021273479612562936
0.0031285018556657376   -0.01226908096607377   0.00033440638213978703
-0.0022581235305769907   -0.0245122548387896   -1.3174129063054805e-05
0.004573252295021206   -0.024455207668146052   0.00030322748557566593
0.0031285018556657376   -0.01226908096607377   0.00033440638213978703
-0.0032470925944166327   -0.01220317860584588   0.00015114892904132828
-0.0022581235305769907   -0.0245122548387896   -1.3174129063054805e-05
-0.003374256033550367   -0.012091943873937075   0.00023633140995742505
0.004573252295021206   -0.024455207668146052   0.00030322748557566593
-0.0023720565264647602   -0.024381664368411732   4.638009578434733e-05
-0.003374256033550367   -0.012091943873937075   0.00023633140995742505
-0.0022581235305769907   -0.0245122548387896   -1.3174129063054805e-05
0.004573252295021206   -0.024455207668146052   0.00030322748557566593
-0.003374256033550367   -0.012091943873937075   0.00023633140995742505
0.0029517404339063176   -0.012139394354914124   0.00046417766595839035
0.0031285018556657376   -0.01226908096607377   0.00033440638213978703
0.004573252295021206   -0.024455207668146052   0.00030322748557566593
-0.003374256033550367   -0.012091943873937075   0.00023633140995742505
0.0031285018556657376   -0.01226908096607377   0.00033440638213978703
-0.0022581235305769907   -0.0245122548387896   -1.3174129063054805e-05
0.004573252295021206   -0.024455207668146052   0.00030322748557566593
0.0029517404339063176   -0.012139394354914124   0.00046417766595839035
-0.0023720565264647602   -0.024381664368411732   4.638009578434733e-05
0.004363947605445002   -0.024273180955532214   0.0004027810687638288
0.0029517404339063176   -0.012139394354914124   0.00046417766595839035
-0.003374256033550367   -0.012091943873937075   0.00023633140995742505
-0.0023720565264647602   -0.024381664368411732   4.638009578434733e-05
-0.0034811181659834046   -0.011972274296487666   0.000311323262231615
0.004363947605445002   -0.024273180955532214   0.0004027810687638288
-0.0024898734173008567   -0.024242973273223885   0.0001147862266225082
-0.0034811181659834046   -0.011972274296487666   0.000311323262231615
-0.0023720565264647602   -0.024381664368411732   4.638009578434733e-05
0.004363947605445002   -0.024273180955532214   0.0004027810687638288
-0.0034811181659834046   -0.011972274296487666   0.000311323262231615
0.0027252938819558627   -0.011941350591789229   0.0006127417586123716
0.0029517404339063176   -0.012139394354914124   0.00046417766595839035
0.004363947605445002   -0.024273180955532214   0.0004027810687638288
-0.0034811181659834046   -0.011972274296487666   0.000311323262231615
0.0029517404339063176   -0.012139394354914124   0.00046417766595839035
-0.0023720565264647602   -0.024381664368411732   4.638009578434733e-05
-0.002160706289264917   -0.024635955408849487   -6.375213353628816e-05
-0.0031502508767064434   -0.012265848463610824   8.097230997646877e-05
-0.008808312022103373   -0.02460578911482728   -0.0002695363205749423
-0.0022581235305769907   -0.0245122548387896   -1.3174129063054805e-05
-0.0031502508767064434   -0.012265848463610824   8.097230997646877e-05
-0.009414791243096254   -0.012446837711086397   -8.30030116146025e-05
-0.008808312022103373   -0.02460578911482728   -0.0002695363205749423
-0.009503862912318644   -0.012351267197598062   -3.333404199872932e-05
-0.0022581235305769907   -0.0245122548387896   -1.3174129063054805e-05
-0.008896318029862536   -0.02449775251966843   -0.0002225443675972619
-0.009503862912318644   -0.012351267197598062   -3.333404199872932e-05
-0.008808312022103373   -0.02460578911482728   -0.0002695363205749423
-0.0022581235305769907   -0.0245122548387896   -1.3174129063054805e-05
-0.009503862912318644   -0.012351267197598062   -3.333404199872932e-05
-0.0032470925944166327   -0.01220317860584588   0.00015114892904132828
-0.0031502508767064434   -0.012265848463610824   8.097230997646877e-05
-0.0022581235305769907   -0.0245122548387896   -1.3174129063054805e-05
-0.009503862912318644   -0.012351267197598062   -3.333404199872932e-05
-0.0031502508767064434   -0.012265848463610824   8.097230997646877e-05
-0.008808312022103373   -0.02460578911482728   -0.0002695363205749423
-0.0022581235305769907   -0.0245122548387896   -1.3174129063054805e-05
-0.0032470925944166327   -0.01220317860584588   0.00015114892904132828
-0.008896318029862536   -0.02449775251966843   -0.0002225443675972619
-0.0023720565264647602   -0.024381664368411732   4.638009578434733e-05
-0.0032470925944166327   -0.01220317860584588   0.00015114892904132828
-0.009503862912318644   -0.012351267197598062   -3.333404199872932e-05
-0.008896318029862536   -0.02449775251966843   -0.0002225443675972619
-0.009597043089351026   -0.012243427625227343   1.920447607759717e-05
-0.0023720565264647602   -0.024381664368411732   4.638009578434733e-05
-0.008987342737901789   -0.024385360407779177   -0.00017090334670124708
-0.009597043089351026   -0.012243427625227343   1.920447607759717e-05
-0.008896318029862536   -0.02449775251966843   -0.0002225443675972619
-0.0023720565264647602   -0.024381664368411732   4.638009578434733e-05
-0.009597043089351026   -0.012243427625227343   1.920447607759717e-05
-0.003374256033550367   -0.012091943873937075   0.00023633140995742505
-0.0032470925944166327   -0.01220317860584588   0.00015114892904132828
-0.0023720565264647602   -0.024381664368411732   4.638009578434733e-05
-0.009597043089351026   -0.012243427625227343   1.920447607759717e-05
-0.0032470925944166327   -0.01220317860584588   0.00015114892904132828
-0.008896318029862536   -0.02449775251966843   -0.0002225443675972619
-0.0023720565264647602   -0.024381664368411732   4.638009578434733e-05
-0.003374256033550367   -0.012091943873937075   0.00023633140995742505
-0.008987342737901789   -0.024385360407779177   -0.00017090334670124708
-0.0024898734173008567   -0.024242973273223885   0.0001147862266225082
-0.003374256033550367   -0.012091943873937075   0.00023633140995742505
-0.009597043089351026   -0.012243427625227343   1.920447607759717e-05
-0.008987342737901789   -0.024385360407779177   -0.00017090334670124708
-0.009685565417563323   -0.01212523632060733   7.713022610582322e-05
-0.0024898734173008567   -0.024242973273223885   0.0001147862266225082
-0.009082093563898204   -0.024270604935874088   -0.00011368114174960835
-0.009685565417563323   -0.01212523632060733   7.713022610582322e-05
-0.008987342737901789   -0.024385360407779177   -0.00017090334670124708
-0.0024898734173008567   -0.024242973273223885   0.0001147862266225082
-0.009685565417563323   -0.01212523632060733   7.713022610582322e-05
-0.0034811181659834046   -0.011972274296487666   0.000311323262231615
-0.003374256033550367   -0.012091943873937075   0.00023633140995742505
-0.0024898734173008567   -0.024242973273223885   0.0001147862266225082
-0.009685565417563323   -0.01212523632060733   7.713022610582322e-05
-0.003374256033550367   -0.012091943873937075   0.00023633140995742505
-0.008987342737901789   -0.024385360407779177   -0.00017090334670124708
-0.008808312022103373   -0.02460578911482728   -0.0002695363205749423
-0.009414791243096254   -0.012446837711086397   -8.30030116146025e-05
-0.015388065298765111   -0.024597417669926024   -0.00045560203348620794
-0.008896318029862536   -0.02449775251966843   -0.0002225443675972619
-0.009414791243096254   -0.012446837711086397   -8.30030116146025e-05
-0.015833582854435427   -0.01258821360011242   -0.00026456778845440696
-0.015388065298765111   -0.024597417669926024   -0.00045560203348620794
-0.01591353864166347   -0.01249011431047607   -0.000226114427404909
-0.008896318029862536   -0.02449775251966843   -0.0002225443675972619
-0.015472173416745233   -0.02450263411431145   -0.0004108301059252896
-0.01591353864166347   -0.01249011431047607   -0.000226114427404909
-0.015388065298765111   -0.024597417669926024   -0.00045560203348620794
-0.008896318029862536   -0.02449775251966843   -0.0002225443675972619
-0.01591353864166347   -0.01249011431047607   -0.000226114427404909
-0.009503862912318644   -0.012351267197598062   -3.333404199872932e-05
-0.009414791243096254   -0.012446837711086397   -8.30030116146025e-05
-0.008896318029862536   -0.02449775251966843   -0.0002225443675972619
-0.01591353864166347   -0.01249011431047607   -0.000226114427404909
-0.009414791243096254   -0.012446837711086397   -8.30030116146025e-05
-0.015388065298765111   -0.024597417669926024   -0.00045560203348620794
-0.008896318029862536   -0.02449775251966843   -0.0002225443675972619
-0.009503862912318644   -0.012351267197598062   -3.333404199872932e-05
-0.015472173416745233   -0.02450263411431145   -0.0004108301059252896
-0.008987342737901789   -0.024385360407779177   -0.00017090334670124708
-0.009503862912318644   -0.012351267197598062   -3.333404199872932e-05
-0.01591353864166347   -0.01249011431047607   -0.000226114427404909
-0.015472173416745233   -0.02450263411431145   -0.0004108301059252896
-0.01599003938142925   -0.012386535493092777   -0.00018780607387084767
-0.008987342737901789   -0.024385360407779177   -0.00017090334670124708
-0.01555229381386178   -0.02440611373416998   -0.00036199515372754956
-0.01599003938142925   -0.012386535493092777   -0.00018780607387084767
-0.015472173416745233   -0.02450263411431145   -0.0004108301059252896
-0.008987342737901789   -0.024385360407779177   -0.00017090334670124708
-0.01599003938142925   -0.012386535493092777   -0.00018780607387084767
-0.009597043089351026   -0.012243427625227343   1.920447607759717e-05
-0.009503862912318644   -0.012351267197598062   -3.333404199872932e-05
-0.008987342737901789   -0.024385360407779177   -0.00017090334670124708
-0.01599003938142925   -0.012386535493092777   -0.00018780607387084767
-0.009503862912318644   -0.012351267197598062   -3.333404199872932e-05
-0.015472173416745233   -0.02450263411431145   -0.0004108301059252896
-0.008987342737901789   -0.024385360407779177   -0.00017090334670124708
-0.009597043089351026   -0.012243427625227343   1.920447607759717e-05
-0.01555229381386178   -0.02440611373416998   -0.00036199515372754956
-0.009082093563898204   -0.024270604935874088   -0.00011368114174960835
-0.009597043089351026   -0.012243427625227343   1.920447607759717e-05
-0.01599003938142925   -0.012386535493092777   -0.00018780607387084767
-0.01555229381386178   -0.02440611373416998   -0.00036199515372754956
-0.01606052811370142   -0.012274414753731403   -0.00014612103793487524
-0.009082093563898204   -0.024270604935874088   -0.00011368114174960835
-0.01563160677660929   -0.02430730948713931   -0.0003093296133097463
-0.01606052811370142   -0.012274414753731403   -0.00014612103793487524
-0.01555229381386178   -0.02440611373416998   -0.00036199515372754956
-0.009082093563898204   -0.024270604935874088   -0.00011368114174960835
-0.01606052811370142   -0.012274414753731403   -0.00014612103793487524
-0.009685565417563323   -0.01212523632060733   7.713022610582322e-05
-0.009597043089351026   -0.012243427625227343   1.920447607759717e-05
-0.009082093563898204   -0.024270604935874088   -0.00011368114174960835
-0.01606052811370142   -0.012274414753731403   -0.00014612103793487524
-0.009597043089351026   -0.012243427625227343   1.920447607759717e-05
-0.01555229381386178   -0.02440611373416998   -0.00036199515372754956
-0.015388065298765111   -0.024597417669926024   -0.00045560203348620794
-0.015833582854435427   -0.01258821360011242   -0.00026456778845440696
-0.022107157153147403   -0.024559272023883423   -0.0006120070447164435
-0.015472173416745233   -0.02450263411431145   -0.0004108301059252896
-0.015833582854435427   -0.01258821360011242   -0.00026456778845440696
-0.022477821411334375   -0.012646184562121663   -0.00043222790237999704
-0.022107157153147403   -0.024559272023883423   -0.0006120070447164435
-0.022549845272270753   -0.012558012615115483   -0.00040422760116819585
-0.015472173416745233   -0.02450263411431145   -0.0004108301059252896
-0.022187340165870227   -0.02448194164644076   -0.0005696738061742363
-0.022549845272270753   -0.012558012615115483   -0.00040422760116819585
-0.022107157153147403   -0.024559272023883423   -0.0006120070447164435
-0.015472173416745233   -0.02450263411431145   -0.0004108301059252896
-0.022549845272270753   -0.012558012615115483   -0.00040422760116819585
-0.01591353864166347   -0.01249011431047607   -0.000226114427404909
-0.015833582854435427   -0.01258821360011242   -0.00026456778845440696
-0.015472173416745233   -0.02450263411431145   -0.0004108301059252896
-0.022549845272270753   -0.012558012615115483   -0.00040422760116819585
-0.015833582854435427   -0.01258821360011242   -0.00026456778845440696
-0.022107157153147403   -0.024559272023883423   -0.0006120070447164435
-0.015472173416745233   -0.02450263411431145   -0.0004108301059252896
-0.01591353864166347   -0.01249011431047607   -0.000226114427404909
-0.022187340165870227   -0.02448194164644076   -0.0005696738061742363
-0.01555229381386178   -0.02440611373416998   -0.00036199515372754956
-0.01591353864166347   -0.01249011431047607   -0.000226114427404909
-0.022549845272270753   -0.012558012615115483   -0.00040422760116819585
-0.022187340165870227   -0.02448194164644076   -0.0005696738061742363
-0.022614024331785863   -0.012462023262038248   -0.00037704453017560745
-0.01555229381386178   -0.02440611373416998   -0.00036199515372754956
-0.022255308785562068   -0.0244003617409383   -0.0005244619752969626
-0.022614024331785863   -0.012462023262038248   -0.00037704453017560745
-0.022187340165870227   -0.02448194164644076   -0.0005696738061742363
-0.01555229381386178   -0.02440611373416998   -0.00036199515372754956
-0.022614024331785863   -0.012462023262038248   -0.00037704453017560745
-0.01599003938142925   -0.012386535493092777   -0.00018780607387084767
-0.01591353864166347   -0.01249011431047607   -0.000226114427404909
-0.01555229381386178   -0.02440611373416998   -0.00036199515372754956
-0.022614024331785863   -0.012462023262038248   -0.00037704453017560745
-0.01591353864166347   -0.01249011431047607   -0.000226114427404909
-0.022187340165870227   -0.02448194164644076   -0.0005696738061742363
-0.01555229381386178   -0.02440611373416998   -0.00036199515372754956
-0.01599003938142925   -0.012386535493092777   -0.00018780607387084767
-0.022255308785562068   -0.0244003617409383   -0.0005244619752969626
-0.01563160677660929   -0.02430730948713931   -0.0003093296133097463
-0.01599003938142925   -0.012386535493092777   -0.00018780607387084767
-0.022614024331785863   -0.012462023262038248   -0.00037704453017560745
-0.022255308785562068   -0.0244003617409383   -0.0005244619752969626
-0.02267213215633469   -0.01235986569076906   -0.0003490765171020589
-0.01563160677660929   -0.02430730948713931   -0.0003093296133097463
-0.022319550800264536   -0.024316615599714066   -0.0004751114286903051
-0.02267213215633469   -0.01235986569076906   -0.0003490765171020589
-0.022255308785562068   -0.0244003617409383   -0.0005244619752969626
-0.01563160677660929   -0.02430730948713931   -0.0003093296133097463
-0.02267213215633469   -0.01235986569076906   -0.0003490765171020589
-0.01606052811370142   -0.012274414753731403   -0.00014612103793487524
-0.01599003938142925   -0.012386535493092777   -0.00018780607387084767
-0.01563160677660929   -0.02430730948713931   -0.0003093296133097463
-0.02267213215633469   -0.01235986569076906   -0.0003490765171020589
-0.01599003938142925   -0.012386535493092777   -0.00018780607387084767
-0.022255308785562068   -0.0244003617409383   -0.0005244619752969626
-0.022107157153147403   -0.024559272023883423   -0.0006120070447164435
-0.022477821411334375   -0.012646184562121663   -0.00043222790237999704
-0.029144777453775254   -0.024496513489850078   -0.0007279089768749738
-0.022187340165870227   -0.02448194164644076   -0.0005696738061742363
-0.022477821411334375   -0.012646184562121663   -0.00043222790237999704
-0.02935793377555484   -0.01265273809464824   -0.0005715657514212513
-0.029144777453775254   -0.024496513489850078   -0.0007279089768749738
-0.02941987842855029   -0.01256712203007207   -0.000559606329692179
-0.022187340165870227   -0.02448194164644076   -0.0005696738061742363
-0.02919477021913441   -0.0244315204587233   -0.0006962514018762343
-0.02941987842855029   -0.01256712203007207   -0.000559606329692179
-0.029144777453775254   -0.024496513489850078   -0.0007279089768749738
-0.022187340165870227   -0.02448194164644076   -0.0005696738061742363
-0.02941987842855029   -0.01256712203007207   -0.000559606329692179
-0.022549845272270753   -0.012558012615115483   -0.00040422760116819585
-0.022477821411334375   -0.012646184562121663   -0.00043222790237999704
-0.022187340165870227   -0.02448194164644076   -0.0005696738061742363
-0.02941987842855029   -0.01256712203007207   -0.000559606329692179
-0.022477821411334375   -0.012646184562121663   -0.00043222790237999704
-0.029144777453775254   -0.024496513489850078   -0.0007279089768749738
-0.022187340165870227   -0.02448194164644076   -0.0005696738061742363
-0.022549845272270753   -0.012558012615115483   -0.00040422760116819585
-0.02919477021913441   -0.0244315204587233   -0.0006962514018762343
-0.022255308785562068   -0.0244003617409383   -0.0005244619752969626
-0.022549845272270753   -0.012558012615115483   -0.00040422760116819585
-0.02941987842855029   -0.01256712203007207   -0.000559606329692179
-0.02919477021913441   -0.0244315204587233   -0.0006962514018762343
-0.02947537533497332   -0.012474601916494585   -0.0005456305762565577
-0.022255308785562068   -0.0244003617409383   -0.0005244619752969626
-0.029240482737804805   -0.024358011229266924   -0.0006575185311103505
-0.02947537533497332   -0.012474601916494585   -0.0005456305762565577
-0.02919477021913441   -0.0244315204587233   -0.0006962514018762343
-0.022255308785562068   -0.0244003617409383   -0.0005244619752969626
-0.02947537533497332   -0.012474601916494585   -0.0005456305762565577
-0.022614024331785863   -0.012462023262038248   -0.00037704453017560745
-0.022549845272270753   -0.012558012615115483   -0.00040422760116819585
-0.022255308785562068   -0.0244003617409383   -0.0005244619752969626
-0.02947537533497332   -0.012474601916494585   -0.0005456305762565577
-0.022549845272270753   -0.012558012615115483   -0.00040422760116819585
-0.02919477021913441   -0.0244315204587233   -0.0006962514018762343
-0.022255308785562068   -0.0244003617409383   -0.0005244619752969626
-0.022614024331785863   -0.012462023262038248   -0.00037704453017560745
-0.029240482737804805   -0.024358011229266924   -0.0006575185311103505
-0.022319550800264536   -0.024316615599714066   -0.0004751114286903051
-0.022614024331785863   -0.012462023262038248   -0.00037704453017560745
-0.02947537533497332   -0.012474601916494585   -0.0005456305762565577
-0.029240482737804805   -0.024358011229266924   -0.0006575185311103505
-0.02952212339427378   -0.01237662285172146   -0.0005326718279533973
-0.022319550800264536   -0.024316615599714066   -0.0004751114286903051
-0.02926281494448752   -0.0242904559564627   -0.000613486670653703
-0.02952212339427378   -0.01237662285172146   -0.0005326718279533973
-0.029240482737804805   -0.024358011229266924   -0.0006575185311103505
-0.022319550800264536   -0.024316615599714066   -0.0004751114286903051
-0.02952212339427378   -0.01237662285172146   -0.0005326718279533973
-0.02267213215633469   -0.01235986569076906   -0.0003490765171020589
-0.022614024331785863   -0.012462023262038248   -0.00037704453017560745
-0.022319550800264536   -0.024316615599714066   -0.0004751114286903051
-0.02952212339427378   -0.01237662285172146   -0.0005326718279533973
-0.022614024331785863   -0.012462023262038248   -0.00037704453017560745
-0.029240482737804805   -0.024358011229266924   -0.0006575185311103505
0.003430274984212513   -0.012427412867317167   0.0001605946556766244
0.0   0.0   0.0
-0.0031502508767064434   -0.012265848463610824   8.097230997646877e-05
0.0031285018556657376   -0.01226908096607377   0.00033440638213978703
0.0   0.0   0.0
-0.003957835084171682   -0.0009982967393541728   -3.457998159663067e-05
-0.0031502508767064434   -0.012265848463610824   8.097230997646877e-05
-0.0041941944051383006   -0.0007748029567304168   0.0001012276159223919
0.0031285018556657376   -0.01226908096607377   0.00033440638213978703
-0.0032470925944166327   -0.01220317860584588   0.00015114892904132828
-0.0041941944051383006   -0.0007748029567304168   0.0001012276159223919
-0.0031502508767064434   -0.012265848463610824   8.097230997646877e-05
0.0031285018556657376   -0.01226908096607377   0.00033440638213978703
-0.0041941944051383006   -0.0007748029567304168   0.0001012276159223919
0.0   0.0   0.0
0.0   0.0   0.0
0.0031285018556657376   -0.01226908096607377   0.00033440638213978703
-0.0041941944051383006   -0.0007748029567304168   0.0001012276159223919
0.0   0.0   0.0
-0.0031502508767064434   -0.012265848463610824   8.097230997646877e-05
0.0031285018556657376   -0.01226908096607377   0.00033440638213978703
0.0   0.0   0.0
-0.0032470925944166327   -0.01220317860584588   0.00015114892904132828
0.0029517404339063176   -0.012139394354914124   0.00046417766595839035
0.0   0.0   0.0
-0.0041941944051383006   -0.0007748029567304168   0.0001012276159223919
-0.0032470925944166327   -0.01220317860584588   0.00015114892904132828
-0.004342375893808461   -0.0006669615450605747   0.00017944975794068272
0.0029517404339063176   -0.012139394354914124   0.00046417766595839035
-0.003374256033550367   -0.012091943873937075   0.00023633140995742505
-0.004342375893808461   -0.0006669615450605747   0.00017944975794068272
-0.0032470925944166327   -0.01220317860584588   0.00015114892904132828
0.0029517404339063176   -0.012139394354914124   0.00046417766595839035
-0.004342375893808461   -0.0006669615450605747   0.00017944975794068272
0.0   0.0   0.0
0.0   0.0   0.0
0.0029517404339063176   -0.012139394354914124   0.00046417766595839035
-0.004342375893808461   -0.0006669615450605747   0.00017944975794068272
0.0   0.0   0.0
-0.0032470925944166327   -0.01220317860584588   0.00015114892904132828
0.0029517404339063176   -0.012139394354914124   0.00046417766595839035
0.0   0.0   0.0
-0.003374256033550367   -0.012091943873937075   0.00023633140995742505
0.0027252938819558627   -0.011941350591789229   0.0006127417586123716
0.0   0.0   0.0
-0.004342375893808461   -0.0006669615450605747   0.00017944975794068272
-0.003374256033550367   -0.012091943873937075   0.00023633140995742505
-0.004540774045846976   -0.0005238448931223136   0.0002692025306689485
0.0027252938819558627   -0.011941350591789229   0.0006127417586123716
-0.0034811181659834046   -0.011972274296487666   0.000311323262231615
-0.004540774045846976   -0.0005238448931223136   0.0002692025306689485
-0.003374256033550367   -0.012091943873937075   0.00023633140995742505
0.0027252938819558627   -0.011941350591789229   0.0006127417586123716
-0.004540774045846976   -0.0005238448931223136   0.0002692025306689485
0.0   0.0   0.0
0.0   0.0   0.0
0.0027252938819558627   -0.011941350591789229   0.0006127417586123716
-0.004540774045846976   -0.0005238448931223136   0.0002692025306689485
0.0   0.0   0.0
-0.003374256033550367   -0.012091943873937075   0.00023633140995742505
-0.0031502508767064434   -0.012265848463610824   8.097230997646877e-05
-0.003957835084171682   -0.0009982967393541728   -3.457998159663067e-05
-0.009414791243096254   -0.012446837711086397   -8.30030116146025e-05
-0.0032470925944166327   -0.01220317860584588   0.00015114892904132828
-0.003957835084171682   -0.0009982967393541728   -3.457998159663067e-05
-0.00969644647182357   -0.0013057138072209453   -3.4439067377999305e-05
-0.009414791243096254   -0.012446837711086397   -8.30030116146025e-05
-0.009818032838431473   -0.0011832430521340968   1.1821907633664418e-07
-0.0032470925944166327   -0.01220317860584588   0.00015114892904132828
-0.009503862912318644   -0.012351267197598062   -3.333404199872932e-05
-0.009818032838431473   -0.0011832430521340968   1.1821907633664418e-07
-0.009414791243096254   -0.012446837711086397   -8.30030116146025e-05
-0.0032470925944166327   -0.01220317860584588   0.00015114892904132828
-0.009818032838431473   -0.0011832430521340968   1.1821907633664418e-07
-0.0041941944051383006   -0.0007748029567304168   0.0001012276159223919
-0.003957835084171682   -0.0009982967393541728   -3.457998159663067e-05
-0.0032470925944166327   -0.01220317860584588   0.00015114892904132828
-0.009818032838431473   -0.0011832430521340968   1.1821907633664418e-07
-0.003957835084171682   -0.0009982967393541728   -3.457998159663067e-05
-0.009414791243096254   -0.012446837711086397   -8.30030116146025e-05
-0.0032470925944166327   -0.01220317860584588   0.00015114892904132828
-0.0041941944051383006   -0.0007748029567304168   0.0001012276159223919
-0.009503862912318644   -0.012351267197598062   -3.333404199872932e-05
-0.003374256033550367   -0.012091943873937075   0.00023633140995742505
-0.0041941944051383006   -0.0007748029567304168   0.0001012276159223919
-0.009818032838431473   -0.0011832430521340968   1.1821907633664418e-07
-0.009503862912318644   -0.012351267197598062   -3.333404199872932e-05
-0.009939034086906056   -0.0010400340795156122   6.221357359356279e-05
-0.003374256033550367   -0.012091943873937075   0.00023633140995742505
-0.009597043089351026   -0.012243427625227343   1.920447607759717e-05
-0.009939034086906056   -0.0010400340795156122   6.221357359356279e-05
-0.009503862912318644   -0.012351267197598062   -3.333404199872932e-05
-0.003374256033550367   -0.012091943873937075   0.00023633140995742505
-0.009939034086906056   -0.0010400340795156122   6.221357359356279e-05
-0.004342375893808461   -0.0006669615450605747   0.00017944975794068272
-0.0041941944051383006   -0.0007748029567304168   0.0001012276159223919
-0.003374256033550367   -0.012091943873937075   0.00023633140995742505
-0.009939034086906056   -0.0010400340795156122   6.221357359356279e-05
-0.0041941944051383006   -0.0007748029567304168   0.0001012276159223919
-0.009503862912318644   -0.012351267197598062   -3.333404199872932e-05
-0.003374256033550367   -0.012091943873937075   0.00023633140995742505
-0.004342375893808461   -0.0006669615450605747   0.00017944975794068272
-0.009597043089351026   -0.012243427625227343   1.920447607759717e-05
-0.0034811181659834046   -0.011972274296487666   0.000311323262231615
-0.004342375893808461   -0.0006669615450605747   0.00017944975794068272
-0.009939034086906056   -0.0010400340795156122   6.221357359356279e-05
-0.009597043089351026   -0.012243427625227343   1.920447607759717e-05
-0.010072733883733021   -0.0008746604234970983   0.00012154829073909809
-0.0034811181659834046   -0.011972274296487666   0.000311323262231615
-0.009685565417563323   -0.01212523632060733   7.713022610582322e-05
-0.010072733883733021   -0.0008746604234970983   0.00012154829073909809
-0.009597043089351026   -0.012243427625227343   1.920447607759717e-05
-0.0034811181659834046   -0.011972274296487666   0.000311323262231615
-0.010072733883733021   -0.0008746604234970983   0.00012154829073909809
-0.004540774045846976   -0.0005238448931223136   0.0002692025306689485
-0.004342375893808461   -0.0006669615450605747   0.00017944975794068272
-0.0034811181659834046   -0.011972274296487666   0.000311323262231615
-0.010072733883733021   -0.0008746604234970983   0.00012154829073909809
-0.004342375893808461   -0.0006669615450605747   0.00017944975794068272
-0.009597043089351026   -0.012243427625227343   1.920447607759717e-05
-0.009414791243096254   -0.012446837711086397   -8.30030116146025e-05
-0.00969644647182357   -0.0013057138072209453   -3.4439067377999305e-05
-0.015833582854435427   -0.01258821360011242   -0.00026456778845440696
-0.009503862912318644   -0.012351267197598062   -3.333404199872932e-05
-0.00969644647182357   -0.0013057138072209453   -3.4439067377999305e-05
-0.015990514845756486   -0.0013904396247627895   -0.0001500672697826115
-0.015833582854435427   -0.01258821360011242   -0.00026456778845440696
-0.016064140978916952   -0.0012945269109896533   -0.00014064896057333526
-0.009503862912318644   -0.012351267197598062   -3.333404199872932e-05
-0.01591353864166347   -0.01249011431047607   -0.000226114427404909
-0.016064140978916952   -0.0012945269109896533   -0.00014064896057333526
-0.015833582854435427   -0.01258821360011242   -0.00026456778845440696
-0.009503862912318644   -0.012351267197598062   -3.333404199872932e-05
-0.016064140978916952   -0.0012945269109896533   -0.00014064896057333526
-0.009818032838431473   -0.0011832430521340968   1.1821907633664418e-07
-0.00969644647182357   -0.0013057138072209453   -3.4439067377999305e-05
-0.009503862912318644   -0.012351267197598062   -3.333404199872932e-05
-0.016064140978916952   -0.0012945269109896533   -0.00014064896057333526
-0.00969644647182357   -0.0013057138072209453   -3.4439067377999305e-05
-0.015833582854435427   -0.01258821360011242   -0.00026456778845440696
-0.009503862912318644   -0.012351267197598062   -3.333404199872932e-05
-0.009818032838431473   -0.0011832430521340968   1.1821907633664418e-07
-0.01591353864166347   -0.01249011431047607   -0.000226114427404909
-0.009597043089351026   -0.012243427625227343   1.920447607759717e-05
-0.009818032838431473   -0.0011832430521340968   1.1821907633664418e-07
-0.016064140978916952   -0.0012945269109896533   -0.00014064896057333526
-0.01591353864166347   -0.01249011431047607   -0.000226114427404909
-0.01614067200528989   -0.0011834108938206772   -0.0001240318699122293
-0.009597043089351026   -0.012243427625227343   1.920447607759717e-05
-0.01599003938142925   -0.012386535493092777   -0.00018780607387084767
-0.01614067200528989   -0.0011834108938206772   -0.0001240318699122293
-0.01591353864166347   -0.01249011431047607   -0.000226114427404909
-0.009597043089351026   -0.012243427625227343   1.920447607759717e-05
-0.01614067200528989   -0.0011834108938206772   -0.0001240318699122293
-0.009939034086906056   -0.0010400340795156122   6.221357359356279e-05
-0.009818032838431473   -0.0011832430521340968   1.1821907633664418e-07
-0.009597043089351026   -0.012243427625227343   1.920447607759717e-05
-0.01614067200528989   -0.0011834108938206772   -0.0001240318699122293
-0.009818032838431473   -0.0011832430521340968   1.1821907633664418e-07
-0.01591353864166347   -0.01249011431047607   -0.000226114427404909
-0.009597043089351026   -0.012243427625227343   1.920447607759717e-05
-0.009939034086906056   -0.0010400340795156122   6.221357359356279e-05
-0.01599003938142925   -0.012386535493092777   -0.00018780607387084767
-0.009685565417563323   -0.01212523632060733   7.713022610582322e-05
-0.009939034086906056   -0.0010400340795156122   6.221357359356279e-05
-0.01614067200528989   -0.0011834108938206772   -0.0001240318699122293
-0.01599003938142925   -0.012386535493092777   -0.00018780607387084767
-0.01621304713545514   -0.0010485576053726583   -0.00010204630215008171
-0.009685565417563323   -0.01212523632060733   7.713022610582322e-05
-0.01606052811370142   -0.012274414753731403   -0.00014612103793487524
-0.01621304713545514   -0.0010485576053726583   -0.00010204630215008171
-0.01599003938142925   -0.012386535493092777   -0.00018780607387084767
-0.009685565417563323   -0.01212523632060733   7.713022610582322e-05
-0.01621304713545514   -0.0010485576053726583   -0.00010204630215008171
-0.010072733883733021   -0.0008746604234970983   0.00012154829073909809
-0.009939034086906056   -0.0010400340795156122   6.221357359356279e-05
-0.009685565417563323   -0.01212523632060733   7.713022610582322e-05
-0.01621304713545514   -0.0010485576053726583   -0.00010204630215008171
-0.009939034086906056   -0.0010400340795156122   6.221357359356279e-05
-0.01599003938142925   -0.012386535493092777   -0.00018780607387084767
-0.015833582854435427   -0.01258821360011242   -0.00026456778845440696
-0.015990514845756486   -0.0013904396247627895   -0.0001500672697826115
-0.022477821411334375   -0.012646184562121663   -0.00043222790237999704
-0.01591353864166347   -0.01249011431047607   -0.000226114427404909
-0.015990514845756486   -0.0013904396247627895   -0.0001500672697826115
-0.022593929138401705   -0.0013745348122045095   -0.00031531682267512453
-0.022477821411334375   -0.012646184562121663   -0.00043222790237999704
-0.02264361981693878   -0.0012880393826560442   -0.00031130778662323707
-0.01591353864166347   -0.01249011431047607   -0.000226114427404909
-0.022549845272270753   -0.012558012615115483   -0.00040422760116819585
-0.02264361981693878   -0.0012880393826560442   -0.00031130778662323707
-0.022477821411334375   -0.012646184562121663   -0.00043222790237999704
-0.01591353864166347   -0.01249011431047607   -0.000226114427404909
-0.02264361981693878   -0.0012880393826560442   -0.00031130778662323707
-0.016064140978916952   -0.0012945269109896533   -0.00014064896057333526
-0.015990514845756486   -0.0013904396247627895   -0.0001500672697826115
-0.01591353864166347   -0.01249011431047607   -0.000226114427404909
-0.02264361981693878   -0.0012880393826560442   -0.00031130778662323707
-0.015990514845756486   -0.0013904396247627895   -0.0001500672697826115
-0.022477821411334375   -0.012646184562121663   -0.00043222790237999704
-0.01591353864166347   -0.01249011431047607   -0.000226114427404909
-0.016064140978916952   -0.0012945269109896533   -0.00014064896057333526
-0.022549845272270753   -0.012558012615115483   -0.00040422760116819585
-0.01599003938142925   -0.012386535493092777   -0.00018780607387084767
-0.016064140978916952   -0.0012945269109896533   -0.00014064896057333526
-0.02264361981693878   -0.0012880393826560442   -0.00031130778662323707
-0.022549845272270753   -0.012558012615115483   -0.00040422760116819585
-0.022695470561892278   -0.0011919630434509432   -0.000308648894416576
-0.01599003938142925   -0.012386535493092777   -0.00018780607387084767
-0.022614024331785863   -0.012462023262038248   -0.00037704453017560745
-0.022695470561892278   -0.0011919630434509432   -0.000308648894416576
-0.022549845272270753   -0.012558012615115483   -0.00040422760116819585
-0.01599003938142925   -0.012386535493092777   -0.00018780607387084767
-0.022695470561892278   -0.0011919630434509432   -0.000308648894416576
-0.01614067200528989   -0.0011834108938206772   -0.0001240318699122293
-0.016064140978916952   -0.0012945269109896533   -0.00014064896057333526
-0.01599003938142925   -0.012386535493092777   -0.00018780607387084767
-0.022695470561892278   -0.0011919630434509432   -0.000308648894416576
-0.016064140978916952   -0.0012945269109896533   -0.00014064896057333526
-0.022549845272270753   -0.012558012615115483   -0.00040422760116819585
-0.01599003938142925   -0.012386535493092777   -0.00018780607387084767
-0.01614067200528989   -0.0011834108938206772   -0.0001240318699122293
-0.022614024331785863   -0.012462023262038248   -0.00037704453017560745
-0.01606052811370142   -0.012274414753731403   -0.00014612103793487524
-0.01614067200528989   -0.0011834108938206772   -0.0001240318699122293
-0.022695470561892278   -0.0011919630434509432   -0.000308648894416576
-0.022614024331785863   -0.012462023262038248   -0.00037704453017560745
-0.022734657620178587   -0.0010881381623986802   -0.0003075731434869697
-0.01606052811370142   -0.012274414753731403   -0.00014612103793487524
-0.02267213215633469   -0.01235986569076906   -0.0003490765171020589
-0.022734657620178587   -0.0010881381623986802   -0.0003075731434869697
-0.022614024331785863   -0.012462023262038248   -0.00037704453017560745
-0.01606052811370142   -0.012274414753731403   -0.00014612103793487524
-0.022734657620178587   -0.0010881381623986802   -0.0003075731434869697
-0.01621304713545514   -0.0010485576053726583   -0.00010204630215008171
-0.01614067200528989   -0.0011834108938206772   -0.0001240318699122293
-0.01606052811370142   -0.012274414753731403   -0.00014612103793487524
-0.022734657620178587   -0.0010881381623986802   -0.0003075731434869697
-0.01614067200528989   -0.0011834108938206772   -0.0001240318699122293
-0.022614024331785863   -0.012462023262038248   -0.00037704453017560745
-0.022477821411334375   -0.012646184562121663   -0.00043222790237999704
-0.022593929138401705   -0.0013745348122045095   -0.00031531682267512453
-0.02935793377555484   -0.01265273809464824   -0.0005715657514212513
-0.022549845272270753   -0.012558012615115483   -0.00040422760116819585
-0.022593929138401705   -0.0013745348122045095   -0.00031531682267512453
-0.029379076742689757   -0.001364450077576354   -0.0004778990916275274
-0.02935793377555484   -0.01265273809464824   -0.0005715657514212513
-0.029419074018236627   -0.0012705491355674765   -0.00047788941322682586
-0.022549845272270753   -0.012558012615115483   -0.00040422760116819585
-0.02941987842855029   -0.01256712203007207   -0.000559606329692179
-0.029419074018236627   -0.0012705491355674765   -0.00047788941322682586
-0.02935793377555484   -0.01265273809464824   -0.0005715657514212513
-0.022549845272270753   -0.012558012615115483   -0.00040422760116819585
-0.029419074018236627   -0.0012705491355674765   -0.00047788941322682586
-0.02264361981693878   -0.0012880393826560442   -0.00031130778662323707
-0.022593929138401705   -0.0013745348122045095   -0.00031531682267512453
-0.022549845272270753   -0.012558012615115483   -0.00040422760116819585
-0.029419074018236627   -0.0012705491355674765   -0.00047788941322682586
-0.022593929138401705   -0.0013745348122045095   -0.00031531682267512453
-0.02935793377555484   -0.01265273809464824   -0.0005715657514212513
-0.022549845272270753   -0.012558012615115483   -0.00040422760116819585
-0.02264361981693878   -0.0012880393826560442   -0.00031130778662323707
-0.02941987842855029   -0.01256712203007207   -0.000559606329692179
-0.022614024331785863   -0.012462023262038248   -0.00037704453017560745
-0.02264361981693878   -0.0012880393826560442   -0.00031130778662323707
-0.029419074018236627   -0.0012705491355674765   -0.00047788941322682586
-0.02941987842855029   -0.01256712203007207   -0.000559606329692179
-0.02946299775196484   -0.001176874351410132   -0.0004851997242060027
-0.022614024331785863   -0.012462023262038248   -0.00037704453017560745
-0.02947537533497332   -0.012474601916494585   -0.0005456305762565577
-0.02946299775196484   -0.001176874351410132   -0.0004851997242060027
-0.02941987842855029   -0.01256712203007207   -0.000559606329692179
-0.022614024331785863   -0.012462023262038248   -0.00037704453017560745
-0.02946299775196484   -0.001176874351410132   -0.0004851997242060027
-0.022695470561892278   -0.0011919630434509432   -0.000308648894416576
-0.02264361981693878   -0.0012880393826560442   -0.00031130778662323707
-0.022614024331785863   -0.012462023262038248   -0.00037704453017560745
-0.02946299775196484   -0.001176874351410132   -0.0004851997242060027
-0.02264361981693878   -0.0012880393826560442   -0.00031130778662323707
-0.02941987842855029   -0.01256712203007207   -0.000559606329692179
-0.022614024331785863   -0.012462023262038248   -0.00037704453017560745
-0.022695470561892278   -0.0011919630434509432   -0.000308648894416576
-0.02947537533497332   -0.012474601916494585   -0.0005456305762565577
-0.02267213215633469   -0.01235986569076906   -0.0003490765171020589
-0.022695470561892278   -0.0011919630434509432   -0.000308648894416576
-0.02946299775196484   -0.001176874351410132   -0.0004851997242060027
-0.02947537533497332   -0.012474601916494585   -0.0005456305762565577
-0.029495293900633743   -0.0010749822871286973   -0.0004930037766486254
-0.02267213215633469   -0.01235986569076906   -0.0003490765171020589
-0.02952212339427378   -0.01237662285172146   -0.0005326718279533973
-0.029495293900633743   -0.0010749822871286973   -0.0004930037766486254
-0.02947537533497332   -0.012474601916494585   -0.0005456305762565577
-0.02267213215633469   -0.01235986569076906   -0.0003490765171020589
-0.029495293900633743   -0.0010749822871286973   -0.0004930037766486254
-0.022734657620178587   -0.0010881381623986802   -0.0003075731434869697
-0.022695470561892278   -0.0011919630434509432   -0.000308648894416576
-0.02267213215633469   -0.01235986569076906   -0.0003490765171020589
-0.029495293900633743   -0.0010749822871286973   -0.0004930037766486254
-0.022695470561892278   -0.0011919630434509432   -0.000308648894416576
-0.02947537533497332   -0.012474601916494585   -0.0005456305762565577
              </DataArray>   
          </PointData>  
       </Piece>  
   </UnstructuredGrid> 
</VTKFile> 
