<?xml version="1.0"?> 
<VTKFile type="UnstructuredGrid"> 
   <UnstructuredGrid> 
      <Piece NumberOfPoints="6000"  NumberOfCells="1500">  
          <Points>  
             <DataArray type="Float64" NumberOfComponents="3" format="ascii">   
-500.0   0.0   0.0
-450.0   0.0   0.0
-500.0   30.0   0.0
-500.0   0.0   16.666666666666668
-450.0   0.0   0.0
-450.0   30.0   0.0
-500.0   30.0   0.0
-450.0   30.0   16.666666666666668
-500.0   0.0   16.666666666666668
-500.0   30.0   16.666666666666668
-450.0   30.0   16.666666666666668
-500.0   30.0   0.0
-500.0   0.0   16.666666666666668
-450.0   30.0   16.666666666666668
-450.0   0.0   16.666666666666668
-450.0   0.0   0.0
-500.0   0.0   16.666666666666668
-450.0   30.0   16.666666666666668
-450.0   0.0   0.0
-500.0   30.0   0.0
-500.0   0.0   16.666666666666668
-450.0   0.0   16.666666666666668
-500.0   30.0   16.666666666666668
-500.0   0.0   33.333333333333336
-450.0   0.0   16.666666666666668
-450.0   30.0   16.666666666666668
-500.0   30.0   16.666666666666668
-450.0   30.0   33.333333333333336
-500.0   0.0   33.333333333333336
-500.0   30.0   33.333333333333336
-450.0   30.0   33.333333333333336
-500.0   30.0   16.666666666666668
-500.0   0.0   33.333333333333336
-450.0   30.0   33.333333333333336
-450.0   0.0   33.333333333333336
-450.0   0.0   16.666666666666668
-500.0   0.0   33.333333333333336
-450.0   30.0   33.333333333333336
-450.0   0.0   16.666666666666668
-500.0   30.0   16.666666666666668
-500.0   0.0   33.333333333333336
-450.0   0.0   33.333333333333336
-500.0   30.0   33.333333333333336
-500.0   0.0   50.0
-450.0   0.0   33.333333333333336
-450.0   30.0   33.333333333333336
-500.0   30.0   33.333333333333336
-450.0   30.0   50.0
-500.0   0.0   50.0
-500.0   30.0   50.0
-450.0   30.0   50.0
-500.0   30.0   33.333333333333336
-500.0   0.0   50.0
-450.0   30.0   50.0
-450.0   0.0   50.0
-450.0   0.0   33.333333333333336
-500.0   0.0   50.0
-450.0   30.0   50.0
-450.0   0.0   33.333333333333336
-500.0   30.0   33.333333333333336
-500.0   30.0   0.0
-450.0   30.0   0.0
-500.0   60.0   0.0
-500.0   30.0   16.666666666666668
-450.0   30.0   0.0
-450.0   60.0   0.0
-500.0   60.0   0.0
-450.0   60.0   16.666666666666668
-500.0   30.0   16.666666666666668
-500.0   60.0   16.666666666666668
-450.0   60.0   16.666666666666668
-500.0   60.0   0.0
-500.0   30.0   16.666666666666668
-450.0   60.0   16.666666666666668
-450.0   30.0   16.666666666666668
-450.0   30.0   0.0
-500.0   30.0   16.666666666666668
-450.0   60.0   16.666666666666668
-450.0   30.0   0.0
-500.0   60.0   0.0
-500.0   30.0   16.666666666666668
-450.0   30.0   16.666666666666668
-500.0   60.0   16.666666666666668
-500.0   30.0   33.333333333333336
-450.0   30.0   16.666666666666668
-450.0   60.0   16.666666666666668
-500.0   60.0   16.666666666666668
-450.0   60.0   33.333333333333336
-500.0   30.0   33.333333333333336
-500.0   60.0   33.333333333333336
-450.0   60.0   33.333333333333336
-500.0   60.0   16.666666666666668
-500.0   30.0   33.333333333333336
-450.0   60.0   33.333333333333336
-450.0   30.0   33.333333333333336
-450.0   30.0   16.666666666666668
-500.0   30.0   33.333333333333336
-450.0   60.0   33.333333333333336
-450.0   30.0   16.666666666666668
-500.0   60.0   16.666666666666668
-500.0   30.0   33.333333333333336
-450.0   30.0   33.333333333333336
-500.0   60.0   33.333333333333336
-500.0   30.0   50.0
-450.0   30.0   33.333333333333336
-450.0   60.0   33.333333333333336
-500.0   60.0   33.333333333333336
-450.0   60.0   50.0
-500.0   30.0   50.0
-500.0   60.0   50.0
-450.0   60.0   50.0
-500.0   60.0   33.333333333333336
-500.0   30.0   50.0
-450.0   60.0   50.0
-450.0   30.0   50.0
-450.0   30.0   33.333333333333336
-500.0   30.0   50.0
-450.0   60.0   50.0
-450.0   30.0   33.333333333333336
-500.0   60.0   33.333333333333336
-500.0   60.0   0.0
-450.0   60.0   0.0
-500.0   90.0   0.0
-500.0   60.0   16.666666666666668
-450.0   60.0   0.0
-450.0   90.0   0.0
-500.0   90.0   0.0
-450.0   90.0   16.666666666666668
-500.0   60.0   16.666666666666668
-500.0   90.0   16.666666666666668
-450.0   90.0   16.666666666666668
-500.0   90.0   0.0
-500.0   60.0   16.666666666666668
-450.0   90.0   16.666666666666668
-450.0   60.0   16.666666666666668
-450.0   60.0   0.0
-500.0   60.0   16.666666666666668
-450.0   90.0   16.666666666666668
-450.0   60.0   0.0
-500.0   90.0   0.0
-500.0   60.0   16.666666666666668
-450.0   60.0   16.666666666666668
-500.0   90.0   16.666666666666668
-500.0   60.0   33.333333333333336
-450.0   60.0   16.666666666666668
-450.0   90.0   16.666666666666668
-500.0   90.0   16.666666666666668
-450.0   90.0   33.333333333333336
-500.0   60.0   33.333333333333336
-500.0   90.0   33.333333333333336
-450.0   90.0   33.333333333333336
-500.0   90.0   16.666666666666668
-500.0   60.0   33.333333333333336
-450.0   90.0   33.333333333333336
-450.0   60.0   33.333333333333336
-450.0   60.0   16.666666666666668
-500.0   60.0   33.333333333333336
-450.0   90.0   33.333333333333336
-450.0   60.0   16.666666666666668
-500.0   90.0   16.666666666666668
-500.0   60.0   33.333333333333336
-450.0   60.0   33.333333333333336
-500.0   90.0   33.333333333333336
-500.0   60.0   50.0
-450.0   60.0   33.333333333333336
-450.0   90.0   33.333333333333336
-500.0   90.0   33.333333333333336
-450.0   90.0   50.0
-500.0   60.0   50.0
-500.0   90.0   50.0
-450.0   90.0   50.0
-500.0   90.0   33.333333333333336
-500.0   60.0   50.0
-450.0   90.0   50.0
-450.0   60.0   50.0
-450.0   60.0   33.333333333333336
-500.0   60.0   50.0
-450.0   90.0   50.0
-450.0   60.0   33.333333333333336
-500.0   90.0   33.333333333333336
-500.0   90.0   0.0
-450.0   90.0   0.0
-500.0   120.0   0.0
-500.0   90.0   16.666666666666668
-450.0   90.0   0.0
-450.0   120.0   0.0
-500.0   120.0   0.0
-450.0   120.0   16.666666666666668
-500.0   90.0   16.666666666666668
-500.0   120.0   16.666666666666668
-450.0   120.0   16.666666666666668
-500.0   120.0   0.0
-500.0   90.0   16.666666666666668
-450.0   120.0   16.666666666666668
-450.0   90.0   16.666666666666668
-450.0   90.0   0.0
-500.0   90.0   16.666666666666668
-450.0   120.0   16.666666666666668
-450.0   90.0   0.0
-500.0   120.0   0.0
-500.0   90.0   16.666666666666668
-450.0   90.0   16.666666666666668
-500.0   120.0   16.666666666666668
-500.0   90.0   33.333333333333336
-450.0   90.0   16.666666666666668
-450.0   120.0   16.666666666666668
-500.0   120.0   16.666666666666668
-450.0   120.0   33.333333333333336
-500.0   90.0   33.333333333333336
-500.0   120.0   33.333333333333336
-450.0   120.0   33.333333333333336
-500.0   120.0   16.666666666666668
-500.0   90.0   33.333333333333336
-450.0   120.0   33.333333333333336
-450.0   90.0   33.333333333333336
-450.0   90.0   16.666666666666668
-500.0   90.0   33.333333333333336
-450.0   120.0   33.333333333333336
-450.0   90.0   16.666666666666668
-500.0   120.0   16.666666666666668
-500.0   90.0   33.333333333333336
-450.0   90.0   33.333333333333336
-500.0   120.0   33.333333333333336
-500.0   90.0   50.0
-450.0   90.0   33.333333333333336
-450.0   120.0   33.333333333333336
-500.0   120.0   33.333333333333336
-450.0   120.0   50.0
-500.0   90.0   50.0
-500.0   120.0   50.0
-450.0   120.0   50.0
-500.0   120.0   33.333333333333336
-500.0   90.0   50.0
-450.0   120.0   50.0
-450.0   90.0   50.0
-450.0   90.0   33.333333333333336
-500.0   90.0   50.0
-450.0   120.0   50.0
-450.0   90.0   33.333333333333336
-500.0   120.0   33.333333333333336
-500.0   120.0   0.0
-450.0   120.0   0.0
-500.0   150.0   0.0
-500.0   120.0   16.666666666666668
-450.0   120.0   0.0
-450.0   150.0   0.0
-500.0   150.0   0.0
-450.0   150.0   16.666666666666668
-500.0   120.0   16.666666666666668
-500.0   150.0   16.666666666666668
-450.0   150.0   16.666666666666668
-500.0   150.0   0.0
-500.0   120.0   16.666666666666668
-450.0   150.0   16.666666666666668
-450.0   120.0   16.666666666666668
-450.0   120.0   0.0
-500.0   120.0   16.666666666666668
-450.0   150.0   16.666666666666668
-450.0   120.0   0.0
-500.0   150.0   0.0
-500.0   120.0   16.666666666666668
-450.0   120.0   16.666666666666668
-500.0   150.0   16.666666666666668
-500.0   120.0   33.333333333333336
-450.0   120.0   16.666666666666668
-450.0   150.0   16.666666666666668
-500.0   150.0   16.666666666666668
-450.0   150.0   33.333333333333336
-500.0   120.0   33.333333333333336
-500.0   150.0   33.333333333333336
-450.0   150.0   33.333333333333336
-500.0   150.0   16.666666666666668
-500.0   120.0   33.333333333333336
-450.0   150.0   33.333333333333336
-450.0   120.0   33.333333333333336
-450.0   120.0   16.666666666666668
-500.0   120.0   33.333333333333336
-450.0   150.0   33.333333333333336
-450.0   120.0   16.666666666666668
-500.0   150.0   16.666666666666668
-500.0   120.0   33.333333333333336
-450.0   120.0   33.333333333333336
-500.0   150.0   33.333333333333336
-500.0   120.0   50.0
-450.0   120.0   33.333333333333336
-450.0   150.0   33.333333333333336
-500.0   150.0   33.333333333333336
-450.0   150.0   50.0
-500.0   120.0   50.0
-500.0   150.0   50.0
-450.0   150.0   50.0
-500.0   150.0   33.333333333333336
-500.0   120.0   50.0
-450.0   150.0   50.0
-450.0   120.0   50.0
-450.0   120.0   33.333333333333336
-500.0   120.0   50.0
-450.0   150.0   50.0
-450.0   120.0   33.333333333333336
-500.0   150.0   33.333333333333336
-450.0   0.0   0.0
-400.0   0.0   0.0
-450.0   30.0   0.0
-450.0   0.0   16.666666666666668
-400.0   0.0   0.0
-400.0   30.0   0.0
-450.0   30.0   0.0
-400.0   30.0   16.666666666666668
-450.0   0.0   16.666666666666668
-450.0   30.0   16.666666666666668
-400.0   30.0   16.666666666666668
-450.0   30.0   0.0
-450.0   0.0   16.666666666666668
-400.0   30.0   16.666666666666668
-400.0   0.0   16.666666666666668
-400.0   0.0   0.0
-450.0   0.0   16.666666666666668
-400.0   30.0   16.666666666666668
-400.0   0.0   0.0
-450.0   30.0   0.0
-450.0   0.0   16.666666666666668
-400.0   0.0   16.666666666666668
-450.0   30.0   16.666666666666668
-450.0   0.0   33.333333333333336
-400.0   0.0   16.666666666666668
-400.0   30.0   16.666666666666668
-450.0   30.0   16.666666666666668
-400.0   30.0   33.333333333333336
-450.0   0.0   33.333333333333336
-450.0   30.0   33.333333333333336
-400.0   30.0   33.333333333333336
-450.0   30.0   16.666666666666668
-450.0   0.0   33.333333333333336
-400.0   30.0   33.333333333333336
-400.0   0.0   33.333333333333336
-400.0   0.0   16.666666666666668
-450.0   0.0   33.333333333333336
-400.0   30.0   33.333333333333336
-400.0   0.0   16.666666666666668
-450.0   30.0   16.666666666666668
-450.0   0.0   33.333333333333336
-400.0   0.0   33.333333333333336
-450.0   30.0   33.333333333333336
-450.0   0.0   50.0
-400.0   0.0   33.333333333333336
-400.0   30.0   33.333333333333336
-450.0   30.0   33.333333333333336
-400.0   30.0   50.0
-450.0   0.0   50.0
-450.0   30.0   50.0
-400.0   30.0   50.0
-450.0   30.0   33.333333333333336
-450.0   0.0   50.0
-400.0   30.0   50.0
-400.0   0.0   50.0
-400.0   0.0   33.333333333333336
-450.0   0.0   50.0
-400.0   30.0   50.0
-400.0   0.0   33.333333333333336
-450.0   30.0   33.333333333333336
-450.0   30.0   0.0
-400.0   30.0   0.0
-450.0   60.0   0.0
-450.0   30.0   16.666666666666668
-400.0   30.0   0.0
-400.0   60.0   0.0
-450.0   60.0   0.0
-400.0   60.0   16.666666666666668
-450.0   30.0   16.666666666666668
-450.0   60.0   16.666666666666668
-400.0   60.0   16.666666666666668
-450.0   60.0   0.0
-450.0   30.0   16.666666666666668
-400.0   60.0   16.666666666666668
-400.0   30.0   16.666666666666668
-400.0   30.0   0.0
-450.0   30.0   16.666666666666668
-400.0   60.0   16.666666666666668
-400.0   30.0   0.0
-450.0   60.0   0.0
-450.0   30.0   16.666666666666668
-400.0   30.0   16.666666666666668
-450.0   60.0   16.666666666666668
-450.0   30.0   33.333333333333336
-400.0   30.0   16.666666666666668
-400.0   60.0   16.666666666666668
-450.0   60.0   16.666666666666668
-400.0   60.0   33.333333333333336
-450.0   30.0   33.333333333333336
-450.0   60.0   33.333333333333336
-400.0   60.0   33.333333333333336
-450.0   60.0   16.666666666666668
-450.0   30.0   33.333333333333336
-400.0   60.0   33.333333333333336
-400.0   30.0   33.333333333333336
-400.0   30.0   16.666666666666668
-450.0   30.0   33.333333333333336
-400.0   60.0   33.333333333333336
-400.0   30.0   16.666666666666668
-450.0   60.0   16.666666666666668
-450.0   30.0   33.333333333333336
-400.0   30.0   33.333333333333336
-450.0   60.0   33.333333333333336
-450.0   30.0   50.0
-400.0   30.0   33.333333333333336
-400.0   60.0   33.333333333333336
-450.0   60.0   33.333333333333336
-400.0   60.0   50.0
-450.0   30.0   50.0
-450.0   60.0   50.0
-400.0   60.0   50.0
-450.0   60.0   33.333333333333336
-450.0   30.0   50.0
-400.0   60.0   50.0
-400.0   30.0   50.0
-400.0   30.0   33.333333333333336
-450.0   30.0   50.0
-400.0   60.0   50.0
-400.0   30.0   33.333333333333336
-450.0   60.0   33.333333333333336
-450.0   60.0   0.0
-400.0   60.0   0.0
-450.0   90.0   0.0
-450.0   60.0   16.666666666666668
-400.0   60.0   0.0
-400.0   90.0   0.0
-450.0   90.0   0.0
-400.0   90.0   16.666666666666668
-450.0   60.0   16.666666666666668
-450.0   90.0   16.666666666666668
-400.0   90.0   16.666666666666668
-450.0   90.0   0.0
-450.0   60.0   16.666666666666668
-400.0   90.0   16.666666666666668
-400.0   60.0   16.666666666666668
-400.0   60.0   0.0
-450.0   60.0   16.666666666666668
-400.0   90.0   16.666666666666668
-400.0   60.0   0.0
-450.0   90.0   0.0
-450.0   60.0   16.666666666666668
-400.0   60.0   16.666666666666668
-450.0   90.0   16.666666666666668
-450.0   60.0   33.333333333333336
-400.0   60.0   16.666666666666668
-400.0   90.0   16.666666666666668
-450.0   90.0   16.666666666666668
-400.0   90.0   33.333333333333336
-450.0   60.0   33.333333333333336
-450.0   90.0   33.333333333333336
-400.0   90.0   33.333333333333336
-450.0   90.0   16.666666666666668
-450.0   60.0   33.333333333333336
-400.0   90.0   33.333333333333336
-400.0   60.0   33.333333333333336
-400.0   60.0   16.666666666666668
-450.0   60.0   33.333333333333336
-400.0   90.0   33.333333333333336
-400.0   60.0   16.666666666666668
-450.0   90.0   16.666666666666668
-450.0   60.0   33.333333333333336
-400.0   60.0   33.333333333333336
-450.0   90.0   33.333333333333336
-450.0   60.0   50.0
-400.0   60.0   33.333333333333336
-400.0   90.0   33.333333333333336
-450.0   90.0   33.333333333333336
-400.0   90.0   50.0
-450.0   60.0   50.0
-450.0   90.0   50.0
-400.0   90.0   50.0
-450.0   90.0   33.333333333333336
-450.0   60.0   50.0
-400.0   90.0   50.0
-400.0   60.0   50.0
-400.0   60.0   33.333333333333336
-450.0   60.0   50.0
-400.0   90.0   50.0
-400.0   60.0   33.333333333333336
-450.0   90.0   33.333333333333336
-450.0   90.0   0.0
-400.0   90.0   0.0
-450.0   120.0   0.0
-450.0   90.0   16.666666666666668
-400.0   90.0   0.0
-400.0   120.0   0.0
-450.0   120.0   0.0
-400.0   120.0   16.666666666666668
-450.0   90.0   16.666666666666668
-450.0   120.0   16.666666666666668
-400.0   120.0   16.666666666666668
-450.0   120.0   0.0
-450.0   90.0   16.666666666666668
-400.0   120.0   16.666666666666668
-400.0   90.0   16.666666666666668
-400.0   90.0   0.0
-450.0   90.0   16.666666666666668
-400.0   120.0   16.666666666666668
-400.0   90.0   0.0
-450.0   120.0   0.0
-450.0   90.0   16.666666666666668
-400.0   90.0   16.666666666666668
-450.0   120.0   16.666666666666668
-450.0   90.0   33.333333333333336
-400.0   90.0   16.666666666666668
-400.0   120.0   16.666666666666668
-450.0   120.0   16.666666666666668
-400.0   120.0   33.333333333333336
-450.0   90.0   33.333333333333336
-450.0   120.0   33.333333333333336
-400.0   120.0   33.333333333333336
-450.0   120.0   16.666666666666668
-450.0   90.0   33.333333333333336
-400.0   120.0   33.333333333333336
-400.0   90.0   33.333333333333336
-400.0   90.0   16.666666666666668
-450.0   90.0   33.333333333333336
-400.0   120.0   33.333333333333336
-400.0   90.0   16.666666666666668
-450.0   120.0   16.666666666666668
-450.0   90.0   33.333333333333336
-400.0   90.0   33.333333333333336
-450.0   120.0   33.333333333333336
-450.0   90.0   50.0
-400.0   90.0   33.333333333333336
-400.0   120.0   33.333333333333336
-450.0   120.0   33.333333333333336
-400.0   120.0   50.0
-450.0   90.0   50.0
-450.0   120.0   50.0
-400.0   120.0   50.0
-450.0   120.0   33.333333333333336
-450.0   90.0   50.0
-400.0   120.0   50.0
-400.0   90.0   50.0
-400.0   90.0   33.333333333333336
-450.0   90.0   50.0
-400.0   120.0   50.0
-400.0   90.0   33.333333333333336
-450.0   120.0   33.333333333333336
-450.0   120.0   0.0
-400.0   120.0   0.0
-450.0   150.0   0.0
-450.0   120.0   16.666666666666668
-400.0   120.0   0.0
-400.0   150.0   0.0
-450.0   150.0   0.0
-400.0   150.0   16.666666666666668
-450.0   120.0   16.666666666666668
-450.0   150.0   16.666666666666668
-400.0   150.0   16.666666666666668
-450.0   150.0   0.0
-450.0   120.0   16.666666666666668
-400.0   150.0   16.666666666666668
-400.0   120.0   16.666666666666668
-400.0   120.0   0.0
-450.0   120.0   16.666666666666668
-400.0   150.0   16.666666666666668
-400.0   120.0   0.0
-450.0   150.0   0.0
-450.0   120.0   16.666666666666668
-400.0   120.0   16.666666666666668
-450.0   150.0   16.666666666666668
-450.0   120.0   33.333333333333336
-400.0   120.0   16.666666666666668
-400.0   150.0   16.666666666666668
-450.0   150.0   16.666666666666668
-400.0   150.0   33.333333333333336
-450.0   120.0   33.333333333333336
-450.0   150.0   33.333333333333336
-400.0   150.0   33.333333333333336
-450.0   150.0   16.666666666666668
-450.0   120.0   33.333333333333336
-400.0   150.0   33.333333333333336
-400.0   120.0   33.333333333333336
-400.0   120.0   16.666666666666668
-450.0   120.0   33.333333333333336
-400.0   150.0   33.333333333333336
-400.0   120.0   16.666666666666668
-450.0   150.0   16.666666666666668
-450.0   120.0   33.333333333333336
-400.0   120.0   33.333333333333336
-450.0   150.0   33.333333333333336
-450.0   120.0   50.0
-400.0   120.0   33.333333333333336
-400.0   150.0   33.333333333333336
-450.0   150.0   33.333333333333336
-400.0   150.0   50.0
-450.0   120.0   50.0
-450.0   150.0   50.0
-400.0   150.0   50.0
-450.0   150.0   33.333333333333336
-450.0   120.0   50.0
-400.0   150.0   50.0
-400.0   120.0   50.0
-400.0   120.0   33.333333333333336
-450.0   120.0   50.0
-400.0   150.0   50.0
-400.0   120.0   33.333333333333336
-450.0   150.0   33.333333333333336
-400.0   0.0   0.0
-350.0   0.0   0.0
-400.0   30.0   0.0
-400.0   0.0   16.666666666666668
-350.0   0.0   0.0
-350.0   30.0   0.0
-400.0   30.0   0.0
-350.0   30.0   16.666666666666668
-400.0   0.0   16.666666666666668
-400.0   30.0   16.666666666666668
-350.0   30.0   16.666666666666668
-400.0   30.0   0.0
-400.0   0.0   16.666666666666668
-350.0   30.0   16.666666666666668
-350.0   0.0   16.666666666666668
-350.0   0.0   0.0
-400.0   0.0   16.666666666666668
-350.0   30.0   16.666666666666668
-350.0   0.0   0.0
-400.0   30.0   0.0
-400.0   0.0   16.666666666666668
-350.0   0.0   16.666666666666668
-400.0   30.0   16.666666666666668
-400.0   0.0   33.333333333333336
-350.0   0.0   16.666666666666668
-350.0   30.0   16.666666666666668
-400.0   30.0   16.666666666666668
-350.0   30.0   33.333333333333336
-400.0   0.0   33.333333333333336
-400.0   30.0   33.333333333333336
-350.0   30.0   33.333333333333336
-400.0   30.0   16.666666666666668
-400.0   0.0   33.333333333333336
-350.0   30.0   33.333333333333336
-350.0   0.0   33.333333333333336
-350.0   0.0   16.666666666666668
-400.0   0.0   33.333333333333336
-350.0   30.0   33.333333333333336
-350.0   0.0   16.666666666666668
-400.0   30.0   16.666666666666668
-400.0   0.0   33.333333333333336
-350.0   0.0   33.333333333333336
-400.0   30.0   33.333333333333336
-400.0   0.0   50.0
-350.0   0.0   33.333333333333336
-350.0   30.0   33.333333333333336
-400.0   30.0   33.333333333333336
-350.0   30.0   50.0
-400.0   0.0   50.0
-400.0   30.0   50.0
-350.0   30.0   50.0
-400.0   30.0   33.333333333333336
-400.0   0.0   50.0
-350.0   30.0   50.0
-350.0   0.0   50.0
-350.0   0.0   33.333333333333336
-400.0   0.0   50.0
-350.0   30.0   50.0
-350.0   0.0   33.333333333333336
-400.0   30.0   33.333333333333336
-400.0   30.0   0.0
-350.0   30.0   0.0
-400.0   60.0   0.0
-400.0   30.0   16.666666666666668
-350.0   30.0   0.0
-350.0   60.0   0.0
-400.0   60.0   0.0
-350.0   60.0   16.666666666666668
-400.0   30.0   16.666666666666668
-400.0   60.0   16.666666666666668
-350.0   60.0   16.666666666666668
-400.0   60.0   0.0
-400.0   30.0   16.666666666666668
-350.0   60.0   16.666666666666668
-350.0   30.0   16.666666666666668
-350.0   30.0   0.0
-400.0   30.0   16.666666666666668
-350.0   60.0   16.666666666666668
-350.0   30.0   0.0
-400.0   60.0   0.0
-400.0   30.0   16.666666666666668
-350.0   30.0   16.666666666666668
-400.0   60.0   16.666666666666668
-400.0   30.0   33.333333333333336
-350.0   30.0   16.666666666666668
-350.0   60.0   16.666666666666668
-400.0   60.0   16.666666666666668
-350.0   60.0   33.333333333333336
-400.0   30.0   33.333333333333336
-400.0   60.0   33.333333333333336
-350.0   60.0   33.333333333333336
-400.0   60.0   16.666666666666668
-400.0   30.0   33.333333333333336
-350.0   60.0   33.333333333333336
-350.0   30.0   33.333333333333336
-350.0   30.0   16.666666666666668
-400.0   30.0   33.333333333333336
-350.0   60.0   33.333333333333336
-350.0   30.0   16.666666666666668
-400.0   60.0   16.666666666666668
-400.0   30.0   33.333333333333336
-350.0   30.0   33.333333333333336
-400.0   60.0   33.333333333333336
-400.0   30.0   50.0
-350.0   30.0   33.333333333333336
-350.0   60.0   33.333333333333336
-400.0   60.0   33.333333333333336
-350.0   60.0   50.0
-400.0   30.0   50.0
-400.0   60.0   50.0
-350.0   60.0   50.0
-400.0   60.0   33.333333333333336
-400.0   30.0   50.0
-350.0   60.0   50.0
-350.0   30.0   50.0
-350.0   30.0   33.333333333333336
-400.0   30.0   50.0
-350.0   60.0   50.0
-350.0   30.0   33.333333333333336
-400.0   60.0   33.333333333333336
-400.0   60.0   0.0
-350.0   60.0   0.0
-400.0   90.0   0.0
-400.0   60.0   16.666666666666668
-350.0   60.0   0.0
-350.0   90.0   0.0
-400.0   90.0   0.0
-350.0   90.0   16.666666666666668
-400.0   60.0   16.666666666666668
-400.0   90.0   16.666666666666668
-350.0   90.0   16.666666666666668
-400.0   90.0   0.0
-400.0   60.0   16.666666666666668
-350.0   90.0   16.666666666666668
-350.0   60.0   16.666666666666668
-350.0   60.0   0.0
-400.0   60.0   16.666666666666668
-350.0   90.0   16.666666666666668
-350.0   60.0   0.0
-400.0   90.0   0.0
-400.0   60.0   16.666666666666668
-350.0   60.0   16.666666666666668
-400.0   90.0   16.666666666666668
-400.0   60.0   33.333333333333336
-350.0   60.0   16.666666666666668
-350.0   90.0   16.666666666666668
-400.0   90.0   16.666666666666668
-350.0   90.0   33.333333333333336
-400.0   60.0   33.333333333333336
-400.0   90.0   33.333333333333336
-350.0   90.0   33.333333333333336
-400.0   90.0   16.666666666666668
-400.0   60.0   33.333333333333336
-350.0   90.0   33.333333333333336
-350.0   60.0   33.333333333333336
-350.0   60.0   16.666666666666668
-400.0   60.0   33.333333333333336
-350.0   90.0   33.333333333333336
-350.0   60.0   16.666666666666668
-400.0   90.0   16.666666666666668
-400.0   60.0   33.333333333333336
-350.0   60.0   33.333333333333336
-400.0   90.0   33.333333333333336
-400.0   60.0   50.0
-350.0   60.0   33.333333333333336
-350.0   90.0   33.333333333333336
-400.0   90.0   33.333333333333336
-350.0   90.0   50.0
-400.0   60.0   50.0
-400.0   90.0   50.0
-350.0   90.0   50.0
-400.0   90.0   33.333333333333336
-400.0   60.0   50.0
-350.0   90.0   50.0
-350.0   60.0   50.0
-350.0   60.0   33.333333333333336
-400.0   60.0   50.0
-350.0   90.0   50.0
-350.0   60.0   33.333333333333336
-400.0   90.0   33.333333333333336
-400.0   90.0   0.0
-350.0   90.0   0.0
-400.0   120.0   0.0
-400.0   90.0   16.666666666666668
-350.0   90.0   0.0
-350.0   120.0   0.0
-400.0   120.0   0.0
-350.0   120.0   16.666666666666668
-400.0   90.0   16.666666666666668
-400.0   120.0   16.666666666666668
-350.0   120.0   16.666666666666668
-400.0   120.0   0.0
-400.0   90.0   16.666666666666668
-350.0   120.0   16.666666666666668
-350.0   90.0   16.666666666666668
-350.0   90.0   0.0
-400.0   90.0   16.666666666666668
-350.0   120.0   16.666666666666668
-350.0   90.0   0.0
-400.0   120.0   0.0
-400.0   90.0   16.666666666666668
-350.0   90.0   16.666666666666668
-400.0   120.0   16.666666666666668
-400.0   90.0   33.333333333333336
-350.0   90.0   16.666666666666668
-350.0   120.0   16.666666666666668
-400.0   120.0   16.666666666666668
-350.0   120.0   33.333333333333336
-400.0   90.0   33.333333333333336
-400.0   120.0   33.333333333333336
-350.0   120.0   33.333333333333336
-400.0   120.0   16.666666666666668
-400.0   90.0   33.333333333333336
-350.0   120.0   33.333333333333336
-350.0   90.0   33.333333333333336
-350.0   90.0   16.666666666666668
-400.0   90.0   33.333333333333336
-350.0   120.0   33.333333333333336
-350.0   90.0   16.666666666666668
-400.0   120.0   16.666666666666668
-400.0   90.0   33.333333333333336
-350.0   90.0   33.333333333333336
-400.0   120.0   33.333333333333336
-400.0   90.0   50.0
-350.0   90.0   33.333333333333336
-350.0   120.0   33.333333333333336
-400.0   120.0   33.333333333333336
-350.0   120.0   50.0
-400.0   90.0   50.0
-400.0   120.0   50.0
-350.0   120.0   50.0
-400.0   120.0   33.333333333333336
-400.0   90.0   50.0
-350.0   120.0   50.0
-350.0   90.0   50.0
-350.0   90.0   33.333333333333336
-400.0   90.0   50.0
-350.0   120.0   50.0
-350.0   90.0   33.333333333333336
-400.0   120.0   33.333333333333336
-400.0   120.0   0.0
-350.0   120.0   0.0
-400.0   150.0   0.0
-400.0   120.0   16.666666666666668
-350.0   120.0   0.0
-350.0   150.0   0.0
-400.0   150.0   0.0
-350.0   150.0   16.666666666666668
-400.0   120.0   16.666666666666668
-400.0   150.0   16.666666666666668
-350.0   150.0   16.666666666666668
-400.0   150.0   0.0
-400.0   120.0   16.666666666666668
-350.0   150.0   16.666666666666668
-350.0   120.0   16.666666666666668
-350.0   120.0   0.0
-400.0   120.0   16.666666666666668
-350.0   150.0   16.666666666666668
-350.0   120.0   0.0
-400.0   150.0   0.0
-400.0   120.0   16.666666666666668
-350.0   120.0   16.666666666666668
-400.0   150.0   16.666666666666668
-400.0   120.0   33.333333333333336
-350.0   120.0   16.666666666666668
-350.0   150.0   16.666666666666668
-400.0   150.0   16.666666666666668
-350.0   150.0   33.333333333333336
-400.0   120.0   33.333333333333336
-400.0   150.0   33.333333333333336
-350.0   150.0   33.333333333333336
-400.0   150.0   16.666666666666668
-400.0   120.0   33.333333333333336
-350.0   150.0   33.333333333333336
-350.0   120.0   33.333333333333336
-350.0   120.0   16.666666666666668
-400.0   120.0   33.333333333333336
-350.0   150.0   33.333333333333336
-350.0   120.0   16.666666666666668
-400.0   150.0   16.666666666666668
-400.0   120.0   33.333333333333336
-350.0   120.0   33.333333333333336
-400.0   150.0   33.333333333333336
-400.0   120.0   50.0
-350.0   120.0   33.333333333333336
-350.0   150.0   33.333333333333336
-400.0   150.0   33.333333333333336
-350.0   150.0   50.0
-400.0   120.0   50.0
-400.0   150.0   50.0
-350.0   150.0   50.0
-400.0   150.0   33.333333333333336
-400.0   120.0   50.0
-350.0   150.0   50.0
-350.0   120.0   50.0
-350.0   120.0   33.333333333333336
-400.0   120.0   50.0
-350.0   150.0   50.0
-350.0   120.0   33.333333333333336
-400.0   150.0   33.333333333333336
-350.0   0.0   0.0
-300.0   0.0   0.0
-350.0   30.0   0.0
-350.0   0.0   16.666666666666668
-300.0   0.0   0.0
-300.0   30.0   0.0
-350.0   30.0   0.0
-300.0   30.0   16.666666666666668
-350.0   0.0   16.666666666666668
-350.0   30.0   16.666666666666668
-300.0   30.0   16.666666666666668
-350.0   30.0   0.0
-350.0   0.0   16.666666666666668
-300.0   30.0   16.666666666666668
-300.0   0.0   16.666666666666668
-300.0   0.0   0.0
-350.0   0.0   16.666666666666668
-300.0   30.0   16.666666666666668
-300.0   0.0   0.0
-350.0   30.0   0.0
-350.0   0.0   16.666666666666668
-300.0   0.0   16.666666666666668
-350.0   30.0   16.666666666666668
-350.0   0.0   33.333333333333336
-300.0   0.0   16.666666666666668
-300.0   30.0   16.666666666666668
-350.0   30.0   16.666666666666668
-300.0   30.0   33.333333333333336
-350.0   0.0   33.333333333333336
-350.0   30.0   33.333333333333336
-300.0   30.0   33.333333333333336
-350.0   30.0   16.666666666666668
-350.0   0.0   33.333333333333336
-300.0   30.0   33.333333333333336
-300.0   0.0   33.333333333333336
-300.0   0.0   16.666666666666668
-350.0   0.0   33.333333333333336
-300.0   30.0   33.333333333333336
-300.0   0.0   16.666666666666668
-350.0   30.0   16.666666666666668
-350.0   0.0   33.333333333333336
-300.0   0.0   33.333333333333336
-350.0   30.0   33.333333333333336
-350.0   0.0   50.0
-300.0   0.0   33.333333333333336
-300.0   30.0   33.333333333333336
-350.0   30.0   33.333333333333336
-300.0   30.0   50.0
-350.0   0.0   50.0
-350.0   30.0   50.0
-300.0   30.0   50.0
-350.0   30.0   33.333333333333336
-350.0   0.0   50.0
-300.0   30.0   50.0
-300.0   0.0   50.0
-300.0   0.0   33.333333333333336
-350.0   0.0   50.0
-300.0   30.0   50.0
-300.0   0.0   33.333333333333336
-350.0   30.0   33.333333333333336
-350.0   30.0   0.0
-300.0   30.0   0.0
-350.0   60.0   0.0
-350.0   30.0   16.666666666666668
-300.0   30.0   0.0
-300.0   60.0   0.0
-350.0   60.0   0.0
-300.0   60.0   16.666666666666668
-350.0   30.0   16.666666666666668
-350.0   60.0   16.666666666666668
-300.0   60.0   16.666666666666668
-350.0   60.0   0.0
-350.0   30.0   16.666666666666668
-300.0   60.0   16.666666666666668
-300.0   30.0   16.666666666666668
-300.0   30.0   0.0
-350.0   30.0   16.666666666666668
-300.0   60.0   16.666666666666668
-300.0   30.0   0.0
-350.0   60.0   0.0
-350.0   30.0   16.666666666666668
-300.0   30.0   16.666666666666668
-350.0   60.0   16.666666666666668
-350.0   30.0   33.333333333333336
-300.0   30.0   16.666666666666668
-300.0   60.0   16.666666666666668
-350.0   60.0   16.666666666666668
-300.0   60.0   33.333333333333336
-350.0   30.0   33.333333333333336
-350.0   60.0   33.333333333333336
-300.0   60.0   33.333333333333336
-350.0   60.0   16.666666666666668
-350.0   30.0   33.333333333333336
-300.0   60.0   33.333333333333336
-300.0   30.0   33.333333333333336
-300.0   30.0   16.666666666666668
-350.0   30.0   33.333333333333336
-300.0   60.0   33.333333333333336
-300.0   30.0   16.666666666666668
-350.0   60.0   16.666666666666668
-350.0   30.0   33.333333333333336
-300.0   30.0   33.333333333333336
-350.0   60.0   33.333333333333336
-350.0   30.0   50.0
-300.0   30.0   33.333333333333336
-300.0   60.0   33.333333333333336
-350.0   60.0   33.333333333333336
-300.0   60.0   50.0
-350.0   30.0   50.0
-350.0   60.0   50.0
-300.0   60.0   50.0
-350.0   60.0   33.333333333333336
-350.0   30.0   50.0
-300.0   60.0   50.0
-300.0   30.0   50.0
-300.0   30.0   33.333333333333336
-350.0   30.0   50.0
-300.0   60.0   50.0
-300.0   30.0   33.333333333333336
-350.0   60.0   33.333333333333336
-350.0   60.0   0.0
-300.0   60.0   0.0
-350.0   90.0   0.0
-350.0   60.0   16.666666666666668
-300.0   60.0   0.0
-300.0   90.0   0.0
-350.0   90.0   0.0
-300.0   90.0   16.666666666666668
-350.0   60.0   16.666666666666668
-350.0   90.0   16.666666666666668
-300.0   90.0   16.666666666666668
-350.0   90.0   0.0
-350.0   60.0   16.666666666666668
-300.0   90.0   16.666666666666668
-300.0   60.0   16.666666666666668
-300.0   60.0   0.0
-350.0   60.0   16.666666666666668
-300.0   90.0   16.666666666666668
-300.0   60.0   0.0
-350.0   90.0   0.0
-350.0   60.0   16.666666666666668
-300.0   60.0   16.666666666666668
-350.0   90.0   16.666666666666668
-350.0   60.0   33.333333333333336
-300.0   60.0   16.666666666666668
-300.0   90.0   16.666666666666668
-350.0   90.0   16.666666666666668
-300.0   90.0   33.333333333333336
-350.0   60.0   33.333333333333336
-350.0   90.0   33.333333333333336
-300.0   90.0   33.333333333333336
-350.0   90.0   16.666666666666668
-350.0   60.0   33.333333333333336
-300.0   90.0   33.333333333333336
-300.0   60.0   33.333333333333336
-300.0   60.0   16.666666666666668
-350.0   60.0   33.333333333333336
-300.0   90.0   33.333333333333336
-300.0   60.0   16.666666666666668
-350.0   90.0   16.666666666666668
-350.0   60.0   33.333333333333336
-300.0   60.0   33.333333333333336
-350.0   90.0   33.333333333333336
-350.0   60.0   50.0
-300.0   60.0   33.333333333333336
-300.0   90.0   33.333333333333336
-350.0   90.0   33.333333333333336
-300.0   90.0   50.0
-350.0   60.0   50.0
-350.0   90.0   50.0
-300.0   90.0   50.0
-350.0   90.0   33.333333333333336
-350.0   60.0   50.0
-300.0   90.0   50.0
-300.0   60.0   50.0
-300.0   60.0   33.333333333333336
-350.0   60.0   50.0
-300.0   90.0   50.0
-300.0   60.0   33.333333333333336
-350.0   90.0   33.333333333333336
-350.0   90.0   0.0
-300.0   90.0   0.0
-350.0   120.0   0.0
-350.0   90.0   16.666666666666668
-300.0   90.0   0.0
-300.0   120.0   0.0
-350.0   120.0   0.0
-300.0   120.0   16.666666666666668
-350.0   90.0   16.666666666666668
-350.0   120.0   16.666666666666668
-300.0   120.0   16.666666666666668
-350.0   120.0   0.0
-350.0   90.0   16.666666666666668
-300.0   120.0   16.666666666666668
-300.0   90.0   16.666666666666668
-300.0   90.0   0.0
-350.0   90.0   16.666666666666668
-300.0   120.0   16.666666666666668
-300.0   90.0   0.0
-350.0   120.0   0.0
-350.0   90.0   16.666666666666668
-300.0   90.0   16.666666666666668
-350.0   120.0   16.666666666666668
-350.0   90.0   33.333333333333336
-300.0   90.0   16.666666666666668
-300.0   120.0   16.666666666666668
-350.0   120.0   16.666666666666668
-300.0   120.0   33.333333333333336
-350.0   90.0   33.333333333333336
-350.0   120.0   33.333333333333336
-300.0   120.0   33.333333333333336
-350.0   120.0   16.666666666666668
-350.0   90.0   33.333333333333336
-300.0   120.0   33.333333333333336
-300.0   90.0   33.333333333333336
-300.0   90.0   16.666666666666668
-350.0   90.0   33.333333333333336
-300.0   120.0   33.333333333333336
-300.0   90.0   16.666666666666668
-350.0   120.0   16.666666666666668
-350.0   90.0   33.333333333333336
-300.0   90.0   33.333333333333336
-350.0   120.0   33.333333333333336
-350.0   90.0   50.0
-300.0   90.0   33.333333333333336
-300.0   120.0   33.333333333333336
-350.0   120.0   33.333333333333336
-300.0   120.0   50.0
-350.0   90.0   50.0
-350.0   120.0   50.0
-300.0   120.0   50.0
-350.0   120.0   33.333333333333336
-350.0   90.0   50.0
-300.0   120.0   50.0
-300.0   90.0   50.0
-300.0   90.0   33.333333333333336
-350.0   90.0   50.0
-300.0   120.0   50.0
-300.0   90.0   33.333333333333336
-350.0   120.0   33.333333333333336
-350.0   120.0   0.0
-300.0   120.0   0.0
-350.0   150.0   0.0
-350.0   120.0   16.666666666666668
-300.0   120.0   0.0
-300.0   150.0   0.0
-350.0   150.0   0.0
-300.0   150.0   16.666666666666668
-350.0   120.0   16.666666666666668
-350.0   150.0   16.666666666666668
-300.0   150.0   16.666666666666668
-350.0   150.0   0.0
-350.0   120.0   16.666666666666668
-300.0   150.0   16.666666666666668
-300.0   120.0   16.666666666666668
-300.0   120.0   0.0
-350.0   120.0   16.666666666666668
-300.0   150.0   16.666666666666668
-300.0   120.0   0.0
-350.0   150.0   0.0
-350.0   120.0   16.666666666666668
-300.0   120.0   16.666666666666668
-350.0   150.0   16.666666666666668
-350.0   120.0   33.333333333333336
-300.0   120.0   16.666666666666668
-300.0   150.0   16.666666666666668
-350.0   150.0   16.666666666666668
-300.0   150.0   33.333333333333336
-350.0   120.0   33.333333333333336
-350.0   150.0   33.333333333333336
-300.0   150.0   33.333333333333336
-350.0   150.0   16.666666666666668
-350.0   120.0   33.333333333333336
-300.0   150.0   33.333333333333336
-300.0   120.0   33.333333333333336
-300.0   120.0   16.666666666666668
-350.0   120.0   33.333333333333336
-300.0   150.0   33.333333333333336
-300.0   120.0   16.666666666666668
-350.0   150.0   16.666666666666668
-350.0   120.0   33.333333333333336
-300.0   120.0   33.333333333333336
-350.0   150.0   33.333333333333336
-350.0   120.0   50.0
-300.0   120.0   33.333333333333336
-300.0   150.0   33.333333333333336
-350.0   150.0   33.333333333333336
-300.0   150.0   50.0
-350.0   120.0   50.0
-350.0   150.0   50.0
-300.0   150.0   50.0
-350.0   150.0   33.333333333333336
-350.0   120.0   50.0
-300.0   150.0   50.0
-300.0   120.0   50.0
-300.0   120.0   33.333333333333336
-350.0   120.0   50.0
-300.0   150.0   50.0
-300.0   120.0   33.333333333333336
-350.0   150.0   33.333333333333336
-300.0   0.0   0.0
-250.0   0.0   0.0
-300.0   30.0   0.0
-300.0   0.0   16.666666666666668
-250.0   0.0   0.0
-250.0   30.0   0.0
-300.0   30.0   0.0
-250.0   30.0   16.666666666666668
-300.0   0.0   16.666666666666668
-300.0   30.0   16.666666666666668
-250.0   30.0   16.666666666666668
-300.0   30.0   0.0
-300.0   0.0   16.666666666666668
-250.0   30.0   16.666666666666668
-250.0   0.0   16.666666666666668
-250.0   0.0   0.0
-300.0   0.0   16.666666666666668
-250.0   30.0   16.666666666666668
-250.0   0.0   0.0
-300.0   30.0   0.0
-300.0   0.0   16.666666666666668
-250.0   0.0   16.666666666666668
-300.0   30.0   16.666666666666668
-300.0   0.0   33.333333333333336
-250.0   0.0   16.666666666666668
-250.0   30.0   16.666666666666668
-300.0   30.0   16.666666666666668
-250.0   30.0   33.333333333333336
-300.0   0.0   33.333333333333336
-300.0   30.0   33.333333333333336
-250.0   30.0   33.333333333333336
-300.0   30.0   16.666666666666668
-300.0   0.0   33.333333333333336
-250.0   30.0   33.333333333333336
-250.0   0.0   33.333333333333336
-250.0   0.0   16.666666666666668
-300.0   0.0   33.333333333333336
-250.0   30.0   33.333333333333336
-250.0   0.0   16.666666666666668
-300.0   30.0   16.666666666666668
-300.0   0.0   33.333333333333336
-250.0   0.0   33.333333333333336
-300.0   30.0   33.333333333333336
-300.0   0.0   50.0
-250.0   0.0   33.333333333333336
-250.0   30.0   33.333333333333336
-300.0   30.0   33.333333333333336
-250.0   30.0   50.0
-300.0   0.0   50.0
-300.0   30.0   50.0
-250.0   30.0   50.0
-300.0   30.0   33.333333333333336
-300.0   0.0   50.0
-250.0   30.0   50.0
-250.0   0.0   50.0
-250.0   0.0   33.333333333333336
-300.0   0.0   50.0
-250.0   30.0   50.0
-250.0   0.0   33.333333333333336
-300.0   30.0   33.333333333333336
-300.0   30.0   0.0
-250.0   30.0   0.0
-300.0   60.0   0.0
-300.0   30.0   16.666666666666668
-250.0   30.0   0.0
-250.0   60.0   0.0
-300.0   60.0   0.0
-250.0   60.0   16.666666666666668
-300.0   30.0   16.666666666666668
-300.0   60.0   16.666666666666668
-250.0   60.0   16.666666666666668
-300.0   60.0   0.0
-300.0   30.0   16.666666666666668
-250.0   60.0   16.666666666666668
-250.0   30.0   16.666666666666668
-250.0   30.0   0.0
-300.0   30.0   16.666666666666668
-250.0   60.0   16.666666666666668
-250.0   30.0   0.0
-300.0   60.0   0.0
-300.0   30.0   16.666666666666668
-250.0   30.0   16.666666666666668
-300.0   60.0   16.666666666666668
-300.0   30.0   33.333333333333336
-250.0   30.0   16.666666666666668
-250.0   60.0   16.666666666666668
-300.0   60.0   16.666666666666668
-250.0   60.0   33.333333333333336
-300.0   30.0   33.333333333333336
-300.0   60.0   33.333333333333336
-250.0   60.0   33.333333333333336
-300.0   60.0   16.666666666666668
-300.0   30.0   33.333333333333336
-250.0   60.0   33.333333333333336
-250.0   30.0   33.333333333333336
-250.0   30.0   16.666666666666668
-300.0   30.0   33.333333333333336
-250.0   60.0   33.333333333333336
-250.0   30.0   16.666666666666668
-300.0   60.0   16.666666666666668
-300.0   30.0   33.333333333333336
-250.0   30.0   33.333333333333336
-300.0   60.0   33.333333333333336
-300.0   30.0   50.0
-250.0   30.0   33.333333333333336
-250.0   60.0   33.333333333333336
-300.0   60.0   33.333333333333336
-250.0   60.0   50.0
-300.0   30.0   50.0
-300.0   60.0   50.0
-250.0   60.0   50.0
-300.0   60.0   33.333333333333336
-300.0   30.0   50.0
-250.0   60.0   50.0
-250.0   30.0   50.0
-250.0   30.0   33.333333333333336
-300.0   30.0   50.0
-250.0   60.0   50.0
-250.0   30.0   33.333333333333336
-300.0   60.0   33.333333333333336
-300.0   60.0   0.0
-250.0   60.0   0.0
-300.0   90.0   0.0
-300.0   60.0   16.666666666666668
-250.0   60.0   0.0
-250.0   90.0   0.0
-300.0   90.0   0.0
-250.0   90.0   16.666666666666668
-300.0   60.0   16.666666666666668
-300.0   90.0   16.666666666666668
-250.0   90.0   16.666666666666668
-300.0   90.0   0.0
-300.0   60.0   16.666666666666668
-250.0   90.0   16.666666666666668
-250.0   60.0   16.666666666666668
-250.0   60.0   0.0
-300.0   60.0   16.666666666666668
-250.0   90.0   16.666666666666668
-250.0   60.0   0.0
-300.0   90.0   0.0
-300.0   60.0   16.666666666666668
-250.0   60.0   16.666666666666668
-300.0   90.0   16.666666666666668
-300.0   60.0   33.333333333333336
-250.0   60.0   16.666666666666668
-250.0   90.0   16.666666666666668
-300.0   90.0   16.666666666666668
-250.0   90.0   33.333333333333336
-300.0   60.0   33.333333333333336
-300.0   90.0   33.333333333333336
-250.0   90.0   33.333333333333336
-300.0   90.0   16.666666666666668
-300.0   60.0   33.333333333333336
-250.0   90.0   33.333333333333336
-250.0   60.0   33.333333333333336
-250.0   60.0   16.666666666666668
-300.0   60.0   33.333333333333336
-250.0   90.0   33.333333333333336
-250.0   60.0   16.666666666666668
-300.0   90.0   16.666666666666668
-300.0   60.0   33.333333333333336
-250.0   60.0   33.333333333333336
-300.0   90.0   33.333333333333336
-300.0   60.0   50.0
-250.0   60.0   33.333333333333336
-250.0   90.0   33.333333333333336
-300.0   90.0   33.333333333333336
-250.0   90.0   50.0
-300.0   60.0   50.0
-300.0   90.0   50.0
-250.0   90.0   50.0
-300.0   90.0   33.333333333333336
-300.0   60.0   50.0
-250.0   90.0   50.0
-250.0   60.0   50.0
-250.0   60.0   33.333333333333336
-300.0   60.0   50.0
-250.0   90.0   50.0
-250.0   60.0   33.333333333333336
-300.0   90.0   33.333333333333336
-300.0   90.0   0.0
-250.0   90.0   0.0
-300.0   120.0   0.0
-300.0   90.0   16.666666666666668
-250.0   90.0   0.0
-250.0   120.0   0.0
-300.0   120.0   0.0
-250.0   120.0   16.666666666666668
-300.0   90.0   16.666666666666668
-300.0   120.0   16.666666666666668
-250.0   120.0   16.666666666666668
-300.0   120.0   0.0
-300.0   90.0   16.666666666666668
-250.0   120.0   16.666666666666668
-250.0   90.0   16.666666666666668
-250.0   90.0   0.0
-300.0   90.0   16.666666666666668
-250.0   120.0   16.666666666666668
-250.0   90.0   0.0
-300.0   120.0   0.0
-300.0   90.0   16.666666666666668
-250.0   90.0   16.666666666666668
-300.0   120.0   16.666666666666668
-300.0   90.0   33.333333333333336
-250.0   90.0   16.666666666666668
-250.0   120.0   16.666666666666668
-300.0   120.0   16.666666666666668
-250.0   120.0   33.333333333333336
-300.0   90.0   33.333333333333336
-300.0   120.0   33.333333333333336
-250.0   120.0   33.333333333333336
-300.0   120.0   16.666666666666668
-300.0   90.0   33.333333333333336
-250.0   120.0   33.333333333333336
-250.0   90.0   33.333333333333336
-250.0   90.0   16.666666666666668
-300.0   90.0   33.333333333333336
-250.0   120.0   33.333333333333336
-250.0   90.0   16.666666666666668
-300.0   120.0   16.666666666666668
-300.0   90.0   33.333333333333336
-250.0   90.0   33.333333333333336
-300.0   120.0   33.333333333333336
-300.0   90.0   50.0
-250.0   90.0   33.333333333333336
-250.0   120.0   33.333333333333336
-300.0   120.0   33.333333333333336
-250.0   120.0   50.0
-300.0   90.0   50.0
-300.0   120.0   50.0
-250.0   120.0   50.0
-300.0   120.0   33.333333333333336
-300.0   90.0   50.0
-250.0   120.0   50.0
-250.0   90.0   50.0
-250.0   90.0   33.333333333333336
-300.0   90.0   50.0
-250.0   120.0   50.0
-250.0   90.0   33.333333333333336
-300.0   120.0   33.333333333333336
-300.0   120.0   0.0
-250.0   120.0   0.0
-300.0   150.0   0.0
-300.0   120.0   16.666666666666668
-250.0   120.0   0.0
-250.0   150.0   0.0
-300.0   150.0   0.0
-250.0   150.0   16.666666666666668
-300.0   120.0   16.666666666666668
-300.0   150.0   16.666666666666668
-250.0   150.0   16.666666666666668
-300.0   150.0   0.0
-300.0   120.0   16.666666666666668
-250.0   150.0   16.666666666666668
-250.0   120.0   16.666666666666668
-250.0   120.0   0.0
-300.0   120.0   16.666666666666668
-250.0   150.0   16.666666666666668
-250.0   120.0   0.0
-300.0   150.0   0.0
-300.0   120.0   16.666666666666668
-250.0   120.0   16.666666666666668
-300.0   150.0   16.666666666666668
-300.0   120.0   33.333333333333336
-250.0   120.0   16.666666666666668
-250.0   150.0   16.666666666666668
-300.0   150.0   16.666666666666668
-250.0   150.0   33.333333333333336
-300.0   120.0   33.333333333333336
-300.0   150.0   33.333333333333336
-250.0   150.0   33.333333333333336
-300.0   150.0   16.666666666666668
-300.0   120.0   33.333333333333336
-250.0   150.0   33.333333333333336
-250.0   120.0   33.333333333333336
-250.0   120.0   16.666666666666668
-300.0   120.0   33.333333333333336
-250.0   150.0   33.333333333333336
-250.0   120.0   16.666666666666668
-300.0   150.0   16.666666666666668
-300.0   120.0   33.333333333333336
-250.0   120.0   33.333333333333336
-300.0   150.0   33.333333333333336
-300.0   120.0   50.0
-250.0   120.0   33.333333333333336
-250.0   150.0   33.333333333333336
-300.0   150.0   33.333333333333336
-250.0   150.0   50.0
-300.0   120.0   50.0
-300.0   150.0   50.0
-250.0   150.0   50.0
-300.0   150.0   33.333333333333336
-300.0   120.0   50.0
-250.0   150.0   50.0
-250.0   120.0   50.0
-250.0   120.0   33.333333333333336
-300.0   120.0   50.0
-250.0   150.0   50.0
-250.0   120.0   33.333333333333336
-300.0   150.0   33.333333333333336
-250.0   0.0   0.0
-200.0   0.0   0.0
-250.0   30.0   0.0
-250.0   0.0   16.666666666666668
-200.0   0.0   0.0
-200.0   30.0   0.0
-250.0   30.0   0.0
-200.0   30.0   16.666666666666668
-250.0   0.0   16.666666666666668
-250.0   30.0   16.666666666666668
-200.0   30.0   16.666666666666668
-250.0   30.0   0.0
-250.0   0.0   16.666666666666668
-200.0   30.0   16.666666666666668
-200.0   0.0   16.666666666666668
-200.0   0.0   0.0
-250.0   0.0   16.666666666666668
-200.0   30.0   16.666666666666668
-200.0   0.0   0.0
-250.0   30.0   0.0
-250.0   0.0   16.666666666666668
-200.0   0.0   16.666666666666668
-250.0   30.0   16.666666666666668
-250.0   0.0   33.333333333333336
-200.0   0.0   16.666666666666668
-200.0   30.0   16.666666666666668
-250.0   30.0   16.666666666666668
-200.0   30.0   33.333333333333336
-250.0   0.0   33.333333333333336
-250.0   30.0   33.333333333333336
-200.0   30.0   33.333333333333336
-250.0   30.0   16.666666666666668
-250.0   0.0   33.333333333333336
-200.0   30.0   33.333333333333336
-200.0   0.0   33.333333333333336
-200.0   0.0   16.666666666666668
-250.0   0.0   33.333333333333336
-200.0   30.0   33.333333333333336
-200.0   0.0   16.666666666666668
-250.0   30.0   16.666666666666668
-250.0   0.0   33.333333333333336
-200.0   0.0   33.333333333333336
-250.0   30.0   33.333333333333336
-250.0   0.0   50.0
-200.0   0.0   33.333333333333336
-200.0   30.0   33.333333333333336
-250.0   30.0   33.333333333333336
-200.0   30.0   50.0
-250.0   0.0   50.0
-250.0   30.0   50.0
-200.0   30.0   50.0
-250.0   30.0   33.333333333333336
-250.0   0.0   50.0
-200.0   30.0   50.0
-200.0   0.0   50.0
-200.0   0.0   33.333333333333336
-250.0   0.0   50.0
-200.0   30.0   50.0
-200.0   0.0   33.333333333333336
-250.0   30.0   33.333333333333336
-250.0   30.0   0.0
-200.0   30.0   0.0
-250.0   60.0   0.0
-250.0   30.0   16.666666666666668
-200.0   30.0   0.0
-200.0   60.0   0.0
-250.0   60.0   0.0
-200.0   60.0   16.666666666666668
-250.0   30.0   16.666666666666668
-250.0   60.0   16.666666666666668
-200.0   60.0   16.666666666666668
-250.0   60.0   0.0
-250.0   30.0   16.666666666666668
-200.0   60.0   16.666666666666668
-200.0   30.0   16.666666666666668
-200.0   30.0   0.0
-250.0   30.0   16.666666666666668
-200.0   60.0   16.666666666666668
-200.0   30.0   0.0
-250.0   60.0   0.0
-250.0   30.0   16.666666666666668
-200.0   30.0   16.666666666666668
-250.0   60.0   16.666666666666668
-250.0   30.0   33.333333333333336
-200.0   30.0   16.666666666666668
-200.0   60.0   16.666666666666668
-250.0   60.0   16.666666666666668
-200.0   60.0   33.333333333333336
-250.0   30.0   33.333333333333336
-250.0   60.0   33.333333333333336
-200.0   60.0   33.333333333333336
-250.0   60.0   16.666666666666668
-250.0   30.0   33.333333333333336
-200.0   60.0   33.333333333333336
-200.0   30.0   33.333333333333336
-200.0   30.0   16.666666666666668
-250.0   30.0   33.333333333333336
-200.0   60.0   33.333333333333336
-200.0   30.0   16.666666666666668
-250.0   60.0   16.666666666666668
-250.0   30.0   33.333333333333336
-200.0   30.0   33.333333333333336
-250.0   60.0   33.333333333333336
-250.0   30.0   50.0
-200.0   30.0   33.333333333333336
-200.0   60.0   33.333333333333336
-250.0   60.0   33.333333333333336
-200.0   60.0   50.0
-250.0   30.0   50.0
-250.0   60.0   50.0
-200.0   60.0   50.0
-250.0   60.0   33.333333333333336
-250.0   30.0   50.0
-200.0   60.0   50.0
-200.0   30.0   50.0
-200.0   30.0   33.333333333333336
-250.0   30.0   50.0
-200.0   60.0   50.0
-200.0   30.0   33.333333333333336
-250.0   60.0   33.333333333333336
-250.0   60.0   0.0
-200.0   60.0   0.0
-250.0   90.0   0.0
-250.0   60.0   16.666666666666668
-200.0   60.0   0.0
-200.0   90.0   0.0
-250.0   90.0   0.0
-200.0   90.0   16.666666666666668
-250.0   60.0   16.666666666666668
-250.0   90.0   16.666666666666668
-200.0   90.0   16.666666666666668
-250.0   90.0   0.0
-250.0   60.0   16.666666666666668
-200.0   90.0   16.666666666666668
-200.0   60.0   16.666666666666668
-200.0   60.0   0.0
-250.0   60.0   16.666666666666668
-200.0   90.0   16.666666666666668
-200.0   60.0   0.0
-250.0   90.0   0.0
-250.0   60.0   16.666666666666668
-200.0   60.0   16.666666666666668
-250.0   90.0   16.666666666666668
-250.0   60.0   33.333333333333336
-200.0   60.0   16.666666666666668
-200.0   90.0   16.666666666666668
-250.0   90.0   16.666666666666668
-200.0   90.0   33.333333333333336
-250.0   60.0   33.333333333333336
-250.0   90.0   33.333333333333336
-200.0   90.0   33.333333333333336
-250.0   90.0   16.666666666666668
-250.0   60.0   33.333333333333336
-200.0   90.0   33.333333333333336
-200.0   60.0   33.333333333333336
-200.0   60.0   16.666666666666668
-250.0   60.0   33.333333333333336
-200.0   90.0   33.333333333333336
-200.0   60.0   16.666666666666668
-250.0   90.0   16.666666666666668
-250.0   60.0   33.333333333333336
-200.0   60.0   33.333333333333336
-250.0   90.0   33.333333333333336
-250.0   60.0   50.0
-200.0   60.0   33.333333333333336
-200.0   90.0   33.333333333333336
-250.0   90.0   33.333333333333336
-200.0   90.0   50.0
-250.0   60.0   50.0
-250.0   90.0   50.0
-200.0   90.0   50.0
-250.0   90.0   33.333333333333336
-250.0   60.0   50.0
-200.0   90.0   50.0
-200.0   60.0   50.0
-200.0   60.0   33.333333333333336
-250.0   60.0   50.0
-200.0   90.0   50.0
-200.0   60.0   33.333333333333336
-250.0   90.0   33.333333333333336
-250.0   90.0   0.0
-200.0   90.0   0.0
-250.0   120.0   0.0
-250.0   90.0   16.666666666666668
-200.0   90.0   0.0
-200.0   120.0   0.0
-250.0   120.0   0.0
-200.0   120.0   16.666666666666668
-250.0   90.0   16.666666666666668
-250.0   120.0   16.666666666666668
-200.0   120.0   16.666666666666668
-250.0   120.0   0.0
-250.0   90.0   16.666666666666668
-200.0   120.0   16.666666666666668
-200.0   90.0   16.666666666666668
-200.0   90.0   0.0
-250.0   90.0   16.666666666666668
-200.0   120.0   16.666666666666668
-200.0   90.0   0.0
-250.0   120.0   0.0
-250.0   90.0   16.666666666666668
-200.0   90.0   16.666666666666668
-250.0   120.0   16.666666666666668
-250.0   90.0   33.333333333333336
-200.0   90.0   16.666666666666668
-200.0   120.0   16.666666666666668
-250.0   120.0   16.666666666666668
-200.0   120.0   33.333333333333336
-250.0   90.0   33.333333333333336
-250.0   120.0   33.333333333333336
-200.0   120.0   33.333333333333336
-250.0   120.0   16.666666666666668
-250.0   90.0   33.333333333333336
-200.0   120.0   33.333333333333336
-200.0   90.0   33.333333333333336
-200.0   90.0   16.666666666666668
-250.0   90.0   33.333333333333336
-200.0   120.0   33.333333333333336
-200.0   90.0   16.666666666666668
-250.0   120.0   16.666666666666668
-250.0   90.0   33.333333333333336
-200.0   90.0   33.333333333333336
-250.0   120.0   33.333333333333336
-250.0   90.0   50.0
-200.0   90.0   33.333333333333336
-200.0   120.0   33.333333333333336
-250.0   120.0   33.333333333333336
-200.0   120.0   50.0
-250.0   90.0   50.0
-250.0   120.0   50.0
-200.0   120.0   50.0
-250.0   120.0   33.333333333333336
-250.0   90.0   50.0
-200.0   120.0   50.0
-200.0   90.0   50.0
-200.0   90.0   33.333333333333336
-250.0   90.0   50.0
-200.0   120.0   50.0
-200.0   90.0   33.333333333333336
-250.0   120.0   33.333333333333336
-250.0   120.0   0.0
-200.0   120.0   0.0
-250.0   150.0   0.0
-250.0   120.0   16.666666666666668
-200.0   120.0   0.0
-200.0   150.0   0.0
-250.0   150.0   0.0
-200.0   150.0   16.666666666666668
-250.0   120.0   16.666666666666668
-250.0   150.0   16.666666666666668
-200.0   150.0   16.666666666666668
-250.0   150.0   0.0
-250.0   120.0   16.666666666666668
-200.0   150.0   16.666666666666668
-200.0   120.0   16.666666666666668
-200.0   120.0   0.0
-250.0   120.0   16.666666666666668
-200.0   150.0   16.666666666666668
-200.0   120.0   0.0
-250.0   150.0   0.0
-250.0   120.0   16.666666666666668
-200.0   120.0   16.666666666666668
-250.0   150.0   16.666666666666668
-250.0   120.0   33.333333333333336
-200.0   120.0   16.666666666666668
-200.0   150.0   16.666666666666668
-250.0   150.0   16.666666666666668
-200.0   150.0   33.333333333333336
-250.0   120.0   33.333333333333336
-250.0   150.0   33.333333333333336
-200.0   150.0   33.333333333333336
-250.0   150.0   16.666666666666668
-250.0   120.0   33.333333333333336
-200.0   150.0   33.333333333333336
-200.0   120.0   33.333333333333336
-200.0   120.0   16.666666666666668
-250.0   120.0   33.333333333333336
-200.0   150.0   33.333333333333336
-200.0   120.0   16.666666666666668
-250.0   150.0   16.666666666666668
-250.0   120.0   33.333333333333336
-200.0   120.0   33.333333333333336
-250.0   150.0   33.333333333333336
-250.0   120.0   50.0
-200.0   120.0   33.333333333333336
-200.0   150.0   33.333333333333336
-250.0   150.0   33.333333333333336
-200.0   150.0   50.0
-250.0   120.0   50.0
-250.0   150.0   50.0
-200.0   150.0   50.0
-250.0   150.0   33.333333333333336
-250.0   120.0   50.0
-200.0   150.0   50.0
-200.0   120.0   50.0
-200.0   120.0   33.333333333333336
-250.0   120.0   50.0
-200.0   150.0   50.0
-200.0   120.0   33.333333333333336
-250.0   150.0   33.333333333333336
-200.0   0.0   0.0
-150.0   0.0   0.0
-200.0   30.0   0.0
-200.0   0.0   16.666666666666668
-150.0   0.0   0.0
-150.0   30.0   0.0
-200.0   30.0   0.0
-150.0   30.0   16.666666666666668
-200.0   0.0   16.666666666666668
-200.0   30.0   16.666666666666668
-150.0   30.0   16.666666666666668
-200.0   30.0   0.0
-200.0   0.0   16.666666666666668
-150.0   30.0   16.666666666666668
-150.0   0.0   16.666666666666668
-150.0   0.0   0.0
-200.0   0.0   16.666666666666668
-150.0   30.0   16.666666666666668
-150.0   0.0   0.0
-200.0   30.0   0.0
-200.0   0.0   16.666666666666668
-150.0   0.0   16.666666666666668
-200.0   30.0   16.666666666666668
-200.0   0.0   33.333333333333336
-150.0   0.0   16.666666666666668
-150.0   30.0   16.666666666666668
-200.0   30.0   16.666666666666668
-150.0   30.0   33.333333333333336
-200.0   0.0   33.333333333333336
-200.0   30.0   33.333333333333336
-150.0   30.0   33.333333333333336
-200.0   30.0   16.666666666666668
-200.0   0.0   33.333333333333336
-150.0   30.0   33.333333333333336
-150.0   0.0   33.333333333333336
-150.0   0.0   16.666666666666668
-200.0   0.0   33.333333333333336
-150.0   30.0   33.333333333333336
-150.0   0.0   16.666666666666668
-200.0   30.0   16.666666666666668
-200.0   0.0   33.333333333333336
-150.0   0.0   33.333333333333336
-200.0   30.0   33.333333333333336
-200.0   0.0   50.0
-150.0   0.0   33.333333333333336
-150.0   30.0   33.333333333333336
-200.0   30.0   33.333333333333336
-150.0   30.0   50.0
-200.0   0.0   50.0
-200.0   30.0   50.0
-150.0   30.0   50.0
-200.0   30.0   33.333333333333336
-200.0   0.0   50.0
-150.0   30.0   50.0
-150.0   0.0   50.0
-150.0   0.0   33.333333333333336
-200.0   0.0   50.0
-150.0   30.0   50.0
-150.0   0.0   33.333333333333336
-200.0   30.0   33.333333333333336
-200.0   30.0   0.0
-150.0   30.0   0.0
-200.0   60.0   0.0
-200.0   30.0   16.666666666666668
-150.0   30.0   0.0
-150.0   60.0   0.0
-200.0   60.0   0.0
-150.0   60.0   16.666666666666668
-200.0   30.0   16.666666666666668
-200.0   60.0   16.666666666666668
-150.0   60.0   16.666666666666668
-200.0   60.0   0.0
-200.0   30.0   16.666666666666668
-150.0   60.0   16.666666666666668
-150.0   30.0   16.666666666666668
-150.0   30.0   0.0
-200.0   30.0   16.666666666666668
-150.0   60.0   16.666666666666668
-150.0   30.0   0.0
-200.0   60.0   0.0
-200.0   30.0   16.666666666666668
-150.0   30.0   16.666666666666668
-200.0   60.0   16.666666666666668
-200.0   30.0   33.333333333333336
-150.0   30.0   16.666666666666668
-150.0   60.0   16.666666666666668
-200.0   60.0   16.666666666666668
-150.0   60.0   33.333333333333336
-200.0   30.0   33.333333333333336
-200.0   60.0   33.333333333333336
-150.0   60.0   33.333333333333336
-200.0   60.0   16.666666666666668
-200.0   30.0   33.333333333333336
-150.0   60.0   33.333333333333336
-150.0   30.0   33.333333333333336
-150.0   30.0   16.666666666666668
-200.0   30.0   33.333333333333336
-150.0   60.0   33.333333333333336
-150.0   30.0   16.666666666666668
-200.0   60.0   16.666666666666668
-200.0   30.0   33.333333333333336
-150.0   30.0   33.333333333333336
-200.0   60.0   33.333333333333336
-200.0   30.0   50.0
-150.0   30.0   33.333333333333336
-150.0   60.0   33.333333333333336
-200.0   60.0   33.333333333333336
-150.0   60.0   50.0
-200.0   30.0   50.0
-200.0   60.0   50.0
-150.0   60.0   50.0
-200.0   60.0   33.333333333333336
-200.0   30.0   50.0
-150.0   60.0   50.0
-150.0   30.0   50.0
-150.0   30.0   33.333333333333336
-200.0   30.0   50.0
-150.0   60.0   50.0
-150.0   30.0   33.333333333333336
-200.0   60.0   33.333333333333336
-200.0   60.0   0.0
-150.0   60.0   0.0
-200.0   90.0   0.0
-200.0   60.0   16.666666666666668
-150.0   60.0   0.0
-150.0   90.0   0.0
-200.0   90.0   0.0
-150.0   90.0   16.666666666666668
-200.0   60.0   16.666666666666668
-200.0   90.0   16.666666666666668
-150.0   90.0   16.666666666666668
-200.0   90.0   0.0
-200.0   60.0   16.666666666666668
-150.0   90.0   16.666666666666668
-150.0   60.0   16.666666666666668
-150.0   60.0   0.0
-200.0   60.0   16.666666666666668
-150.0   90.0   16.666666666666668
-150.0   60.0   0.0
-200.0   90.0   0.0
-200.0   60.0   16.666666666666668
-150.0   60.0   16.666666666666668
-200.0   90.0   16.666666666666668
-200.0   60.0   33.333333333333336
-150.0   60.0   16.666666666666668
-150.0   90.0   16.666666666666668
-200.0   90.0   16.666666666666668
-150.0   90.0   33.333333333333336
-200.0   60.0   33.333333333333336
-200.0   90.0   33.333333333333336
-150.0   90.0   33.333333333333336
-200.0   90.0   16.666666666666668
-200.0   60.0   33.333333333333336
-150.0   90.0   33.333333333333336
-150.0   60.0   33.333333333333336
-150.0   60.0   16.666666666666668
-200.0   60.0   33.333333333333336
-150.0   90.0   33.333333333333336
-150.0   60.0   16.666666666666668
-200.0   90.0   16.666666666666668
-200.0   60.0   33.333333333333336
-150.0   60.0   33.333333333333336
-200.0   90.0   33.333333333333336
-200.0   60.0   50.0
-150.0   60.0   33.333333333333336
-150.0   90.0   33.333333333333336
-200.0   90.0   33.333333333333336
-150.0   90.0   50.0
-200.0   60.0   50.0
-200.0   90.0   50.0
-150.0   90.0   50.0
-200.0   90.0   33.333333333333336
-200.0   60.0   50.0
-150.0   90.0   50.0
-150.0   60.0   50.0
-150.0   60.0   33.333333333333336
-200.0   60.0   50.0
-150.0   90.0   50.0
-150.0   60.0   33.333333333333336
-200.0   90.0   33.333333333333336
-200.0   90.0   0.0
-150.0   90.0   0.0
-200.0   120.0   0.0
-200.0   90.0   16.666666666666668
-150.0   90.0   0.0
-150.0   120.0   0.0
-200.0   120.0   0.0
-150.0   120.0   16.666666666666668
-200.0   90.0   16.666666666666668
-200.0   120.0   16.666666666666668
-150.0   120.0   16.666666666666668
-200.0   120.0   0.0
-200.0   90.0   16.666666666666668
-150.0   120.0   16.666666666666668
-150.0   90.0   16.666666666666668
-150.0   90.0   0.0
-200.0   90.0   16.666666666666668
-150.0   120.0   16.666666666666668
-150.0   90.0   0.0
-200.0   120.0   0.0
-200.0   90.0   16.666666666666668
-150.0   90.0   16.666666666666668
-200.0   120.0   16.666666666666668
-200.0   90.0   33.333333333333336
-150.0   90.0   16.666666666666668
-150.0   120.0   16.666666666666668
-200.0   120.0   16.666666666666668
-150.0   120.0   33.333333333333336
-200.0   90.0   33.333333333333336
-200.0   120.0   33.333333333333336
-150.0   120.0   33.333333333333336
-200.0   120.0   16.666666666666668
-200.0   90.0   33.333333333333336
-150.0   120.0   33.333333333333336
-150.0   90.0   33.333333333333336
-150.0   90.0   16.666666666666668
-200.0   90.0   33.333333333333336
-150.0   120.0   33.333333333333336
-150.0   90.0   16.666666666666668
-200.0   120.0   16.666666666666668
-200.0   90.0   33.333333333333336
-150.0   90.0   33.333333333333336
-200.0   120.0   33.333333333333336
-200.0   90.0   50.0
-150.0   90.0   33.333333333333336
-150.0   120.0   33.333333333333336
-200.0   120.0   33.333333333333336
-150.0   120.0   50.0
-200.0   90.0   50.0
-200.0   120.0   50.0
-150.0   120.0   50.0
-200.0   120.0   33.333333333333336
-200.0   90.0   50.0
-150.0   120.0   50.0
-150.0   90.0   50.0
-150.0   90.0   33.333333333333336
-200.0   90.0   50.0
-150.0   120.0   50.0
-150.0   90.0   33.333333333333336
-200.0   120.0   33.333333333333336
-200.0   120.0   0.0
-150.0   120.0   0.0
-200.0   150.0   0.0
-200.0   120.0   16.666666666666668
-150.0   120.0   0.0
-150.0   150.0   0.0
-200.0   150.0   0.0
-150.0   150.0   16.666666666666668
-200.0   120.0   16.666666666666668
-200.0   150.0   16.666666666666668
-150.0   150.0   16.666666666666668
-200.0   150.0   0.0
-200.0   120.0   16.666666666666668
-150.0   150.0   16.666666666666668
-150.0   120.0   16.666666666666668
-150.0   120.0   0.0
-200.0   120.0   16.666666666666668
-150.0   150.0   16.666666666666668
-150.0   120.0   0.0
-200.0   150.0   0.0
-200.0   120.0   16.666666666666668
-150.0   120.0   16.666666666666668
-200.0   150.0   16.666666666666668
-200.0   120.0   33.333333333333336
-150.0   120.0   16.666666666666668
-150.0   150.0   16.666666666666668
-200.0   150.0   16.666666666666668
-150.0   150.0   33.333333333333336
-200.0   120.0   33.333333333333336
-200.0   150.0   33.333333333333336
-150.0   150.0   33.333333333333336
-200.0   150.0   16.666666666666668
-200.0   120.0   33.333333333333336
-150.0   150.0   33.333333333333336
-150.0   120.0   33.333333333333336
-150.0   120.0   16.666666666666668
-200.0   120.0   33.333333333333336
-150.0   150.0   33.333333333333336
-150.0   120.0   16.666666666666668
-200.0   150.0   16.666666666666668
-200.0   120.0   33.333333333333336
-150.0   120.0   33.333333333333336
-200.0   150.0   33.333333333333336
-200.0   120.0   50.0
-150.0   120.0   33.333333333333336
-150.0   150.0   33.333333333333336
-200.0   150.0   33.333333333333336
-150.0   150.0   50.0
-200.0   120.0   50.0
-200.0   150.0   50.0
-150.0   150.0   50.0
-200.0   150.0   33.333333333333336
-200.0   120.0   50.0
-150.0   150.0   50.0
-150.0   120.0   50.0
-150.0   120.0   33.333333333333336
-200.0   120.0   50.0
-150.0   150.0   50.0
-150.0   120.0   33.333333333333336
-200.0   150.0   33.333333333333336
-150.0   0.0   0.0
-100.0   0.0   0.0
-150.0   30.0   0.0
-150.0   0.0   16.666666666666668
-100.0   0.0   0.0
-100.0   30.0   0.0
-150.0   30.0   0.0
-100.0   30.0   16.666666666666668
-150.0   0.0   16.666666666666668
-150.0   30.0   16.666666666666668
-100.0   30.0   16.666666666666668
-150.0   30.0   0.0
-150.0   0.0   16.666666666666668
-100.0   30.0   16.666666666666668
-100.0   0.0   16.666666666666668
-100.0   0.0   0.0
-150.0   0.0   16.666666666666668
-100.0   30.0   16.666666666666668
-100.0   0.0   0.0
-150.0   30.0   0.0
-150.0   0.0   16.666666666666668
-100.0   0.0   16.666666666666668
-150.0   30.0   16.666666666666668
-150.0   0.0   33.333333333333336
-100.0   0.0   16.666666666666668
-100.0   30.0   16.666666666666668
-150.0   30.0   16.666666666666668
-100.0   30.0   33.333333333333336
-150.0   0.0   33.333333333333336
-150.0   30.0   33.333333333333336
-100.0   30.0   33.333333333333336
-150.0   30.0   16.666666666666668
-150.0   0.0   33.333333333333336
-100.0   30.0   33.333333333333336
-100.0   0.0   33.333333333333336
-100.0   0.0   16.666666666666668
-150.0   0.0   33.333333333333336
-100.0   30.0   33.333333333333336
-100.0   0.0   16.666666666666668
-150.0   30.0   16.666666666666668
-150.0   0.0   33.333333333333336
-100.0   0.0   33.333333333333336
-150.0   30.0   33.333333333333336
-150.0   0.0   50.0
-100.0   0.0   33.333333333333336
-100.0   30.0   33.333333333333336
-150.0   30.0   33.333333333333336
-100.0   30.0   50.0
-150.0   0.0   50.0
-150.0   30.0   50.0
-100.0   30.0   50.0
-150.0   30.0   33.333333333333336
-150.0   0.0   50.0
-100.0   30.0   50.0
-100.0   0.0   50.0
-100.0   0.0   33.333333333333336
-150.0   0.0   50.0
-100.0   30.0   50.0
-100.0   0.0   33.333333333333336
-150.0   30.0   33.333333333333336
-150.0   30.0   0.0
-100.0   30.0   0.0
-150.0   60.0   0.0
-150.0   30.0   16.666666666666668
-100.0   30.0   0.0
-100.0   60.0   0.0
-150.0   60.0   0.0
-100.0   60.0   16.666666666666668
-150.0   30.0   16.666666666666668
-150.0   60.0   16.666666666666668
-100.0   60.0   16.666666666666668
-150.0   60.0   0.0
-150.0   30.0   16.666666666666668
-100.0   60.0   16.666666666666668
-100.0   30.0   16.666666666666668
-100.0   30.0   0.0
-150.0   30.0   16.666666666666668
-100.0   60.0   16.666666666666668
-100.0   30.0   0.0
-150.0   60.0   0.0
-150.0   30.0   16.666666666666668
-100.0   30.0   16.666666666666668
-150.0   60.0   16.666666666666668
-150.0   30.0   33.333333333333336
-100.0   30.0   16.666666666666668
-100.0   60.0   16.666666666666668
-150.0   60.0   16.666666666666668
-100.0   60.0   33.333333333333336
-150.0   30.0   33.333333333333336
-150.0   60.0   33.333333333333336
-100.0   60.0   33.333333333333336
-150.0   60.0   16.666666666666668
-150.0   30.0   33.333333333333336
-100.0   60.0   33.333333333333336
-100.0   30.0   33.333333333333336
-100.0   30.0   16.666666666666668
-150.0   30.0   33.333333333333336
-100.0   60.0   33.333333333333336
-100.0   30.0   16.666666666666668
-150.0   60.0   16.666666666666668
-150.0   30.0   33.333333333333336
-100.0   30.0   33.333333333333336
-150.0   60.0   33.333333333333336
-150.0   30.0   50.0
-100.0   30.0   33.333333333333336
-100.0   60.0   33.333333333333336
-150.0   60.0   33.333333333333336
-100.0   60.0   50.0
-150.0   30.0   50.0
-150.0   60.0   50.0
-100.0   60.0   50.0
-150.0   60.0   33.333333333333336
-150.0   30.0   50.0
-100.0   60.0   50.0
-100.0   30.0   50.0
-100.0   30.0   33.333333333333336
-150.0   30.0   50.0
-100.0   60.0   50.0
-100.0   30.0   33.333333333333336
-150.0   60.0   33.333333333333336
-150.0   60.0   0.0
-100.0   60.0   0.0
-150.0   90.0   0.0
-150.0   60.0   16.666666666666668
-100.0   60.0   0.0
-100.0   90.0   0.0
-150.0   90.0   0.0
-100.0   90.0   16.666666666666668
-150.0   60.0   16.666666666666668
-150.0   90.0   16.666666666666668
-100.0   90.0   16.666666666666668
-150.0   90.0   0.0
-150.0   60.0   16.666666666666668
-100.0   90.0   16.666666666666668
-100.0   60.0   16.666666666666668
-100.0   60.0   0.0
-150.0   60.0   16.666666666666668
-100.0   90.0   16.666666666666668
-100.0   60.0   0.0
-150.0   90.0   0.0
-150.0   60.0   16.666666666666668
-100.0   60.0   16.666666666666668
-150.0   90.0   16.666666666666668
-150.0   60.0   33.333333333333336
-100.0   60.0   16.666666666666668
-100.0   90.0   16.666666666666668
-150.0   90.0   16.666666666666668
-100.0   90.0   33.333333333333336
-150.0   60.0   33.333333333333336
-150.0   90.0   33.333333333333336
-100.0   90.0   33.333333333333336
-150.0   90.0   16.666666666666668
-150.0   60.0   33.333333333333336
-100.0   90.0   33.333333333333336
-100.0   60.0   33.333333333333336
-100.0   60.0   16.666666666666668
-150.0   60.0   33.333333333333336
-100.0   90.0   33.333333333333336
-100.0   60.0   16.666666666666668
-150.0   90.0   16.666666666666668
-150.0   60.0   33.333333333333336
-100.0   60.0   33.333333333333336
-150.0   90.0   33.333333333333336
-150.0   60.0   50.0
-100.0   60.0   33.333333333333336
-100.0   90.0   33.333333333333336
-150.0   90.0   33.333333333333336
-100.0   90.0   50.0
-150.0   60.0   50.0
-150.0   90.0   50.0
-100.0   90.0   50.0
-150.0   90.0   33.333333333333336
-150.0   60.0   50.0
-100.0   90.0   50.0
-100.0   60.0   50.0
-100.0   60.0   33.333333333333336
-150.0   60.0   50.0
-100.0   90.0   50.0
-100.0   60.0   33.333333333333336
-150.0   90.0   33.333333333333336
-150.0   90.0   0.0
-100.0   90.0   0.0
-150.0   120.0   0.0
-150.0   90.0   16.666666666666668
-100.0   90.0   0.0
-100.0   120.0   0.0
-150.0   120.0   0.0
-100.0   120.0   16.666666666666668
-150.0   90.0   16.666666666666668
-150.0   120.0   16.666666666666668
-100.0   120.0   16.666666666666668
-150.0   120.0   0.0
-150.0   90.0   16.666666666666668
-100.0   120.0   16.666666666666668
-100.0   90.0   16.666666666666668
-100.0   90.0   0.0
-150.0   90.0   16.666666666666668
-100.0   120.0   16.666666666666668
-100.0   90.0   0.0
-150.0   120.0   0.0
-150.0   90.0   16.666666666666668
-100.0   90.0   16.666666666666668
-150.0   120.0   16.666666666666668
-150.0   90.0   33.333333333333336
-100.0   90.0   16.666666666666668
-100.0   120.0   16.666666666666668
-150.0   120.0   16.666666666666668
-100.0   120.0   33.333333333333336
-150.0   90.0   33.333333333333336
-150.0   120.0   33.333333333333336
-100.0   120.0   33.333333333333336
-150.0   120.0   16.666666666666668
-150.0   90.0   33.333333333333336
-100.0   120.0   33.333333333333336
-100.0   90.0   33.333333333333336
-100.0   90.0   16.666666666666668
-150.0   90.0   33.333333333333336
-100.0   120.0   33.333333333333336
-100.0   90.0   16.666666666666668
-150.0   120.0   16.666666666666668
-150.0   90.0   33.333333333333336
-100.0   90.0   33.333333333333336
-150.0   120.0   33.333333333333336
-150.0   90.0   50.0
-100.0   90.0   33.333333333333336
-100.0   120.0   33.333333333333336
-150.0   120.0   33.333333333333336
-100.0   120.0   50.0
-150.0   90.0   50.0
-150.0   120.0   50.0
-100.0   120.0   50.0
-150.0   120.0   33.333333333333336
-150.0   90.0   50.0
-100.0   120.0   50.0
-100.0   90.0   50.0
-100.0   90.0   33.333333333333336
-150.0   90.0   50.0
-100.0   120.0   50.0
-100.0   90.0   33.333333333333336
-150.0   120.0   33.333333333333336
-150.0   120.0   0.0
-100.0   120.0   0.0
-150.0   150.0   0.0
-150.0   120.0   16.666666666666668
-100.0   120.0   0.0
-100.0   150.0   0.0
-150.0   150.0   0.0
-100.0   150.0   16.666666666666668
-150.0   120.0   16.666666666666668
-150.0   150.0   16.666666666666668
-100.0   150.0   16.666666666666668
-150.0   150.0   0.0
-150.0   120.0   16.666666666666668
-100.0   150.0   16.666666666666668
-100.0   120.0   16.666666666666668
-100.0   120.0   0.0
-150.0   120.0   16.666666666666668
-100.0   150.0   16.666666666666668
-100.0   120.0   0.0
-150.0   150.0   0.0
-150.0   120.0   16.666666666666668
-100.0   120.0   16.666666666666668
-150.0   150.0   16.666666666666668
-150.0   120.0   33.333333333333336
-100.0   120.0   16.666666666666668
-100.0   150.0   16.666666666666668
-150.0   150.0   16.666666666666668
-100.0   150.0   33.333333333333336
-150.0   120.0   33.333333333333336
-150.0   150.0   33.333333333333336
-100.0   150.0   33.333333333333336
-150.0   150.0   16.666666666666668
-150.0   120.0   33.333333333333336
-100.0   150.0   33.333333333333336
-100.0   120.0   33.333333333333336
-100.0   120.0   16.666666666666668
-150.0   120.0   33.333333333333336
-100.0   150.0   33.333333333333336
-100.0   120.0   16.666666666666668
-150.0   150.0   16.666666666666668
-150.0   120.0   33.333333333333336
-100.0   120.0   33.333333333333336
-150.0   150.0   33.333333333333336
-150.0   120.0   50.0
-100.0   120.0   33.333333333333336
-100.0   150.0   33.333333333333336
-150.0   150.0   33.333333333333336
-100.0   150.0   50.0
-150.0   120.0   50.0
-150.0   150.0   50.0
-100.0   150.0   50.0
-150.0   150.0   33.333333333333336
-150.0   120.0   50.0
-100.0   150.0   50.0
-100.0   120.0   50.0
-100.0   120.0   33.333333333333336
-150.0   120.0   50.0
-100.0   150.0   50.0
-100.0   120.0   33.333333333333336
-150.0   150.0   33.333333333333336
-100.0   0.0   0.0
-50.0   0.0   0.0
-100.0   30.0   0.0
-100.0   0.0   16.666666666666668
-50.0   0.0   0.0
-50.0   30.0   0.0
-100.0   30.0   0.0
-50.0   30.0   16.666666666666668
-100.0   0.0   16.666666666666668
-100.0   30.0   16.666666666666668
-50.0   30.0   16.666666666666668
-100.0   30.0   0.0
-100.0   0.0   16.666666666666668
-50.0   30.0   16.666666666666668
-50.0   0.0   16.666666666666668
-50.0   0.0   0.0
-100.0   0.0   16.666666666666668
-50.0   30.0   16.666666666666668
-50.0   0.0   0.0
-100.0   30.0   0.0
-100.0   0.0   16.666666666666668
-50.0   0.0   16.666666666666668
-100.0   30.0   16.666666666666668
-100.0   0.0   33.333333333333336
-50.0   0.0   16.666666666666668
-50.0   30.0   16.666666666666668
-100.0   30.0   16.666666666666668
-50.0   30.0   33.333333333333336
-100.0   0.0   33.333333333333336
-100.0   30.0   33.333333333333336
-50.0   30.0   33.333333333333336
-100.0   30.0   16.666666666666668
-100.0   0.0   33.333333333333336
-50.0   30.0   33.333333333333336
-50.0   0.0   33.333333333333336
-50.0   0.0   16.666666666666668
-100.0   0.0   33.333333333333336
-50.0   30.0   33.333333333333336
-50.0   0.0   16.666666666666668
-100.0   30.0   16.666666666666668
-100.0   0.0   33.333333333333336
-50.0   0.0   33.333333333333336
-100.0   30.0   33.333333333333336
-100.0   0.0   50.0
-50.0   0.0   33.333333333333336
-50.0   30.0   33.333333333333336
-100.0   30.0   33.333333333333336
-50.0   30.0   50.0
-100.0   0.0   50.0
-100.0   30.0   50.0
-50.0   30.0   50.0
-100.0   30.0   33.333333333333336
-100.0   0.0   50.0
-50.0   30.0   50.0
-50.0   0.0   50.0
-50.0   0.0   33.333333333333336
-100.0   0.0   50.0
-50.0   30.0   50.0
-50.0   0.0   33.333333333333336
-100.0   30.0   33.333333333333336
-100.0   30.0   0.0
-50.0   30.0   0.0
-100.0   60.0   0.0
-100.0   30.0   16.666666666666668
-50.0   30.0   0.0
-50.0   60.0   0.0
-100.0   60.0   0.0
-50.0   60.0   16.666666666666668
-100.0   30.0   16.666666666666668
-100.0   60.0   16.666666666666668
-50.0   60.0   16.666666666666668
-100.0   60.0   0.0
-100.0   30.0   16.666666666666668
-50.0   60.0   16.666666666666668
-50.0   30.0   16.666666666666668
-50.0   30.0   0.0
-100.0   30.0   16.666666666666668
-50.0   60.0   16.666666666666668
-50.0   30.0   0.0
-100.0   60.0   0.0
-100.0   30.0   16.666666666666668
-50.0   30.0   16.666666666666668
-100.0   60.0   16.666666666666668
-100.0   30.0   33.333333333333336
-50.0   30.0   16.666666666666668
-50.0   60.0   16.666666666666668
-100.0   60.0   16.666666666666668
-50.0   60.0   33.333333333333336
-100.0   30.0   33.333333333333336
-100.0   60.0   33.333333333333336
-50.0   60.0   33.333333333333336
-100.0   60.0   16.666666666666668
-100.0   30.0   33.333333333333336
-50.0   60.0   33.333333333333336
-50.0   30.0   33.333333333333336
-50.0   30.0   16.666666666666668
-100.0   30.0   33.333333333333336
-50.0   60.0   33.333333333333336
-50.0   30.0   16.666666666666668
-100.0   60.0   16.666666666666668
-100.0   30.0   33.333333333333336
-50.0   30.0   33.333333333333336
-100.0   60.0   33.333333333333336
-100.0   30.0   50.0
-50.0   30.0   33.333333333333336
-50.0   60.0   33.333333333333336
-100.0   60.0   33.333333333333336
-50.0   60.0   50.0
-100.0   30.0   50.0
-100.0   60.0   50.0
-50.0   60.0   50.0
-100.0   60.0   33.333333333333336
-100.0   30.0   50.0
-50.0   60.0   50.0
-50.0   30.0   50.0
-50.0   30.0   33.333333333333336
-100.0   30.0   50.0
-50.0   60.0   50.0
-50.0   30.0   33.333333333333336
-100.0   60.0   33.333333333333336
-100.0   60.0   0.0
-50.0   60.0   0.0
-100.0   90.0   0.0
-100.0   60.0   16.666666666666668
-50.0   60.0   0.0
-50.0   90.0   0.0
-100.0   90.0   0.0
-50.0   90.0   16.666666666666668
-100.0   60.0   16.666666666666668
-100.0   90.0   16.666666666666668
-50.0   90.0   16.666666666666668
-100.0   90.0   0.0
-100.0   60.0   16.666666666666668
-50.0   90.0   16.666666666666668
-50.0   60.0   16.666666666666668
-50.0   60.0   0.0
-100.0   60.0   16.666666666666668
-50.0   90.0   16.666666666666668
-50.0   60.0   0.0
-100.0   90.0   0.0
-100.0   60.0   16.666666666666668
-50.0   60.0   16.666666666666668
-100.0   90.0   16.666666666666668
-100.0   60.0   33.333333333333336
-50.0   60.0   16.666666666666668
-50.0   90.0   16.666666666666668
-100.0   90.0   16.666666666666668
-50.0   90.0   33.333333333333336
-100.0   60.0   33.333333333333336
-100.0   90.0   33.333333333333336
-50.0   90.0   33.333333333333336
-100.0   90.0   16.666666666666668
-100.0   60.0   33.333333333333336
-50.0   90.0   33.333333333333336
-50.0   60.0   33.333333333333336
-50.0   60.0   16.666666666666668
-100.0   60.0   33.333333333333336
-50.0   90.0   33.333333333333336
-50.0   60.0   16.666666666666668
-100.0   90.0   16.666666666666668
-100.0   60.0   33.333333333333336
-50.0   60.0   33.333333333333336
-100.0   90.0   33.333333333333336
-100.0   60.0   50.0
-50.0   60.0   33.333333333333336
-50.0   90.0   33.333333333333336
-100.0   90.0   33.333333333333336
-50.0   90.0   50.0
-100.0   60.0   50.0
-100.0   90.0   50.0
-50.0   90.0   50.0
-100.0   90.0   33.333333333333336
-100.0   60.0   50.0
-50.0   90.0   50.0
-50.0   60.0   50.0
-50.0   60.0   33.333333333333336
-100.0   60.0   50.0
-50.0   90.0   50.0
-50.0   60.0   33.333333333333336
-100.0   90.0   33.333333333333336
-100.0   90.0   0.0
-50.0   90.0   0.0
-100.0   120.0   0.0
-100.0   90.0   16.666666666666668
-50.0   90.0   0.0
-50.0   120.0   0.0
-100.0   120.0   0.0
-50.0   120.0   16.666666666666668
-100.0   90.0   16.666666666666668
-100.0   120.0   16.666666666666668
-50.0   120.0   16.666666666666668
-100.0   120.0   0.0
-100.0   90.0   16.666666666666668
-50.0   120.0   16.666666666666668
-50.0   90.0   16.666666666666668
-50.0   90.0   0.0
-100.0   90.0   16.666666666666668
-50.0   120.0   16.666666666666668
-50.0   90.0   0.0
-100.0   120.0   0.0
-100.0   90.0   16.666666666666668
-50.0   90.0   16.666666666666668
-100.0   120.0   16.666666666666668
-100.0   90.0   33.333333333333336
-50.0   90.0   16.666666666666668
-50.0   120.0   16.666666666666668
-100.0   120.0   16.666666666666668
-50.0   120.0   33.333333333333336
-100.0   90.0   33.333333333333336
-100.0   120.0   33.333333333333336
-50.0   120.0   33.333333333333336
-100.0   120.0   16.666666666666668
-100.0   90.0   33.333333333333336
-50.0   120.0   33.333333333333336
-50.0   90.0   33.333333333333336
-50.0   90.0   16.666666666666668
-100.0   90.0   33.333333333333336
-50.0   120.0   33.333333333333336
-50.0   90.0   16.666666666666668
-100.0   120.0   16.666666666666668
-100.0   90.0   33.333333333333336
-50.0   90.0   33.333333333333336
-100.0   120.0   33.333333333333336
-100.0   90.0   50.0
-50.0   90.0   33.333333333333336
-50.0   120.0   33.333333333333336
-100.0   120.0   33.333333333333336
-50.0   120.0   50.0
-100.0   90.0   50.0
-100.0   120.0   50.0
-50.0   120.0   50.0
-100.0   120.0   33.333333333333336
-100.0   90.0   50.0
-50.0   120.0   50.0
-50.0   90.0   50.0
-50.0   90.0   33.333333333333336
-100.0   90.0   50.0
-50.0   120.0   50.0
-50.0   90.0   33.333333333333336
-100.0   120.0   33.333333333333336
-100.0   120.0   0.0
-50.0   120.0   0.0
-100.0   150.0   0.0
-100.0   120.0   16.666666666666668
-50.0   120.0   0.0
-50.0   150.0   0.0
-100.0   150.0   0.0
-50.0   150.0   16.666666666666668
-100.0   120.0   16.666666666666668
-100.0   150.0   16.666666666666668
-50.0   150.0   16.666666666666668
-100.0   150.0   0.0
-100.0   120.0   16.666666666666668
-50.0   150.0   16.666666666666668
-50.0   120.0   16.666666666666668
-50.0   120.0   0.0
-100.0   120.0   16.666666666666668
-50.0   150.0   16.666666666666668
-50.0   120.0   0.0
-100.0   150.0   0.0
-100.0   120.0   16.666666666666668
-50.0   120.0   16.666666666666668
-100.0   150.0   16.666666666666668
-100.0   120.0   33.333333333333336
-50.0   120.0   16.666666666666668
-50.0   150.0   16.666666666666668
-100.0   150.0   16.666666666666668
-50.0   150.0   33.333333333333336
-100.0   120.0   33.333333333333336
-100.0   150.0   33.333333333333336
-50.0   150.0   33.333333333333336
-100.0   150.0   16.666666666666668
-100.0   120.0   33.333333333333336
-50.0   150.0   33.333333333333336
-50.0   120.0   33.333333333333336
-50.0   120.0   16.666666666666668
-100.0   120.0   33.333333333333336
-50.0   150.0   33.333333333333336
-50.0   120.0   16.666666666666668
-100.0   150.0   16.666666666666668
-100.0   120.0   33.333333333333336
-50.0   120.0   33.333333333333336
-100.0   150.0   33.333333333333336
-100.0   120.0   50.0
-50.0   120.0   33.333333333333336
-50.0   150.0   33.333333333333336
-100.0   150.0   33.333333333333336
-50.0   150.0   50.0
-100.0   120.0   50.0
-100.0   150.0   50.0
-50.0   150.0   50.0
-100.0   150.0   33.333333333333336
-100.0   120.0   50.0
-50.0   150.0   50.0
-50.0   120.0   50.0
-50.0   120.0   33.333333333333336
-100.0   120.0   50.0
-50.0   150.0   50.0
-50.0   120.0   33.333333333333336
-100.0   150.0   33.333333333333336
-50.0   0.0   0.0
0.0   0.0   0.0
-50.0   30.0   0.0
-50.0   0.0   16.666666666666668
0.0   0.0   0.0
0.0   30.0   0.0
-50.0   30.0   0.0
0.0   30.0   16.666666666666668
-50.0   0.0   16.666666666666668
-50.0   30.0   16.666666666666668
0.0   30.0   16.666666666666668
-50.0   30.0   0.0
-50.0   0.0   16.666666666666668
0.0   30.0   16.666666666666668
0.0   0.0   16.666666666666668
0.0   0.0   0.0
-50.0   0.0   16.666666666666668
0.0   30.0   16.666666666666668
0.0   0.0   0.0
-50.0   30.0   0.0
-50.0   0.0   16.666666666666668
0.0   0.0   16.666666666666668
-50.0   30.0   16.666666666666668
-50.0   0.0   33.333333333333336
0.0   0.0   16.666666666666668
0.0   30.0   16.666666666666668
-50.0   30.0   16.666666666666668
0.0   30.0   33.333333333333336
-50.0   0.0   33.333333333333336
-50.0   30.0   33.333333333333336
0.0   30.0   33.333333333333336
-50.0   30.0   16.666666666666668
-50.0   0.0   33.333333333333336
0.0   30.0   33.333333333333336
0.0   0.0   33.333333333333336
0.0   0.0   16.666666666666668
-50.0   0.0   33.333333333333336
0.0   30.0   33.333333333333336
0.0   0.0   16.666666666666668
-50.0   30.0   16.666666666666668
-50.0   0.0   33.333333333333336
0.0   0.0   33.333333333333336
-50.0   30.0   33.333333333333336
-50.0   0.0   50.0
0.0   0.0   33.333333333333336
0.0   30.0   33.333333333333336
-50.0   30.0   33.333333333333336
0.0   30.0   50.0
-50.0   0.0   50.0
-50.0   30.0   50.0
0.0   30.0   50.0
-50.0   30.0   33.333333333333336
-50.0   0.0   50.0
0.0   30.0   50.0
0.0   0.0   50.0
0.0   0.0   33.333333333333336
-50.0   0.0   50.0
0.0   30.0   50.0
0.0   0.0   33.333333333333336
-50.0   30.0   33.333333333333336
-50.0   30.0   0.0
0.0   30.0   0.0
-50.0   60.0   0.0
-50.0   30.0   16.666666666666668
0.0   30.0   0.0
0.0   60.0   0.0
-50.0   60.0   0.0
0.0   60.0   16.666666666666668
-50.0   30.0   16.666666666666668
-50.0   60.0   16.666666666666668
0.0   60.0   16.666666666666668
-50.0   60.0   0.0
-50.0   30.0   16.666666666666668
0.0   60.0   16.666666666666668
0.0   30.0   16.666666666666668
0.0   30.0   0.0
-50.0   30.0   16.666666666666668
0.0   60.0   16.666666666666668
0.0   30.0   0.0
-50.0   60.0   0.0
-50.0   30.0   16.666666666666668
0.0   30.0   16.666666666666668
-50.0   60.0   16.666666666666668
-50.0   30.0   33.333333333333336
0.0   30.0   16.666666666666668
0.0   60.0   16.666666666666668
-50.0   60.0   16.666666666666668
0.0   60.0   33.333333333333336
-50.0   30.0   33.333333333333336
-50.0   60.0   33.333333333333336
0.0   60.0   33.333333333333336
-50.0   60.0   16.666666666666668
-50.0   30.0   33.333333333333336
0.0   60.0   33.333333333333336
0.0   30.0   33.333333333333336
0.0   30.0   16.666666666666668
-50.0   30.0   33.333333333333336
0.0   60.0   33.333333333333336
0.0   30.0   16.666666666666668
-50.0   60.0   16.666666666666668
-50.0   30.0   33.333333333333336
0.0   30.0   33.333333333333336
-50.0   60.0   33.333333333333336
-50.0   30.0   50.0
0.0   30.0   33.333333333333336
0.0   60.0   33.333333333333336
-50.0   60.0   33.333333333333336
0.0   60.0   50.0
-50.0   30.0   50.0
-50.0   60.0   50.0
0.0   60.0   50.0
-50.0   60.0   33.333333333333336
-50.0   30.0   50.0
0.0   60.0   50.0
0.0   30.0   50.0
0.0   30.0   33.333333333333336
-50.0   30.0   50.0
0.0   60.0   50.0
0.0   30.0   33.333333333333336
-50.0   60.0   33.333333333333336
-50.0   60.0   0.0
0.0   60.0   0.0
-50.0   90.0   0.0
-50.0   60.0   16.666666666666668
0.0   60.0   0.0
0.0   90.0   0.0
-50.0   90.0   0.0
0.0   90.0   16.666666666666668
-50.0   60.0   16.666666666666668
-50.0   90.0   16.666666666666668
0.0   90.0   16.666666666666668
-50.0   90.0   0.0
-50.0   60.0   16.666666666666668
0.0   90.0   16.666666666666668
0.0   60.0   16.666666666666668
0.0   60.0   0.0
-50.0   60.0   16.666666666666668
0.0   90.0   16.666666666666668
0.0   60.0   0.0
-50.0   90.0   0.0
-50.0   60.0   16.666666666666668
0.0   60.0   16.666666666666668
-50.0   90.0   16.666666666666668
-50.0   60.0   33.333333333333336
0.0   60.0   16.666666666666668
0.0   90.0   16.666666666666668
-50.0   90.0   16.666666666666668
0.0   90.0   33.333333333333336
-50.0   60.0   33.333333333333336
-50.0   90.0   33.333333333333336
0.0   90.0   33.333333333333336
-50.0   90.0   16.666666666666668
-50.0   60.0   33.333333333333336
0.0   90.0   33.333333333333336
0.0   60.0   33.333333333333336
0.0   60.0   16.666666666666668
-50.0   60.0   33.333333333333336
0.0   90.0   33.333333333333336
0.0   60.0   16.666666666666668
-50.0   90.0   16.666666666666668
-50.0   60.0   33.333333333333336
0.0   60.0   33.333333333333336
-50.0   90.0   33.333333333333336
-50.0   60.0   50.0
0.0   60.0   33.333333333333336
0.0   90.0   33.333333333333336
-50.0   90.0   33.333333333333336
0.0   90.0   50.0
-50.0   60.0   50.0
-50.0   90.0   50.0
0.0   90.0   50.0
-50.0   90.0   33.333333333333336
-50.0   60.0   50.0
0.0   90.0   50.0
0.0   60.0   50.0
0.0   60.0   33.333333333333336
-50.0   60.0   50.0
0.0   90.0   50.0
0.0   60.0   33.333333333333336
-50.0   90.0   33.333333333333336
-50.0   90.0   0.0
0.0   90.0   0.0
-50.0   120.0   0.0
-50.0   90.0   16.666666666666668
0.0   90.0   0.0
0.0   120.0   0.0
-50.0   120.0   0.0
0.0   120.0   16.666666666666668
-50.0   90.0   16.666666666666668
-50.0   120.0   16.666666666666668
0.0   120.0   16.666666666666668
-50.0   120.0   0.0
-50.0   90.0   16.666666666666668
0.0   120.0   16.666666666666668
0.0   90.0   16.666666666666668
0.0   90.0   0.0
-50.0   90.0   16.666666666666668
0.0   120.0   16.666666666666668
0.0   90.0   0.0
-50.0   120.0   0.0
-50.0   90.0   16.666666666666668
0.0   90.0   16.666666666666668
-50.0   120.0   16.666666666666668
-50.0   90.0   33.333333333333336
0.0   90.0   16.666666666666668
0.0   120.0   16.666666666666668
-50.0   120.0   16.666666666666668
0.0   120.0   33.333333333333336
-50.0   90.0   33.333333333333336
-50.0   120.0   33.333333333333336
0.0   120.0   33.333333333333336
-50.0   120.0   16.666666666666668
-50.0   90.0   33.333333333333336
0.0   120.0   33.333333333333336
0.0   90.0   33.333333333333336
0.0   90.0   16.666666666666668
-50.0   90.0   33.333333333333336
0.0   120.0   33.333333333333336
0.0   90.0   16.666666666666668
-50.0   120.0   16.666666666666668
-50.0   90.0   33.333333333333336
0.0   90.0   33.333333333333336
-50.0   120.0   33.333333333333336
-50.0   90.0   50.0
0.0   90.0   33.333333333333336
0.0   120.0   33.333333333333336
-50.0   120.0   33.333333333333336
0.0   120.0   50.0
-50.0   90.0   50.0
-50.0   120.0   50.0
0.0   120.0   50.0
-50.0   120.0   33.333333333333336
-50.0   90.0   50.0
0.0   120.0   50.0
0.0   90.0   50.0
0.0   90.0   33.333333333333336
-50.0   90.0   50.0
0.0   120.0   50.0
0.0   90.0   33.333333333333336
-50.0   120.0   33.333333333333336
-50.0   120.0   0.0
0.0   120.0   0.0
-50.0   150.0   0.0
-50.0   120.0   16.666666666666668
0.0   120.0   0.0
0.0   150.0   0.0
-50.0   150.0   0.0
0.0   150.0   16.666666666666668
-50.0   120.0   16.666666666666668
-50.0   150.0   16.666666666666668
0.0   150.0   16.666666666666668
-50.0   150.0   0.0
-50.0   120.0   16.666666666666668
0.0   150.0   16.666666666666668
0.0   120.0   16.666666666666668
0.0   120.0   0.0
-50.0   120.0   16.666666666666668
0.0   150.0   16.666666666666668
0.0   120.0   0.0
-50.0   150.0   0.0
-50.0   120.0   16.666666666666668
0.0   120.0   16.666666666666668
-50.0   150.0   16.666666666666668
-50.0   120.0   33.333333333333336
0.0   120.0   16.666666666666668
0.0   150.0   16.666666666666668
-50.0   150.0   16.666666666666668
0.0   150.0   33.333333333333336
-50.0   120.0   33.333333333333336
-50.0   150.0   33.333333333333336
0.0   150.0   33.333333333333336
-50.0   150.0   16.666666666666668
-50.0   120.0   33.333333333333336
0.0   150.0   33.333333333333336
0.0   120.0   33.333333333333336
0.0   120.0   16.666666666666668
-50.0   120.0   33.333333333333336
0.0   150.0   33.333333333333336
0.0   120.0   16.666666666666668
-50.0   150.0   16.666666666666668
-50.0   120.0   33.333333333333336
0.0   120.0   33.333333333333336
-50.0   150.0   33.333333333333336
-50.0   120.0   50.0
0.0   120.0   33.333333333333336
0.0   150.0   33.333333333333336
-50.0   150.0   33.333333333333336
0.0   150.0   50.0
-50.0   120.0   50.0
-50.0   150.0   50.0
0.0   150.0   50.0
-50.0   150.0   33.333333333333336
-50.0   120.0   50.0
0.0   150.0   50.0
0.0   120.0   50.0
0.0   120.0   33.333333333333336
-50.0   120.0   50.0
0.0   150.0   50.0
0.0   120.0   33.333333333333336
-50.0   150.0   33.333333333333336
0.0   0.0   0.0
50.0   0.0   0.0
0.0   30.0   0.0
0.0   0.0   16.666666666666668
50.0   0.0   0.0
50.0   30.0   0.0
0.0   30.0   0.0
50.0   30.0   16.666666666666668
0.0   0.0   16.666666666666668
0.0   30.0   16.666666666666668
50.0   30.0   16.666666666666668
0.0   30.0   0.0
0.0   0.0   16.666666666666668
50.0   30.0   16.666666666666668
50.0   0.0   16.666666666666668
50.0   0.0   0.0
0.0   0.0   16.666666666666668
50.0   30.0   16.666666666666668
50.0   0.0   0.0
0.0   30.0   0.0
0.0   0.0   16.666666666666668
50.0   0.0   16.666666666666668
0.0   30.0   16.666666666666668
0.0   0.0   33.333333333333336
50.0   0.0   16.666666666666668
50.0   30.0   16.666666666666668
0.0   30.0   16.666666666666668
50.0   30.0   33.333333333333336
0.0   0.0   33.333333333333336
0.0   30.0   33.333333333333336
50.0   30.0   33.333333333333336
0.0   30.0   16.666666666666668
0.0   0.0   33.333333333333336
50.0   30.0   33.333333333333336
50.0   0.0   33.333333333333336
50.0   0.0   16.666666666666668
0.0   0.0   33.333333333333336
50.0   30.0   33.333333333333336
50.0   0.0   16.666666666666668
0.0   30.0   16.666666666666668
0.0   0.0   33.333333333333336
50.0   0.0   33.333333333333336
0.0   30.0   33.333333333333336
0.0   0.0   50.0
50.0   0.0   33.333333333333336
50.0   30.0   33.333333333333336
0.0   30.0   33.333333333333336
50.0   30.0   50.0
0.0   0.0   50.0
0.0   30.0   50.0
50.0   30.0   50.0
0.0   30.0   33.333333333333336
0.0   0.0   50.0
50.0   30.0   50.0
50.0   0.0   50.0
50.0   0.0   33.333333333333336
0.0   0.0   50.0
50.0   30.0   50.0
50.0   0.0   33.333333333333336
0.0   30.0   33.333333333333336
0.0   30.0   0.0
50.0   30.0   0.0
0.0   60.0   0.0
0.0   30.0   16.666666666666668
50.0   30.0   0.0
50.0   60.0   0.0
0.0   60.0   0.0
50.0   60.0   16.666666666666668
0.0   30.0   16.666666666666668
0.0   60.0   16.666666666666668
50.0   60.0   16.666666666666668
0.0   60.0   0.0
0.0   30.0   16.666666666666668
50.0   60.0   16.666666666666668
50.0   30.0   16.666666666666668
50.0   30.0   0.0
0.0   30.0   16.666666666666668
50.0   60.0   16.666666666666668
50.0   30.0   0.0
0.0   60.0   0.0
0.0   30.0   16.666666666666668
50.0   30.0   16.666666666666668
0.0   60.0   16.666666666666668
0.0   30.0   33.333333333333336
50.0   30.0   16.666666666666668
50.0   60.0   16.666666666666668
0.0   60.0   16.666666666666668
50.0   60.0   33.333333333333336
0.0   30.0   33.333333333333336
0.0   60.0   33.333333333333336
50.0   60.0   33.333333333333336
0.0   60.0   16.666666666666668
0.0   30.0   33.333333333333336
50.0   60.0   33.333333333333336
50.0   30.0   33.333333333333336
50.0   30.0   16.666666666666668
0.0   30.0   33.333333333333336
50.0   60.0   33.333333333333336
50.0   30.0   16.666666666666668
0.0   60.0   16.666666666666668
0.0   30.0   33.333333333333336
50.0   30.0   33.333333333333336
0.0   60.0   33.333333333333336
0.0   30.0   50.0
50.0   30.0   33.333333333333336
50.0   60.0   33.333333333333336
0.0   60.0   33.333333333333336
50.0   60.0   50.0
0.0   30.0   50.0
0.0   60.0   50.0
50.0   60.0   50.0
0.0   60.0   33.333333333333336
0.0   30.0   50.0
50.0   60.0   50.0
50.0   30.0   50.0
50.0   30.0   33.333333333333336
0.0   30.0   50.0
50.0   60.0   50.0
50.0   30.0   33.333333333333336
0.0   60.0   33.333333333333336
0.0   60.0   0.0
50.0   60.0   0.0
0.0   90.0   0.0
0.0   60.0   16.666666666666668
50.0   60.0   0.0
50.0   90.0   0.0
0.0   90.0   0.0
50.0   90.0   16.666666666666668
0.0   60.0   16.666666666666668
0.0   90.0   16.666666666666668
50.0   90.0   16.666666666666668
0.0   90.0   0.0
0.0   60.0   16.666666666666668
50.0   90.0   16.666666666666668
50.0   60.0   16.666666666666668
50.0   60.0   0.0
0.0   60.0   16.666666666666668
50.0   90.0   16.666666666666668
50.0   60.0   0.0
0.0   90.0   0.0
0.0   60.0   16.666666666666668
50.0   60.0   16.666666666666668
0.0   90.0   16.666666666666668
0.0   60.0   33.333333333333336
50.0   60.0   16.666666666666668
50.0   90.0   16.666666666666668
0.0   90.0   16.666666666666668
50.0   90.0   33.333333333333336
0.0   60.0   33.333333333333336
0.0   90.0   33.333333333333336
50.0   90.0   33.333333333333336
0.0   90.0   16.666666666666668
0.0   60.0   33.333333333333336
50.0   90.0   33.333333333333336
50.0   60.0   33.333333333333336
50.0   60.0   16.666666666666668
0.0   60.0   33.333333333333336
50.0   90.0   33.333333333333336
50.0   60.0   16.666666666666668
0.0   90.0   16.666666666666668
0.0   60.0   33.333333333333336
50.0   60.0   33.333333333333336
0.0   90.0   33.333333333333336
0.0   60.0   50.0
50.0   60.0   33.333333333333336
50.0   90.0   33.333333333333336
0.0   90.0   33.333333333333336
50.0   90.0   50.0
0.0   60.0   50.0
0.0   90.0   50.0
50.0   90.0   50.0
0.0   90.0   33.333333333333336
0.0   60.0   50.0
50.0   90.0   50.0
50.0   60.0   50.0
50.0   60.0   33.333333333333336
0.0   60.0   50.0
50.0   90.0   50.0
50.0   60.0   33.333333333333336
0.0   90.0   33.333333333333336
0.0   90.0   0.0
50.0   90.0   0.0
0.0   120.0   0.0
0.0   90.0   16.666666666666668
50.0   90.0   0.0
50.0   120.0   0.0
0.0   120.0   0.0
50.0   120.0   16.666666666666668
0.0   90.0   16.666666666666668
0.0   120.0   16.666666666666668
50.0   120.0   16.666666666666668
0.0   120.0   0.0
0.0   90.0   16.666666666666668
50.0   120.0   16.666666666666668
50.0   90.0   16.666666666666668
50.0   90.0   0.0
0.0   90.0   16.666666666666668
50.0   120.0   16.666666666666668
50.0   90.0   0.0
0.0   120.0   0.0
0.0   90.0   16.666666666666668
50.0   90.0   16.666666666666668
0.0   120.0   16.666666666666668
0.0   90.0   33.333333333333336
50.0   90.0   16.666666666666668
50.0   120.0   16.666666666666668
0.0   120.0   16.666666666666668
50.0   120.0   33.333333333333336
0.0   90.0   33.333333333333336
0.0   120.0   33.333333333333336
50.0   120.0   33.333333333333336
0.0   120.0   16.666666666666668
0.0   90.0   33.333333333333336
50.0   120.0   33.333333333333336
50.0   90.0   33.333333333333336
50.0   90.0   16.666666666666668
0.0   90.0   33.333333333333336
50.0   120.0   33.333333333333336
50.0   90.0   16.666666666666668
0.0   120.0   16.666666666666668
0.0   90.0   33.333333333333336
50.0   90.0   33.333333333333336
0.0   120.0   33.333333333333336
0.0   90.0   50.0
50.0   90.0   33.333333333333336
50.0   120.0   33.333333333333336
0.0   120.0   33.333333333333336
50.0   120.0   50.0
0.0   90.0   50.0
0.0   120.0   50.0
50.0   120.0   50.0
0.0   120.0   33.333333333333336
0.0   90.0   50.0
50.0   120.0   50.0
50.0   90.0   50.0
50.0   90.0   33.333333333333336
0.0   90.0   50.0
50.0   120.0   50.0
50.0   90.0   33.333333333333336
0.0   120.0   33.333333333333336
0.0   120.0   0.0
50.0   120.0   0.0
0.0   150.0   0.0
0.0   120.0   16.666666666666668
50.0   120.0   0.0
50.0   150.0   0.0
0.0   150.0   0.0
50.0   150.0   16.666666666666668
0.0   120.0   16.666666666666668
0.0   150.0   16.666666666666668
50.0   150.0   16.666666666666668
0.0   150.0   0.0
0.0   120.0   16.666666666666668
50.0   150.0   16.666666666666668
50.0   120.0   16.666666666666668
50.0   120.0   0.0
0.0   120.0   16.666666666666668
50.0   150.0   16.666666666666668
50.0   120.0   0.0
0.0   150.0   0.0
0.0   120.0   16.666666666666668
50.0   120.0   16.666666666666668
0.0   150.0   16.666666666666668
0.0   120.0   33.333333333333336
50.0   120.0   16.666666666666668
50.0   150.0   16.666666666666668
0.0   150.0   16.666666666666668
50.0   150.0   33.333333333333336
0.0   120.0   33.333333333333336
0.0   150.0   33.333333333333336
50.0   150.0   33.333333333333336
0.0   150.0   16.666666666666668
0.0   120.0   33.333333333333336
50.0   150.0   33.333333333333336
50.0   120.0   33.333333333333336
50.0   120.0   16.666666666666668
0.0   120.0   33.333333333333336
50.0   150.0   33.333333333333336
50.0   120.0   16.666666666666668
0.0   150.0   16.666666666666668
0.0   120.0   33.333333333333336
50.0   120.0   33.333333333333336
0.0   150.0   33.333333333333336
0.0   120.0   50.0
50.0   120.0   33.333333333333336
50.0   150.0   33.333333333333336
0.0   150.0   33.333333333333336
50.0   150.0   50.0
0.0   120.0   50.0
0.0   150.0   50.0
50.0   150.0   50.0
0.0   150.0   33.333333333333336
0.0   120.0   50.0
50.0   150.0   50.0
50.0   120.0   50.0
50.0   120.0   33.333333333333336
0.0   120.0   50.0
50.0   150.0   50.0
50.0   120.0   33.333333333333336
0.0   150.0   33.333333333333336
50.0   0.0   0.0
100.0   0.0   0.0
50.0   30.0   0.0
50.0   0.0   16.666666666666668
100.0   0.0   0.0
100.0   30.0   0.0
50.0   30.0   0.0
100.0   30.0   16.666666666666668
50.0   0.0   16.666666666666668
50.0   30.0   16.666666666666668
100.0   30.0   16.666666666666668
50.0   30.0   0.0
50.0   0.0   16.666666666666668
100.0   30.0   16.666666666666668
100.0   0.0   16.666666666666668
100.0   0.0   0.0
50.0   0.0   16.666666666666668
100.0   30.0   16.666666666666668
100.0   0.0   0.0
50.0   30.0   0.0
50.0   0.0   16.666666666666668
100.0   0.0   16.666666666666668
50.0   30.0   16.666666666666668
50.0   0.0   33.333333333333336
100.0   0.0   16.666666666666668
100.0   30.0   16.666666666666668
50.0   30.0   16.666666666666668
100.0   30.0   33.333333333333336
50.0   0.0   33.333333333333336
50.0   30.0   33.333333333333336
100.0   30.0   33.333333333333336
50.0   30.0   16.666666666666668
50.0   0.0   33.333333333333336
100.0   30.0   33.333333333333336
100.0   0.0   33.333333333333336
100.0   0.0   16.666666666666668
50.0   0.0   33.333333333333336
100.0   30.0   33.333333333333336
100.0   0.0   16.666666666666668
50.0   30.0   16.666666666666668
50.0   0.0   33.333333333333336
100.0   0.0   33.333333333333336
50.0   30.0   33.333333333333336
50.0   0.0   50.0
100.0   0.0   33.333333333333336
100.0   30.0   33.333333333333336
50.0   30.0   33.333333333333336
100.0   30.0   50.0
50.0   0.0   50.0
50.0   30.0   50.0
100.0   30.0   50.0
50.0   30.0   33.333333333333336
50.0   0.0   50.0
100.0   30.0   50.0
100.0   0.0   50.0
100.0   0.0   33.333333333333336
50.0   0.0   50.0
100.0   30.0   50.0
100.0   0.0   33.333333333333336
50.0   30.0   33.333333333333336
50.0   30.0   0.0
100.0   30.0   0.0
50.0   60.0   0.0
50.0   30.0   16.666666666666668
100.0   30.0   0.0
100.0   60.0   0.0
50.0   60.0   0.0
100.0   60.0   16.666666666666668
50.0   30.0   16.666666666666668
50.0   60.0   16.666666666666668
100.0   60.0   16.666666666666668
50.0   60.0   0.0
50.0   30.0   16.666666666666668
100.0   60.0   16.666666666666668
100.0   30.0   16.666666666666668
100.0   30.0   0.0
50.0   30.0   16.666666666666668
100.0   60.0   16.666666666666668
100.0   30.0   0.0
50.0   60.0   0.0
50.0   30.0   16.666666666666668
100.0   30.0   16.666666666666668
50.0   60.0   16.666666666666668
50.0   30.0   33.333333333333336
100.0   30.0   16.666666666666668
100.0   60.0   16.666666666666668
50.0   60.0   16.666666666666668
100.0   60.0   33.333333333333336
50.0   30.0   33.333333333333336
50.0   60.0   33.333333333333336
100.0   60.0   33.333333333333336
50.0   60.0   16.666666666666668
50.0   30.0   33.333333333333336
100.0   60.0   33.333333333333336
100.0   30.0   33.333333333333336
100.0   30.0   16.666666666666668
50.0   30.0   33.333333333333336
100.0   60.0   33.333333333333336
100.0   30.0   16.666666666666668
50.0   60.0   16.666666666666668
50.0   30.0   33.333333333333336
100.0   30.0   33.333333333333336
50.0   60.0   33.333333333333336
50.0   30.0   50.0
100.0   30.0   33.333333333333336
100.0   60.0   33.333333333333336
50.0   60.0   33.333333333333336
100.0   60.0   50.0
50.0   30.0   50.0
50.0   60.0   50.0
100.0   60.0   50.0
50.0   60.0   33.333333333333336
50.0   30.0   50.0
100.0   60.0   50.0
100.0   30.0   50.0
100.0   30.0   33.333333333333336
50.0   30.0   50.0
100.0   60.0   50.0
100.0   30.0   33.333333333333336
50.0   60.0   33.333333333333336
50.0   60.0   0.0
100.0   60.0   0.0
50.0   90.0   0.0
50.0   60.0   16.666666666666668
100.0   60.0   0.0
100.0   90.0   0.0
50.0   90.0   0.0
100.0   90.0   16.666666666666668
50.0   60.0   16.666666666666668
50.0   90.0   16.666666666666668
100.0   90.0   16.666666666666668
50.0   90.0   0.0
50.0   60.0   16.666666666666668
100.0   90.0   16.666666666666668
100.0   60.0   16.666666666666668
100.0   60.0   0.0
50.0   60.0   16.666666666666668
100.0   90.0   16.666666666666668
100.0   60.0   0.0
50.0   90.0   0.0
50.0   60.0   16.666666666666668
100.0   60.0   16.666666666666668
50.0   90.0   16.666666666666668
50.0   60.0   33.333333333333336
100.0   60.0   16.666666666666668
100.0   90.0   16.666666666666668
50.0   90.0   16.666666666666668
100.0   90.0   33.333333333333336
50.0   60.0   33.333333333333336
50.0   90.0   33.333333333333336
100.0   90.0   33.333333333333336
50.0   90.0   16.666666666666668
50.0   60.0   33.333333333333336
100.0   90.0   33.333333333333336
100.0   60.0   33.333333333333336
100.0   60.0   16.666666666666668
50.0   60.0   33.333333333333336
100.0   90.0   33.333333333333336
100.0   60.0   16.666666666666668
50.0   90.0   16.666666666666668
50.0   60.0   33.333333333333336
100.0   60.0   33.333333333333336
50.0   90.0   33.333333333333336
50.0   60.0   50.0
100.0   60.0   33.333333333333336
100.0   90.0   33.333333333333336
50.0   90.0   33.333333333333336
100.0   90.0   50.0
50.0   60.0   50.0
50.0   90.0   50.0
100.0   90.0   50.0
50.0   90.0   33.333333333333336
50.0   60.0   50.0
100.0   90.0   50.0
100.0   60.0   50.0
100.0   60.0   33.333333333333336
50.0   60.0   50.0
100.0   90.0   50.0
100.0   60.0   33.333333333333336
50.0   90.0   33.333333333333336
50.0   90.0   0.0
100.0   90.0   0.0
50.0   120.0   0.0
50.0   90.0   16.666666666666668
100.0   90.0   0.0
100.0   120.0   0.0
50.0   120.0   0.0
100.0   120.0   16.666666666666668
50.0   90.0   16.666666666666668
50.0   120.0   16.666666666666668
100.0   120.0   16.666666666666668
50.0   120.0   0.0
50.0   90.0   16.666666666666668
100.0   120.0   16.666666666666668
100.0   90.0   16.666666666666668
100.0   90.0   0.0
50.0   90.0   16.666666666666668
100.0   120.0   16.666666666666668
100.0   90.0   0.0
50.0   120.0   0.0
50.0   90.0   16.666666666666668
100.0   90.0   16.666666666666668
50.0   120.0   16.666666666666668
50.0   90.0   33.333333333333336
100.0   90.0   16.666666666666668
100.0   120.0   16.666666666666668
50.0   120.0   16.666666666666668
100.0   120.0   33.333333333333336
50.0   90.0   33.333333333333336
50.0   120.0   33.333333333333336
100.0   120.0   33.333333333333336
50.0   120.0   16.666666666666668
50.0   90.0   33.333333333333336
100.0   120.0   33.333333333333336
100.0   90.0   33.333333333333336
100.0   90.0   16.666666666666668
50.0   90.0   33.333333333333336
100.0   120.0   33.333333333333336
100.0   90.0   16.666666666666668
50.0   120.0   16.666666666666668
50.0   90.0   33.333333333333336
100.0   90.0   33.333333333333336
50.0   120.0   33.333333333333336
50.0   90.0   50.0
100.0   90.0   33.333333333333336
100.0   120.0   33.333333333333336
50.0   120.0   33.333333333333336
100.0   120.0   50.0
50.0   90.0   50.0
50.0   120.0   50.0
100.0   120.0   50.0
50.0   120.0   33.333333333333336
50.0   90.0   50.0
100.0   120.0   50.0
100.0   90.0   50.0
100.0   90.0   33.333333333333336
50.0   90.0   50.0
100.0   120.0   50.0
100.0   90.0   33.333333333333336
50.0   120.0   33.333333333333336
50.0   120.0   0.0
100.0   120.0   0.0
50.0   150.0   0.0
50.0   120.0   16.666666666666668
100.0   120.0   0.0
100.0   150.0   0.0
50.0   150.0   0.0
100.0   150.0   16.666666666666668
50.0   120.0   16.666666666666668
50.0   150.0   16.666666666666668
100.0   150.0   16.666666666666668
50.0   150.0   0.0
50.0   120.0   16.666666666666668
100.0   150.0   16.666666666666668
100.0   120.0   16.666666666666668
100.0   120.0   0.0
50.0   120.0   16.666666666666668
100.0   150.0   16.666666666666668
100.0   120.0   0.0
50.0   150.0   0.0
50.0   120.0   16.666666666666668
100.0   120.0   16.666666666666668
50.0   150.0   16.666666666666668
50.0   120.0   33.333333333333336
100.0   120.0   16.666666666666668
100.0   150.0   16.666666666666668
50.0   150.0   16.666666666666668
100.0   150.0   33.333333333333336
50.0   120.0   33.333333333333336
50.0   150.0   33.333333333333336
100.0   150.0   33.333333333333336
50.0   150.0   16.666666666666668
50.0   120.0   33.333333333333336
100.0   150.0   33.333333333333336
100.0   120.0   33.333333333333336
100.0   120.0   16.666666666666668
50.0   120.0   33.333333333333336
100.0   150.0   33.333333333333336
100.0   120.0   16.666666666666668
50.0   150.0   16.666666666666668
50.0   120.0   33.333333333333336
100.0   120.0   33.333333333333336
50.0   150.0   33.333333333333336
50.0   120.0   50.0
100.0   120.0   33.333333333333336
100.0   150.0   33.333333333333336
50.0   150.0   33.333333333333336
100.0   150.0   50.0
50.0   120.0   50.0
50.0   150.0   50.0
100.0   150.0   50.0
50.0   150.0   33.333333333333336
50.0   120.0   50.0
100.0   150.0   50.0
100.0   120.0   50.0
100.0   120.0   33.333333333333336
50.0   120.0   50.0
100.0   150.0   50.0
100.0   120.0   33.333333333333336
50.0   150.0   33.333333333333336
100.0   0.0   0.0
150.0   0.0   0.0
100.0   30.0   0.0
100.0   0.0   16.666666666666668
150.0   0.0   0.0
150.0   30.0   0.0
100.0   30.0   0.0
150.0   30.0   16.666666666666668
100.0   0.0   16.666666666666668
100.0   30.0   16.666666666666668
150.0   30.0   16.666666666666668
100.0   30.0   0.0
100.0   0.0   16.666666666666668
150.0   30.0   16.666666666666668
150.0   0.0   16.666666666666668
150.0   0.0   0.0
100.0   0.0   16.666666666666668
150.0   30.0   16.666666666666668
150.0   0.0   0.0
100.0   30.0   0.0
100.0   0.0   16.666666666666668
150.0   0.0   16.666666666666668
100.0   30.0   16.666666666666668
100.0   0.0   33.333333333333336
150.0   0.0   16.666666666666668
150.0   30.0   16.666666666666668
100.0   30.0   16.666666666666668
150.0   30.0   33.333333333333336
100.0   0.0   33.333333333333336
100.0   30.0   33.333333333333336
150.0   30.0   33.333333333333336
100.0   30.0   16.666666666666668
100.0   0.0   33.333333333333336
150.0   30.0   33.333333333333336
150.0   0.0   33.333333333333336
150.0   0.0   16.666666666666668
100.0   0.0   33.333333333333336
150.0   30.0   33.333333333333336
150.0   0.0   16.666666666666668
100.0   30.0   16.666666666666668
100.0   0.0   33.333333333333336
150.0   0.0   33.333333333333336
100.0   30.0   33.333333333333336
100.0   0.0   50.0
150.0   0.0   33.333333333333336
150.0   30.0   33.333333333333336
100.0   30.0   33.333333333333336
150.0   30.0   50.0
100.0   0.0   50.0
100.0   30.0   50.0
150.0   30.0   50.0
100.0   30.0   33.333333333333336
100.0   0.0   50.0
150.0   30.0   50.0
150.0   0.0   50.0
150.0   0.0   33.333333333333336
100.0   0.0   50.0
150.0   30.0   50.0
150.0   0.0   33.333333333333336
100.0   30.0   33.333333333333336
100.0   30.0   0.0
150.0   30.0   0.0
100.0   60.0   0.0
100.0   30.0   16.666666666666668
150.0   30.0   0.0
150.0   60.0   0.0
100.0   60.0   0.0
150.0   60.0   16.666666666666668
100.0   30.0   16.666666666666668
100.0   60.0   16.666666666666668
150.0   60.0   16.666666666666668
100.0   60.0   0.0
100.0   30.0   16.666666666666668
150.0   60.0   16.666666666666668
150.0   30.0   16.666666666666668
150.0   30.0   0.0
100.0   30.0   16.666666666666668
150.0   60.0   16.666666666666668
150.0   30.0   0.0
100.0   60.0   0.0
100.0   30.0   16.666666666666668
150.0   30.0   16.666666666666668
100.0   60.0   16.666666666666668
100.0   30.0   33.333333333333336
150.0   30.0   16.666666666666668
150.0   60.0   16.666666666666668
100.0   60.0   16.666666666666668
150.0   60.0   33.333333333333336
100.0   30.0   33.333333333333336
100.0   60.0   33.333333333333336
150.0   60.0   33.333333333333336
100.0   60.0   16.666666666666668
100.0   30.0   33.333333333333336
150.0   60.0   33.333333333333336
150.0   30.0   33.333333333333336
150.0   30.0   16.666666666666668
100.0   30.0   33.333333333333336
150.0   60.0   33.333333333333336
150.0   30.0   16.666666666666668
100.0   60.0   16.666666666666668
100.0   30.0   33.333333333333336
150.0   30.0   33.333333333333336
100.0   60.0   33.333333333333336
100.0   30.0   50.0
150.0   30.0   33.333333333333336
150.0   60.0   33.333333333333336
100.0   60.0   33.333333333333336
150.0   60.0   50.0
100.0   30.0   50.0
100.0   60.0   50.0
150.0   60.0   50.0
100.0   60.0   33.333333333333336
100.0   30.0   50.0
150.0   60.0   50.0
150.0   30.0   50.0
150.0   30.0   33.333333333333336
100.0   30.0   50.0
150.0   60.0   50.0
150.0   30.0   33.333333333333336
100.0   60.0   33.333333333333336
100.0   60.0   0.0
150.0   60.0   0.0
100.0   90.0   0.0
100.0   60.0   16.666666666666668
150.0   60.0   0.0
150.0   90.0   0.0
100.0   90.0   0.0
150.0   90.0   16.666666666666668
100.0   60.0   16.666666666666668
100.0   90.0   16.666666666666668
150.0   90.0   16.666666666666668
100.0   90.0   0.0
100.0   60.0   16.666666666666668
150.0   90.0   16.666666666666668
150.0   60.0   16.666666666666668
150.0   60.0   0.0
100.0   60.0   16.666666666666668
150.0   90.0   16.666666666666668
150.0   60.0   0.0
100.0   90.0   0.0
100.0   60.0   16.666666666666668
150.0   60.0   16.666666666666668
100.0   90.0   16.666666666666668
100.0   60.0   33.333333333333336
150.0   60.0   16.666666666666668
150.0   90.0   16.666666666666668
100.0   90.0   16.666666666666668
150.0   90.0   33.333333333333336
100.0   60.0   33.333333333333336
100.0   90.0   33.333333333333336
150.0   90.0   33.333333333333336
100.0   90.0   16.666666666666668
100.0   60.0   33.333333333333336
150.0   90.0   33.333333333333336
150.0   60.0   33.333333333333336
150.0   60.0   16.666666666666668
100.0   60.0   33.333333333333336
150.0   90.0   33.333333333333336
150.0   60.0   16.666666666666668
100.0   90.0   16.666666666666668
100.0   60.0   33.333333333333336
150.0   60.0   33.333333333333336
100.0   90.0   33.333333333333336
100.0   60.0   50.0
150.0   60.0   33.333333333333336
150.0   90.0   33.333333333333336
100.0   90.0   33.333333333333336
150.0   90.0   50.0
100.0   60.0   50.0
100.0   90.0   50.0
150.0   90.0   50.0
100.0   90.0   33.333333333333336
100.0   60.0   50.0
150.0   90.0   50.0
150.0   60.0   50.0
150.0   60.0   33.333333333333336
100.0   60.0   50.0
150.0   90.0   50.0
150.0   60.0   33.333333333333336
100.0   90.0   33.333333333333336
100.0   90.0   0.0
150.0   90.0   0.0
100.0   120.0   0.0
100.0   90.0   16.666666666666668
150.0   90.0   0.0
150.0   120.0   0.0
100.0   120.0   0.0
150.0   120.0   16.666666666666668
100.0   90.0   16.666666666666668
100.0   120.0   16.666666666666668
150.0   120.0   16.666666666666668
100.0   120.0   0.0
100.0   90.0   16.666666666666668
150.0   120.0   16.666666666666668
150.0   90.0   16.666666666666668
150.0   90.0   0.0
100.0   90.0   16.666666666666668
150.0   120.0   16.666666666666668
150.0   90.0   0.0
100.0   120.0   0.0
100.0   90.0   16.666666666666668
150.0   90.0   16.666666666666668
100.0   120.0   16.666666666666668
100.0   90.0   33.333333333333336
150.0   90.0   16.666666666666668
150.0   120.0   16.666666666666668
100.0   120.0   16.666666666666668
150.0   120.0   33.333333333333336
100.0   90.0   33.333333333333336
100.0   120.0   33.333333333333336
150.0   120.0   33.333333333333336
100.0   120.0   16.666666666666668
100.0   90.0   33.333333333333336
150.0   120.0   33.333333333333336
150.0   90.0   33.333333333333336
150.0   90.0   16.666666666666668
100.0   90.0   33.333333333333336
150.0   120.0   33.333333333333336
150.0   90.0   16.666666666666668
100.0   120.0   16.666666666666668
100.0   90.0   33.333333333333336
150.0   90.0   33.333333333333336
100.0   120.0   33.333333333333336
100.0   90.0   50.0
150.0   90.0   33.333333333333336
150.0   120.0   33.333333333333336
100.0   120.0   33.333333333333336
150.0   120.0   50.0
100.0   90.0   50.0
100.0   120.0   50.0
150.0   120.0   50.0
100.0   120.0   33.333333333333336
100.0   90.0   50.0
150.0   120.0   50.0
150.0   90.0   50.0
150.0   90.0   33.333333333333336
100.0   90.0   50.0
150.0   120.0   50.0
150.0   90.0   33.333333333333336
100.0   120.0   33.333333333333336
100.0   120.0   0.0
150.0   120.0   0.0
100.0   150.0   0.0
100.0   120.0   16.666666666666668
150.0   120.0   0.0
150.0   150.0   0.0
100.0   150.0   0.0
150.0   150.0   16.666666666666668
100.0   120.0   16.666666666666668
100.0   150.0   16.666666666666668
150.0   150.0   16.666666666666668
100.0   150.0   0.0
100.0   120.0   16.666666666666668
150.0   150.0   16.666666666666668
150.0   120.0   16.666666666666668
150.0   120.0   0.0
100.0   120.0   16.666666666666668
150.0   150.0   16.666666666666668
150.0   120.0   0.0
100.0   150.0   0.0
100.0   120.0   16.666666666666668
150.0   120.0   16.666666666666668
100.0   150.0   16.666666666666668
100.0   120.0   33.333333333333336
150.0   120.0   16.666666666666668
150.0   150.0   16.666666666666668
100.0   150.0   16.666666666666668
150.0   150.0   33.333333333333336
100.0   120.0   33.333333333333336
100.0   150.0   33.333333333333336
150.0   150.0   33.333333333333336
100.0   150.0   16.666666666666668
100.0   120.0   33.333333333333336
150.0   150.0   33.333333333333336
150.0   120.0   33.333333333333336
150.0   120.0   16.666666666666668
100.0   120.0   33.333333333333336
150.0   150.0   33.333333333333336
150.0   120.0   16.666666666666668
100.0   150.0   16.666666666666668
100.0   120.0   33.333333333333336
150.0   120.0   33.333333333333336
100.0   150.0   33.333333333333336
100.0   120.0   50.0
150.0   120.0   33.333333333333336
150.0   150.0   33.333333333333336
100.0   150.0   33.333333333333336
150.0   150.0   50.0
100.0   120.0   50.0
100.0   150.0   50.0
150.0   150.0   50.0
100.0   150.0   33.333333333333336
100.0   120.0   50.0
150.0   150.0   50.0
150.0   120.0   50.0
150.0   120.0   33.333333333333336
100.0   120.0   50.0
150.0   150.0   50.0
150.0   120.0   33.333333333333336
100.0   150.0   33.333333333333336
150.0   0.0   0.0
200.0   0.0   0.0
150.0   30.0   0.0
150.0   0.0   16.666666666666668
200.0   0.0   0.0
200.0   30.0   0.0
150.0   30.0   0.0
200.0   30.0   16.666666666666668
150.0   0.0   16.666666666666668
150.0   30.0   16.666666666666668
200.0   30.0   16.666666666666668
150.0   30.0   0.0
150.0   0.0   16.666666666666668
200.0   30.0   16.666666666666668
200.0   0.0   16.666666666666668
200.0   0.0   0.0
150.0   0.0   16.666666666666668
200.0   30.0   16.666666666666668
200.0   0.0   0.0
150.0   30.0   0.0
150.0   0.0   16.666666666666668
200.0   0.0   16.666666666666668
150.0   30.0   16.666666666666668
150.0   0.0   33.333333333333336
200.0   0.0   16.666666666666668
200.0   30.0   16.666666666666668
150.0   30.0   16.666666666666668
200.0   30.0   33.333333333333336
150.0   0.0   33.333333333333336
150.0   30.0   33.333333333333336
200.0   30.0   33.333333333333336
150.0   30.0   16.666666666666668
150.0   0.0   33.333333333333336
200.0   30.0   33.333333333333336
200.0   0.0   33.333333333333336
200.0   0.0   16.666666666666668
150.0   0.0   33.333333333333336
200.0   30.0   33.333333333333336
200.0   0.0   16.666666666666668
150.0   30.0   16.666666666666668
150.0   0.0   33.333333333333336
200.0   0.0   33.333333333333336
150.0   30.0   33.333333333333336
150.0   0.0   50.0
200.0   0.0   33.333333333333336
200.0   30.0   33.333333333333336
150.0   30.0   33.333333333333336
200.0   30.0   50.0
150.0   0.0   50.0
150.0   30.0   50.0
200.0   30.0   50.0
150.0   30.0   33.333333333333336
150.0   0.0   50.0
200.0   30.0   50.0
200.0   0.0   50.0
200.0   0.0   33.333333333333336
150.0   0.0   50.0
200.0   30.0   50.0
200.0   0.0   33.333333333333336
150.0   30.0   33.333333333333336
150.0   30.0   0.0
200.0   30.0   0.0
150.0   60.0   0.0
150.0   30.0   16.666666666666668
200.0   30.0   0.0
200.0   60.0   0.0
150.0   60.0   0.0
200.0   60.0   16.666666666666668
150.0   30.0   16.666666666666668
150.0   60.0   16.666666666666668
200.0   60.0   16.666666666666668
150.0   60.0   0.0
150.0   30.0   16.666666666666668
200.0   60.0   16.666666666666668
200.0   30.0   16.666666666666668
200.0   30.0   0.0
150.0   30.0   16.666666666666668
200.0   60.0   16.666666666666668
200.0   30.0   0.0
150.0   60.0   0.0
150.0   30.0   16.666666666666668
200.0   30.0   16.666666666666668
150.0   60.0   16.666666666666668
150.0   30.0   33.333333333333336
200.0   30.0   16.666666666666668
200.0   60.0   16.666666666666668
150.0   60.0   16.666666666666668
200.0   60.0   33.333333333333336
150.0   30.0   33.333333333333336
150.0   60.0   33.333333333333336
200.0   60.0   33.333333333333336
150.0   60.0   16.666666666666668
150.0   30.0   33.333333333333336
200.0   60.0   33.333333333333336
200.0   30.0   33.333333333333336
200.0   30.0   16.666666666666668
150.0   30.0   33.333333333333336
200.0   60.0   33.333333333333336
200.0   30.0   16.666666666666668
150.0   60.0   16.666666666666668
150.0   30.0   33.333333333333336
200.0   30.0   33.333333333333336
150.0   60.0   33.333333333333336
150.0   30.0   50.0
200.0   30.0   33.333333333333336
200.0   60.0   33.333333333333336
150.0   60.0   33.333333333333336
200.0   60.0   50.0
150.0   30.0   50.0
150.0   60.0   50.0
200.0   60.0   50.0
150.0   60.0   33.333333333333336
150.0   30.0   50.0
200.0   60.0   50.0
200.0   30.0   50.0
200.0   30.0   33.333333333333336
150.0   30.0   50.0
200.0   60.0   50.0
200.0   30.0   33.333333333333336
150.0   60.0   33.333333333333336
150.0   60.0   0.0
200.0   60.0   0.0
150.0   90.0   0.0
150.0   60.0   16.666666666666668
200.0   60.0   0.0
200.0   90.0   0.0
150.0   90.0   0.0
200.0   90.0   16.666666666666668
150.0   60.0   16.666666666666668
150.0   90.0   16.666666666666668
200.0   90.0   16.666666666666668
150.0   90.0   0.0
150.0   60.0   16.666666666666668
200.0   90.0   16.666666666666668
200.0   60.0   16.666666666666668
200.0   60.0   0.0
150.0   60.0   16.666666666666668
200.0   90.0   16.666666666666668
200.0   60.0   0.0
150.0   90.0   0.0
150.0   60.0   16.666666666666668
200.0   60.0   16.666666666666668
150.0   90.0   16.666666666666668
150.0   60.0   33.333333333333336
200.0   60.0   16.666666666666668
200.0   90.0   16.666666666666668
150.0   90.0   16.666666666666668
200.0   90.0   33.333333333333336
150.0   60.0   33.333333333333336
150.0   90.0   33.333333333333336
200.0   90.0   33.333333333333336
150.0   90.0   16.666666666666668
150.0   60.0   33.333333333333336
200.0   90.0   33.333333333333336
200.0   60.0   33.333333333333336
200.0   60.0   16.666666666666668
150.0   60.0   33.333333333333336
200.0   90.0   33.333333333333336
200.0   60.0   16.666666666666668
150.0   90.0   16.666666666666668
150.0   60.0   33.333333333333336
200.0   60.0   33.333333333333336
150.0   90.0   33.333333333333336
150.0   60.0   50.0
200.0   60.0   33.333333333333336
200.0   90.0   33.333333333333336
150.0   90.0   33.333333333333336
200.0   90.0   50.0
150.0   60.0   50.0
150.0   90.0   50.0
200.0   90.0   50.0
150.0   90.0   33.333333333333336
150.0   60.0   50.0
200.0   90.0   50.0
200.0   60.0   50.0
200.0   60.0   33.333333333333336
150.0   60.0   50.0
200.0   90.0   50.0
200.0   60.0   33.333333333333336
150.0   90.0   33.333333333333336
150.0   90.0   0.0
200.0   90.0   0.0
150.0   120.0   0.0
150.0   90.0   16.666666666666668
200.0   90.0   0.0
200.0   120.0   0.0
150.0   120.0   0.0
200.0   120.0   16.666666666666668
150.0   90.0   16.666666666666668
150.0   120.0   16.666666666666668
200.0   120.0   16.666666666666668
150.0   120.0   0.0
150.0   90.0   16.666666666666668
200.0   120.0   16.666666666666668
200.0   90.0   16.666666666666668
200.0   90.0   0.0
150.0   90.0   16.666666666666668
200.0   120.0   16.666666666666668
200.0   90.0   0.0
150.0   120.0   0.0
150.0   90.0   16.666666666666668
200.0   90.0   16.666666666666668
150.0   120.0   16.666666666666668
150.0   90.0   33.333333333333336
200.0   90.0   16.666666666666668
200.0   120.0   16.666666666666668
150.0   120.0   16.666666666666668
200.0   120.0   33.333333333333336
150.0   90.0   33.333333333333336
150.0   120.0   33.333333333333336
200.0   120.0   33.333333333333336
150.0   120.0   16.666666666666668
150.0   90.0   33.333333333333336
200.0   120.0   33.333333333333336
200.0   90.0   33.333333333333336
200.0   90.0   16.666666666666668
150.0   90.0   33.333333333333336
200.0   120.0   33.333333333333336
200.0   90.0   16.666666666666668
150.0   120.0   16.666666666666668
150.0   90.0   33.333333333333336
200.0   90.0   33.333333333333336
150.0   120.0   33.333333333333336
150.0   90.0   50.0
200.0   90.0   33.333333333333336
200.0   120.0   33.333333333333336
150.0   120.0   33.333333333333336
200.0   120.0   50.0
150.0   90.0   50.0
150.0   120.0   50.0
200.0   120.0   50.0
150.0   120.0   33.333333333333336
150.0   90.0   50.0
200.0   120.0   50.0
200.0   90.0   50.0
200.0   90.0   33.333333333333336
150.0   90.0   50.0
200.0   120.0   50.0
200.0   90.0   33.333333333333336
150.0   120.0   33.333333333333336
150.0   120.0   0.0
200.0   120.0   0.0
150.0   150.0   0.0
150.0   120.0   16.666666666666668
200.0   120.0   0.0
200.0   150.0   0.0
150.0   150.0   0.0
200.0   150.0   16.666666666666668
150.0   120.0   16.666666666666668
150.0   150.0   16.666666666666668
200.0   150.0   16.666666666666668
150.0   150.0   0.0
150.0   120.0   16.666666666666668
200.0   150.0   16.666666666666668
200.0   120.0   16.666666666666668
200.0   120.0   0.0
150.0   120.0   16.666666666666668
200.0   150.0   16.666666666666668
200.0   120.0   0.0
150.0   150.0   0.0
150.0   120.0   16.666666666666668
200.0   120.0   16.666666666666668
150.0   150.0   16.666666666666668
150.0   120.0   33.333333333333336
200.0   120.0   16.666666666666668
200.0   150.0   16.666666666666668
150.0   150.0   16.666666666666668
200.0   150.0   33.333333333333336
150.0   120.0   33.333333333333336
150.0   150.0   33.333333333333336
200.0   150.0   33.333333333333336
150.0   150.0   16.666666666666668
150.0   120.0   33.333333333333336
200.0   150.0   33.333333333333336
200.0   120.0   33.333333333333336
200.0   120.0   16.666666666666668
150.0   120.0   33.333333333333336
200.0   150.0   33.333333333333336
200.0   120.0   16.666666666666668
150.0   150.0   16.666666666666668
150.0   120.0   33.333333333333336
200.0   120.0   33.333333333333336
150.0   150.0   33.333333333333336
150.0   120.0   50.0
200.0   120.0   33.333333333333336
200.0   150.0   33.333333333333336
150.0   150.0   33.333333333333336
200.0   150.0   50.0
150.0   120.0   50.0
150.0   150.0   50.0
200.0   150.0   50.0
150.0   150.0   33.333333333333336
150.0   120.0   50.0
200.0   150.0   50.0
200.0   120.0   50.0
200.0   120.0   33.333333333333336
150.0   120.0   50.0
200.0   150.0   50.0
200.0   120.0   33.333333333333336
150.0   150.0   33.333333333333336
200.0   0.0   0.0
250.0   0.0   0.0
200.0   30.0   0.0
200.0   0.0   16.666666666666668
250.0   0.0   0.0
250.0   30.0   0.0
200.0   30.0   0.0
250.0   30.0   16.666666666666668
200.0   0.0   16.666666666666668
200.0   30.0   16.666666666666668
250.0   30.0   16.666666666666668
200.0   30.0   0.0
200.0   0.0   16.666666666666668
250.0   30.0   16.666666666666668
250.0   0.0   16.666666666666668
250.0   0.0   0.0
200.0   0.0   16.666666666666668
250.0   30.0   16.666666666666668
250.0   0.0   0.0
200.0   30.0   0.0
200.0   0.0   16.666666666666668
250.0   0.0   16.666666666666668
200.0   30.0   16.666666666666668
200.0   0.0   33.333333333333336
250.0   0.0   16.666666666666668
250.0   30.0   16.666666666666668
200.0   30.0   16.666666666666668
250.0   30.0   33.333333333333336
200.0   0.0   33.333333333333336
200.0   30.0   33.333333333333336
250.0   30.0   33.333333333333336
200.0   30.0   16.666666666666668
200.0   0.0   33.333333333333336
250.0   30.0   33.333333333333336
250.0   0.0   33.333333333333336
250.0   0.0   16.666666666666668
200.0   0.0   33.333333333333336
250.0   30.0   33.333333333333336
250.0   0.0   16.666666666666668
200.0   30.0   16.666666666666668
200.0   0.0   33.333333333333336
250.0   0.0   33.333333333333336
200.0   30.0   33.333333333333336
200.0   0.0   50.0
250.0   0.0   33.333333333333336
250.0   30.0   33.333333333333336
200.0   30.0   33.333333333333336
250.0   30.0   50.0
200.0   0.0   50.0
200.0   30.0   50.0
250.0   30.0   50.0
200.0   30.0   33.333333333333336
200.0   0.0   50.0
250.0   30.0   50.0
250.0   0.0   50.0
250.0   0.0   33.333333333333336
200.0   0.0   50.0
250.0   30.0   50.0
250.0   0.0   33.333333333333336
200.0   30.0   33.333333333333336
200.0   30.0   0.0
250.0   30.0   0.0
200.0   60.0   0.0
200.0   30.0   16.666666666666668
250.0   30.0   0.0
250.0   60.0   0.0
200.0   60.0   0.0
250.0   60.0   16.666666666666668
200.0   30.0   16.666666666666668
200.0   60.0   16.666666666666668
250.0   60.0   16.666666666666668
200.0   60.0   0.0
200.0   30.0   16.666666666666668
250.0   60.0   16.666666666666668
250.0   30.0   16.666666666666668
250.0   30.0   0.0
200.0   30.0   16.666666666666668
250.0   60.0   16.666666666666668
250.0   30.0   0.0
200.0   60.0   0.0
200.0   30.0   16.666666666666668
250.0   30.0   16.666666666666668
200.0   60.0   16.666666666666668
200.0   30.0   33.333333333333336
250.0   30.0   16.666666666666668
250.0   60.0   16.666666666666668
200.0   60.0   16.666666666666668
250.0   60.0   33.333333333333336
200.0   30.0   33.333333333333336
200.0   60.0   33.333333333333336
250.0   60.0   33.333333333333336
200.0   60.0   16.666666666666668
200.0   30.0   33.333333333333336
250.0   60.0   33.333333333333336
250.0   30.0   33.333333333333336
250.0   30.0   16.666666666666668
200.0   30.0   33.333333333333336
250.0   60.0   33.333333333333336
250.0   30.0   16.666666666666668
200.0   60.0   16.666666666666668
200.0   30.0   33.333333333333336
250.0   30.0   33.333333333333336
200.0   60.0   33.333333333333336
200.0   30.0   50.0
250.0   30.0   33.333333333333336
250.0   60.0   33.333333333333336
200.0   60.0   33.333333333333336
250.0   60.0   50.0
200.0   30.0   50.0
200.0   60.0   50.0
250.0   60.0   50.0
200.0   60.0   33.333333333333336
200.0   30.0   50.0
250.0   60.0   50.0
250.0   30.0   50.0
250.0   30.0   33.333333333333336
200.0   30.0   50.0
250.0   60.0   50.0
250.0   30.0   33.333333333333336
200.0   60.0   33.333333333333336
200.0   60.0   0.0
250.0   60.0   0.0
200.0   90.0   0.0
200.0   60.0   16.666666666666668
250.0   60.0   0.0
250.0   90.0   0.0
200.0   90.0   0.0
250.0   90.0   16.666666666666668
200.0   60.0   16.666666666666668
200.0   90.0   16.666666666666668
250.0   90.0   16.666666666666668
200.0   90.0   0.0
200.0   60.0   16.666666666666668
250.0   90.0   16.666666666666668
250.0   60.0   16.666666666666668
250.0   60.0   0.0
200.0   60.0   16.666666666666668
250.0   90.0   16.666666666666668
250.0   60.0   0.0
200.0   90.0   0.0
200.0   60.0   16.666666666666668
250.0   60.0   16.666666666666668
200.0   90.0   16.666666666666668
200.0   60.0   33.333333333333336
250.0   60.0   16.666666666666668
250.0   90.0   16.666666666666668
200.0   90.0   16.666666666666668
250.0   90.0   33.333333333333336
200.0   60.0   33.333333333333336
200.0   90.0   33.333333333333336
250.0   90.0   33.333333333333336
200.0   90.0   16.666666666666668
200.0   60.0   33.333333333333336
250.0   90.0   33.333333333333336
250.0   60.0   33.333333333333336
250.0   60.0   16.666666666666668
200.0   60.0   33.333333333333336
250.0   90.0   33.333333333333336
250.0   60.0   16.666666666666668
200.0   90.0   16.666666666666668
200.0   60.0   33.333333333333336
250.0   60.0   33.333333333333336
200.0   90.0   33.333333333333336
200.0   60.0   50.0
250.0   60.0   33.333333333333336
250.0   90.0   33.333333333333336
200.0   90.0   33.333333333333336
250.0   90.0   50.0
200.0   60.0   50.0
200.0   90.0   50.0
250.0   90.0   50.0
200.0   90.0   33.333333333333336
200.0   60.0   50.0
250.0   90.0   50.0
250.0   60.0   50.0
250.0   60.0   33.333333333333336
200.0   60.0   50.0
250.0   90.0   50.0
250.0   60.0   33.333333333333336
200.0   90.0   33.333333333333336
200.0   90.0   0.0
250.0   90.0   0.0
200.0   120.0   0.0
200.0   90.0   16.666666666666668
250.0   90.0   0.0
250.0   120.0   0.0
200.0   120.0   0.0
250.0   120.0   16.666666666666668
200.0   90.0   16.666666666666668
200.0   120.0   16.666666666666668
250.0   120.0   16.666666666666668
200.0   120.0   0.0
200.0   90.0   16.666666666666668
250.0   120.0   16.666666666666668
250.0   90.0   16.666666666666668
250.0   90.0   0.0
200.0   90.0   16.666666666666668
250.0   120.0   16.666666666666668
250.0   90.0   0.0
200.0   120.0   0.0
200.0   90.0   16.666666666666668
250.0   90.0   16.666666666666668
200.0   120.0   16.666666666666668
200.0   90.0   33.333333333333336
250.0   90.0   16.666666666666668
250.0   120.0   16.666666666666668
200.0   120.0   16.666666666666668
250.0   120.0   33.333333333333336
200.0   90.0   33.333333333333336
200.0   120.0   33.333333333333336
250.0   120.0   33.333333333333336
200.0   120.0   16.666666666666668
200.0   90.0   33.333333333333336
250.0   120.0   33.333333333333336
250.0   90.0   33.333333333333336
250.0   90.0   16.666666666666668
200.0   90.0   33.333333333333336
250.0   120.0   33.333333333333336
250.0   90.0   16.666666666666668
200.0   120.0   16.666666666666668
200.0   90.0   33.333333333333336
250.0   90.0   33.333333333333336
200.0   120.0   33.333333333333336
200.0   90.0   50.0
250.0   90.0   33.333333333333336
250.0   120.0   33.333333333333336
200.0   120.0   33.333333333333336
250.0   120.0   50.0
200.0   90.0   50.0
200.0   120.0   50.0
250.0   120.0   50.0
200.0   120.0   33.333333333333336
200.0   90.0   50.0
250.0   120.0   50.0
250.0   90.0   50.0
250.0   90.0   33.333333333333336
200.0   90.0   50.0
250.0   120.0   50.0
250.0   90.0   33.333333333333336
200.0   120.0   33.333333333333336
200.0   120.0   0.0
250.0   120.0   0.0
200.0   150.0   0.0
200.0   120.0   16.666666666666668
250.0   120.0   0.0
250.0   150.0   0.0
200.0   150.0   0.0
250.0   150.0   16.666666666666668
200.0   120.0   16.666666666666668
200.0   150.0   16.666666666666668
250.0   150.0   16.666666666666668
200.0   150.0   0.0
200.0   120.0   16.666666666666668
250.0   150.0   16.666666666666668
250.0   120.0   16.666666666666668
250.0   120.0   0.0
200.0   120.0   16.666666666666668
250.0   150.0   16.666666666666668
250.0   120.0   0.0
200.0   150.0   0.0
200.0   120.0   16.666666666666668
250.0   120.0   16.666666666666668
200.0   150.0   16.666666666666668
200.0   120.0   33.333333333333336
250.0   120.0   16.666666666666668
250.0   150.0   16.666666666666668
200.0   150.0   16.666666666666668
250.0   150.0   33.333333333333336
200.0   120.0   33.333333333333336
200.0   150.0   33.333333333333336
250.0   150.0   33.333333333333336
200.0   150.0   16.666666666666668
200.0   120.0   33.333333333333336
250.0   150.0   33.333333333333336
250.0   120.0   33.333333333333336
250.0   120.0   16.666666666666668
200.0   120.0   33.333333333333336
250.0   150.0   33.333333333333336
250.0   120.0   16.666666666666668
200.0   150.0   16.666666666666668
200.0   120.0   33.333333333333336
250.0   120.0   33.333333333333336
200.0   150.0   33.333333333333336
200.0   120.0   50.0
250.0   120.0   33.333333333333336
250.0   150.0   33.333333333333336
200.0   150.0   33.333333333333336
250.0   150.0   50.0
200.0   120.0   50.0
200.0   150.0   50.0
250.0   150.0   50.0
200.0   150.0   33.333333333333336
200.0   120.0   50.0
250.0   150.0   50.0
250.0   120.0   50.0
250.0   120.0   33.333333333333336
200.0   120.0   50.0
250.0   150.0   50.0
250.0   120.0   33.333333333333336
200.0   150.0   33.333333333333336
250.0   0.0   0.0
300.0   0.0   0.0
250.0   30.0   0.0
250.0   0.0   16.666666666666668
300.0   0.0   0.0
300.0   30.0   0.0
250.0   30.0   0.0
300.0   30.0   16.666666666666668
250.0   0.0   16.666666666666668
250.0   30.0   16.666666666666668
300.0   30.0   16.666666666666668
250.0   30.0   0.0
250.0   0.0   16.666666666666668
300.0   30.0   16.666666666666668
300.0   0.0   16.666666666666668
300.0   0.0   0.0
250.0   0.0   16.666666666666668
300.0   30.0   16.666666666666668
300.0   0.0   0.0
250.0   30.0   0.0
250.0   0.0   16.666666666666668
300.0   0.0   16.666666666666668
250.0   30.0   16.666666666666668
250.0   0.0   33.333333333333336
300.0   0.0   16.666666666666668
300.0   30.0   16.666666666666668
250.0   30.0   16.666666666666668
300.0   30.0   33.333333333333336
250.0   0.0   33.333333333333336
250.0   30.0   33.333333333333336
300.0   30.0   33.333333333333336
250.0   30.0   16.666666666666668
250.0   0.0   33.333333333333336
300.0   30.0   33.333333333333336
300.0   0.0   33.333333333333336
300.0   0.0   16.666666666666668
250.0   0.0   33.333333333333336
300.0   30.0   33.333333333333336
300.0   0.0   16.666666666666668
250.0   30.0   16.666666666666668
250.0   0.0   33.333333333333336
300.0   0.0   33.333333333333336
250.0   30.0   33.333333333333336
250.0   0.0   50.0
300.0   0.0   33.333333333333336
300.0   30.0   33.333333333333336
250.0   30.0   33.333333333333336
300.0   30.0   50.0
250.0   0.0   50.0
250.0   30.0   50.0
300.0   30.0   50.0
250.0   30.0   33.333333333333336
250.0   0.0   50.0
300.0   30.0   50.0
300.0   0.0   50.0
300.0   0.0   33.333333333333336
250.0   0.0   50.0
300.0   30.0   50.0
300.0   0.0   33.333333333333336
250.0   30.0   33.333333333333336
250.0   30.0   0.0
300.0   30.0   0.0
250.0   60.0   0.0
250.0   30.0   16.666666666666668
300.0   30.0   0.0
300.0   60.0   0.0
250.0   60.0   0.0
300.0   60.0   16.666666666666668
250.0   30.0   16.666666666666668
250.0   60.0   16.666666666666668
300.0   60.0   16.666666666666668
250.0   60.0   0.0
250.0   30.0   16.666666666666668
300.0   60.0   16.666666666666668
300.0   30.0   16.666666666666668
300.0   30.0   0.0
250.0   30.0   16.666666666666668
300.0   60.0   16.666666666666668
300.0   30.0   0.0
250.0   60.0   0.0
250.0   30.0   16.666666666666668
300.0   30.0   16.666666666666668
250.0   60.0   16.666666666666668
250.0   30.0   33.333333333333336
300.0   30.0   16.666666666666668
300.0   60.0   16.666666666666668
250.0   60.0   16.666666666666668
300.0   60.0   33.333333333333336
250.0   30.0   33.333333333333336
250.0   60.0   33.333333333333336
300.0   60.0   33.333333333333336
250.0   60.0   16.666666666666668
250.0   30.0   33.333333333333336
300.0   60.0   33.333333333333336
300.0   30.0   33.333333333333336
300.0   30.0   16.666666666666668
250.0   30.0   33.333333333333336
300.0   60.0   33.333333333333336
300.0   30.0   16.666666666666668
250.0   60.0   16.666666666666668
250.0   30.0   33.333333333333336
300.0   30.0   33.333333333333336
250.0   60.0   33.333333333333336
250.0   30.0   50.0
300.0   30.0   33.333333333333336
300.0   60.0   33.333333333333336
250.0   60.0   33.333333333333336
300.0   60.0   50.0
250.0   30.0   50.0
250.0   60.0   50.0
300.0   60.0   50.0
250.0   60.0   33.333333333333336
250.0   30.0   50.0
300.0   60.0   50.0
300.0   30.0   50.0
300.0   30.0   33.333333333333336
250.0   30.0   50.0
300.0   60.0   50.0
300.0   30.0   33.333333333333336
250.0   60.0   33.333333333333336
250.0   60.0   0.0
300.0   60.0   0.0
250.0   90.0   0.0
250.0   60.0   16.666666666666668
300.0   60.0   0.0
300.0   90.0   0.0
250.0   90.0   0.0
300.0   90.0   16.666666666666668
250.0   60.0   16.666666666666668
250.0   90.0   16.666666666666668
300.0   90.0   16.666666666666668
250.0   90.0   0.0
250.0   60.0   16.666666666666668
300.0   90.0   16.666666666666668
300.0   60.0   16.666666666666668
300.0   60.0   0.0
250.0   60.0   16.666666666666668
300.0   90.0   16.666666666666668
300.0   60.0   0.0
250.0   90.0   0.0
250.0   60.0   16.666666666666668
300.0   60.0   16.666666666666668
250.0   90.0   16.666666666666668
250.0   60.0   33.333333333333336
300.0   60.0   16.666666666666668
300.0   90.0   16.666666666666668
250.0   90.0   16.666666666666668
300.0   90.0   33.333333333333336
250.0   60.0   33.333333333333336
250.0   90.0   33.333333333333336
300.0   90.0   33.333333333333336
250.0   90.0   16.666666666666668
250.0   60.0   33.333333333333336
300.0   90.0   33.333333333333336
300.0   60.0   33.333333333333336
300.0   60.0   16.666666666666668
250.0   60.0   33.333333333333336
300.0   90.0   33.333333333333336
300.0   60.0   16.666666666666668
250.0   90.0   16.666666666666668
250.0   60.0   33.333333333333336
300.0   60.0   33.333333333333336
250.0   90.0   33.333333333333336
250.0   60.0   50.0
300.0   60.0   33.333333333333336
300.0   90.0   33.333333333333336
250.0   90.0   33.333333333333336
300.0   90.0   50.0
250.0   60.0   50.0
250.0   90.0   50.0
300.0   90.0   50.0
250.0   90.0   33.333333333333336
250.0   60.0   50.0
300.0   90.0   50.0
300.0   60.0   50.0
300.0   60.0   33.333333333333336
250.0   60.0   50.0
300.0   90.0   50.0
300.0   60.0   33.333333333333336
250.0   90.0   33.333333333333336
250.0   90.0   0.0
300.0   90.0   0.0
250.0   120.0   0.0
250.0   90.0   16.666666666666668
300.0   90.0   0.0
300.0   120.0   0.0
250.0   120.0   0.0
300.0   120.0   16.666666666666668
250.0   90.0   16.666666666666668
250.0   120.0   16.666666666666668
300.0   120.0   16.666666666666668
250.0   120.0   0.0
250.0   90.0   16.666666666666668
300.0   120.0   16.666666666666668
300.0   90.0   16.666666666666668
300.0   90.0   0.0
250.0   90.0   16.666666666666668
300.0   120.0   16.666666666666668
300.0   90.0   0.0
250.0   120.0   0.0
250.0   90.0   16.666666666666668
300.0   90.0   16.666666666666668
250.0   120.0   16.666666666666668
250.0   90.0   33.333333333333336
300.0   90.0   16.666666666666668
300.0   120.0   16.666666666666668
250.0   120.0   16.666666666666668
300.0   120.0   33.333333333333336
250.0   90.0   33.333333333333336
250.0   120.0   33.333333333333336
300.0   120.0   33.333333333333336
250.0   120.0   16.666666666666668
250.0   90.0   33.333333333333336
300.0   120.0   33.333333333333336
300.0   90.0   33.333333333333336
300.0   90.0   16.666666666666668
250.0   90.0   33.333333333333336
300.0   120.0   33.333333333333336
300.0   90.0   16.666666666666668
250.0   120.0   16.666666666666668
250.0   90.0   33.333333333333336
300.0   90.0   33.333333333333336
250.0   120.0   33.333333333333336
250.0   90.0   50.0
300.0   90.0   33.333333333333336
300.0   120.0   33.333333333333336
250.0   120.0   33.333333333333336
300.0   120.0   50.0
250.0   90.0   50.0
250.0   120.0   50.0
300.0   120.0   50.0
250.0   120.0   33.333333333333336
250.0   90.0   50.0
300.0   120.0   50.0
300.0   90.0   50.0
300.0   90.0   33.333333333333336
250.0   90.0   50.0
300.0   120.0   50.0
300.0   90.0   33.333333333333336
250.0   120.0   33.333333333333336
250.0   120.0   0.0
300.0   120.0   0.0
250.0   150.0   0.0
250.0   120.0   16.666666666666668
300.0   120.0   0.0
300.0   150.0   0.0
250.0   150.0   0.0
300.0   150.0   16.666666666666668
250.0   120.0   16.666666666666668
250.0   150.0   16.666666666666668
300.0   150.0   16.666666666666668
250.0   150.0   0.0
250.0   120.0   16.666666666666668
300.0   150.0   16.666666666666668
300.0   120.0   16.666666666666668
300.0   120.0   0.0
250.0   120.0   16.666666666666668
300.0   150.0   16.666666666666668
300.0   120.0   0.0
250.0   150.0   0.0
250.0   120.0   16.666666666666668
300.0   120.0   16.666666666666668
250.0   150.0   16.666666666666668
250.0   120.0   33.333333333333336
300.0   120.0   16.666666666666668
300.0   150.0   16.666666666666668
250.0   150.0   16.666666666666668
300.0   150.0   33.333333333333336
250.0   120.0   33.333333333333336
250.0   150.0   33.333333333333336
300.0   150.0   33.333333333333336
250.0   150.0   16.666666666666668
250.0   120.0   33.333333333333336
300.0   150.0   33.333333333333336
300.0   120.0   33.333333333333336
300.0   120.0   16.666666666666668
250.0   120.0   33.333333333333336
300.0   150.0   33.333333333333336
300.0   120.0   16.666666666666668
250.0   150.0   16.666666666666668
250.0   120.0   33.333333333333336
300.0   120.0   33.333333333333336
250.0   150.0   33.333333333333336
250.0   120.0   50.0
300.0   120.0   33.333333333333336
300.0   150.0   33.333333333333336
250.0   150.0   33.333333333333336
300.0   150.0   50.0
250.0   120.0   50.0
250.0   150.0   50.0
300.0   150.0   50.0
250.0   150.0   33.333333333333336
250.0   120.0   50.0
300.0   150.0   50.0
300.0   120.0   50.0
300.0   120.0   33.333333333333336
250.0   120.0   50.0
300.0   150.0   50.0
300.0   120.0   33.333333333333336
250.0   150.0   33.333333333333336
300.0   0.0   0.0
350.0   0.0   0.0
300.0   30.0   0.0
300.0   0.0   16.666666666666668
350.0   0.0   0.0
350.0   30.0   0.0
300.0   30.0   0.0
350.0   30.0   16.666666666666668
300.0   0.0   16.666666666666668
300.0   30.0   16.666666666666668
350.0   30.0   16.666666666666668
300.0   30.0   0.0
300.0   0.0   16.666666666666668
350.0   30.0   16.666666666666668
350.0   0.0   16.666666666666668
350.0   0.0   0.0
300.0   0.0   16.666666666666668
350.0   30.0   16.666666666666668
350.0   0.0   0.0
300.0   30.0   0.0
300.0   0.0   16.666666666666668
350.0   0.0   16.666666666666668
300.0   30.0   16.666666666666668
300.0   0.0   33.333333333333336
350.0   0.0   16.666666666666668
350.0   30.0   16.666666666666668
300.0   30.0   16.666666666666668
350.0   30.0   33.333333333333336
300.0   0.0   33.333333333333336
300.0   30.0   33.333333333333336
350.0   30.0   33.333333333333336
300.0   30.0   16.666666666666668
300.0   0.0   33.333333333333336
350.0   30.0   33.333333333333336
350.0   0.0   33.333333333333336
350.0   0.0   16.666666666666668
300.0   0.0   33.333333333333336
350.0   30.0   33.333333333333336
350.0   0.0   16.666666666666668
300.0   30.0   16.666666666666668
300.0   0.0   33.333333333333336
350.0   0.0   33.333333333333336
300.0   30.0   33.333333333333336
300.0   0.0   50.0
350.0   0.0   33.333333333333336
350.0   30.0   33.333333333333336
300.0   30.0   33.333333333333336
350.0   30.0   50.0
300.0   0.0   50.0
300.0   30.0   50.0
350.0   30.0   50.0
300.0   30.0   33.333333333333336
300.0   0.0   50.0
350.0   30.0   50.0
350.0   0.0   50.0
350.0   0.0   33.333333333333336
300.0   0.0   50.0
350.0   30.0   50.0
350.0   0.0   33.333333333333336
300.0   30.0   33.333333333333336
300.0   30.0   0.0
350.0   30.0   0.0
300.0   60.0   0.0
300.0   30.0   16.666666666666668
350.0   30.0   0.0
350.0   60.0   0.0
300.0   60.0   0.0
350.0   60.0   16.666666666666668
300.0   30.0   16.666666666666668
300.0   60.0   16.666666666666668
350.0   60.0   16.666666666666668
300.0   60.0   0.0
300.0   30.0   16.666666666666668
350.0   60.0   16.666666666666668
350.0   30.0   16.666666666666668
350.0   30.0   0.0
300.0   30.0   16.666666666666668
350.0   60.0   16.666666666666668
350.0   30.0   0.0
300.0   60.0   0.0
300.0   30.0   16.666666666666668
350.0   30.0   16.666666666666668
300.0   60.0   16.666666666666668
300.0   30.0   33.333333333333336
350.0   30.0   16.666666666666668
350.0   60.0   16.666666666666668
300.0   60.0   16.666666666666668
350.0   60.0   33.333333333333336
300.0   30.0   33.333333333333336
300.0   60.0   33.333333333333336
350.0   60.0   33.333333333333336
300.0   60.0   16.666666666666668
300.0   30.0   33.333333333333336
350.0   60.0   33.333333333333336
350.0   30.0   33.333333333333336
350.0   30.0   16.666666666666668
300.0   30.0   33.333333333333336
350.0   60.0   33.333333333333336
350.0   30.0   16.666666666666668
300.0   60.0   16.666666666666668
300.0   30.0   33.333333333333336
350.0   30.0   33.333333333333336
300.0   60.0   33.333333333333336
300.0   30.0   50.0
350.0   30.0   33.333333333333336
350.0   60.0   33.333333333333336
300.0   60.0   33.333333333333336
350.0   60.0   50.0
300.0   30.0   50.0
300.0   60.0   50.0
350.0   60.0   50.0
300.0   60.0   33.333333333333336
300.0   30.0   50.0
350.0   60.0   50.0
350.0   30.0   50.0
350.0   30.0   33.333333333333336
300.0   30.0   50.0
350.0   60.0   50.0
350.0   30.0   33.333333333333336
300.0   60.0   33.333333333333336
300.0   60.0   0.0
350.0   60.0   0.0
300.0   90.0   0.0
300.0   60.0   16.666666666666668
350.0   60.0   0.0
350.0   90.0   0.0
300.0   90.0   0.0
350.0   90.0   16.666666666666668
300.0   60.0   16.666666666666668
300.0   90.0   16.666666666666668
350.0   90.0   16.666666666666668
300.0   90.0   0.0
300.0   60.0   16.666666666666668
350.0   90.0   16.666666666666668
350.0   60.0   16.666666666666668
350.0   60.0   0.0
300.0   60.0   16.666666666666668
350.0   90.0   16.666666666666668
350.0   60.0   0.0
300.0   90.0   0.0
300.0   60.0   16.666666666666668
350.0   60.0   16.666666666666668
300.0   90.0   16.666666666666668
300.0   60.0   33.333333333333336
350.0   60.0   16.666666666666668
350.0   90.0   16.666666666666668
300.0   90.0   16.666666666666668
350.0   90.0   33.333333333333336
300.0   60.0   33.333333333333336
300.0   90.0   33.333333333333336
350.0   90.0   33.333333333333336
300.0   90.0   16.666666666666668
300.0   60.0   33.333333333333336
350.0   90.0   33.333333333333336
350.0   60.0   33.333333333333336
350.0   60.0   16.666666666666668
300.0   60.0   33.333333333333336
350.0   90.0   33.333333333333336
350.0   60.0   16.666666666666668
300.0   90.0   16.666666666666668
300.0   60.0   33.333333333333336
350.0   60.0   33.333333333333336
300.0   90.0   33.333333333333336
300.0   60.0   50.0
350.0   60.0   33.333333333333336
350.0   90.0   33.333333333333336
300.0   90.0   33.333333333333336
350.0   90.0   50.0
300.0   60.0   50.0
300.0   90.0   50.0
350.0   90.0   50.0
300.0   90.0   33.333333333333336
300.0   60.0   50.0
350.0   90.0   50.0
350.0   60.0   50.0
350.0   60.0   33.333333333333336
300.0   60.0   50.0
350.0   90.0   50.0
350.0   60.0   33.333333333333336
300.0   90.0   33.333333333333336
300.0   90.0   0.0
350.0   90.0   0.0
300.0   120.0   0.0
300.0   90.0   16.666666666666668
350.0   90.0   0.0
350.0   120.0   0.0
300.0   120.0   0.0
350.0   120.0   16.666666666666668
300.0   90.0   16.666666666666668
300.0   120.0   16.666666666666668
350.0   120.0   16.666666666666668
300.0   120.0   0.0
300.0   90.0   16.666666666666668
350.0   120.0   16.666666666666668
350.0   90.0   16.666666666666668
350.0   90.0   0.0
300.0   90.0   16.666666666666668
350.0   120.0   16.666666666666668
350.0   90.0   0.0
300.0   120.0   0.0
300.0   90.0   16.666666666666668
350.0   90.0   16.666666666666668
300.0   120.0   16.666666666666668
300.0   90.0   33.333333333333336
350.0   90.0   16.666666666666668
350.0   120.0   16.666666666666668
300.0   120.0   16.666666666666668
350.0   120.0   33.333333333333336
300.0   90.0   33.333333333333336
300.0   120.0   33.333333333333336
350.0   120.0   33.333333333333336
300.0   120.0   16.666666666666668
300.0   90.0   33.333333333333336
350.0   120.0   33.333333333333336
350.0   90.0   33.333333333333336
350.0   90.0   16.666666666666668
300.0   90.0   33.333333333333336
350.0   120.0   33.333333333333336
350.0   90.0   16.666666666666668
300.0   120.0   16.666666666666668
300.0   90.0   33.333333333333336
350.0   90.0   33.333333333333336
300.0   120.0   33.333333333333336
300.0   90.0   50.0
350.0   90.0   33.333333333333336
350.0   120.0   33.333333333333336
300.0   120.0   33.333333333333336
350.0   120.0   50.0
300.0   90.0   50.0
300.0   120.0   50.0
350.0   120.0   50.0
300.0   120.0   33.333333333333336
300.0   90.0   50.0
350.0   120.0   50.0
350.0   90.0   50.0
350.0   90.0   33.333333333333336
300.0   90.0   50.0
350.0   120.0   50.0
350.0   90.0   33.333333333333336
300.0   120.0   33.333333333333336
300.0   120.0   0.0
350.0   120.0   0.0
300.0   150.0   0.0
300.0   120.0   16.666666666666668
350.0   120.0   0.0
350.0   150.0   0.0
300.0   150.0   0.0
350.0   150.0   16.666666666666668
300.0   120.0   16.666666666666668
300.0   150.0   16.666666666666668
350.0   150.0   16.666666666666668
300.0   150.0   0.0
300.0   120.0   16.666666666666668
350.0   150.0   16.666666666666668
350.0   120.0   16.666666666666668
350.0   120.0   0.0
300.0   120.0   16.666666666666668
350.0   150.0   16.666666666666668
350.0   120.0   0.0
300.0   150.0   0.0
300.0   120.0   16.666666666666668
350.0   120.0   16.666666666666668
300.0   150.0   16.666666666666668
300.0   120.0   33.333333333333336
350.0   120.0   16.666666666666668
350.0   150.0   16.666666666666668
300.0   150.0   16.666666666666668
350.0   150.0   33.333333333333336
300.0   120.0   33.333333333333336
300.0   150.0   33.333333333333336
350.0   150.0   33.333333333333336
300.0   150.0   16.666666666666668
300.0   120.0   33.333333333333336
350.0   150.0   33.333333333333336
350.0   120.0   33.333333333333336
350.0   120.0   16.666666666666668
300.0   120.0   33.333333333333336
350.0   150.0   33.333333333333336
350.0   120.0   16.666666666666668
300.0   150.0   16.666666666666668
300.0   120.0   33.333333333333336
350.0   120.0   33.333333333333336
300.0   150.0   33.333333333333336
300.0   120.0   50.0
350.0   120.0   33.333333333333336
350.0   150.0   33.333333333333336
300.0   150.0   33.333333333333336
350.0   150.0   50.0
300.0   120.0   50.0
300.0   150.0   50.0
350.0   150.0   50.0
300.0   150.0   33.333333333333336
300.0   120.0   50.0
350.0   150.0   50.0
350.0   120.0   50.0
350.0   120.0   33.333333333333336
300.0   120.0   50.0
350.0   150.0   50.0
350.0   120.0   33.333333333333336
300.0   150.0   33.333333333333336
350.0   0.0   0.0
400.0   0.0   0.0
350.0   30.0   0.0
350.0   0.0   16.666666666666668
400.0   0.0   0.0
400.0   30.0   0.0
350.0   30.0   0.0
400.0   30.0   16.666666666666668
350.0   0.0   16.666666666666668
350.0   30.0   16.666666666666668
400.0   30.0   16.666666666666668
350.0   30.0   0.0
350.0   0.0   16.666666666666668
400.0   30.0   16.666666666666668
400.0   0.0   16.666666666666668
400.0   0.0   0.0
350.0   0.0   16.666666666666668
400.0   30.0   16.666666666666668
400.0   0.0   0.0
350.0   30.0   0.0
350.0   0.0   16.666666666666668
400.0   0.0   16.666666666666668
350.0   30.0   16.666666666666668
350.0   0.0   33.333333333333336
400.0   0.0   16.666666666666668
400.0   30.0   16.666666666666668
350.0   30.0   16.666666666666668
400.0   30.0   33.333333333333336
350.0   0.0   33.333333333333336
350.0   30.0   33.333333333333336
400.0   30.0   33.333333333333336
350.0   30.0   16.666666666666668
350.0   0.0   33.333333333333336
400.0   30.0   33.333333333333336
400.0   0.0   33.333333333333336
400.0   0.0   16.666666666666668
350.0   0.0   33.333333333333336
400.0   30.0   33.333333333333336
400.0   0.0   16.666666666666668
350.0   30.0   16.666666666666668
350.0   0.0   33.333333333333336
400.0   0.0   33.333333333333336
350.0   30.0   33.333333333333336
350.0   0.0   50.0
400.0   0.0   33.333333333333336
400.0   30.0   33.333333333333336
350.0   30.0   33.333333333333336
400.0   30.0   50.0
350.0   0.0   50.0
350.0   30.0   50.0
400.0   30.0   50.0
350.0   30.0   33.333333333333336
350.0   0.0   50.0
400.0   30.0   50.0
400.0   0.0   50.0
400.0   0.0   33.333333333333336
350.0   0.0   50.0
400.0   30.0   50.0
400.0   0.0   33.333333333333336
350.0   30.0   33.333333333333336
350.0   30.0   0.0
400.0   30.0   0.0
350.0   60.0   0.0
350.0   30.0   16.666666666666668
400.0   30.0   0.0
400.0   60.0   0.0
350.0   60.0   0.0
400.0   60.0   16.666666666666668
350.0   30.0   16.666666666666668
350.0   60.0   16.666666666666668
400.0   60.0   16.666666666666668
350.0   60.0   0.0
350.0   30.0   16.666666666666668
400.0   60.0   16.666666666666668
400.0   30.0   16.666666666666668
400.0   30.0   0.0
350.0   30.0   16.666666666666668
400.0   60.0   16.666666666666668
400.0   30.0   0.0
350.0   60.0   0.0
350.0   30.0   16.666666666666668
400.0   30.0   16.666666666666668
350.0   60.0   16.666666666666668
350.0   30.0   33.333333333333336
400.0   30.0   16.666666666666668
400.0   60.0   16.666666666666668
350.0   60.0   16.666666666666668
400.0   60.0   33.333333333333336
350.0   30.0   33.333333333333336
350.0   60.0   33.333333333333336
400.0   60.0   33.333333333333336
350.0   60.0   16.666666666666668
350.0   30.0   33.333333333333336
400.0   60.0   33.333333333333336
400.0   30.0   33.333333333333336
400.0   30.0   16.666666666666668
350.0   30.0   33.333333333333336
400.0   60.0   33.333333333333336
400.0   30.0   16.666666666666668
350.0   60.0   16.666666666666668
350.0   30.0   33.333333333333336
400.0   30.0   33.333333333333336
350.0   60.0   33.333333333333336
350.0   30.0   50.0
400.0   30.0   33.333333333333336
400.0   60.0   33.333333333333336
350.0   60.0   33.333333333333336
400.0   60.0   50.0
350.0   30.0   50.0
350.0   60.0   50.0
400.0   60.0   50.0
350.0   60.0   33.333333333333336
350.0   30.0   50.0
400.0   60.0   50.0
400.0   30.0   50.0
400.0   30.0   33.333333333333336
350.0   30.0   50.0
400.0   60.0   50.0
400.0   30.0   33.333333333333336
350.0   60.0   33.333333333333336
350.0   60.0   0.0
400.0   60.0   0.0
350.0   90.0   0.0
350.0   60.0   16.666666666666668
400.0   60.0   0.0
400.0   90.0   0.0
350.0   90.0   0.0
400.0   90.0   16.666666666666668
350.0   60.0   16.666666666666668
350.0   90.0   16.666666666666668
400.0   90.0   16.666666666666668
350.0   90.0   0.0
350.0   60.0   16.666666666666668
400.0   90.0   16.666666666666668
400.0   60.0   16.666666666666668
400.0   60.0   0.0
350.0   60.0   16.666666666666668
400.0   90.0   16.666666666666668
400.0   60.0   0.0
350.0   90.0   0.0
350.0   60.0   16.666666666666668
400.0   60.0   16.666666666666668
350.0   90.0   16.666666666666668
350.0   60.0   33.333333333333336
400.0   60.0   16.666666666666668
400.0   90.0   16.666666666666668
350.0   90.0   16.666666666666668
400.0   90.0   33.333333333333336
350.0   60.0   33.333333333333336
350.0   90.0   33.333333333333336
400.0   90.0   33.333333333333336
350.0   90.0   16.666666666666668
350.0   60.0   33.333333333333336
400.0   90.0   33.333333333333336
400.0   60.0   33.333333333333336
400.0   60.0   16.666666666666668
350.0   60.0   33.333333333333336
400.0   90.0   33.333333333333336
400.0   60.0   16.666666666666668
350.0   90.0   16.666666666666668
350.0   60.0   33.333333333333336
400.0   60.0   33.333333333333336
350.0   90.0   33.333333333333336
350.0   60.0   50.0
400.0   60.0   33.333333333333336
400.0   90.0   33.333333333333336
350.0   90.0   33.333333333333336
400.0   90.0   50.0
350.0   60.0   50.0
350.0   90.0   50.0
400.0   90.0   50.0
350.0   90.0   33.333333333333336
350.0   60.0   50.0
400.0   90.0   50.0
400.0   60.0   50.0
400.0   60.0   33.333333333333336
350.0   60.0   50.0
400.0   90.0   50.0
400.0   60.0   33.333333333333336
350.0   90.0   33.333333333333336
350.0   90.0   0.0
400.0   90.0   0.0
350.0   120.0   0.0
350.0   90.0   16.666666666666668
400.0   90.0   0.0
400.0   120.0   0.0
350.0   120.0   0.0
400.0   120.0   16.666666666666668
350.0   90.0   16.666666666666668
350.0   120.0   16.666666666666668
400.0   120.0   16.666666666666668
350.0   120.0   0.0
350.0   90.0   16.666666666666668
400.0   120.0   16.666666666666668
400.0   90.0   16.666666666666668
400.0   90.0   0.0
350.0   90.0   16.666666666666668
400.0   120.0   16.666666666666668
400.0   90.0   0.0
350.0   120.0   0.0
350.0   90.0   16.666666666666668
400.0   90.0   16.666666666666668
350.0   120.0   16.666666666666668
350.0   90.0   33.333333333333336
400.0   90.0   16.666666666666668
400.0   120.0   16.666666666666668
350.0   120.0   16.666666666666668
400.0   120.0   33.333333333333336
350.0   90.0   33.333333333333336
350.0   120.0   33.333333333333336
400.0   120.0   33.333333333333336
350.0   120.0   16.666666666666668
350.0   90.0   33.333333333333336
400.0   120.0   33.333333333333336
400.0   90.0   33.333333333333336
400.0   90.0   16.666666666666668
350.0   90.0   33.333333333333336
400.0   120.0   33.333333333333336
400.0   90.0   16.666666666666668
350.0   120.0   16.666666666666668
350.0   90.0   33.333333333333336
400.0   90.0   33.333333333333336
350.0   120.0   33.333333333333336
350.0   90.0   50.0
400.0   90.0   33.333333333333336
400.0   120.0   33.333333333333336
350.0   120.0   33.333333333333336
400.0   120.0   50.0
350.0   90.0   50.0
350.0   120.0   50.0
400.0   120.0   50.0
350.0   120.0   33.333333333333336
350.0   90.0   50.0
400.0   120.0   50.0
400.0   90.0   50.0
400.0   90.0   33.333333333333336
350.0   90.0   50.0
400.0   120.0   50.0
400.0   90.0   33.333333333333336
350.0   120.0   33.333333333333336
350.0   120.0   0.0
400.0   120.0   0.0
350.0   150.0   0.0
350.0   120.0   16.666666666666668
400.0   120.0   0.0
400.0   150.0   0.0
350.0   150.0   0.0
400.0   150.0   16.666666666666668
350.0   120.0   16.666666666666668
350.0   150.0   16.666666666666668
400.0   150.0   16.666666666666668
350.0   150.0   0.0
350.0   120.0   16.666666666666668
400.0   150.0   16.666666666666668
400.0   120.0   16.666666666666668
400.0   120.0   0.0
350.0   120.0   16.666666666666668
400.0   150.0   16.666666666666668
400.0   120.0   0.0
350.0   150.0   0.0
350.0   120.0   16.666666666666668
400.0   120.0   16.666666666666668
350.0   150.0   16.666666666666668
350.0   120.0   33.333333333333336
400.0   120.0   16.666666666666668
400.0   150.0   16.666666666666668
350.0   150.0   16.666666666666668
400.0   150.0   33.333333333333336
350.0   120.0   33.333333333333336
350.0   150.0   33.333333333333336
400.0   150.0   33.333333333333336
350.0   150.0   16.666666666666668
350.0   120.0   33.333333333333336
400.0   150.0   33.333333333333336
400.0   120.0   33.333333333333336
400.0   120.0   16.666666666666668
350.0   120.0   33.333333333333336
400.0   150.0   33.333333333333336
400.0   120.0   16.666666666666668
350.0   150.0   16.666666666666668
350.0   120.0   33.333333333333336
400.0   120.0   33.333333333333336
350.0   150.0   33.333333333333336
350.0   120.0   50.0
400.0   120.0   33.333333333333336
400.0   150.0   33.333333333333336
350.0   150.0   33.333333333333336
400.0   150.0   50.0
350.0   120.0   50.0
350.0   150.0   50.0
400.0   150.0   50.0
350.0   150.0   33.333333333333336
350.0   120.0   50.0
400.0   150.0   50.0
400.0   120.0   50.0
400.0   120.0   33.333333333333336
350.0   120.0   50.0
400.0   150.0   50.0
400.0   120.0   33.333333333333336
350.0   150.0   33.333333333333336
400.0   0.0   0.0
450.0   0.0   0.0
400.0   30.0   0.0
400.0   0.0   16.666666666666668
450.0   0.0   0.0
450.0   30.0   0.0
400.0   30.0   0.0
450.0   30.0   16.666666666666668
400.0   0.0   16.666666666666668
400.0   30.0   16.666666666666668
450.0   30.0   16.666666666666668
400.0   30.0   0.0
400.0   0.0   16.666666666666668
450.0   30.0   16.666666666666668
450.0   0.0   16.666666666666668
450.0   0.0   0.0
400.0   0.0   16.666666666666668
450.0   30.0   16.666666666666668
450.0   0.0   0.0
400.0   30.0   0.0
400.0   0.0   16.666666666666668
450.0   0.0   16.666666666666668
400.0   30.0   16.666666666666668
400.0   0.0   33.333333333333336
450.0   0.0   16.666666666666668
450.0   30.0   16.666666666666668
400.0   30.0   16.666666666666668
450.0   30.0   33.333333333333336
400.0   0.0   33.333333333333336
400.0   30.0   33.333333333333336
450.0   30.0   33.333333333333336
400.0   30.0   16.666666666666668
400.0   0.0   33.333333333333336
450.0   30.0   33.333333333333336
450.0   0.0   33.333333333333336
450.0   0.0   16.666666666666668
400.0   0.0   33.333333333333336
450.0   30.0   33.333333333333336
450.0   0.0   16.666666666666668
400.0   30.0   16.666666666666668
400.0   0.0   33.333333333333336
450.0   0.0   33.333333333333336
400.0   30.0   33.333333333333336
400.0   0.0   50.0
450.0   0.0   33.333333333333336
450.0   30.0   33.333333333333336
400.0   30.0   33.333333333333336
450.0   30.0   50.0
400.0   0.0   50.0
400.0   30.0   50.0
450.0   30.0   50.0
400.0   30.0   33.333333333333336
400.0   0.0   50.0
450.0   30.0   50.0
450.0   0.0   50.0
450.0   0.0   33.333333333333336
400.0   0.0   50.0
450.0   30.0   50.0
450.0   0.0   33.333333333333336
400.0   30.0   33.333333333333336
400.0   30.0   0.0
450.0   30.0   0.0
400.0   60.0   0.0
400.0   30.0   16.666666666666668
450.0   30.0   0.0
450.0   60.0   0.0
400.0   60.0   0.0
450.0   60.0   16.666666666666668
400.0   30.0   16.666666666666668
400.0   60.0   16.666666666666668
450.0   60.0   16.666666666666668
400.0   60.0   0.0
400.0   30.0   16.666666666666668
450.0   60.0   16.666666666666668
450.0   30.0   16.666666666666668
450.0   30.0   0.0
400.0   30.0   16.666666666666668
450.0   60.0   16.666666666666668
450.0   30.0   0.0
400.0   60.0   0.0
400.0   30.0   16.666666666666668
450.0   30.0   16.666666666666668
400.0   60.0   16.666666666666668
400.0   30.0   33.333333333333336
450.0   30.0   16.666666666666668
450.0   60.0   16.666666666666668
400.0   60.0   16.666666666666668
450.0   60.0   33.333333333333336
400.0   30.0   33.333333333333336
400.0   60.0   33.333333333333336
450.0   60.0   33.333333333333336
400.0   60.0   16.666666666666668
400.0   30.0   33.333333333333336
450.0   60.0   33.333333333333336
450.0   30.0   33.333333333333336
450.0   30.0   16.666666666666668
400.0   30.0   33.333333333333336
450.0   60.0   33.333333333333336
450.0   30.0   16.666666666666668
400.0   60.0   16.666666666666668
400.0   30.0   33.333333333333336
450.0   30.0   33.333333333333336
400.0   60.0   33.333333333333336
400.0   30.0   50.0
450.0   30.0   33.333333333333336
450.0   60.0   33.333333333333336
400.0   60.0   33.333333333333336
450.0   60.0   50.0
400.0   30.0   50.0
400.0   60.0   50.0
450.0   60.0   50.0
400.0   60.0   33.333333333333336
400.0   30.0   50.0
450.0   60.0   50.0
450.0   30.0   50.0
450.0   30.0   33.333333333333336
400.0   30.0   50.0
450.0   60.0   50.0
450.0   30.0   33.333333333333336
400.0   60.0   33.333333333333336
400.0   60.0   0.0
450.0   60.0   0.0
400.0   90.0   0.0
400.0   60.0   16.666666666666668
450.0   60.0   0.0
450.0   90.0   0.0
400.0   90.0   0.0
450.0   90.0   16.666666666666668
400.0   60.0   16.666666666666668
400.0   90.0   16.666666666666668
450.0   90.0   16.666666666666668
400.0   90.0   0.0
400.0   60.0   16.666666666666668
450.0   90.0   16.666666666666668
450.0   60.0   16.666666666666668
450.0   60.0   0.0
400.0   60.0   16.666666666666668
450.0   90.0   16.666666666666668
450.0   60.0   0.0
400.0   90.0   0.0
400.0   60.0   16.666666666666668
450.0   60.0   16.666666666666668
400.0   90.0   16.666666666666668
400.0   60.0   33.333333333333336
450.0   60.0   16.666666666666668
450.0   90.0   16.666666666666668
400.0   90.0   16.666666666666668
450.0   90.0   33.333333333333336
400.0   60.0   33.333333333333336
400.0   90.0   33.333333333333336
450.0   90.0   33.333333333333336
400.0   90.0   16.666666666666668
400.0   60.0   33.333333333333336
450.0   90.0   33.333333333333336
450.0   60.0   33.333333333333336
450.0   60.0   16.666666666666668
400.0   60.0   33.333333333333336
450.0   90.0   33.333333333333336
450.0   60.0   16.666666666666668
400.0   90.0   16.666666666666668
400.0   60.0   33.333333333333336
450.0   60.0   33.333333333333336
400.0   90.0   33.333333333333336
400.0   60.0   50.0
450.0   60.0   33.333333333333336
450.0   90.0   33.333333333333336
400.0   90.0   33.333333333333336
450.0   90.0   50.0
400.0   60.0   50.0
400.0   90.0   50.0
450.0   90.0   50.0
400.0   90.0   33.333333333333336
400.0   60.0   50.0
450.0   90.0   50.0
450.0   60.0   50.0
450.0   60.0   33.333333333333336
400.0   60.0   50.0
450.0   90.0   50.0
450.0   60.0   33.333333333333336
400.0   90.0   33.333333333333336
400.0   90.0   0.0
450.0   90.0   0.0
400.0   120.0   0.0
400.0   90.0   16.666666666666668
450.0   90.0   0.0
450.0   120.0   0.0
400.0   120.0   0.0
450.0   120.0   16.666666666666668
400.0   90.0   16.666666666666668
400.0   120.0   16.666666666666668
450.0   120.0   16.666666666666668
400.0   120.0   0.0
400.0   90.0   16.666666666666668
450.0   120.0   16.666666666666668
450.0   90.0   16.666666666666668
450.0   90.0   0.0
400.0   90.0   16.666666666666668
450.0   120.0   16.666666666666668
450.0   90.0   0.0
400.0   120.0   0.0
400.0   90.0   16.666666666666668
450.0   90.0   16.666666666666668
400.0   120.0   16.666666666666668
400.0   90.0   33.333333333333336
450.0   90.0   16.666666666666668
450.0   120.0   16.666666666666668
400.0   120.0   16.666666666666668
450.0   120.0   33.333333333333336
400.0   90.0   33.333333333333336
400.0   120.0   33.333333333333336
450.0   120.0   33.333333333333336
400.0   120.0   16.666666666666668
400.0   90.0   33.333333333333336
450.0   120.0   33.333333333333336
450.0   90.0   33.333333333333336
450.0   90.0   16.666666666666668
400.0   90.0   33.333333333333336
450.0   120.0   33.333333333333336
450.0   90.0   16.666666666666668
400.0   120.0   16.666666666666668
400.0   90.0   33.333333333333336
450.0   90.0   33.333333333333336
400.0   120.0   33.333333333333336
400.0   90.0   50.0
450.0   90.0   33.333333333333336
450.0   120.0   33.333333333333336
400.0   120.0   33.333333333333336
450.0   120.0   50.0
400.0   90.0   50.0
400.0   120.0   50.0
450.0   120.0   50.0
400.0   120.0   33.333333333333336
400.0   90.0   50.0
450.0   120.0   50.0
450.0   90.0   50.0
450.0   90.0   33.333333333333336
400.0   90.0   50.0
450.0   120.0   50.0
450.0   90.0   33.333333333333336
400.0   120.0   33.333333333333336
400.0   120.0   0.0
450.0   120.0   0.0
400.0   150.0   0.0
400.0   120.0   16.666666666666668
450.0   120.0   0.0
450.0   150.0   0.0
400.0   150.0   0.0
450.0   150.0   16.666666666666668
400.0   120.0   16.666666666666668
400.0   150.0   16.666666666666668
450.0   150.0   16.666666666666668
400.0   150.0   0.0
400.0   120.0   16.666666666666668
450.0   150.0   16.666666666666668
450.0   120.0   16.666666666666668
450.0   120.0   0.0
400.0   120.0   16.666666666666668
450.0   150.0   16.666666666666668
450.0   120.0   0.0
400.0   150.0   0.0
400.0   120.0   16.666666666666668
450.0   120.0   16.666666666666668
400.0   150.0   16.666666666666668
400.0   120.0   33.333333333333336
450.0   120.0   16.666666666666668
450.0   150.0   16.666666666666668
400.0   150.0   16.666666666666668
450.0   150.0   33.333333333333336
400.0   120.0   33.333333333333336
400.0   150.0   33.333333333333336
450.0   150.0   33.333333333333336
400.0   150.0   16.666666666666668
400.0   120.0   33.333333333333336
450.0   150.0   33.333333333333336
450.0   120.0   33.333333333333336
450.0   120.0   16.666666666666668
400.0   120.0   33.333333333333336
450.0   150.0   33.333333333333336
450.0   120.0   16.666666666666668
400.0   150.0   16.666666666666668
400.0   120.0   33.333333333333336
450.0   120.0   33.333333333333336
400.0   150.0   33.333333333333336
400.0   120.0   50.0
450.0   120.0   33.333333333333336
450.0   150.0   33.333333333333336
400.0   150.0   33.333333333333336
450.0   150.0   50.0
400.0   120.0   50.0
400.0   150.0   50.0
450.0   150.0   50.0
400.0   150.0   33.333333333333336
400.0   120.0   50.0
450.0   150.0   50.0
450.0   120.0   50.0
450.0   120.0   33.333333333333336
400.0   120.0   50.0
450.0   150.0   50.0
450.0   120.0   33.333333333333336
400.0   150.0   33.333333333333336
450.0   0.0   0.0
500.0   0.0   0.0
450.0   30.0   0.0
450.0   0.0   16.666666666666668
500.0   0.0   0.0
500.0   30.0   0.0
450.0   30.0   0.0
500.0   30.0   16.666666666666668
450.0   0.0   16.666666666666668
450.0   30.0   16.666666666666668
500.0   30.0   16.666666666666668
450.0   30.0   0.0
450.0   0.0   16.666666666666668
500.0   30.0   16.666666666666668
500.0   0.0   16.666666666666668
500.0   0.0   0.0
450.0   0.0   16.666666666666668
500.0   30.0   16.666666666666668
500.0   0.0   0.0
450.0   30.0   0.0
450.0   0.0   16.666666666666668
500.0   0.0   16.666666666666668
450.0   30.0   16.666666666666668
450.0   0.0   33.333333333333336
500.0   0.0   16.666666666666668
500.0   30.0   16.666666666666668
450.0   30.0   16.666666666666668
500.0   30.0   33.333333333333336
450.0   0.0   33.333333333333336
450.0   30.0   33.333333333333336
500.0   30.0   33.333333333333336
450.0   30.0   16.666666666666668
450.0   0.0   33.333333333333336
500.0   30.0   33.333333333333336
500.0   0.0   33.333333333333336
500.0   0.0   16.666666666666668
450.0   0.0   33.333333333333336
500.0   30.0   33.333333333333336
500.0   0.0   16.666666666666668
450.0   30.0   16.666666666666668
450.0   0.0   33.333333333333336
500.0   0.0   33.333333333333336
450.0   30.0   33.333333333333336
450.0   0.0   50.0
500.0   0.0   33.333333333333336
500.0   30.0   33.333333333333336
450.0   30.0   33.333333333333336
500.0   30.0   50.0
450.0   0.0   50.0
450.0   30.0   50.0
500.0   30.0   50.0
450.0   30.0   33.333333333333336
450.0   0.0   50.0
500.0   30.0   50.0
500.0   0.0   50.0
500.0   0.0   33.333333333333336
450.0   0.0   50.0
500.0   30.0   50.0
500.0   0.0   33.333333333333336
450.0   30.0   33.333333333333336
450.0   30.0   0.0
500.0   30.0   0.0
450.0   60.0   0.0
450.0   30.0   16.666666666666668
500.0   30.0   0.0
500.0   60.0   0.0
450.0   60.0   0.0
500.0   60.0   16.666666666666668
450.0   30.0   16.666666666666668
450.0   60.0   16.666666666666668
500.0   60.0   16.666666666666668
450.0   60.0   0.0
450.0   30.0   16.666666666666668
500.0   60.0   16.666666666666668
500.0   30.0   16.666666666666668
500.0   30.0   0.0
450.0   30.0   16.666666666666668
500.0   60.0   16.666666666666668
500.0   30.0   0.0
450.0   60.0   0.0
450.0   30.0   16.666666666666668
500.0   30.0   16.666666666666668
450.0   60.0   16.666666666666668
450.0   30.0   33.333333333333336
500.0   30.0   16.666666666666668
500.0   60.0   16.666666666666668
450.0   60.0   16.666666666666668
500.0   60.0   33.333333333333336
450.0   30.0   33.333333333333336
450.0   60.0   33.333333333333336
500.0   60.0   33.333333333333336
450.0   60.0   16.666666666666668
450.0   30.0   33.333333333333336
500.0   60.0   33.333333333333336
500.0   30.0   33.333333333333336
500.0   30.0   16.666666666666668
450.0   30.0   33.333333333333336
500.0   60.0   33.333333333333336
500.0   30.0   16.666666666666668
450.0   60.0   16.666666666666668
450.0   30.0   33.333333333333336
500.0   30.0   33.333333333333336
450.0   60.0   33.333333333333336
450.0   30.0   50.0
500.0   30.0   33.333333333333336
500.0   60.0   33.333333333333336
450.0   60.0   33.333333333333336
500.0   60.0   50.0
450.0   30.0   50.0
450.0   60.0   50.0
500.0   60.0   50.0
450.0   60.0   33.333333333333336
450.0   30.0   50.0
500.0   60.0   50.0
500.0   30.0   50.0
500.0   30.0   33.333333333333336
450.0   30.0   50.0
500.0   60.0   50.0
500.0   30.0   33.333333333333336
450.0   60.0   33.333333333333336
450.0   60.0   0.0
500.0   60.0   0.0
450.0   90.0   0.0
450.0   60.0   16.666666666666668
500.0   60.0   0.0
500.0   90.0   0.0
450.0   90.0   0.0
500.0   90.0   16.666666666666668
450.0   60.0   16.666666666666668
450.0   90.0   16.666666666666668
500.0   90.0   16.666666666666668
450.0   90.0   0.0
450.0   60.0   16.666666666666668
500.0   90.0   16.666666666666668
500.0   60.0   16.666666666666668
500.0   60.0   0.0
450.0   60.0   16.666666666666668
500.0   90.0   16.666666666666668
500.0   60.0   0.0
450.0   90.0   0.0
450.0   60.0   16.666666666666668
500.0   60.0   16.666666666666668
450.0   90.0   16.666666666666668
450.0   60.0   33.333333333333336
500.0   60.0   16.666666666666668
500.0   90.0   16.666666666666668
450.0   90.0   16.666666666666668
500.0   90.0   33.333333333333336
450.0   60.0   33.333333333333336
450.0   90.0   33.333333333333336
500.0   90.0   33.333333333333336
450.0   90.0   16.666666666666668
450.0   60.0   33.333333333333336
500.0   90.0   33.333333333333336
500.0   60.0   33.333333333333336
500.0   60.0   16.666666666666668
450.0   60.0   33.333333333333336
500.0   90.0   33.333333333333336
500.0   60.0   16.666666666666668
450.0   90.0   16.666666666666668
450.0   60.0   33.333333333333336
500.0   60.0   33.333333333333336
450.0   90.0   33.333333333333336
450.0   60.0   50.0
500.0   60.0   33.333333333333336
500.0   90.0   33.333333333333336
450.0   90.0   33.333333333333336
500.0   90.0   50.0
450.0   60.0   50.0
450.0   90.0   50.0
500.0   90.0   50.0
450.0   90.0   33.333333333333336
450.0   60.0   50.0
500.0   90.0   50.0
500.0   60.0   50.0
500.0   60.0   33.333333333333336
450.0   60.0   50.0
500.0   90.0   50.0
500.0   60.0   33.333333333333336
450.0   90.0   33.333333333333336
450.0   90.0   0.0
500.0   90.0   0.0
450.0   120.0   0.0
450.0   90.0   16.666666666666668
500.0   90.0   0.0
500.0   120.0   0.0
450.0   120.0   0.0
500.0   120.0   16.666666666666668
450.0   90.0   16.666666666666668
450.0   120.0   16.666666666666668
500.0   120.0   16.666666666666668
450.0   120.0   0.0
450.0   90.0   16.666666666666668
500.0   120.0   16.666666666666668
500.0   90.0   16.666666666666668
500.0   90.0   0.0
450.0   90.0   16.666666666666668
500.0   120.0   16.666666666666668
500.0   90.0   0.0
450.0   120.0   0.0
450.0   90.0   16.666666666666668
500.0   90.0   16.666666666666668
450.0   120.0   16.666666666666668
450.0   90.0   33.333333333333336
500.0   90.0   16.666666666666668
500.0   120.0   16.666666666666668
450.0   120.0   16.666666666666668
500.0   120.0   33.333333333333336
450.0   90.0   33.333333333333336
450.0   120.0   33.333333333333336
500.0   120.0   33.333333333333336
450.0   120.0   16.666666666666668
450.0   90.0   33.333333333333336
500.0   120.0   33.333333333333336
500.0   90.0   33.333333333333336
500.0   90.0   16.666666666666668
450.0   90.0   33.333333333333336
500.0   120.0   33.333333333333336
500.0   90.0   16.666666666666668
450.0   120.0   16.666666666666668
450.0   90.0   33.333333333333336
500.0   90.0   33.333333333333336
450.0   120.0   33.333333333333336
450.0   90.0   50.0
500.0   90.0   33.333333333333336
500.0   120.0   33.333333333333336
450.0   120.0   33.333333333333336
500.0   120.0   50.0
450.0   90.0   50.0
450.0   120.0   50.0
500.0   120.0   50.0
450.0   120.0   33.333333333333336
450.0   90.0   50.0
500.0   120.0   50.0
500.0   90.0   50.0
500.0   90.0   33.333333333333336
450.0   90.0   50.0
500.0   120.0   50.0
500.0   90.0   33.333333333333336
450.0   120.0   33.333333333333336
450.0   120.0   0.0
500.0   120.0   0.0
450.0   150.0   0.0
450.0   120.0   16.666666666666668
500.0   120.0   0.0
500.0   150.0   0.0
450.0   150.0   0.0
500.0   150.0   16.666666666666668
450.0   120.0   16.666666666666668
450.0   150.0   16.666666666666668
500.0   150.0   16.666666666666668
450.0   150.0   0.0
450.0   120.0   16.666666666666668
500.0   150.0   16.666666666666668
500.0   120.0   16.666666666666668
500.0   120.0   0.0
450.0   120.0   16.666666666666668
500.0   150.0   16.666666666666668
500.0   120.0   0.0
450.0   150.0   0.0
450.0   120.0   16.666666666666668
500.0   120.0   16.666666666666668
450.0   150.0   16.666666666666668
450.0   120.0   33.333333333333336
500.0   120.0   16.666666666666668
500.0   150.0   16.666666666666668
450.0   150.0   16.666666666666668
500.0   150.0   33.333333333333336
450.0   120.0   33.333333333333336
450.0   150.0   33.333333333333336
500.0   150.0   33.333333333333336
450.0   150.0   16.666666666666668
450.0   120.0   33.333333333333336
500.0   150.0   33.333333333333336
500.0   120.0   33.333333333333336
500.0   120.0   16.666666666666668
450.0   120.0   33.333333333333336
500.0   150.0   33.333333333333336
500.0   120.0   16.666666666666668
450.0   150.0   16.666666666666668
450.0   120.0   33.333333333333336
500.0   120.0   33.333333333333336
450.0   150.0   33.333333333333336
450.0   120.0   50.0
500.0   120.0   33.333333333333336
500.0   150.0   33.333333333333336
450.0   150.0   33.333333333333336
500.0   150.0   50.0
450.0   120.0   50.0
450.0   150.0   50.0
500.0   150.0   50.0
450.0   150.0   33.333333333333336
450.0   120.0   50.0
500.0   150.0   50.0
500.0   120.0   50.0
500.0   120.0   33.333333333333336
450.0   120.0   50.0
500.0   150.0   50.0
500.0   120.0   33.333333333333336
450.0   150.0   33.333333333333336
             </DataArray>   
          </Points>  
          <Cells>  
             <DataArray type="Int32" Name="connectivity" format="ascii">   
0   1   2   3
4   5   6   7
8   9   10   11
12   13   14   15
16   17   18   19
20   21   22   23
24   25   26   27
28   29   30   31
32   33   34   35
36   37   38   39
40   41   42   43
44   45   46   47
48   49   50   51
52   53   54   55
56   57   58   59
60   61   62   63
64   65   66   67
68   69   70   71
72   73   74   75
76   77   78   79
80   81   82   83
84   85   86   87
88   89   90   91
92   93   94   95
96   97   98   99
100   101   102   103
104   105   106   107
108   109   110   111
112   113   114   115
116   117   118   119
120   121   122   123
124   125   126   127
128   129   130   131
132   133   134   135
136   137   138   139
140   141   142   143
144   145   146   147
148   149   150   151
152   153   154   155
156   157   158   159
160   161   162   163
164   165   166   167
168   169   170   171
172   173   174   175
176   177   178   179
180   181   182   183
184   185   186   187
188   189   190   191
192   193   194   195
196   197   198   199
200   201   202   203
204   205   206   207
208   209   210   211
212   213   214   215
216   217   218   219
220   221   222   223
224   225   226   227
228   229   230   231
232   233   234   235
236   237   238   239
240   241   242   243
244   245   246   247
248   249   250   251
252   253   254   255
256   257   258   259
260   261   262   263
264   265   266   267
268   269   270   271
272   273   274   275
276   277   278   279
280   281   282   283
284   285   286   287
288   289   290   291
292   293   294   295
296   297   298   299
300   301   302   303
304   305   306   307
308   309   310   311
312   313   314   315
316   317   318   319
320   321   322   323
324   325   326   327
328   329   330   331
332   333   334   335
336   337   338   339
340   341   342   343
344   345   346   347
348   349   350   351
352   353   354   355
356   357   358   359
360   361   362   363
364   365   366   367
368   369   370   371
372   373   374   375
376   377   378   379
380   381   382   383
384   385   386   387
388   389   390   391
392   393   394   395
396   397   398   399
400   401   402   403
404   405   406   407
408   409   410   411
412   413   414   415
416   417   418   419
420   421   422   423
424   425   426   427
428   429   430   431
432   433   434   435
436   437   438   439
440   441   442   443
444   445   446   447
448   449   450   451
452   453   454   455
456   457   458   459
460   461   462   463
464   465   466   467
468   469   470   471
472   473   474   475
476   477   478   479
480   481   482   483
484   485   486   487
488   489   490   491
492   493   494   495
496   497   498   499
500   501   502   503
504   505   506   507
508   509   510   511
512   513   514   515
516   517   518   519
520   521   522   523
524   525   526   527
528   529   530   531
532   533   534   535
536   537   538   539
540   541   542   543
544   545   546   547
548   549   550   551
552   553   554   555
556   557   558   559
560   561   562   563
564   565   566   567
568   569   570   571
572   573   574   575
576   577   578   579
580   581   582   583
584   585   586   587
588   589   590   591
592   593   594   595
596   597   598   599
600   601   602   603
604   605   606   607
608   609   610   611
612   613   614   615
616   617   618   619
620   621   622   623
624   625   626   627
628   629   630   631
632   633   634   635
636   637   638   639
640   641   642   643
644   645   646   647
648   649   650   651
652   653   654   655
656   657   658   659
660   661   662   663
664   665   666   667
668   669   670   671
672   673   674   675
676   677   678   679
680   681   682   683
684   685   686   687
688   689   690   691
692   693   694   695
696   697   698   699
700   701   702   703
704   705   706   707
708   709   710   711
712   713   714   715
716   717   718   719
720   721   722   723
724   725   726   727
728   729   730   731
732   733   734   735
736   737   738   739
740   741   742   743
744   745   746   747
748   749   750   751
752   753   754   755
756   757   758   759
760   761   762   763
764   765   766   767
768   769   770   771
772   773   774   775
776   777   778   779
780   781   782   783
784   785   786   787
788   789   790   791
792   793   794   795
796   797   798   799
800   801   802   803
804   805   806   807
808   809   810   811
812   813   814   815
816   817   818   819
820   821   822   823
824   825   826   827
828   829   830   831
832   833   834   835
836   837   838   839
840   841   842   843
844   845   846   847
848   849   850   851
852   853   854   855
856   857   858   859
860   861   862   863
864   865   866   867
868   869   870   871
872   873   874   875
876   877   878   879
880   881   882   883
884   885   886   887
888   889   890   891
892   893   894   895
896   897   898   899
900   901   902   903
904   905   906   907
908   909   910   911
912   913   914   915
916   917   918   919
920   921   922   923
924   925   926   927
928   929   930   931
932   933   934   935
936   937   938   939
940   941   942   943
944   945   946   947
948   949   950   951
952   953   954   955
956   957   958   959
960   961   962   963
964   965   966   967
968   969   970   971
972   973   974   975
976   977   978   979
980   981   982   983
984   985   986   987
988   989   990   991
992   993   994   995
996   997   998   999
1000   1001   1002   1003
1004   1005   1006   1007
1008   1009   1010   1011
1012   1013   1014   1015
1016   1017   1018   1019
1020   1021   1022   1023
1024   1025   1026   1027
1028   1029   1030   1031
1032   1033   1034   1035
1036   1037   1038   1039
1040   1041   1042   1043
1044   1045   1046   1047
1048   1049   1050   1051
1052   1053   1054   1055
1056   1057   1058   1059
1060   1061   1062   1063
1064   1065   1066   1067
1068   1069   1070   1071
1072   1073   1074   1075
1076   1077   1078   1079
1080   1081   1082   1083
1084   1085   1086   1087
1088   1089   1090   1091
1092   1093   1094   1095
1096   1097   1098   1099
1100   1101   1102   1103
1104   1105   1106   1107
1108   1109   1110   1111
1112   1113   1114   1115
1116   1117   1118   1119
1120   1121   1122   1123
1124   1125   1126   1127
1128   1129   1130   1131
1132   1133   1134   1135
1136   1137   1138   1139
1140   1141   1142   1143
1144   1145   1146   1147
1148   1149   1150   1151
1152   1153   1154   1155
1156   1157   1158   1159
1160   1161   1162   1163
1164   1165   1166   1167
1168   1169   1170   1171
1172   1173   1174   1175
1176   1177   1178   1179
1180   1181   1182   1183
1184   1185   1186   1187
1188   1189   1190   1191
1192   1193   1194   1195
1196   1197   1198   1199
1200   1201   1202   1203
1204   1205   1206   1207
1208   1209   1210   1211
1212   1213   1214   1215
1216   1217   1218   1219
1220   1221   1222   1223
1224   1225   1226   1227
1228   1229   1230   1231
1232   1233   1234   1235
1236   1237   1238   1239
1240   1241   1242   1243
1244   1245   1246   1247
1248   1249   1250   1251
1252   1253   1254   1255
1256   1257   1258   1259
1260   1261   1262   1263
1264   1265   1266   1267
1268   1269   1270   1271
1272   1273   1274   1275
1276   1277   1278   1279
1280   1281   1282   1283
1284   1285   1286   1287
1288   1289   1290   1291
1292   1293   1294   1295
1296   1297   1298   1299
1300   1301   1302   1303
1304   1305   1306   1307
1308   1309   1310   1311
1312   1313   1314   1315
1316   1317   1318   1319
1320   1321   1322   1323
1324   1325   1326   1327
1328   1329   1330   1331
1332   1333   1334   1335
1336   1337   1338   1339
1340   1341   1342   1343
1344   1345   1346   1347
1348   1349   1350   1351
1352   1353   1354   1355
1356   1357   1358   1359
1360   1361   1362   1363
1364   1365   1366   1367
1368   1369   1370   1371
1372   1373   1374   1375
1376   1377   1378   1379
1380   1381   1382   1383
1384   1385   1386   1387
1388   1389   1390   1391
1392   1393   1394   1395
1396   1397   1398   1399
1400   1401   1402   1403
1404   1405   1406   1407
1408   1409   1410   1411
1412   1413   1414   1415
1416   1417   1418   1419
1420   1421   1422   1423
1424   1425   1426   1427
1428   1429   1430   1431
1432   1433   1434   1435
1436   1437   1438   1439
1440   1441   1442   1443
1444   1445   1446   1447
1448   1449   1450   1451
1452   1453   1454   1455
1456   1457   1458   1459
1460   1461   1462   1463
1464   1465   1466   1467
1468   1469   1470   1471
1472   1473   1474   1475
1476   1477   1478   1479
1480   1481   1482   1483
1484   1485   1486   1487
1488   1489   1490   1491
1492   1493   1494   1495
1496   1497   1498   1499
1500   1501   1502   1503
1504   1505   1506   1507
1508   1509   1510   1511
1512   1513   1514   1515
1516   1517   1518   1519
1520   1521   1522   1523
1524   1525   1526   1527
1528   1529   1530   1531
1532   1533   1534   1535
1536   1537   1538   1539
1540   1541   1542   1543
1544   1545   1546   1547
1548   1549   1550   1551
1552   1553   1554   1555
1556   1557   1558   1559
1560   1561   1562   1563
1564   1565   1566   1567
1568   1569   1570   1571
1572   1573   1574   1575
1576   1577   1578   1579
1580   1581   1582   1583
1584   1585   1586   1587
1588   1589   1590   1591
1592   1593   1594   1595
1596   1597   1598   1599
1600   1601   1602   1603
1604   1605   1606   1607
1608   1609   1610   1611
1612   1613   1614   1615
1616   1617   1618   1619
1620   1621   1622   1623
1624   1625   1626   1627
1628   1629   1630   1631
1632   1633   1634   1635
1636   1637   1638   1639
1640   1641   1642   1643
1644   1645   1646   1647
1648   1649   1650   1651
1652   1653   1654   1655
1656   1657   1658   1659
1660   1661   1662   1663
1664   1665   1666   1667
1668   1669   1670   1671
1672   1673   1674   1675
1676   1677   1678   1679
1680   1681   1682   1683
1684   1685   1686   1687
1688   1689   1690   1691
1692   1693   1694   1695
1696   1697   1698   1699
1700   1701   1702   1703
1704   1705   1706   1707
1708   1709   1710   1711
1712   1713   1714   1715
1716   1717   1718   1719
1720   1721   1722   1723
1724   1725   1726   1727
1728   1729   1730   1731
1732   1733   1734   1735
1736   1737   1738   1739
1740   1741   1742   1743
1744   1745   1746   1747
1748   1749   1750   1751
1752   1753   1754   1755
1756   1757   1758   1759
1760   1761   1762   1763
1764   1765   1766   1767
1768   1769   1770   1771
1772   1773   1774   1775
1776   1777   1778   1779
1780   1781   1782   1783
1784   1785   1786   1787
1788   1789   1790   1791
1792   1793   1794   1795
1796   1797   1798   1799
1800   1801   1802   1803
1804   1805   1806   1807
1808   1809   1810   1811
1812   1813   1814   1815
1816   1817   1818   1819
1820   1821   1822   1823
1824   1825   1826   1827
1828   1829   1830   1831
1832   1833   1834   1835
1836   1837   1838   1839
1840   1841   1842   1843
1844   1845   1846   1847
1848   1849   1850   1851
1852   1853   1854   1855
1856   1857   1858   1859
1860   1861   1862   1863
1864   1865   1866   1867
1868   1869   1870   1871
1872   1873   1874   1875
1876   1877   1878   1879
1880   1881   1882   1883
1884   1885   1886   1887
1888   1889   1890   1891
1892   1893   1894   1895
1896   1897   1898   1899
1900   1901   1902   1903
1904   1905   1906   1907
1908   1909   1910   1911
1912   1913   1914   1915
1916   1917   1918   1919
1920   1921   1922   1923
1924   1925   1926   1927
1928   1929   1930   1931
1932   1933   1934   1935
1936   1937   1938   1939
1940   1941   1942   1943
1944   1945   1946   1947
1948   1949   1950   1951
1952   1953   1954   1955
1956   1957   1958   1959
1960   1961   1962   1963
1964   1965   1966   1967
1968   1969   1970   1971
1972   1973   1974   1975
1976   1977   1978   1979
1980   1981   1982   1983
1984   1985   1986   1987
1988   1989   1990   1991
1992   1993   1994   1995
1996   1997   1998   1999
2000   2001   2002   2003
2004   2005   2006   2007
2008   2009   2010   2011
2012   2013   2014   2015
2016   2017   2018   2019
2020   2021   2022   2023
2024   2025   2026   2027
2028   2029   2030   2031
2032   2033   2034   2035
2036   2037   2038   2039
2040   2041   2042   2043
2044   2045   2046   2047
2048   2049   2050   2051
2052   2053   2054   2055
2056   2057   2058   2059
2060   2061   2062   2063
2064   2065   2066   2067
2068   2069   2070   2071
2072   2073   2074   2075
2076   2077   2078   2079
2080   2081   2082   2083
2084   2085   2086   2087
2088   2089   2090   2091
2092   2093   2094   2095
2096   2097   2098   2099
2100   2101   2102   2103
2104   2105   2106   2107
2108   2109   2110   2111
2112   2113   2114   2115
2116   2117   2118   2119
2120   2121   2122   2123
2124   2125   2126   2127
2128   2129   2130   2131
2132   2133   2134   2135
2136   2137   2138   2139
2140   2141   2142   2143
2144   2145   2146   2147
2148   2149   2150   2151
2152   2153   2154   2155
2156   2157   2158   2159
2160   2161   2162   2163
2164   2165   2166   2167
2168   2169   2170   2171
2172   2173   2174   2175
2176   2177   2178   2179
2180   2181   2182   2183
2184   2185   2186   2187
2188   2189   2190   2191
2192   2193   2194   2195
2196   2197   2198   2199
2200   2201   2202   2203
2204   2205   2206   2207
2208   2209   2210   2211
2212   2213   2214   2215
2216   2217   2218   2219
2220   2221   2222   2223
2224   2225   2226   2227
2228   2229   2230   2231
2232   2233   2234   2235
2236   2237   2238   2239
2240   2241   2242   2243
2244   2245   2246   2247
2248   2249   2250   2251
2252   2253   2254   2255
2256   2257   2258   2259
2260   2261   2262   2263
2264   2265   2266   2267
2268   2269   2270   2271
2272   2273   2274   2275
2276   2277   2278   2279
2280   2281   2282   2283
2284   2285   2286   2287
2288   2289   2290   2291
2292   2293   2294   2295
2296   2297   2298   2299
2300   2301   2302   2303
2304   2305   2306   2307
2308   2309   2310   2311
2312   2313   2314   2315
2316   2317   2318   2319
2320   2321   2322   2323
2324   2325   2326   2327
2328   2329   2330   2331
2332   2333   2334   2335
2336   2337   2338   2339
2340   2341   2342   2343
2344   2345   2346   2347
2348   2349   2350   2351
2352   2353   2354   2355
2356   2357   2358   2359
2360   2361   2362   2363
2364   2365   2366   2367
2368   2369   2370   2371
2372   2373   2374   2375
2376   2377   2378   2379
2380   2381   2382   2383
2384   2385   2386   2387
2388   2389   2390   2391
2392   2393   2394   2395
2396   2397   2398   2399
2400   2401   2402   2403
2404   2405   2406   2407
2408   2409   2410   2411
2412   2413   2414   2415
2416   2417   2418   2419
2420   2421   2422   2423
2424   2425   2426   2427
2428   2429   2430   2431
2432   2433   2434   2435
2436   2437   2438   2439
2440   2441   2442   2443
2444   2445   2446   2447
2448   2449   2450   2451
2452   2453   2454   2455
2456   2457   2458   2459
2460   2461   2462   2463
2464   2465   2466   2467
2468   2469   2470   2471
2472   2473   2474   2475
2476   2477   2478   2479
2480   2481   2482   2483
2484   2485   2486   2487
2488   2489   2490   2491
2492   2493   2494   2495
2496   2497   2498   2499
2500   2501   2502   2503
2504   2505   2506   2507
2508   2509   2510   2511
2512   2513   2514   2515
2516   2517   2518   2519
2520   2521   2522   2523
2524   2525   2526   2527
2528   2529   2530   2531
2532   2533   2534   2535
2536   2537   2538   2539
2540   2541   2542   2543
2544   2545   2546   2547
2548   2549   2550   2551
2552   2553   2554   2555
2556   2557   2558   2559
2560   2561   2562   2563
2564   2565   2566   2567
2568   2569   2570   2571
2572   2573   2574   2575
2576   2577   2578   2579
2580   2581   2582   2583
2584   2585   2586   2587
2588   2589   2590   2591
2592   2593   2594   2595
2596   2597   2598   2599
2600   2601   2602   2603
2604   2605   2606   2607
2608   2609   2610   2611
2612   2613   2614   2615
2616   2617   2618   2619
2620   2621   2622   2623
2624   2625   2626   2627
2628   2629   2630   2631
2632   2633   2634   2635
2636   2637   2638   2639
2640   2641   2642   2643
2644   2645   2646   2647
2648   2649   2650   2651
2652   2653   2654   2655
2656   2657   2658   2659
2660   2661   2662   2663
2664   2665   2666   2667
2668   2669   2670   2671
2672   2673   2674   2675
2676   2677   2678   2679
2680   2681   2682   2683
2684   2685   2686   2687
2688   2689   2690   2691
2692   2693   2694   2695
2696   2697   2698   2699
2700   2701   2702   2703
2704   2705   2706   2707
2708   2709   2710   2711
2712   2713   2714   2715
2716   2717   2718   2719
2720   2721   2722   2723
2724   2725   2726   2727
2728   2729   2730   2731
2732   2733   2734   2735
2736   2737   2738   2739
2740   2741   2742   2743
2744   2745   2746   2747
2748   2749   2750   2751
2752   2753   2754   2755
2756   2757   2758   2759
2760   2761   2762   2763
2764   2765   2766   2767
2768   2769   2770   2771
2772   2773   2774   2775
2776   2777   2778   2779
2780   2781   2782   2783
2784   2785   2786   2787
2788   2789   2790   2791
2792   2793   2794   2795
2796   2797   2798   2799
2800   2801   2802   2803
2804   2805   2806   2807
2808   2809   2810   2811
2812   2813   2814   2815
2816   2817   2818   2819
2820   2821   2822   2823
2824   2825   2826   2827
2828   2829   2830   2831
2832   2833   2834   2835
2836   2837   2838   2839
2840   2841   2842   2843
2844   2845   2846   2847
2848   2849   2850   2851
2852   2853   2854   2855
2856   2857   2858   2859
2860   2861   2862   2863
2864   2865   2866   2867
2868   2869   2870   2871
2872   2873   2874   2875
2876   2877   2878   2879
2880   2881   2882   2883
2884   2885   2886   2887
2888   2889   2890   2891
2892   2893   2894   2895
2896   2897   2898   2899
2900   2901   2902   2903
2904   2905   2906   2907
2908   2909   2910   2911
2912   2913   2914   2915
2916   2917   2918   2919
2920   2921   2922   2923
2924   2925   2926   2927
2928   2929   2930   2931
2932   2933   2934   2935
2936   2937   2938   2939
2940   2941   2942   2943
2944   2945   2946   2947
2948   2949   2950   2951
2952   2953   2954   2955
2956   2957   2958   2959
2960   2961   2962   2963
2964   2965   2966   2967
2968   2969   2970   2971
2972   2973   2974   2975
2976   2977   2978   2979
2980   2981   2982   2983
2984   2985   2986   2987
2988   2989   2990   2991
2992   2993   2994   2995
2996   2997   2998   2999
3000   3001   3002   3003
3004   3005   3006   3007
3008   3009   3010   3011
3012   3013   3014   3015
3016   3017   3018   3019
3020   3021   3022   3023
3024   3025   3026   3027
3028   3029   3030   3031
3032   3033   3034   3035
3036   3037   3038   3039
3040   3041   3042   3043
3044   3045   3046   3047
3048   3049   3050   3051
3052   3053   3054   3055
3056   3057   3058   3059
3060   3061   3062   3063
3064   3065   3066   3067
3068   3069   3070   3071
3072   3073   3074   3075
3076   3077   3078   3079
3080   3081   3082   3083
3084   3085   3086   3087
3088   3089   3090   3091
3092   3093   3094   3095
3096   3097   3098   3099
3100   3101   3102   3103
3104   3105   3106   3107
3108   3109   3110   3111
3112   3113   3114   3115
3116   3117   3118   3119
3120   3121   3122   3123
3124   3125   3126   3127
3128   3129   3130   3131
3132   3133   3134   3135
3136   3137   3138   3139
3140   3141   3142   3143
3144   3145   3146   3147
3148   3149   3150   3151
3152   3153   3154   3155
3156   3157   3158   3159
3160   3161   3162   3163
3164   3165   3166   3167
3168   3169   3170   3171
3172   3173   3174   3175
3176   3177   3178   3179
3180   3181   3182   3183
3184   3185   3186   3187
3188   3189   3190   3191
3192   3193   3194   3195
3196   3197   3198   3199
3200   3201   3202   3203
3204   3205   3206   3207
3208   3209   3210   3211
3212   3213   3214   3215
3216   3217   3218   3219
3220   3221   3222   3223
3224   3225   3226   3227
3228   3229   3230   3231
3232   3233   3234   3235
3236   3237   3238   3239
3240   3241   3242   3243
3244   3245   3246   3247
3248   3249   3250   3251
3252   3253   3254   3255
3256   3257   3258   3259
3260   3261   3262   3263
3264   3265   3266   3267
3268   3269   3270   3271
3272   3273   3274   3275
3276   3277   3278   3279
3280   3281   3282   3283
3284   3285   3286   3287
3288   3289   3290   3291
3292   3293   3294   3295
3296   3297   3298   3299
3300   3301   3302   3303
3304   3305   3306   3307
3308   3309   3310   3311
3312   3313   3314   3315
3316   3317   3318   3319
3320   3321   3322   3323
3324   3325   3326   3327
3328   3329   3330   3331
3332   3333   3334   3335
3336   3337   3338   3339
3340   3341   3342   3343
3344   3345   3346   3347
3348   3349   3350   3351
3352   3353   3354   3355
3356   3357   3358   3359
3360   3361   3362   3363
3364   3365   3366   3367
3368   3369   3370   3371
3372   3373   3374   3375
3376   3377   3378   3379
3380   3381   3382   3383
3384   3385   3386   3387
3388   3389   3390   3391
3392   3393   3394   3395
3396   3397   3398   3399
3400   3401   3402   3403
3404   3405   3406   3407
3408   3409   3410   3411
3412   3413   3414   3415
3416   3417   3418   3419
3420   3421   3422   3423
3424   3425   3426   3427
3428   3429   3430   3431
3432   3433   3434   3435
3436   3437   3438   3439
3440   3441   3442   3443
3444   3445   3446   3447
3448   3449   3450   3451
3452   3453   3454   3455
3456   3457   3458   3459
3460   3461   3462   3463
3464   3465   3466   3467
3468   3469   3470   3471
3472   3473   3474   3475
3476   3477   3478   3479
3480   3481   3482   3483
3484   3485   3486   3487
3488   3489   3490   3491
3492   3493   3494   3495
3496   3497   3498   3499
3500   3501   3502   3503
3504   3505   3506   3507
3508   3509   3510   3511
3512   3513   3514   3515
3516   3517   3518   3519
3520   3521   3522   3523
3524   3525   3526   3527
3528   3529   3530   3531
3532   3533   3534   3535
3536   3537   3538   3539
3540   3541   3542   3543
3544   3545   3546   3547
3548   3549   3550   3551
3552   3553   3554   3555
3556   3557   3558   3559
3560   3561   3562   3563
3564   3565   3566   3567
3568   3569   3570   3571
3572   3573   3574   3575
3576   3577   3578   3579
3580   3581   3582   3583
3584   3585   3586   3587
3588   3589   3590   3591
3592   3593   3594   3595
3596   3597   3598   3599
3600   3601   3602   3603
3604   3605   3606   3607
3608   3609   3610   3611
3612   3613   3614   3615
3616   3617   3618   3619
3620   3621   3622   3623
3624   3625   3626   3627
3628   3629   3630   3631
3632   3633   3634   3635
3636   3637   3638   3639
3640   3641   3642   3643
3644   3645   3646   3647
3648   3649   3650   3651
3652   3653   3654   3655
3656   3657   3658   3659
3660   3661   3662   3663
3664   3665   3666   3667
3668   3669   3670   3671
3672   3673   3674   3675
3676   3677   3678   3679
3680   3681   3682   3683
3684   3685   3686   3687
3688   3689   3690   3691
3692   3693   3694   3695
3696   3697   3698   3699
3700   3701   3702   3703
3704   3705   3706   3707
3708   3709   3710   3711
3712   3713   3714   3715
3716   3717   3718   3719
3720   3721   3722   3723
3724   3725   3726   3727
3728   3729   3730   3731
3732   3733   3734   3735
3736   3737   3738   3739
3740   3741   3742   3743
3744   3745   3746   3747
3748   3749   3750   3751
3752   3753   3754   3755
3756   3757   3758   3759
3760   3761   3762   3763
3764   3765   3766   3767
3768   3769   3770   3771
3772   3773   3774   3775
3776   3777   3778   3779
3780   3781   3782   3783
3784   3785   3786   3787
3788   3789   3790   3791
3792   3793   3794   3795
3796   3797   3798   3799
3800   3801   3802   3803
3804   3805   3806   3807
3808   3809   3810   3811
3812   3813   3814   3815
3816   3817   3818   3819
3820   3821   3822   3823
3824   3825   3826   3827
3828   3829   3830   3831
3832   3833   3834   3835
3836   3837   3838   3839
3840   3841   3842   3843
3844   3845   3846   3847
3848   3849   3850   3851
3852   3853   3854   3855
3856   3857   3858   3859
3860   3861   3862   3863
3864   3865   3866   3867
3868   3869   3870   3871
3872   3873   3874   3875
3876   3877   3878   3879
3880   3881   3882   3883
3884   3885   3886   3887
3888   3889   3890   3891
3892   3893   3894   3895
3896   3897   3898   3899
3900   3901   3902   3903
3904   3905   3906   3907
3908   3909   3910   3911
3912   3913   3914   3915
3916   3917   3918   3919
3920   3921   3922   3923
3924   3925   3926   3927
3928   3929   3930   3931
3932   3933   3934   3935
3936   3937   3938   3939
3940   3941   3942   3943
3944   3945   3946   3947
3948   3949   3950   3951
3952   3953   3954   3955
3956   3957   3958   3959
3960   3961   3962   3963
3964   3965   3966   3967
3968   3969   3970   3971
3972   3973   3974   3975
3976   3977   3978   3979
3980   3981   3982   3983
3984   3985   3986   3987
3988   3989   3990   3991
3992   3993   3994   3995
3996   3997   3998   3999
4000   4001   4002   4003
4004   4005   4006   4007
4008   4009   4010   4011
4012   4013   4014   4015
4016   4017   4018   4019
4020   4021   4022   4023
4024   4025   4026   4027
4028   4029   4030   4031
4032   4033   4034   4035
4036   4037   4038   4039
4040   4041   4042   4043
4044   4045   4046   4047
4048   4049   4050   4051
4052   4053   4054   4055
4056   4057   4058   4059
4060   4061   4062   4063
4064   4065   4066   4067
4068   4069   4070   4071
4072   4073   4074   4075
4076   4077   4078   4079
4080   4081   4082   4083
4084   4085   4086   4087
4088   4089   4090   4091
4092   4093   4094   4095
4096   4097   4098   4099
4100   4101   4102   4103
4104   4105   4106   4107
4108   4109   4110   4111
4112   4113   4114   4115
4116   4117   4118   4119
4120   4121   4122   4123
4124   4125   4126   4127
4128   4129   4130   4131
4132   4133   4134   4135
4136   4137   4138   4139
4140   4141   4142   4143
4144   4145   4146   4147
4148   4149   4150   4151
4152   4153   4154   4155
4156   4157   4158   4159
4160   4161   4162   4163
4164   4165   4166   4167
4168   4169   4170   4171
4172   4173   4174   4175
4176   4177   4178   4179
4180   4181   4182   4183
4184   4185   4186   4187
4188   4189   4190   4191
4192   4193   4194   4195
4196   4197   4198   4199
4200   4201   4202   4203
4204   4205   4206   4207
4208   4209   4210   4211
4212   4213   4214   4215
4216   4217   4218   4219
4220   4221   4222   4223
4224   4225   4226   4227
4228   4229   4230   4231
4232   4233   4234   4235
4236   4237   4238   4239
4240   4241   4242   4243
4244   4245   4246   4247
4248   4249   4250   4251
4252   4253   4254   4255
4256   4257   4258   4259
4260   4261   4262   4263
4264   4265   4266   4267
4268   4269   4270   4271
4272   4273   4274   4275
4276   4277   4278   4279
4280   4281   4282   4283
4284   4285   4286   4287
4288   4289   4290   4291
4292   4293   4294   4295
4296   4297   4298   4299
4300   4301   4302   4303
4304   4305   4306   4307
4308   4309   4310   4311
4312   4313   4314   4315
4316   4317   4318   4319
4320   4321   4322   4323
4324   4325   4326   4327
4328   4329   4330   4331
4332   4333   4334   4335
4336   4337   4338   4339
4340   4341   4342   4343
4344   4345   4346   4347
4348   4349   4350   4351
4352   4353   4354   4355
4356   4357   4358   4359
4360   4361   4362   4363
4364   4365   4366   4367
4368   4369   4370   4371
4372   4373   4374   4375
4376   4377   4378   4379
4380   4381   4382   4383
4384   4385   4386   4387
4388   4389   4390   4391
4392   4393   4394   4395
4396   4397   4398   4399
4400   4401   4402   4403
4404   4405   4406   4407
4408   4409   4410   4411
4412   4413   4414   4415
4416   4417   4418   4419
4420   4421   4422   4423
4424   4425   4426   4427
4428   4429   4430   4431
4432   4433   4434   4435
4436   4437   4438   4439
4440   4441   4442   4443
4444   4445   4446   4447
4448   4449   4450   4451
4452   4453   4454   4455
4456   4457   4458   4459
4460   4461   4462   4463
4464   4465   4466   4467
4468   4469   4470   4471
4472   4473   4474   4475
4476   4477   4478   4479
4480   4481   4482   4483
4484   4485   4486   4487
4488   4489   4490   4491
4492   4493   4494   4495
4496   4497   4498   4499
4500   4501   4502   4503
4504   4505   4506   4507
4508   4509   4510   4511
4512   4513   4514   4515
4516   4517   4518   4519
4520   4521   4522   4523
4524   4525   4526   4527
4528   4529   4530   4531
4532   4533   4534   4535
4536   4537   4538   4539
4540   4541   4542   4543
4544   4545   4546   4547
4548   4549   4550   4551
4552   4553   4554   4555
4556   4557   4558   4559
4560   4561   4562   4563
4564   4565   4566   4567
4568   4569   4570   4571
4572   4573   4574   4575
4576   4577   4578   4579
4580   4581   4582   4583
4584   4585   4586   4587
4588   4589   4590   4591
4592   4593   4594   4595
4596   4597   4598   4599
4600   4601   4602   4603
4604   4605   4606   4607
4608   4609   4610   4611
4612   4613   4614   4615
4616   4617   4618   4619
4620   4621   4622   4623
4624   4625   4626   4627
4628   4629   4630   4631
4632   4633   4634   4635
4636   4637   4638   4639
4640   4641   4642   4643
4644   4645   4646   4647
4648   4649   4650   4651
4652   4653   4654   4655
4656   4657   4658   4659
4660   4661   4662   4663
4664   4665   4666   4667
4668   4669   4670   4671
4672   4673   4674   4675
4676   4677   4678   4679
4680   4681   4682   4683
4684   4685   4686   4687
4688   4689   4690   4691
4692   4693   4694   4695
4696   4697   4698   4699
4700   4701   4702   4703
4704   4705   4706   4707
4708   4709   4710   4711
4712   4713   4714   4715
4716   4717   4718   4719
4720   4721   4722   4723
4724   4725   4726   4727
4728   4729   4730   4731
4732   4733   4734   4735
4736   4737   4738   4739
4740   4741   4742   4743
4744   4745   4746   4747
4748   4749   4750   4751
4752   4753   4754   4755
4756   4757   4758   4759
4760   4761   4762   4763
4764   4765   4766   4767
4768   4769   4770   4771
4772   4773   4774   4775
4776   4777   4778   4779
4780   4781   4782   4783
4784   4785   4786   4787
4788   4789   4790   4791
4792   4793   4794   4795
4796   4797   4798   4799
4800   4801   4802   4803
4804   4805   4806   4807
4808   4809   4810   4811
4812   4813   4814   4815
4816   4817   4818   4819
4820   4821   4822   4823
4824   4825   4826   4827
4828   4829   4830   4831
4832   4833   4834   4835
4836   4837   4838   4839
4840   4841   4842   4843
4844   4845   4846   4847
4848   4849   4850   4851
4852   4853   4854   4855
4856   4857   4858   4859
4860   4861   4862   4863
4864   4865   4866   4867
4868   4869   4870   4871
4872   4873   4874   4875
4876   4877   4878   4879
4880   4881   4882   4883
4884   4885   4886   4887
4888   4889   4890   4891
4892   4893   4894   4895
4896   4897   4898   4899
4900   4901   4902   4903
4904   4905   4906   4907
4908   4909   4910   4911
4912   4913   4914   4915
4916   4917   4918   4919
4920   4921   4922   4923
4924   4925   4926   4927
4928   4929   4930   4931
4932   4933   4934   4935
4936   4937   4938   4939
4940   4941   4942   4943
4944   4945   4946   4947
4948   4949   4950   4951
4952   4953   4954   4955
4956   4957   4958   4959
4960   4961   4962   4963
4964   4965   4966   4967
4968   4969   4970   4971
4972   4973   4974   4975
4976   4977   4978   4979
4980   4981   4982   4983
4984   4985   4986   4987
4988   4989   4990   4991
4992   4993   4994   4995
4996   4997   4998   4999
5000   5001   5002   5003
5004   5005   5006   5007
5008   5009   5010   5011
5012   5013   5014   5015
5016   5017   5018   5019
5020   5021   5022   5023
5024   5025   5026   5027
5028   5029   5030   5031
5032   5033   5034   5035
5036   5037   5038   5039
5040   5041   5042   5043
5044   5045   5046   5047
5048   5049   5050   5051
5052   5053   5054   5055
5056   5057   5058   5059
5060   5061   5062   5063
5064   5065   5066   5067
5068   5069   5070   5071
5072   5073   5074   5075
5076   5077   5078   5079
5080   5081   5082   5083
5084   5085   5086   5087
5088   5089   5090   5091
5092   5093   5094   5095
5096   5097   5098   5099
5100   5101   5102   5103
5104   5105   5106   5107
5108   5109   5110   5111
5112   5113   5114   5115
5116   5117   5118   5119
5120   5121   5122   5123
5124   5125   5126   5127
5128   5129   5130   5131
5132   5133   5134   5135
5136   5137   5138   5139
5140   5141   5142   5143
5144   5145   5146   5147
5148   5149   5150   5151
5152   5153   5154   5155
5156   5157   5158   5159
5160   5161   5162   5163
5164   5165   5166   5167
5168   5169   5170   5171
5172   5173   5174   5175
5176   5177   5178   5179
5180   5181   5182   5183
5184   5185   5186   5187
5188   5189   5190   5191
5192   5193   5194   5195
5196   5197   5198   5199
5200   5201   5202   5203
5204   5205   5206   5207
5208   5209   5210   5211
5212   5213   5214   5215
5216   5217   5218   5219
5220   5221   5222   5223
5224   5225   5226   5227
5228   5229   5230   5231
5232   5233   5234   5235
5236   5237   5238   5239
5240   5241   5242   5243
5244   5245   5246   5247
5248   5249   5250   5251
5252   5253   5254   5255
5256   5257   5258   5259
5260   5261   5262   5263
5264   5265   5266   5267
5268   5269   5270   5271
5272   5273   5274   5275
5276   5277   5278   5279
5280   5281   5282   5283
5284   5285   5286   5287
5288   5289   5290   5291
5292   5293   5294   5295
5296   5297   5298   5299
5300   5301   5302   5303
5304   5305   5306   5307
5308   5309   5310   5311
5312   5313   5314   5315
5316   5317   5318   5319
5320   5321   5322   5323
5324   5325   5326   5327
5328   5329   5330   5331
5332   5333   5334   5335
5336   5337   5338   5339
5340   5341   5342   5343
5344   5345   5346   5347
5348   5349   5350   5351
5352   5353   5354   5355
5356   5357   5358   5359
5360   5361   5362   5363
5364   5365   5366   5367
5368   5369   5370   5371
5372   5373   5374   5375
5376   5377   5378   5379
5380   5381   5382   5383
5384   5385   5386   5387
5388   5389   5390   5391
5392   5393   5394   5395
5396   5397   5398   5399
5400   5401   5402   5403
5404   5405   5406   5407
5408   5409   5410   5411
5412   5413   5414   5415
5416   5417   5418   5419
5420   5421   5422   5423
5424   5425   5426   5427
5428   5429   5430   5431
5432   5433   5434   5435
5436   5437   5438   5439
5440   5441   5442   5443
5444   5445   5446   5447
5448   5449   5450   5451
5452   5453   5454   5455
5456   5457   5458   5459
5460   5461   5462   5463
5464   5465   5466   5467
5468   5469   5470   5471
5472   5473   5474   5475
5476   5477   5478   5479
5480   5481   5482   5483
5484   5485   5486   5487
5488   5489   5490   5491
5492   5493   5494   5495
5496   5497   5498   5499
5500   5501   5502   5503
5504   5505   5506   5507
5508   5509   5510   5511
5512   5513   5514   5515
5516   5517   5518   5519
5520   5521   5522   5523
5524   5525   5526   5527
5528   5529   5530   5531
5532   5533   5534   5535
5536   5537   5538   5539
5540   5541   5542   5543
5544   5545   5546   5547
5548   5549   5550   5551
5552   5553   5554   5555
5556   5557   5558   5559
5560   5561   5562   5563
5564   5565   5566   5567
5568   5569   5570   5571
5572   5573   5574   5575
5576   5577   5578   5579
5580   5581   5582   5583
5584   5585   5586   5587
5588   5589   5590   5591
5592   5593   5594   5595
5596   5597   5598   5599
5600   5601   5602   5603
5604   5605   5606   5607
5608   5609   5610   5611
5612   5613   5614   5615
5616   5617   5618   5619
5620   5621   5622   5623
5624   5625   5626   5627
5628   5629   5630   5631
5632   5633   5634   5635
5636   5637   5638   5639
5640   5641   5642   5643
5644   5645   5646   5647
5648   5649   5650   5651
5652   5653   5654   5655
5656   5657   5658   5659
5660   5661   5662   5663
5664   5665   5666   5667
5668   5669   5670   5671
5672   5673   5674   5675
5676   5677   5678   5679
5680   5681   5682   5683
5684   5685   5686   5687
5688   5689   5690   5691
5692   5693   5694   5695
5696   5697   5698   5699
5700   5701   5702   5703
5704   5705   5706   5707
5708   5709   5710   5711
5712   5713   5714   5715
5716   5717   5718   5719
5720   5721   5722   5723
5724   5725   5726   5727
5728   5729   5730   5731
5732   5733   5734   5735
5736   5737   5738   5739
5740   5741   5742   5743
5744   5745   5746   5747
5748   5749   5750   5751
5752   5753   5754   5755
5756   5757   5758   5759
5760   5761   5762   5763
5764   5765   5766   5767
5768   5769   5770   5771
5772   5773   5774   5775
5776   5777   5778   5779
5780   5781   5782   5783
5784   5785   5786   5787
5788   5789   5790   5791
5792   5793   5794   5795
5796   5797   5798   5799
5800   5801   5802   5803
5804   5805   5806   5807
5808   5809   5810   5811
5812   5813   5814   5815
5816   5817   5818   5819
5820   5821   5822   5823
5824   5825   5826   5827
5828   5829   5830   5831
5832   5833   5834   5835
5836   5837   5838   5839
5840   5841   5842   5843
5844   5845   5846   5847
5848   5849   5850   5851
5852   5853   5854   5855
5856   5857   5858   5859
5860   5861   5862   5863
5864   5865   5866   5867
5868   5869   5870   5871
5872   5873   5874   5875
5876   5877   5878   5879
5880   5881   5882   5883
5884   5885   5886   5887
5888   5889   5890   5891
5892   5893   5894   5895
5896   5897   5898   5899
5900   5901   5902   5903
5904   5905   5906   5907
5908   5909   5910   5911
5912   5913   5914   5915
5916   5917   5918   5919
5920   5921   5922   5923
5924   5925   5926   5927
5928   5929   5930   5931
5932   5933   5934   5935
5936   5937   5938   5939
5940   5941   5942   5943
5944   5945   5946   5947
5948   5949   5950   5951
5952   5953   5954   5955
5956   5957   5958   5959
5960   5961   5962   5963
5964   5965   5966   5967
5968   5969   5970   5971
5972   5973   5974   5975
5976   5977   5978   5979
5980   5981   5982   5983
5984   5985   5986   5987
5988   5989   5990   5991
5992   5993   5994   5995
5996   5997   5998   5999
              </DataArray>   
              <DataArray type="Int32" Name="offsets" format="ascii">   
4
8
12
16
20
24
28
32
36
40
44
48
52
56
60
64
68
72
76
80
84
88
92
96
100
104
108
112
116
120
124
128
132
136
140
144
148
152
156
160
164
168
172
176
180
184
188
192
196
200
204
208
212
216
220
224
228
232
236
240
244
248
252
256
260
264
268
272
276
280
284
288
292
296
300
304
308
312
316
320
324
328
332
336
340
344
348
352
356
360
364
368
372
376
380
384
388
392
396
400
404
408
412
416
420
424
428
432
436
440
444
448
452
456
460
464
468
472
476
480
484
488
492
496
500
504
508
512
516
520
524
528
532
536
540
544
548
552
556
560
564
568
572
576
580
584
588
592
596
600
604
608
612
616
620
624
628
632
636
640
644
648
652
656
660
664
668
672
676
680
684
688
692
696
700
704
708
712
716
720
724
728
732
736
740
744
748
752
756
760
764
768
772
776
780
784
788
792
796
800
804
808
812
816
820
824
828
832
836
840
844
848
852
856
860
864
868
872
876
880
884
888
892
896
900
904
908
912
916
920
924
928
932
936
940
944
948
952
956
960
964
968
972
976
980
984
988
992
996
1000
1004
1008
1012
1016
1020
1024
1028
1032
1036
1040
1044
1048
1052
1056
1060
1064
1068
1072
1076
1080
1084
1088
1092
1096
1100
1104
1108
1112
1116
1120
1124
1128
1132
1136
1140
1144
1148
1152
1156
1160
1164
1168
1172
1176
1180
1184
1188
1192
1196
1200
1204
1208
1212
1216
1220
1224
1228
1232
1236
1240
1244
1248
1252
1256
1260
1264
1268
1272
1276
1280
1284
1288
1292
1296
1300
1304
1308
1312
1316
1320
1324
1328
1332
1336
1340
1344
1348
1352
1356
1360
1364
1368
1372
1376
1380
1384
1388
1392
1396
1400
1404
1408
1412
1416
1420
1424
1428
1432
1436
1440
1444
1448
1452
1456
1460
1464
1468
1472
1476
1480
1484
1488
1492
1496
1500
1504
1508
1512
1516
1520
1524
1528
1532
1536
1540
1544
1548
1552
1556
1560
1564
1568
1572
1576
1580
1584
1588
1592
1596
1600
1604
1608
1612
1616
1620
1624
1628
1632
1636
1640
1644
1648
1652
1656
1660
1664
1668
1672
1676
1680
1684
1688
1692
1696
1700
1704
1708
1712
1716
1720
1724
1728
1732
1736
1740
1744
1748
1752
1756
1760
1764
1768
1772
1776
1780
1784
1788
1792
1796
1800
1804
1808
1812
1816
1820
1824
1828
1832
1836
1840
1844
1848
1852
1856
1860
1864
1868
1872
1876
1880
1884
1888
1892
1896
1900
1904
1908
1912
1916
1920
1924
1928
1932
1936
1940
1944
1948
1952
1956
1960
1964
1968
1972
1976
1980
1984
1988
1992
1996
2000
2004
2008
2012
2016
2020
2024
2028
2032
2036
2040
2044
2048
2052
2056
2060
2064
2068
2072
2076
2080
2084
2088
2092
2096
2100
2104
2108
2112
2116
2120
2124
2128
2132
2136
2140
2144
2148
2152
2156
2160
2164
2168
2172
2176
2180
2184
2188
2192
2196
2200
2204
2208
2212
2216
2220
2224
2228
2232
2236
2240
2244
2248
2252
2256
2260
2264
2268
2272
2276
2280
2284
2288
2292
2296
2300
2304
2308
2312
2316
2320
2324
2328
2332
2336
2340
2344
2348
2352
2356
2360
2364
2368
2372
2376
2380
2384
2388
2392
2396
2400
2404
2408
2412
2416
2420
2424
2428
2432
2436
2440
2444
2448
2452
2456
2460
2464
2468
2472
2476
2480
2484
2488
2492
2496
2500
2504
2508
2512
2516
2520
2524
2528
2532
2536
2540
2544
2548
2552
2556
2560
2564
2568
2572
2576
2580
2584
2588
2592
2596
2600
2604
2608
2612
2616
2620
2624
2628
2632
2636
2640
2644
2648
2652
2656
2660
2664
2668
2672
2676
2680
2684
2688
2692
2696
2700
2704
2708
2712
2716
2720
2724
2728
2732
2736
2740
2744
2748
2752
2756
2760
2764
2768
2772
2776
2780
2784
2788
2792
2796
2800
2804
2808
2812
2816
2820
2824
2828
2832
2836
2840
2844
2848
2852
2856
2860
2864
2868
2872
2876
2880
2884
2888
2892
2896
2900
2904
2908
2912
2916
2920
2924
2928
2932
2936
2940
2944
2948
2952
2956
2960
2964
2968
2972
2976
2980
2984
2988
2992
2996
3000
3004
3008
3012
3016
3020
3024
3028
3032
3036
3040
3044
3048
3052
3056
3060
3064
3068
3072
3076
3080
3084
3088
3092
3096
3100
3104
3108
3112
3116
3120
3124
3128
3132
3136
3140
3144
3148
3152
3156
3160
3164
3168
3172
3176
3180
3184
3188
3192
3196
3200
3204
3208
3212
3216
3220
3224
3228
3232
3236
3240
3244
3248
3252
3256
3260
3264
3268
3272
3276
3280
3284
3288
3292
3296
3300
3304
3308
3312
3316
3320
3324
3328
3332
3336
3340
3344
3348
3352
3356
3360
3364
3368
3372
3376
3380
3384
3388
3392
3396
3400
3404
3408
3412
3416
3420
3424
3428
3432
3436
3440
3444
3448
3452
3456
3460
3464
3468
3472
3476
3480
3484
3488
3492
3496
3500
3504
3508
3512
3516
3520
3524
3528
3532
3536
3540
3544
3548
3552
3556
3560
3564
3568
3572
3576
3580
3584
3588
3592
3596
3600
3604
3608
3612
3616
3620
3624
3628
3632
3636
3640
3644
3648
3652
3656
3660
3664
3668
3672
3676
3680
3684
3688
3692
3696
3700
3704
3708
3712
3716
3720
3724
3728
3732
3736
3740
3744
3748
3752
3756
3760
3764
3768
3772
3776
3780
3784
3788
3792
3796
3800
3804
3808
3812
3816
3820
3824
3828
3832
3836
3840
3844
3848
3852
3856
3860
3864
3868
3872
3876
3880
3884
3888
3892
3896
3900
3904
3908
3912
3916
3920
3924
3928
3932
3936
3940
3944
3948
3952
3956
3960
3964
3968
3972
3976
3980
3984
3988
3992
3996
4000
4004
4008
4012
4016
4020
4024
4028
4032
4036
4040
4044
4048
4052
4056
4060
4064
4068
4072
4076
4080
4084
4088
4092
4096
4100
4104
4108
4112
4116
4120
4124
4128
4132
4136
4140
4144
4148
4152
4156
4160
4164
4168
4172
4176
4180
4184
4188
4192
4196
4200
4204
4208
4212
4216
4220
4224
4228
4232
4236
4240
4244
4248
4252
4256
4260
4264
4268
4272
4276
4280
4284
4288
4292
4296
4300
4304
4308
4312
4316
4320
4324
4328
4332
4336
4340
4344
4348
4352
4356
4360
4364
4368
4372
4376
4380
4384
4388
4392
4396
4400
4404
4408
4412
4416
4420
4424
4428
4432
4436
4440
4444
4448
4452
4456
4460
4464
4468
4472
4476
4480
4484
4488
4492
4496
4500
4504
4508
4512
4516
4520
4524
4528
4532
4536
4540
4544
4548
4552
4556
4560
4564
4568
4572
4576
4580
4584
4588
4592
4596
4600
4604
4608
4612
4616
4620
4624
4628
4632
4636
4640
4644
4648
4652
4656
4660
4664
4668
4672
4676
4680
4684
4688
4692
4696
4700
4704
4708
4712
4716
4720
4724
4728
4732
4736
4740
4744
4748
4752
4756
4760
4764
4768
4772
4776
4780
4784
4788
4792
4796
4800
4804
4808
4812
4816
4820
4824
4828
4832
4836
4840
4844
4848
4852
4856
4860
4864
4868
4872
4876
4880
4884
4888
4892
4896
4900
4904
4908
4912
4916
4920
4924
4928
4932
4936
4940
4944
4948
4952
4956
4960
4964
4968
4972
4976
4980
4984
4988
4992
4996
5000
5004
5008
5012
5016
5020
5024
5028
5032
5036
5040
5044
5048
5052
5056
5060
5064
5068
5072
5076
5080
5084
5088
5092
5096
5100
5104
5108
5112
5116
5120
5124
5128
5132
5136
5140
5144
5148
5152
5156
5160
5164
5168
5172
5176
5180
5184
5188
5192
5196
5200
5204
5208
5212
5216
5220
5224
5228
5232
5236
5240
5244
5248
5252
5256
5260
5264
5268
5272
5276
5280
5284
5288
5292
5296
5300
5304
5308
5312
5316
5320
5324
5328
5332
5336
5340
5344
5348
5352
5356
5360
5364
5368
5372
5376
5380
5384
5388
5392
5396
5400
5404
5408
5412
5416
5420
5424
5428
5432
5436
5440
5444
5448
5452
5456
5460
5464
5468
5472
5476
5480
5484
5488
5492
5496
5500
5504
5508
5512
5516
5520
5524
5528
5532
5536
5540
5544
5548
5552
5556
5560
5564
5568
5572
5576
5580
5584
5588
5592
5596
5600
5604
5608
5612
5616
5620
5624
5628
5632
5636
5640
5644
5648
5652
5656
5660
5664
5668
5672
5676
5680
5684
5688
5692
5696
5700
5704
5708
5712
5716
5720
5724
5728
5732
5736
5740
5744
5748
5752
5756
5760
5764
5768
5772
5776
5780
5784
5788
5792
5796
5800
5804
5808
5812
5816
5820
5824
5828
5832
5836
5840
5844
5848
5852
5856
5860
5864
5868
5872
5876
5880
5884
5888
5892
5896
5900
5904
5908
5912
5916
5920
5924
5928
5932
5936
5940
5944
5948
5952
5956
5960
5964
5968
5972
5976
5980
5984
5988
5992
5996
6000
              </DataArray>   
              <DataArray type="UInt8" Name="types" format="ascii">   
10
10
10
10
10
10
10
10
10
10
10
10
10
10
10
10
10
10
10
10
10
10
10
10
10
10
10
10
10
10
10
10
10
10
10
10
10
10
10
10
10
10
10
10
10
10
10
10
10
10
10
10
10
10
10
10
10
10
10
10
10
10
10
10
10
10
10
10
10
10
10
10
10
10
10
10
10
10
10
10
10
10
10
10
10
10
10
10
10
10
10
10
10
10
10
10
10
10
10
10
10
10
10
10
10
10
10
10
10
10
10
10
10
10
10
10
10
10
10
10
10
10
10
10
10
10
10
10
10
10
10
10
10
10
10
10
10
10
10
10
10
10
10
10
10
10
10
10
10
10
10
10
10
10
10
10
10
10
10
10
10
10
10
10
10
10
10
10
10
10
10
10
10
10
10
10
10
10
10
10
10
10
10
10
10
10
10
10
10
10
10
10
10
10
10
10
10
10
10
10
10
10
10
10
10
10
10
10
10
10
10
10
10
10
10
10
10
10
10
10
10
10
10
10
10
10
10
10
10
10
10
10
10
10
10
10
10
10
10
10
10
10
10
10
10
10
10
10
10
10
10
10
10
10
10
10
10
10
10
10
10
10
10
10
10
10
10
10
10
10
10
10
10
10
10
10
10
10
10
10
10
10
10
10
10
10
10
10
10
10
10
10
10
10
10
10
10
10
10
10
10
10
10
10
10
10
10
10
10
10
10
10
10
10
10
10
10
10
10
10
10
10
10
10
10
10
10
10
10
10
10
10
10
10
10
10
10
10
10
10
10
10
10
10
10
10
10
10
10
10
10
10
10
10
10
10
10
10
10
10
10
10
10
10
10
10
10
10
10
10
10
10
10
10
10
10
10
10
10
10
10
10
10
10
10
10
10
10
10
10
10
10
10
10
10
10
10
10
10
10
10
10
10
10
10
10
10
10
10
10
10
10
10
10
10
10
10
10
10
10
10
10
10
10
10
10
10
10
10
10
10
10
10
10
10
10
10
10
10
10
10
10
10
10
10
10
10
10
10
10
10
10
10
10
10
10
10
10
10
10
10
10
10
10
10
10
10
10
10
10
10
10
10
10
10
10
10
10
10
10
10
10
10
10
10
10
10
10
10
10
10
10
10
10
10
10
10
10
10
10
10
10
10
10
10
10
10
10
10
10
10
10
10
10
10
10
10
10
10
10
10
10
10
10
10
10
10
10
10
10
10
10
10
10
10
10
10
10
10
10
10
10
10
10
10
10
10
10
10
10
10
10
10
10
10
10
10
10
10
10
10
10
10
10
10
10
10
10
10
10
10
10
10
10
10
10
10
10
10
10
10
10
10
10
10
10
10
10
10
10
10
10
10
10
10
10
10
10
10
10
10
10
10
10
10
10
10
10
10
10
10
10
10
10
10
10
10
10
10
10
10
10
10
10
10
10
10
10
10
10
10
10
10
10
10
10
10
10
10
10
10
10
10
10
10
10
10
10
10
10
10
10
10
10
10
10
10
10
10
10
10
10
10
10
10
10
10
10
10
10
10
10
10
10
10
10
10
10
10
10
10
10
10
10
10
10
10
10
10
10
10
10
10
10
10
10
10
10
10
10
10
10
10
10
10
10
10
10
10
10
10
10
10
10
10
10
10
10
10
10
10
10
10
10
10
10
10
10
10
10
10
10
10
10
10
10
10
10
10
10
10
10
10
10
10
10
10
10
10
10
10
10
10
10
10
10
10
10
10
10
10
10
10
10
10
10
10
10
10
10
10
10
10
10
10
10
10
10
10
10
10
10
10
10
10
10
10
10
10
10
10
10
10
10
10
10
10
10
10
10
10
10
10
10
10
10
10
10
10
10
10
10
10
10
10
10
10
10
10
10
10
10
10
10
10
10
10
10
10
10
10
10
10
10
10
10
10
10
10
10
10
10
10
10
10
10
10
10
10
10
10
10
10
10
10
10
10
10
10
10
10
10
10
10
10
10
10
10
10
10
10
10
10
10
10
10
10
10
10
10
10
10
10
10
10
10
10
10
10
10
10
10
10
10
10
10
10
10
10
10
10
10
10
10
10
10
10
10
10
10
10
10
10
10
10
10
10
10
10
10
10
10
10
10
10
10
10
10
10
10
10
10
10
10
10
10
10
10
10
10
10
10
10
10
10
10
10
10
10
10
10
10
10
10
10
10
10
10
10
10
10
10
10
10
10
10
10
10
10
10
10
10
10
10
10
10
10
10
10
10
10
10
10
10
10
10
10
10
10
10
10
10
10
10
10
10
10
10
10
10
10
10
10
10
10
10
10
10
10
10
10
10
10
10
10
10
10
10
10
10
10
10
10
10
10
10
10
10
10
10
10
10
10
10
10
10
10
10
10
10
10
10
10
10
10
10
10
10
10
10
10
10
10
10
10
10
10
10
10
10
10
10
10
10
10
10
10
10
10
10
10
10
10
10
10
10
10
10
10
10
10
10
10
10
10
10
10
10
10
10
10
10
10
10
10
10
10
10
10
10
10
10
10
10
10
10
10
10
10
10
10
10
10
10
10
10
10
10
10
10
10
10
10
10
10
10
10
10
10
10
10
10
10
10
10
10
10
10
10
10
10
10
10
10
10
10
10
10
10
10
10
10
10
10
10
10
10
10
10
10
10
10
10
10
10
10
10
10
10
10
10
10
10
10
10
10
10
10
10
10
10
10
10
10
10
10
10
10
10
10
10
10
10
10
10
10
10
10
10
10
10
10
10
10
10
10
10
10
10
10
10
10
10
10
10
10
10
10
10
10
10
10
10
10
10
10
10
10
10
10
10
10
10
10
10
10
10
10
10
10
10
10
10
10
10
10
10
10
10
10
10
10
10
10
10
10
10
10
10
10
10
10
10
10
10
10
10
10
10
10
10
10
10
10
10
10
10
10
10
10
10
10
10
10
10
10
10
10
10
10
10
10
10
10
10
10
10
10
10
10
10
10
10
10
10
10
10
10
10
10
10
10
10
10
10
10
10
10
10
10
10
10
10
10
10
10
10
10
10
10
10
10
10
10
10
10
10
10
10
10
10
10
10
10
10
10
10
10
10
10
10
10
10
10
10
10
10
10
10
10
10
10
10
10
10
10
10
10
10
10
10
10
10
10
10
10
10
10
10
10
10
10
10
10
10
10
10
10
10
10
10
10
10
10
10
10
10
10
10
10
10
10
10
10
10
10
10
10
10
10
10
10
10
10
10
10
10
10
10
10
10
10
10
10
10
10
10
10
10
10
10
10
10
10
10
10
10
10
10
10
10
10
10
10
10
10
10
10
10
10
10
10
10
10
10
10
10
10
10
10
10
10
10
10
10
10
10
10
10
10
10
10
10
10
10
10
10
10
10
10
10
10
10
10
10
10
10
10
10
10
10
10
10
10
10
10
10
10
10
10
              </DataArray>   
          </Cells>  
          <PointData>  
             <DataArray type="Float64" NumberOfComponents="3" Name="Strains" format="ascii">   
-3.804594846542169e-05   0.0   -2.512614045984636e-05
-3.804594846542169e-05   0.0   -2.512614045984636e-05
-3.804594846542169e-05   0.0   -2.512614045984636e-05
-3.804594846542169e-05   0.0   -2.512614045984636e-05
-2.4193891593192607e-05   4.19399329694874e-06   4.770169720379742e-07
-2.4193891593192607e-05   4.19399329694874e-06   4.770169720379742e-07
-2.4193891593192607e-05   4.19399329694874e-06   4.770169720379742e-07
-2.4193891593192607e-05   4.19399329694874e-06   4.770169720379742e-07
-2.3704772803599358e-05   0.0   -2.3734733555815016e-05
-2.3704772803599358e-05   0.0   -2.3734733555815016e-05
-2.3704772803599358e-05   0.0   -2.3734733555815016e-05
-2.3704772803599358e-05   0.0   -2.3734733555815016e-05
-3.980372581660258e-05   5.04291442663879e-06   7.110614320718594e-08
-3.980372581660258e-05   5.04291442663879e-06   7.110614320718594e-08
-3.980372581660258e-05   5.04291442663879e-06   7.110614320718594e-08
-3.980372581660258e-05   5.04291442663879e-06   7.110614320718594e-08
-3.087536063451047e-05   1.1595057533594533e-06   -1.2479457289645377e-05
-3.087536063451047e-05   1.1595057533594533e-06   -1.2479457289645377e-05
-3.087536063451047e-05   1.1595057533594533e-06   -1.2479457289645377e-05
-3.087536063451047e-05   1.1595057533594533e-06   -1.2479457289645377e-05
-3.9803725816602646e-05   0.0   -2.6760482211798294e-05
-3.9803725816602646e-05   0.0   -2.6760482211798294e-05
-3.9803725816602646e-05   0.0   -2.6760482211798294e-05
-3.9803725816602646e-05   0.0   -2.6760482211798294e-05
-2.3704772803599358e-05   5.042914426638797e-06   3.0968547991904545e-06
-2.3704772803599358e-05   5.042914426638797e-06   3.0968547991904545e-06
-2.3704772803599358e-05   5.042914426638797e-06   3.0968547991904545e-06
-2.3704772803599358e-05   5.042914426638797e-06   3.0968547991904545e-06
-2.3760117061588145e-05   0.0   -2.431257908917824e-05
-2.3760117061588145e-05   0.0   -2.431257908917824e-05
-2.3760117061588145e-05   0.0   -2.431257908917824e-05
-2.3760117061588145e-05   0.0   -2.431257908917824e-05
-4.1032912810293914e-05   5.405421547778631e-06   1.2321608966643096e-06
-4.1032912810293914e-05   5.405421547778631e-06   1.2321608966643096e-06
-4.1032912810293914e-05   5.405421547778631e-06   1.2321608966643096e-06
-4.1032912810293914e-05   5.405421547778631e-06   1.2321608966643096e-06
-3.178192143909534e-05   2.0399192688500456e-06   -1.2166856687976148e-05
-3.178192143909534e-05   2.0399192688500456e-06   -1.2166856687976148e-05
-3.178192143909534e-05   2.0399192688500456e-06   -1.2166856687976148e-05
-3.178192143909534e-05   2.0399192688500456e-06   -1.2166856687976148e-05
-4.103291281029398e-05   0.0   -2.755583201784542e-05
-4.103291281029398e-05   0.0   -2.755583201784542e-05
-4.103291281029398e-05   0.0   -2.755583201784542e-05
-4.103291281029398e-05   0.0   -2.755583201784542e-05
-2.3760117061588145e-05   5.405421547778638e-06   4.4754138253314855e-06
-2.3760117061588145e-05   5.405421547778638e-06   4.4754138253314855e-06
-2.3760117061588145e-05   5.405421547778638e-06   4.4754138253314855e-06
-2.3760117061588145e-05   5.405421547778638e-06   4.4754138253314855e-06
-2.3734656170005385e-05   0.0   -2.44628769408994e-05
-2.3734656170005385e-05   0.0   -2.44628769408994e-05
-2.3734656170005385e-05   0.0   -2.44628769408994e-05
-2.3734656170005385e-05   0.0   -2.44628769408994e-05
-4.369234006006342e-05   6.166310537511146e-06   5.100143220024072e-06
-4.369234006006342e-05   6.166310537511146e-06   5.100143220024072e-06
-4.369234006006342e-05   6.166310537511146e-06   5.100143220024072e-06
-4.369234006006342e-05   6.166310537511146e-06   5.100143220024072e-06
-3.238378449014963e-05   2.5774625641216793e-06   -1.1594140612465218e-05
-3.238378449014963e-05   2.5774625641216793e-06   -1.1594140612465218e-05
-3.238378449014963e-05   2.5774625641216793e-06   -1.1594140612465218e-05
-3.238378449014963e-05   2.5774625641216793e-06   -1.1594140612465218e-05
-2.4193891593192648e-05   0.0   -2.2609744481677115e-05
-2.4193891593192648e-05   0.0   -2.2609744481677115e-05
-2.4193891593192648e-05   0.0   -2.2609744481677115e-05
-2.4193891593192648e-05   0.0   -2.2609744481677115e-05
-1.1031336526616036e-05   1.5341847438443774e-06   2.4835814225718887e-07
-1.1031336526616036e-05   1.5341847438443774e-06   2.4835814225718887e-07
-1.1031336526616036e-05   1.5341847438443774e-06   2.4835814225718887e-07
-1.1031336526616036e-05   1.5341847438443774e-06   2.4835814225718887e-07
-1.0598567858863968e-05   0.0   -2.2420106294875834e-05
-1.0598567858863968e-05   0.0   -2.2420106294875834e-05
-1.0598567858863968e-05   0.0   -2.2420106294875834e-05
-1.0598567858863968e-05   0.0   -2.2420106294875834e-05
-2.3704772803599358e-05   2.191045434898641e-06   -1.8910586479226993e-06
-2.3704772803599358e-05   2.191045434898641e-06   -1.8910586479226993e-06
-2.3704772803599358e-05   2.191045434898641e-06   -1.8910586479226993e-06
-2.3704772803599358e-05   2.191045434898641e-06   -1.8910586479226993e-06
-1.7396229726028277e-05   1.580318223344006e-07   -1.1185488943002546e-05
-1.7396229726028277e-05   1.580318223344006e-07   -1.1185488943002546e-05
-1.7396229726028277e-05   1.580318223344006e-07   -1.1185488943002546e-05
-1.7396229726028277e-05   1.580318223344006e-07   -1.1185488943002546e-05
-2.3704772803599338e-05   0.0   -2.3734733555814995e-05
-2.3704772803599338e-05   0.0   -2.3734733555814995e-05
-2.3704772803599338e-05   0.0   -2.3734733555814995e-05
-2.3704772803599338e-05   0.0   -2.3734733555814995e-05
-1.0598567858863968e-05   2.191045434898641e-06   -5.764313869835173e-07
-1.0598567858863968e-05   2.191045434898641e-06   -5.764313869835173e-07
-1.0598567858863968e-05   2.191045434898641e-06   -5.764313869835173e-07
-1.0598567858863968e-05   2.191045434898641e-06   -5.764313869835173e-07
-1.0350807716189105e-05   0.0   -2.2699159367695006e-05
-1.0350807716189105e-05   0.0   -2.2699159367695006e-05
-1.0350807716189105e-05   0.0   -2.2699159367695006e-05
-1.0350807716189105e-05   0.0   -2.2699159367695006e-05
-2.3760117061588145e-05   2.68903286913872e-06   -1.963730180179837e-06
-2.3760117061588145e-05   2.68903286913872e-06   -1.963730180179837e-06
-2.3760117061588145e-05   2.68903286913872e-06   -1.963730180179837e-06
-2.3760117061588145e-05   2.68903286913872e-06   -1.963730180179837e-06
-1.7027790259894197e-05   8.629784901000072e-07   -1.2088642222246427e-05
-1.7027790259894197e-05   8.629784901000072e-07   -1.2088642222246427e-05
-1.7027790259894197e-05   8.629784901000072e-07   -1.2088642222246427e-05
-1.7027790259894197e-05   8.629784901000072e-07   -1.2088642222246427e-05
-2.3760117061588145e-05   0.0   -2.431257908917824e-05
-2.3760117061588145e-05   0.0   -2.431257908917824e-05
-2.3760117061588145e-05   0.0   -2.431257908917824e-05
-2.3760117061588145e-05   0.0   -2.431257908917824e-05
-1.0350807716189105e-05   2.68903286913872e-06   -3.503104586966078e-07
-1.0350807716189105e-05   2.68903286913872e-06   -3.503104586966078e-07
-1.0350807716189105e-05   2.68903286913872e-06   -3.503104586966078e-07
-1.0350807716189105e-05   2.68903286913872e-06   -3.503104586966078e-07
-1.0123301742570779e-05   0.0   -2.2583837067842657e-05
-1.0123301742570779e-05   0.0   -2.2583837067842657e-05
-1.0123301742570779e-05   0.0   -2.2583837067842657e-05
-1.0123301742570779e-05   0.0   -2.2583837067842657e-05
-2.3734656170005324e-05   3.1317331217612025e-06   -1.7772862285083836e-06
-2.3734656170005324e-05   3.1317331217612025e-06   -1.7772862285083836e-06
-2.3734656170005324e-05   3.1317331217612025e-06   -1.7772862285083836e-06
-2.3734656170005324e-05   3.1317331217612025e-06   -1.7772862285083836e-06
-1.6941709402079458e-05   1.4406183511129684e-06   -1.2084195312662644e-05
-1.6941709402079458e-05   1.4406183511129684e-06   -1.2084195312662644e-05
-1.6941709402079458e-05   1.4406183511129684e-06   -1.2084195312662644e-05
-1.6941709402079458e-05   1.4406183511129684e-06   -1.2084195312662644e-05
-1.1031336526616054e-05   0.0   -2.1689233635370485e-05
-1.1031336526616054e-05   0.0   -2.1689233635370485e-05
-1.1031336526616054e-05   0.0   -2.1689233635370485e-05
-1.1031336526616054e-05   0.0   -2.1689233635370485e-05
1.3949707477919051e-06   -1.9956753938014569e-07   -1.0984620349852915e-06
1.3949707477919051e-06   -1.9956753938014569e-07   -1.0984620349852915e-06
1.3949707477919051e-06   -1.9956753938014569e-07   -1.0984620349852915e-06
1.3949707477919051e-06   -1.9956753938014569e-07   -1.0984620349852915e-06
1.6765405963481998e-06   0.0   -2.218624733319264e-05
1.6765405963481998e-06   0.0   -2.218624733319264e-05
1.6765405963481998e-06   0.0   -2.218624733319264e-05
1.6765405963481998e-06   0.0   -2.218624733319264e-05
-1.059856785886395e-05   3.897649361385254e-07   -1.9615922028555442e-06
-1.059856785886395e-05   3.897649361385254e-07   -1.9615922028555442e-06
-1.059856785886395e-05   3.897649361385254e-07   -1.9615922028555442e-06
-1.059856785886395e-05   3.897649361385254e-07   -1.9615922028555442e-06
-4.677397965133908e-06   -4.141780815185254e-07   -1.134784288181134e-05
-4.677397965133908e-06   -4.141780815185254e-07   -1.134784288181134e-05
-4.677397965133908e-06   -4.141780815185254e-07   -1.134784288181134e-05
-4.677397965133908e-06   -4.141780815185254e-07   -1.134784288181134e-05
-1.0598567858863968e-05   0.0   -2.2420106294875834e-05
-1.0598567858863968e-05   0.0   -2.2420106294875834e-05
-1.0598567858863968e-05   0.0   -2.2420106294875834e-05
-1.0598567858863968e-05   0.0   -2.2420106294875834e-05
1.6765405963482026e-06   3.897649361385254e-07   -1.7277332411724298e-06
1.6765405963482026e-06   3.897649361385254e-07   -1.7277332411724298e-06
1.6765405963482026e-06   3.897649361385254e-07   -1.7277332411724298e-06
1.6765405963482026e-06   3.897649361385254e-07   -1.7277332411724298e-06
1.9002943516374317e-06   0.0   -2.2153622868980578e-05
1.9002943516374317e-06   0.0   -2.2153622868980578e-05
1.9002943516374317e-06   0.0   -2.2153622868980578e-05
1.9002943516374317e-06   0.0   -2.2153622868980578e-05
-1.035080771618907e-05   9.092274978573183e-07   -2.280655921317439e-06
-1.035080771618907e-05   9.092274978573183e-07   -2.280655921317439e-06
-1.035080771618907e-05   9.092274978573183e-07   -2.280655921317439e-06
-1.035080771618907e-05   9.092274978573183e-07   -2.280655921317439e-06
-4.349136753613259e-06   2.220695215793492e-07   -1.1871146073177026e-05
-4.349136753613259e-06   2.220695215793492e-07   -1.1871146073177026e-05
-4.349136753613259e-06   2.220695215793492e-07   -1.1871146073177026e-05
-4.349136753613259e-06   2.220695215793492e-07   -1.1871146073177026e-05
-1.0350807716189105e-05   0.0   -2.2699159367695006e-05
-1.0350807716189105e-05   0.0   -2.2699159367695006e-05
-1.0350807716189105e-05   0.0   -2.2699159367695006e-05
-1.0350807716189105e-05   0.0   -2.2699159367695006e-05
1.900294351637435e-06   9.092274978573115e-07   -1.7351194226030545e-06
1.900294351637435e-06   9.092274978573115e-07   -1.7351194226030545e-06
1.900294351637435e-06   9.092274978573115e-07   -1.7351194226030545e-06
1.900294351637435e-06   9.092274978573115e-07   -1.7351194226030545e-06
2.1975361480567177e-06   0.0   -2.1677709060048245e-05
2.1975361480567177e-06   0.0   -2.1677709060048245e-05
2.1975361480567177e-06   0.0   -2.1677709060048245e-05
2.1975361480567177e-06   0.0   -2.1677709060048245e-05
-1.0123301742570754e-05   1.5102133463239828e-06   -2.049107250130157e-06
-1.0123301742570754e-05   1.5102133463239828e-06   -2.049107250130157e-06
-1.0123301742570754e-05   1.5102133463239828e-06   -2.049107250130157e-06
-1.0123301742570754e-05   1.5102133463239828e-06   -2.049107250130157e-06
-4.076635784066184e-06   8.512085897056031e-07   -1.1731480993666761e-05
-4.076635784066184e-06   8.512085897056031e-07   -1.1731480993666761e-05
-4.076635784066184e-06   8.512085897056031e-07   -1.1731480993666761e-05
-4.076635784066184e-06   8.512085897056031e-07   -1.1731480993666761e-05
1.3949707477919075e-06   0.0   -2.1808974158998577e-05
1.3949707477919075e-06   0.0   -2.1808974158998577e-05
1.3949707477919075e-06   0.0   -2.1808974158998577e-05
1.3949707477919075e-06   0.0   -2.1808974158998577e-05
1.4893329481921407e-05   -1.7468960589475885e-06   -3.598472374846143e-07
1.4893329481921407e-05   -1.7468960589475885e-06   -3.598472374846143e-07
1.4893329481921407e-05   -1.7468960589475885e-06   -3.598472374846143e-07
1.4893329481921407e-05   -1.7468960589475885e-06   -3.598472374846143e-07
1.493404020612318e-05   0.0   -2.2974458247248186e-05
1.493404020612318e-05   0.0   -2.2974458247248186e-05
1.493404020612318e-05   0.0   -2.2974458247248186e-05
1.493404020612318e-05   0.0   -2.2974458247248186e-05
1.6765405963482056e-06   -1.313684856759105e-06   -9.041465023443035e-08
1.6765405963482056e-06   -1.313684856759105e-06   -9.041465023443035e-08
1.6765405963482056e-06   -1.313684856759105e-06   -9.041465023443035e-08
1.6765405963482056e-06   -1.313684856759105e-06   -9.041465023443035e-08
8.164505476957544e-06   -9.712367402080084e-07   -1.1109158321180645e-05
8.164505476957544e-06   -9.712367402080084e-07   -1.1109158321180645e-05
8.164505476957544e-06   -9.712367402080084e-07   -1.1109158321180645e-05
8.164505476957544e-06   -9.712367402080084e-07   -1.1109158321180645e-05
1.6765405963482056e-06   0.0   -2.218624733319272e-05
1.6765405963482056e-06   0.0   -2.218624733319272e-05
1.6765405963482056e-06   0.0   -2.218624733319272e-05
1.6765405963482056e-06   0.0   -2.218624733319272e-05
1.493404020612318e-05   -1.313684856759105e-06   -8.786255642898974e-07
1.493404020612318e-05   -1.313684856759105e-06   -8.786255642898974e-07
1.493404020612318e-05   -1.313684856759105e-06   -8.786255642898974e-07
1.493404020612318e-05   -1.313684856759105e-06   -8.786255642898974e-07
1.4882341193301525e-05   0.0   -2.2646493588348853e-05
1.4882341193301525e-05   0.0   -2.2646493588348853e-05
1.4882341193301525e-05   0.0   -2.2646493588348853e-05
1.4882341193301525e-05   0.0   -2.2646493588348853e-05
1.900294351637435e-06   -8.214511989470581e-07   -5.168781328738051e-07
1.900294351637435e-06   -8.214511989470581e-07   -5.168781328738051e-07
1.900294351637435e-06   -8.214511989470581e-07   -5.168781328738051e-07
1.900294351637435e-06   -8.214511989470581e-07   -5.168781328738051e-07
8.279440894824865e-06   -3.8353854596344595e-07   -1.1411536629976347e-05
8.279440894824865e-06   -3.8353854596344595e-07   -1.1411536629976347e-05
8.279440894824865e-06   -3.8353854596344595e-07   -1.1411536629976347e-05
8.279440894824865e-06   -3.8353854596344595e-07   -1.1411536629976347e-05
1.9002943516374334e-06   0.0   -2.21536228689806e-05
1.9002943516374334e-06   0.0   -2.21536228689806e-05
1.9002943516374334e-06   0.0   -2.21536228689806e-05
1.9002943516374334e-06   0.0   -2.21536228689806e-05
1.4882341193301525e-05   -8.214511989470581e-07   -1.00974885224204e-06
1.4882341193301525e-05   -8.214511989470581e-07   -1.00974885224204e-06
1.4882341193301525e-05   -8.214511989470581e-07   -1.00974885224204e-06
1.4882341193301525e-05   -8.214511989470581e-07   -1.00974885224204e-06
1.5182348856749887e-05   0.0   -2.1774156812794837e-05
1.5182348856749887e-05   0.0   -2.1774156812794837e-05
1.5182348856749887e-05   0.0   -2.1774156812794837e-05
1.5182348856749887e-05   0.0   -2.1774156812794837e-05
2.1975361480567215e-06   -1.6074625457758782e-07   -3.6354545559679085e-08
2.1975361480567215e-06   -1.6074625457758782e-07   -3.6354545559679085e-08
2.1975361480567215e-06   -1.6074625457758782e-07   -3.6354545559679085e-08
2.1975361480567215e-06   -1.6074625457758782e-07   -3.6354545559679085e-08
8.541321604193654e-06   3.162217134881501e-07   -1.0895511086627333e-05
8.541321604193654e-06   3.162217134881501e-07   -1.0895511086627333e-05
8.541321604193654e-06   3.162217134881501e-07   -1.0895511086627333e-05
8.541321604193654e-06   3.162217134881501e-07   -1.0895511086627333e-05
1.4893329481921407e-05   0.0   -2.2857111794367127e-05
1.4893329481921407e-05   0.0   -2.2857111794367127e-05
1.4893329481921407e-05   0.0   -2.2857111794367127e-05
1.4893329481921407e-05   0.0   -2.2857111794367127e-05
3.3699046355807204e-05   -4.437945085597243e-06   5.822982610751039e-06
3.3699046355807204e-05   -4.437945085597243e-06   5.822982610751039e-06
3.3699046355807204e-05   -4.437945085597243e-06   5.822982610751039e-06
3.3699046355807204e-05   -4.437945085597243e-06   5.822982610751039e-06
3.16673238124651e-05   0.0   -2.5235540413053003e-05
3.16673238124651e-05   0.0   -2.5235540413053003e-05
3.16673238124651e-05   0.0   -2.5235540413053003e-05
3.16673238124651e-05   0.0   -2.5235540413053003e-05
1.493404020612318e-05   -3.7684702763413625e-06   4.914347763321677e-06
1.493404020612318e-05   -3.7684702763413625e-06   4.914347763321677e-06
1.493404020612318e-05   -3.7684702763413625e-06   4.914347763321677e-06
1.493404020612318e-05   -3.7684702763413625e-06   4.914347763321677e-06
2.3280326647193256e-05   -1.9820238489048954e-06   -1.0067997494923646e-05
2.3280326647193256e-05   -1.9820238489048954e-06   -1.0067997494923646e-05
2.3280326647193256e-05   -1.9820238489048954e-06   -1.0067997494923646e-05
2.3280326647193256e-05   -1.9820238489048954e-06   -1.0067997494923646e-05
1.4934040206123168e-05   0.0   -2.2974458247248165e-05
1.4934040206123168e-05   0.0   -2.2974458247248165e-05
1.4934040206123168e-05   0.0   -2.2974458247248165e-05
1.4934040206123168e-05   0.0   -2.2974458247248165e-05
3.166732381246499e-05   -3.768470276341349e-06   2.6532655975168427e-06
3.166732381246499e-05   -3.768470276341349e-06   2.6532655975168427e-06
3.166732381246499e-05   -3.768470276341349e-06   2.6532655975168427e-06
3.166732381246499e-05   -3.768470276341349e-06   2.6532655975168427e-06
3.073595362254923e-05   0.0   -2.471101412605747e-05
3.073595362254923e-05   0.0   -2.471101412605747e-05
3.073595362254923e-05   0.0   -2.471101412605747e-05
3.073595362254923e-05   0.0   -2.471101412605747e-05
1.4882341193301525e-05   -3.440867562847694e-06   3.7761937937306584e-06
1.4882341193301525e-05   -3.440867562847694e-06   3.7761937937306584e-06
1.4882341193301525e-05   -3.440867562847694e-06   3.7761937937306584e-06
1.4882341193301525e-05   -3.440867562847694e-06   3.7761937937306584e-06
2.283499691433619e-05   -1.447129899007737e-06   -1.0674475006297764e-05
2.283499691433619e-05   -1.447129899007737e-06   -1.0674475006297764e-05
2.283499691433619e-05   -1.447129899007737e-06   -1.0674475006297764e-05
2.283499691433619e-05   -1.447129899007737e-06   -1.0674475006297764e-05
1.4882341193301525e-05   0.0   -2.2646493588348853e-05
1.4882341193301525e-05   0.0   -2.2646493588348853e-05
1.4882341193301525e-05   0.0   -2.2646493588348853e-05
1.4882341193301525e-05   0.0   -2.2646493588348853e-05
3.073595362254913e-05   -3.4408675628476803e-06   1.711673256022036e-06
3.073595362254913e-05   -3.4408675628476803e-06   1.711673256022036e-06
3.073595362254913e-05   -3.4408675628476803e-06   1.711673256022036e-06
3.073595362254913e-05   -3.4408675628476803e-06   1.711673256022036e-06
2.934083541868075e-05   0.0   -2.3373452197185995e-05
2.934083541868075e-05   0.0   -2.3373452197185995e-05
2.934083541868075e-05   0.0   -2.3373452197185995e-05
2.934083541868075e-05   0.0   -2.3373452197185995e-05
1.5182348856749887e-05   -2.665492307318666e-06   1.8233207904233515e-06
1.5182348856749887e-05   -2.665492307318666e-06   1.8233207904233515e-06
1.5182348856749887e-05   -2.665492307318666e-06   1.8233207904233515e-06
1.5182348856749887e-05   -2.665492307318666e-06   1.8233207904233515e-06
2.211158830599116e-05   -6.057988406976538e-07   -1.0961227704951371e-05
2.211158830599116e-05   -6.057988406976538e-07   -1.0961227704951371e-05
2.211158830599116e-05   -6.057988406976538e-07   -1.0961227704951371e-05
2.211158830599116e-05   -6.057988406976538e-07   -1.0961227704951371e-05
-3.289439692175974e-05   4.193993296948726e-06   -2.1687064399752587e-05
-3.289439692175974e-05   4.193993296948726e-06   -2.1687064399752587e-05
-3.289439692175974e-05   4.193993296948726e-06   -2.1687064399752587e-05
-3.289439692175974e-05   4.193993296948726e-06   -2.1687064399752587e-05
-2.107901172970482e-05   3.764570913296049e-06   -2.252409176519305e-06
-2.107901172970482e-05   3.764570913296049e-06   -2.252409176519305e-06
-2.107901172970482e-05   3.764570913296049e-06   -2.252409176519305e-06
-2.107901172970482e-05   3.764570913296049e-06   -2.252409176519305e-06
-2.1603227561004626e-05   5.042914426638783e-06   -1.822352984910287e-05
-2.1603227561004626e-05   5.042914426638783e-06   -1.822352984910287e-05
-2.1603227561004626e-05   5.042914426638783e-06   -1.822352984910287e-05
-2.1603227561004626e-05   5.042914426638783e-06   -1.822352984910287e-05
-3.323762112828651e-05   4.524724351154347e-06   1.4780401416576727e-06
-3.323762112828651e-05   4.524724351154347e-06   1.4780401416576727e-06
-3.323762112828651e-05   4.524724351154347e-06   1.4780401416576727e-06
-3.323762112828651e-05   4.524724351154347e-06   1.4780401416576727e-06
-2.612536417099511e-05   4.384043569593182e-06   -1.0291312984891476e-05
-2.612536417099511e-05   4.384043569593182e-06   -1.0291312984891476e-05
-2.612536417099511e-05   4.384043569593182e-06   -1.0291312984891476e-05
-2.612536417099511e-05   4.384043569593182e-06   -1.0291312984891476e-05
-3.323762112828651e-05   5.042914426638783e-06   -1.791261580381221e-05
-3.323762112828651e-05   5.042914426638783e-06   -1.791261580381221e-05
-3.323762112828651e-05   5.042914426638783e-06   -1.791261580381221e-05
-3.323762112828651e-05   5.042914426638783e-06   -1.791261580381221e-05
-2.16032275610047e-05   4.524724351154361e-06   1.1671260963670152e-06
-2.16032275610047e-05   4.524724351154361e-06   1.1671260963670152e-06
-2.16032275610047e-05   4.524724351154361e-06   1.1671260963670152e-06
-2.16032275610047e-05   4.524724351154361e-06   1.1671260963670152e-06
-2.170656152042062e-05   5.405421547778624e-06   -1.6391182826013144e-05
-2.170656152042062e-05   5.405421547778624e-06   -1.6391182826013144e-05
-2.170656152042062e-05   5.405421547778624e-06   -1.6391182826013144e-05
-2.170656152042062e-05   5.405421547778624e-06   -1.6391182826013144e-05
-3.346043395757485e-05   4.86804939879504e-06   3.52102785863392e-06
-3.346043395757485e-05   4.86804939879504e-06   3.52102785863392e-06
-3.346043395757485e-05   4.86804939879504e-06   3.52102785863392e-06
-3.346043395757485e-05   4.86804939879504e-06   3.52102785863392e-06
-2.688516995650234e-05   4.8616916691210865e-06   -7.433930838682455e-06
-2.688516995650234e-05   4.8616916691210865e-06   -7.433930838682455e-06
-2.688516995650234e-05   4.8616916691210865e-06   -7.433930838682455e-06
-2.688516995650234e-05   4.8616916691210865e-06   -7.433930838682455e-06
-3.346043395757479e-05   5.405421547778624e-06   -1.6068759536622998e-05
-3.346043395757479e-05   5.405421547778624e-06   -1.6068759536622998e-05
-3.346043395757479e-05   5.405421547778624e-06   -1.6068759536622998e-05
-3.346043395757479e-05   5.405421547778624e-06   -1.6068759536622998e-05
-2.1706561520420658e-05   4.86804939879504e-06   3.1986045692437737e-06
-2.1706561520420658e-05   4.86804939879504e-06   3.1986045692437737e-06
-2.1706561520420658e-05   4.86804939879504e-06   3.1986045692437737e-06
-2.1706561520420658e-05   4.86804939879504e-06   3.1986045692437737e-06
-2.1576063915254106e-05   6.16631053751114e-06   -1.2133120622787922e-05
-2.1576063915254106e-05   6.16631053751114e-06   -1.2133120622787922e-05
-2.1576063915254106e-05   6.16631053751114e-06   -1.2133120622787922e-05
-2.1576063915254106e-05   6.16631053751114e-06   -1.2133120622787922e-05
-3.251637008924948e-05   5.144477269567309e-06   6.713822961303896e-06
-3.251637008924948e-05   5.144477269567309e-06   6.713822961303896e-06
-3.251637008924948e-05   5.144477269567309e-06   6.713822961303896e-06
-3.251637008924948e-05   5.144477269567309e-06   6.713822961303896e-06
-2.6175804865738367e-05   5.336553830073752e-06   -3.969031680851819e-06
-2.6175804865738367e-05   5.336553830073752e-06   -3.969031680851819e-06
-2.6175804865738367e-05   5.336553830073752e-06   -3.969031680851819e-06
-2.6175804865738367e-05   5.336553830073752e-06   -3.969031680851819e-06
-2.107901172970482e-05   1.5341847438443774e-06   -2.3093887506031608e-05
-2.107901172970482e-05   1.5341847438443774e-06   -2.3093887506031608e-05
-2.107901172970482e-05   1.5341847438443774e-06   -2.3093887506031608e-05
-2.107901172970482e-05   1.5341847438443774e-06   -2.3093887506031608e-05
-1.0007024254989609e-05   1.7519329842283714e-06   -4.509926103942493e-06
-1.0007024254989609e-05   1.7519329842283714e-06   -4.509926103942493e-06
-1.0007024254989609e-05   1.7519329842283714e-06   -4.509926103942493e-06
-1.0007024254989609e-05   1.7519329842283714e-06   -4.509926103942493e-06
-1.0239569656390925e-05   2.1910454348986343e-06   -2.3055594594606396e-05
-1.0239569656390925e-05   2.1910454348986343e-06   -2.3055594594606396e-05
-1.0239569656390925e-05   2.1910454348986343e-06   -2.3055594594606396e-05
-1.0239569656390925e-05   2.1910454348986343e-06   -2.3055594594606396e-05
-2.1603227561004626e-05   2.4507932709146734e-06   -4.272013455193125e-06
-2.1603227561004626e-05   2.4507932709146734e-06   -4.272013455193125e-06
-2.1603227561004626e-05   2.4507932709146734e-06   -4.272013455193125e-06
-2.1603227561004626e-05   2.4507932709146734e-06   -4.272013455193125e-06
-1.56874657539685e-05   1.9727899070052845e-06   -1.3844814448574498e-05
-1.56874657539685e-05   1.9727899070052845e-06   -1.3844814448574498e-05
-1.56874657539685e-05   1.9727899070052845e-06   -1.3844814448574498e-05
-1.56874657539685e-05   1.9727899070052845e-06   -1.3844814448574498e-05
-2.1603227561004606e-05   2.1910454348986343e-06   -2.3211443296215984e-05
-2.1603227561004606e-05   2.1910454348986343e-06   -2.3211443296215984e-05
-2.1603227561004606e-05   2.1910454348986343e-06   -2.3211443296215984e-05
-2.1603227561004606e-05   2.1910454348986343e-06   -2.3211443296215984e-05
-1.023956965639094e-05   2.4507932709146734e-06   -4.116164753583508e-06
-1.023956965639094e-05   2.4507932709146734e-06   -4.116164753583508e-06
-1.023956965639094e-05   2.4507932709146734e-06   -4.116164753583508e-06
-1.023956965639094e-05   2.4507932709146734e-06   -4.116164753583508e-06
-1.0307791239139097e-05   2.689032869138713e-06   -2.2625722759449737e-05
-1.0307791239139097e-05   2.689032869138713e-06   -2.2625722759449737e-05
-1.0307791239139097e-05   2.689032869138713e-06   -2.2625722759449737e-05
-1.0307791239139097e-05   2.689032869138713e-06   -2.2625722759449737e-05
-2.170656152042062e-05   3.0300396559299373e-06   -3.832376362721966e-06
-2.170656152042062e-05   3.0300396559299373e-06   -3.832376362721966e-06
-2.170656152042062e-05   3.0300396559299373e-06   -3.832376362721966e-06
-2.170656152042062e-05   3.0300396559299373e-06   -3.832376362721966e-06
-1.5803957199740054e-05   2.5071612650688798e-06   -1.3356323196006205e-05
-1.5803957199740054e-05   2.5071612650688798e-06   -1.3356323196006205e-05
-1.5803957199740054e-05   2.5071612650688798e-06   -1.3356323196006205e-05
-1.5803957199740054e-05   2.5071612650688798e-06   -1.3356323196006205e-05
-2.170656152042062e-05   2.689032869138713e-06   -2.2830326831524467e-05
-2.170656152042062e-05   2.689032869138713e-06   -2.2830326831524467e-05
-2.170656152042062e-05   2.689032869138713e-06   -2.2830326831524467e-05
-2.170656152042062e-05   2.689032869138713e-06   -2.2830326831524467e-05
-1.0307791239139133e-05   3.030039655929951e-06   -3.627772290647231e-06
-1.0307791239139133e-05   3.030039655929951e-06   -3.627772290647231e-06
-1.0307791239139133e-05   3.030039655929951e-06   -3.627772290647231e-06
-1.0307791239139133e-05   3.030039655929951e-06   -3.627772290647231e-06
-1.0276104382109038e-05   3.1317331217612025e-06   -2.2397011643900222e-05
-1.0276104382109038e-05   3.1317331217612025e-06   -2.2397011643900222e-05
-1.0276104382109038e-05   3.1317331217612025e-06   -2.2397011643900222e-05
-1.0276104382109038e-05   3.1317331217612025e-06   -2.2397011643900222e-05
-2.1576063915254086e-05   3.6539410383058736e-06   -3.877070505251963e-06
-2.1576063915254086e-05   3.6539410383058736e-06   -3.877070505251963e-06
-2.1576063915254086e-05   3.6539410383058736e-06   -3.877070505251963e-06
-2.1576063915254086e-05   3.6539410383058736e-06   -3.877070505251963e-06
-1.589031041024707e-05   2.9908608156429796e-06   -1.2955478213332642e-05
-1.589031041024707e-05   2.9908608156429796e-06   -1.2955478213332642e-05
-1.589031041024707e-05   2.9908608156429796e-06   -1.2955478213332642e-05
-1.589031041024707e-05   2.9908608156429796e-06   -1.2955478213332642e-05
-1.0007024254989596e-05   -1.9956753938014569e-07   -2.4190318215415597e-05
-1.0007024254989596e-05   -1.9956753938014569e-07   -2.4190318215415597e-05
-1.0007024254989596e-05   -1.9956753938014569e-07   -2.4190318215415597e-05
-1.0007024254989596e-05   -1.9956753938014569e-07   -2.4190318215415597e-05
9.241771778901339e-07   -5.403324592316854e-08   -5.884328584541852e-06
9.241771778901339e-07   -5.403324592316854e-08   -5.884328584541852e-06
9.241771778901339e-07   -5.403324592316854e-08   -5.884328584541852e-06
9.241771778901339e-07   -5.403324592316854e-08   -5.884328584541852e-06
8.854545084458046e-07   3.897649361385254e-07   -2.432048118954347e-05
8.854545084458046e-07   3.897649361385254e-07   -2.432048118954347e-05
8.854545084458046e-07   3.897649361385254e-07   -2.432048118954347e-05
8.854545084458046e-07   3.897649361385254e-07   -2.432048118954347e-05
-1.0239569656390925e-05   5.902219710301858e-07   -5.899048469083828e-06
-1.0239569656390925e-05   5.902219710301858e-07   -5.899048469083828e-06
-1.0239569656390925e-05   5.902219710301858e-07   -5.899048469083828e-06
-1.0239569656390925e-05   5.902219710301858e-07   -5.899048469083828e-06
-4.63638428286979e-06   1.9662791326678815e-07   -1.5001534323627743e-05
-4.63638428286979e-06   1.9662791326678815e-07   -1.5001534323627743e-05
-4.63638428286979e-06   1.9662791326678815e-07   -1.5001534323627743e-05
-4.63638428286979e-06   1.9662791326678815e-07   -1.5001534323627743e-05
-1.0239569656390925e-05   3.897649361385186e-07   -2.444075541047842e-05
-1.0239569656390925e-05   3.897649361385186e-07   -2.444075541047842e-05
-1.0239569656390925e-05   3.897649361385186e-07   -2.444075541047842e-05
-1.0239569656390925e-05   3.897649361385186e-07   -2.444075541047842e-05
8.854545084458046e-07   5.902219710301858e-07   -5.778774248148848e-06
8.854545084458046e-07   5.902219710301858e-07   -5.778774248148848e-06
8.854545084458046e-07   5.902219710301858e-07   -5.778774248148848e-06
8.854545084458046e-07   5.902219710301858e-07   -5.778774248148848e-06
8.310446671931994e-07   9.092274978573115e-07   -2.4369642994646022e-05
8.310446671931994e-07   9.092274978573115e-07   -2.4369642994646022e-05
8.310446671931994e-07   9.092274978573115e-07   -2.4369642994646022e-05
8.310446671931994e-07   9.092274978573115e-07   -2.4369642994646022e-05
-1.0307791239139097e-05   1.2199362102315481e-06   -5.991341711516753e-06
-1.0307791239139097e-05   1.2199362102315481e-06   -5.991341711516753e-06
-1.0307791239139097e-05   1.2199362102315481e-06   -5.991341711516753e-06
-1.0307791239139097e-05   1.2199362102315481e-06   -5.991341711516753e-06
-4.716265688291679e-06   7.420987682272266e-07   -1.5023848497726461e-05
-4.716265688291679e-06   7.420987682272266e-07   -1.5023848497726461e-05
-4.716265688291679e-06   7.420987682272266e-07   -1.5023848497726461e-05
-4.716265688291679e-06   7.420987682272266e-07   -1.5023848497726461e-05
-1.0307791239139097e-05   9.092274978573115e-07   -2.4556068222070554e-05
-1.0307791239139097e-05   9.092274978573115e-07   -2.4556068222070554e-05
-1.0307791239139097e-05   9.092274978573115e-07   -2.4556068222070554e-05
-1.0307791239139097e-05   9.092274978573115e-07   -2.4556068222070554e-05
8.310446671932009e-07   1.2199362102315481e-06   -5.804916484092221e-06
8.310446671932009e-07   1.2199362102315481e-06   -5.804916484092221e-06
8.310446671932009e-07   1.2199362102315481e-06   -5.804916484092221e-06
8.310446671932009e-07   1.2199362102315481e-06   -5.804916484092221e-06
7.140887859657183e-07   1.5102133463239828e-06   -2.4328540785472977e-05
7.140887859657183e-07   1.5102133463239828e-06   -2.4328540785472977e-05
7.140887859657183e-07   1.5102133463239828e-06   -2.4328540785472977e-05
7.140887859657183e-07   1.5102133463239828e-06   -2.4328540785472977e-05
-1.0276104382109047e-05   1.8757662681669247e-06   -6.230883925120815e-06
-1.0276104382109047e-05   1.8757662681669247e-06   -6.230883925120815e-06
-1.0276104382109047e-05   1.8757662681669247e-06   -6.230883925120815e-06
-1.0276104382109047e-05   1.8757662681669247e-06   -6.230883925120815e-06
-4.761983315186204e-06   1.3024713098095075e-06   -1.5077108728311092e-05
-4.761983315186204e-06   1.3024713098095075e-06   -1.5077108728311092e-05
-4.761983315186204e-06   1.3024713098095075e-06   -1.5077108728311092e-05
-4.761983315186204e-06   1.3024713098095075e-06   -1.5077108728311092e-05
9.241771778901339e-07   -1.7468960589475817e-06   -2.2316245206472187e-05
9.241771778901339e-07   -1.7468960589475817e-06   -2.2316245206472187e-05
9.241771778901339e-07   -1.7468960589475817e-06   -2.2316245206472187e-05
9.241771778901339e-07   -1.7468960589475817e-06   -2.2316245206472187e-05
1.2188634722008445e-05   -1.7954209816976549e-06   -3.5712642532583644e-06
1.2188634722008445e-05   -1.7954209816976549e-06   -3.5712642532583644e-06
1.2188634722008445e-05   -1.7954209816976549e-06   -3.5712642532583644e-06
1.2188634722008445e-05   -1.7954209816976549e-06   -3.5712642532583644e-06
1.22961003751595e-05   -1.313684856759105e-06   -2.2620204912603745e-05
1.22961003751595e-05   -1.313684856759105e-06   -2.2620204912603745e-05
1.22961003751595e-05   -1.313684856759105e-06   -2.2620204912603745e-05
1.22961003751595e-05   -1.313684856759105e-06   -2.2620204912603745e-05
8.854545084458046e-07   -1.2087553800897022e-06   -3.6654194874158523e-06
8.854545084458046e-07   -1.2087553800897022e-06   -3.6654194874158523e-06
8.854545084458046e-07   -1.2087553800897022e-06   -3.6654194874158523e-06
8.854545084458046e-07   -1.2087553800897022e-06   -3.6654194874158523e-06
6.489709214347566e-06   -1.4490636513595255e-06   -1.2861659034490269e-05
6.489709214347566e-06   -1.4490636513595255e-06   -1.2861659034490269e-05
6.489709214347566e-06   -1.4490636513595255e-06   -1.2861659034490269e-05
6.489709214347566e-06   -1.4490636513595255e-06   -1.2861659034490269e-05
8.854545084458032e-07   -1.313684856759105e-06   -2.2683162598605427e-05
8.854545084458032e-07   -1.313684856759105e-06   -2.2683162598605427e-05
8.854545084458032e-07   -1.313684856759105e-06   -2.2683162598605427e-05
8.854545084458032e-07   -1.313684856759105e-06   -2.2683162598605427e-05
1.2296100375159521e-05   -1.2087553800897022e-06   -3.6024618014141903e-06
1.2296100375159521e-05   -1.2087553800897022e-06   -3.6024618014141903e-06
1.2296100375159521e-05   -1.2087553800897022e-06   -3.6024618014141903e-06
1.2296100375159521e-05   -1.2087553800897022e-06   -3.6024618014141903e-06
1.2243249703305912e-05   -8.214511989470581e-07   -2.3039469611359755e-05
1.2243249703305912e-05   -8.214511989470581e-07   -2.3039469611359755e-05
1.2243249703305912e-05   -8.214511989470581e-07   -2.3039469611359755e-05
1.2243249703305912e-05   -8.214511989470581e-07   -2.3039469611359755e-05
8.310446671931994e-07   -6.348977096854315e-07   -4.131059978062243e-06
8.310446671931994e-07   -6.348977096854315e-07   -4.131059978062243e-06
8.310446671931994e-07   -6.348977096854315e-07   -4.131059978062243e-06
8.310446671931994e-07   -6.348977096854315e-07   -4.131059978062243e-06
6.426625721820426e-06   -9.819172494387936e-07   -1.32488166785889e-05
6.426625721820426e-06   -9.819172494387936e-07   -1.32488166785889e-05
6.426625721820426e-06   -9.819172494387936e-07   -1.32488166785889e-05
6.426625721820426e-06   -9.819172494387936e-07   -1.32488166785889e-05
8.310446671931986e-07   -8.214511989470581e-07   -2.315140170491674e-05
8.310446671931986e-07   -8.214511989470581e-07   -2.315140170491674e-05
8.310446671931986e-07   -8.214511989470581e-07   -2.315140170491674e-05
8.310446671931986e-07   -8.214511989470581e-07   -2.315140170491674e-05
1.2243249703305953e-05   -6.348977096854315e-07   -4.019127884505262e-06
1.2243249703305953e-05   -6.348977096854315e-07   -4.019127884505262e-06
1.2243249703305953e-05   -6.348977096854315e-07   -4.019127884505262e-06
1.2243249703305953e-05   -6.348977096854315e-07   -4.019127884505262e-06
1.1891047303060237e-05   -1.6074625457758782e-07   -2.308113924792967e-05
1.1891047303060237e-05   -1.6074625457758782e-07   -2.308113924792967e-05
1.1891047303060237e-05   -1.6074625457758782e-07   -2.308113924792967e-05
1.1891047303060237e-05   -1.6074625457758782e-07   -2.308113924792967e-05
7.140887859657183e-07   7.38818133676981e-08   -4.59365189353934e-06
7.140887859657183e-07   7.38818133676981e-08   -4.59365189353934e-06
7.140887859657183e-07   7.38818133676981e-08   -4.59365189353934e-06
7.140887859657183e-07   7.38818133676981e-08   -4.59365189353934e-06
6.362428918641267e-06   -4.363881612579447e-07   -1.370139012988985e-05
6.362428918641267e-06   -4.363881612579447e-07   -1.370139012988985e-05
6.362428918641267e-06   -4.363881612579447e-07   -1.370139012988985e-05
6.362428918641267e-06   -4.363881612579447e-07   -1.370139012988985e-05
1.2188634722008445e-05   -4.437945085597243e-06   -1.3499763260528237e-05
1.2188634722008445e-05   -4.437945085597243e-06   -1.3499763260528237e-05
1.2188634722008445e-05   -4.437945085597243e-06   -1.3499763260528237e-05
1.2188634722008445e-05   -4.437945085597243e-06   -1.3499763260528237e-05
2.329219049719789e-05   -3.3309657599765442e-06   5.670350626826555e-06
2.329219049719789e-05   -3.3309657599765442e-06   5.670350626826555e-06
2.329219049719789e-05   -3.3309657599765442e-06   5.670350626826555e-06
2.329219049719789e-05   -3.3309657599765442e-06   5.670350626826555e-06
2.419596395026738e-05   -3.7684702763413557e-06   -1.6375612454601037e-05
2.419596395026738e-05   -3.7684702763413557e-06   -1.6375612454601037e-05
2.419596395026738e-05   -3.7684702763413557e-06   -1.6375612454601037e-05
2.419596395026738e-05   -3.7684702763413557e-06   -1.6375612454601037e-05
1.2296100375159543e-05   -3.0157717256893313e-06   3.005874373520862e-06
1.2296100375159543e-05   -3.0157717256893313e-06   3.005874373520862e-06
1.2296100375159543e-05   -3.0157717256893313e-06   3.005874373520862e-06
1.2296100375159543e-05   -3.0157717256893313e-06   3.005874373520862e-06
1.7156082702365924e-05   -3.6213691377744227e-06   -4.730737724572088e-06
1.7156082702365924e-05   -3.6213691377744227e-06   -4.730737724572088e-06
1.7156082702365924e-05   -3.6213691377744227e-06   -4.730737724572088e-06
1.7156082702365924e-05   -3.6213691377744227e-06   -4.730737724572088e-06
1.229610037515951e-05   -3.768470276341349e-06   -1.6827231584992194e-05
1.229610037515951e-05   -3.768470276341349e-06   -1.6827231584992194e-05
1.229610037515951e-05   -3.768470276341349e-06   -1.6827231584992194e-05
1.229610037515951e-05   -3.768470276341349e-06   -1.6827231584992194e-05
2.419596395026738e-05   -3.0157717256893313e-06   3.45749350391207e-06
2.419596395026738e-05   -3.0157717256893313e-06   3.45749350391207e-06
2.419596395026738e-05   -3.0157717256893313e-06   3.45749350391207e-06
2.419596395026738e-05   -3.0157717256893313e-06   3.45749350391207e-06
2.411661621478435e-05   -3.440867562847694e-06   -1.7800425171241566e-05
2.411661621478435e-05   -3.440867562847694e-06   -1.7800425171241566e-05
2.411661621478435e-05   -3.440867562847694e-06   -1.7800425171241566e-05
2.411661621478435e-05   -3.440867562847694e-06   -1.7800425171241566e-05
1.2243249703305953e-05   -2.685697905938382e-06   1.5354172204101689e-06
1.2243249703305953e-05   -2.685697905938382e-06   1.5354172204101689e-06
1.2243249703305953e-05   -2.685697905938382e-06   1.5354172204101689e-06
1.2243249703305953e-05   -2.685697905938382e-06   1.5354172204101689e-06
1.776652270642482e-05   -3.1938980510602823e-06   -7.365117697714796e-06
1.776652270642482e-05   -3.1938980510602823e-06   -7.365117697714796e-06
1.776652270642482e-05   -3.1938980510602823e-06   -7.365117697714796e-06
1.776652270642482e-05   -3.1938980510602823e-06   -7.365117697714796e-06
1.2243249703305934e-05   -3.4408675628476803e-06   -1.8253526965387114e-05
1.2243249703305934e-05   -3.4408675628476803e-06   -1.8253526965387114e-05
1.2243249703305934e-05   -3.4408675628476803e-06   -1.8253526965387114e-05
1.2243249703305934e-05   -3.4408675628476803e-06   -1.8253526965387114e-05
2.411661621478435e-05   -2.685697905938382e-06   1.988519014555748e-06
2.411661621478435e-05   -2.685697905938382e-06   1.988519014555748e-06
2.411661621478435e-05   -2.685697905938382e-06   1.988519014555748e-06
2.411661621478435e-05   -2.685697905938382e-06   1.988519014555748e-06
2.398380173172299e-05   -2.665492307318666e-06   -2.071128762150395e-05
2.398380173172299e-05   -2.665492307318666e-06   -2.071128762150395e-05
2.398380173172299e-05   -2.665492307318666e-06   -2.071128762150395e-05
2.398380173172299e-05   -2.665492307318666e-06   -2.071128762150395e-05
1.189104730306028e-05   -1.9759447444916295e-06   -9.704254447623318e-07
1.189104730306028e-05   -1.9759447444916295e-06   -9.704254447623318e-07
1.189104730306028e-05   -1.9759447444916295e-06   -9.704254447623318e-07
1.189104730306028e-05   -1.9759447444916295e-06   -9.704254447623318e-07
1.7265962783856073e-05   -2.7469723327960697e-06   -9.466001359772647e-06
1.7265962783856073e-05   -2.7469723327960697e-06   -9.466001359772647e-06
1.7265962783856073e-05   -2.7469723327960697e-06   -9.466001359772647e-06
1.7265962783856073e-05   -2.7469723327960697e-06   -9.466001359772647e-06
-2.61080542093932e-05   3.7645709132960628e-06   -1.8092068795356363e-05
-2.61080542093932e-05   3.7645709132960628e-06   -1.8092068795356363e-05
-2.61080542093932e-05   3.7645709132960628e-06   -1.8092068795356363e-05
-2.61080542093932e-05   3.7645709132960628e-06   -1.8092068795356363e-05
-1.7139233360422362e-05   2.8682404880483667e-06   -3.681832302220234e-06
-1.7139233360422362e-05   2.8682404880483667e-06   -3.681832302220234e-06
-1.7139233360422362e-05   2.8682404880483667e-06   -3.681832302220234e-06
-1.7139233360422362e-05   2.8682404880483667e-06   -3.681832302220234e-06
-1.7218473440518252e-05   4.524724351154347e-06   -1.5026164879253386e-05
-1.7218473440518252e-05   4.524724351154347e-06   -1.5026164879253386e-05
-1.7218473440518252e-05   4.524724351154347e-06   -1.5026164879253386e-05
-1.7218473440518252e-05   4.524724351154347e-06   -1.5026164879253386e-05
-2.5701860159814473e-05   3.4742287647014105e-06   -2.5688966188793416e-07
-2.5701860159814473e-05   3.4742287647014105e-06   -2.5688966188793416e-07
-2.5701860159814473e-05   3.4742287647014105e-06   -2.5688966188793416e-07
-2.5701860159814473e-05   3.4742287647014105e-06   -2.5688966188793416e-07
-2.063031156695516e-05   3.830255734531556e-06   -8.923086831884953e-06
-2.063031156695516e-05   3.830255734531556e-06   -8.923086831884953e-06
-2.063031156695516e-05   3.830255734531556e-06   -8.923086831884953e-06
-2.063031156695516e-05   3.830255734531556e-06   -8.923086831884953e-06
-2.5701860159814473e-05   4.524724351154347e-06   -1.4395867527381624e-05
-2.5701860159814473e-05   4.524724351154347e-06   -1.4395867527381624e-05
-2.5701860159814473e-05   4.524724351154347e-06   -1.4395867527381624e-05
-2.5701860159814473e-05   4.524724351154347e-06   -1.4395867527381624e-05
-1.7218473440518252e-05   3.4742287647014105e-06   -8.87187013759642e-07
-1.7218473440518252e-05   3.4742287647014105e-06   -8.87187013759642e-07
-1.7218473440518252e-05   3.4742287647014105e-06   -8.87187013759642e-07
-1.7218473440518252e-05   3.4742287647014105e-06   -8.87187013759642e-07
-1.7197180995348766e-05   4.86804939879504e-06   -1.2858216686844037e-05
-1.7197180995348766e-05   4.86804939879504e-06   -1.2858216686844037e-05
-1.7197180995348766e-05   4.86804939879504e-06   -1.2858216686844037e-05
-1.7197180995348766e-05   4.86804939879504e-06   -1.2858216686844037e-05
-2.5307961588695165e-05   3.741256323746764e-06   1.3358268137621634e-06
-2.5307961588695165e-05   3.741256323746764e-06   1.3358268137621634e-06
-2.5307961588695165e-05   3.741256323746764e-06   1.3358268137621634e-06
-2.5307961588695165e-05   3.741256323746764e-06   1.3358268137621634e-06
-2.0802859774794205e-05   4.181482567679982e-06   -6.43681195576581e-06
-2.0802859774794205e-05   4.181482567679982e-06   -6.43681195576581e-06
-2.0802859774794205e-05   4.181482567679982e-06   -6.43681195576581e-06
-2.0802859774794205e-05   4.181482567679982e-06   -6.43681195576581e-06
-2.5307961588695165e-05   4.86804939879504e-06   -1.2182140841815112e-05
-2.5307961588695165e-05   4.86804939879504e-06   -1.2182140841815112e-05
-2.5307961588695165e-05   4.86804939879504e-06   -1.2182140841815112e-05
-2.5307961588695165e-05   4.86804939879504e-06   -1.2182140841815112e-05
-1.7197180995348813e-05   3.741256323746791e-06   6.597509687333264e-07
-1.7197180995348813e-05   3.741256323746791e-06   6.597509687333264e-07
-1.7197180995348813e-05   3.741256323746791e-06   6.597509687333264e-07
-1.7197180995348813e-05   3.741256323746791e-06   6.597509687333264e-07
-1.7211867293749163e-05   5.144477269567309e-06   -9.828770158066202e-06
-1.7211867293749163e-05   5.144477269567309e-06   -9.828770158066202e-06
-1.7211867293749163e-05   5.144477269567309e-06   -9.828770158066202e-06
-1.7211867293749163e-05   5.144477269567309e-06   -9.828770158066202e-06
-2.4796485068851688e-05   4.006662203705257e-06   3.494948506621787e-06
-2.4796485068851688e-05   4.006662203705257e-06   3.494948506621787e-06
-2.4796485068851688e-05   4.006662203705257e-06   3.494948506621787e-06
-2.4796485068851688e-05   4.006662203705257e-06   3.494948506621787e-06
-2.032425350212546e-05   4.3683474064811964e-06   -4.17578189292052e-06
-2.032425350212546e-05   4.3683474064811964e-06   -4.17578189292052e-06
-2.032425350212546e-05   4.3683474064811964e-06   -4.17578189292052e-06
-2.032425350212546e-05   4.3683474064811964e-06   -4.17578189292052e-06
-1.7139233360422362e-05   1.7519329842283579e-06   -2.1018032922158565e-05
-1.7139233360422362e-05   1.7519329842283579e-06   -2.1018032922158565e-05
-1.7139233360422362e-05   1.7519329842283579e-06   -2.1018032922158565e-05
-1.7139233360422362e-05   1.7519329842283579e-06   -2.1018032922158565e-05
-8.748273147817998e-06   1.4333208550923438e-06   -7.224266511966224e-06
-8.748273147817998e-06   1.4333208550923438e-06   -7.224266511966224e-06
-8.748273147817998e-06   1.4333208550923438e-06   -7.224266511966224e-06
-8.748273147817998e-06   1.4333208550923438e-06   -7.224266511966224e-06
-8.851563345373185e-06   2.4507932709146734e-06   -2.0717797215547088e-05
-8.851563345373185e-06   2.4507932709146734e-06   -2.0717797215547088e-05
-8.851563345373185e-06   2.4507932709146734e-06   -2.0717797215547088e-05
-8.851563345373185e-06   2.4507932709146734e-06   -2.0717797215547088e-05
-1.7218473440518218e-05   2.0299719630254356e-06   -6.520454272238409e-06
-1.7218473440518218e-05   2.0299719630254356e-06   -6.520454272238409e-06
-1.7218473440518218e-05   2.0299719630254356e-06   -6.520454272238409e-06
-1.7218473440518218e-05   2.0299719630254356e-06   -6.520454272238409e-06
-1.2877738198869139e-05   2.0247257885570955e-06   -1.3751865303639286e-05
-1.2877738198869139e-05   2.0247257885570955e-06   -1.3751865303639286e-05
-1.2877738198869139e-05   2.0247257885570955e-06   -1.3751865303639286e-05
-1.2877738198869139e-05   2.0247257885570955e-06   -1.3751865303639286e-05
-1.721847344051823e-05   2.4507932709146734e-06   -2.0465304430813472e-05
-1.721847344051823e-05   2.4507932709146734e-06   -2.0465304430813472e-05
-1.721847344051823e-05   2.4507932709146734e-06   -2.0465304430813472e-05
-1.721847344051823e-05   2.4507932709146734e-06   -2.0465304430813472e-05
-8.851563345373199e-06   2.0299719630254356e-06   -6.77294705697194e-06
-8.851563345373199e-06   2.0299719630254356e-06   -6.77294705697194e-06
-8.851563345373199e-06   2.0299719630254356e-06   -6.77294705697194e-06
-8.851563345373199e-06   2.0299719630254356e-06   -6.77294705697194e-06
-8.91752273603399e-06   3.0300396559299373e-06   -2.017059859031213e-05
-8.91752273603399e-06   3.0300396559299373e-06   -2.017059859031213e-05
-8.91752273603399e-06   3.0300396559299373e-06   -2.017059859031213e-05
-8.91752273603399e-06   3.0300396559299373e-06   -2.017059859031213e-05
-1.7197180995348766e-05   2.5610380367593075e-06   -6.089767186618557e-06
-1.7197180995348766e-05   2.5610380367593075e-06   -6.089767186618557e-06
-1.7197180995348766e-05   2.5610380367593075e-06   -6.089767186618557e-06
-1.7197180995348766e-05   2.5610380367593075e-06   -6.089767186618557e-06
-1.2898889699610379e-05   2.51625913976874e-06   -1.3226718674654644e-05
-1.2898889699610379e-05   2.51625913976874e-06   -1.3226718674654644e-05
-1.2898889699610379e-05   2.51625913976874e-06   -1.3226718674654644e-05
-1.2898889699610379e-05   2.51625913976874e-06   -1.3226718674654644e-05
-1.7197180995348766e-05   3.0300396559299373e-06   -1.988919761880977e-05
-1.7197180995348766e-05   3.0300396559299373e-06   -1.988919761880977e-05
-1.7197180995348766e-05   3.0300396559299373e-06   -1.988919761880977e-05
-1.7197180995348766e-05   3.0300396559299373e-06   -1.988919761880977e-05
-8.91752273603402e-06   2.5610380367593075e-06   -6.371168158120851e-06
-8.91752273603402e-06   2.5610380367593075e-06   -6.371168158120851e-06
-8.91752273603402e-06   2.5610380367593075e-06   -6.371168158120851e-06
-8.91752273603402e-06   2.5610380367593075e-06   -6.371168158120851e-06
-9.00397306739212e-06   3.6539410383059007e-06   -2.012272297744806e-05
-9.00397306739212e-06   3.6539410383059007e-06   -2.012272297744806e-05
-9.00397306739212e-06   3.6539410383059007e-06   -2.012272297744806e-05
-9.00397306739212e-06   3.6539410383059007e-06   -2.012272297744806e-05
-1.721186729374915e-05   3.1270088489853862e-06   -6.126739953260708e-06
-1.721186729374915e-05   3.1270088489853862e-06   -6.126739953260708e-06
-1.721186729374915e-05   3.1270088489853862e-06   -6.126739953260708e-06
-1.721186729374915e-05   3.1270088489853862e-06   -6.126739953260708e-06
-1.3048959864420875e-05   3.0040048622818286e-06   -1.2991116610118857e-05
-1.3048959864420875e-05   3.0040048622818286e-06   -1.2991116610118857e-05
-1.3048959864420875e-05   3.0040048622818286e-06   -1.2991116610118857e-05
-1.3048959864420875e-05   3.0040048622818286e-06   -1.2991116610118857e-05
-8.748273147817985e-06   -5.403324592316854e-08   -2.2670923256313725e-05
-8.748273147817985e-06   -5.403324592316854e-08   -2.2670923256313725e-05
-8.748273147817985e-06   -5.403324592316854e-08   -2.2670923256313725e-05
-8.748273147817985e-06   -5.403324592316854e-08   -2.2670923256313725e-05
-4.480038625059457e-07   7.692367204504983e-08   -8.758566963346063e-06
-4.480038625059457e-07   7.692367204504983e-08   -8.758566963346063e-06
-4.480038625059457e-07   7.692367204504983e-08   -8.758566963346063e-06
-4.480038625059457e-07   7.692367204504983e-08   -8.758566963346063e-06
-5.305059067058197e-07   5.902219710301722e-07   -2.245572469685991e-05
-5.305059067058197e-07   5.902219710301722e-07   -2.245572469685991e-05
-5.305059067058197e-07   5.902219710301722e-07   -2.245572469685991e-05
-5.305059067058197e-07   5.902219710301722e-07   -2.245572469685991e-05
-8.851563345373185e-06   6.651490280092608e-07   -8.632251866601781e-06
-8.851563345373185e-06   6.651490280092608e-07   -8.632251866601781e-06
-8.851563345373185e-06   6.651490280092608e-07   -8.632251866601781e-06
-8.851563345373185e-06   6.651490280092608e-07   -8.632251866601781e-06
-4.618077570881297e-06   3.8822661659664655e-07   -1.552190804390735e-05
-4.618077570881297e-06   3.8822661659664655e-07   -1.552190804390735e-05
-4.618077570881297e-06   3.8822661659664655e-07   -1.552190804390735e-05
-4.618077570881297e-06   3.8822661659664655e-07   -1.552190804390735e-05
-8.851563345373185e-06   5.902219710301858e-07   -2.2500680931047392e-05
-8.851563345373185e-06   5.902219710301858e-07   -2.2500680931047392e-05
-8.851563345373185e-06   5.902219710301858e-07   -2.2500680931047392e-05
-8.851563345373185e-06   5.902219710301858e-07   -2.2500680931047392e-05
-5.305059067058201e-07   6.651490280092879e-07   -8.587295632414292e-06
-5.305059067058201e-07   6.651490280092879e-07   -8.587295632414292e-06
-5.305059067058201e-07   6.651490280092879e-07   -8.587295632414292e-06
-5.305059067058201e-07   6.651490280092879e-07   -8.587295632414292e-06
-5.890892548630124e-07   1.2199362102315481e-06   -2.2515101006977654e-05
-5.890892548630124e-07   1.2199362102315481e-06   -2.2515101006977654e-05
-5.890892548630124e-07   1.2199362102315481e-06   -2.2515101006977654e-05
-5.890892548630124e-07   1.2199362102315481e-06   -2.2515101006977654e-05
-8.917522736034007e-06   1.2517145505715904e-06   -8.653445542563442e-06
-8.917522736034007e-06   1.2517145505715904e-06   -8.653445542563442e-06
-8.917522736034007e-06   1.2517145505715904e-06   -8.653445542563442e-06
-8.917522736034007e-06   1.2517145505715904e-06   -8.653445542563442e-06
-4.725423623063131e-06   9.072215910919078e-07   -1.543358162182698e-05
-4.725423623063131e-06   9.072215910919078e-07   -1.543358162182698e-05
-4.725423623063131e-06   9.072215910919078e-07   -1.543358162182698e-05
-4.725423623063131e-06   9.072215910919078e-07   -1.543358162182698e-05
-8.917522736034007e-06   1.2199362102315481e-06   -2.253416801118172e-05
-8.917522736034007e-06   1.2199362102315481e-06   -2.253416801118172e-05
-8.917522736034007e-06   1.2199362102315481e-06   -2.253416801118172e-05
-8.917522736034007e-06   1.2199362102315481e-06   -2.253416801118172e-05
-5.890892548630133e-07   1.2517145505715904e-06   -8.634378538359321e-06
-5.890892548630133e-07   1.2517145505715904e-06   -8.634378538359321e-06
-5.890892548630133e-07   1.2517145505715904e-06   -8.634378538359321e-06
-5.890892548630133e-07   1.2517145505715904e-06   -8.634378538359321e-06
-6.828247736698354e-07   1.8757662681669247e-06   -2.2804231826957825e-05
-6.828247736698354e-07   1.8757662681669247e-06   -2.2804231826957825e-05
-6.828247736698354e-07   1.8757662681669247e-06   -2.2804231826957825e-05
-6.828247736698354e-07   1.8757662681669247e-06   -2.2804231826957825e-05
-9.003973067392113e-06   1.8518151353100329e-06   -8.921280657706654e-06
-9.003973067392113e-06   1.8518151353100329e-06   -8.921280657706654e-06
-9.003973067392113e-06   1.8518151353100329e-06   -8.921280657706654e-06
-9.003973067392113e-06   1.8518151353100329e-06   -8.921280657706654e-06
-4.839627212580201e-06   1.4323909975200015e-06   -1.5610202599719026e-05
-4.839627212580201e-06   1.4323909975200015e-06   -1.5610202599719026e-05
-4.839627212580201e-06   1.4323909975200015e-06   -1.5610202599719026e-05
-4.839627212580201e-06   1.4323909975200015e-06   -1.5610202599719026e-05
-4.480038625059468e-07   -1.7954209816976549e-06   -2.0250169820599238e-05
-4.480038625059468e-07   -1.7954209816976549e-06   -2.0250169820599238e-05
-4.480038625059468e-07   -1.7954209816976549e-06   -2.0250169820599238e-05
-4.480038625059468e-07   -1.7954209816976549e-06   -2.0250169820599238e-05
7.804461048304821e-06   -1.1985105409102997e-06   -6.137915371442245e-06
7.804461048304821e-06   -1.1985105409102997e-06   -6.137915371442245e-06
7.804461048304821e-06   -1.1985105409102997e-06   -6.137915371442245e-06
7.804461048304821e-06   -1.1985105409102997e-06   -6.137915371442245e-06
7.801420397454206e-06   -1.2087553800897022e-06   -2.0011936731883137e-05
7.801420397454206e-06   -1.2087553800897022e-06   -2.0011936731883137e-05
7.801420397454206e-06   -1.2087553800897022e-06   -2.0011936731883137e-05
7.801420397454206e-06   -1.2087553800897022e-06   -2.0011936731883137e-05
-5.305059067058201e-07   -6.58033373016596e-07   -6.45582609586026e-06
-5.305059067058201e-07   -6.58033373016596e-07   -6.45582609586026e-06
-5.305059067058201e-07   -6.58033373016596e-07   -6.45582609586026e-06
-5.305059067058201e-07   -6.58033373016596e-07   -6.45582609586026e-06
3.6293728665945646e-06   -1.172073382298117e-06   -1.3080533379125342e-05
3.6293728665945646e-06   -1.172073382298117e-06   -1.3080533379125342e-05
3.6293728665945646e-06   -1.172073382298117e-06   -1.3080533379125342e-05
3.6293728665945646e-06   -1.172073382298117e-06   -1.3080533379125342e-05
-5.305059067058201e-07   -1.2087553800897022e-06   -2.0342369936126955e-05
-5.305059067058201e-07   -1.2087553800897022e-06   -2.0342369936126955e-05
-5.305059067058201e-07   -1.2087553800897022e-06   -2.0342369936126955e-05
-5.305059067058201e-07   -1.2087553800897022e-06   -2.0342369936126955e-05
7.801420397454206e-06   -6.580333730166232e-07   -6.125392891616376e-06
7.801420397454206e-06   -6.580333730166232e-07   -6.125392891616376e-06
7.801420397454206e-06   -6.580333730166232e-07   -6.125392891616376e-06
7.801420397454206e-06   -6.580333730166232e-07   -6.125392891616376e-06
7.84272457142634e-06   -6.348977096854179e-07   -2.053713703790271e-05
7.84272457142634e-06   -6.348977096854179e-07   -2.053713703790271e-05
7.84272457142634e-06   -6.348977096854179e-07   -2.053713703790271e-05
7.84272457142634e-06   -6.348977096854179e-07   -2.053713703790271e-05
-5.890892548630141e-07   -1.2805193794367445e-07   -6.788221457132221e-06
-5.890892548630141e-07   -1.2805193794367445e-07   -6.788221457132221e-06
-5.890892548630141e-07   -1.2805193794367445e-07   -6.788221457132221e-06
-5.890892548630141e-07   -1.2805193794367445e-07   -6.788221457132221e-06
3.5191625330043203e-06   -7.037246870451647e-07   -1.3289904120783436e-05
3.5191625330043203e-06   -7.037246870451647e-07   -1.3289904120783436e-05
3.5191625330043203e-06   -7.037246870451647e-07   -1.3289904120783436e-05
3.5191625330043203e-06   -7.037246870451647e-07   -1.3289904120783436e-05
-5.890892548630128e-07   -6.348977096854315e-07   -2.084124450094766e-05
-5.890892548630128e-07   -6.348977096854315e-07   -2.084124450094766e-05
-5.890892548630128e-07   -6.348977096854315e-07   -2.084124450094766e-05
-5.890892548630128e-07   -6.348977096854315e-07   -2.084124450094766e-05
7.84272457142634e-06   -1.2805193794370156e-07   -6.484113994087079e-06
7.84272457142634e-06   -1.2805193794370156e-07   -6.484113994087079e-06
7.84272457142634e-06   -1.2805193794370156e-07   -6.484113994087079e-06
7.84272457142634e-06   -1.2805193794370156e-07   -6.484113994087079e-06
7.785886430068156e-06   7.38818133676981e-08   -2.1136386471599022e-05
7.785886430068156e-06   7.38818133676981e-08   -2.1136386471599022e-05
7.785886430068156e-06   7.38818133676981e-08   -2.1136386471599022e-05
7.785886430068156e-06   7.38818133676981e-08   -2.1136386471599022e-05
-6.828247736698366e-07   4.904569415062701e-07   -7.271812875585572e-06
-6.828247736698366e-07   4.904569415062701e-07   -7.271812875585572e-06
-6.828247736698366e-07   4.904569415062701e-07   -7.271812875585572e-06
-6.828247736698366e-07   4.904569415062701e-07   -7.271812875585572e-06
3.482158261607996e-06   -2.0356979593883677e-07   -1.3797035225248103e-05
3.482158261607996e-06   -2.0356979593883677e-07   -1.3797035225248103e-05
3.482158261607996e-06   -2.0356979593883677e-07   -1.3797035225248103e-05
3.482158261607996e-06   -2.0356979593883677e-07   -1.3797035225248103e-05
7.804461048304808e-06   -3.3309657599765442e-06   -1.1314596271414345e-05
7.804461048304808e-06   -3.3309657599765442e-06   -1.1314596271414345e-05
7.804461048304808e-06   -3.3309657599765442e-06   -1.1314596271414345e-05
7.804461048304808e-06   -3.3309657599765442e-06   -1.1314596271414345e-05
1.550786945110049e-05   -2.1654368735575026e-06   2.223735065096582e-06
1.550786945110049e-05   -2.1654368735575026e-06   2.223735065096582e-06
1.550786945110049e-05   -2.1654368735575026e-06   2.223735065096582e-06
1.550786945110049e-05   -2.1654368735575026e-06   2.223735065096582e-06
1.60425276930396e-05   -3.0157717256893313e-06   -1.2705301982419828e-05
1.60425276930396e-05   -3.0157717256893313e-06   -1.2705301982419828e-05
1.60425276930396e-05   -3.0157717256893313e-06   -1.2705301982419828e-05
1.60425276930396e-05   -3.0157717256893313e-06   -1.2705301982419828e-05
7.801420397454192e-06   -1.8519407681423495e-06   3.315782690276812e-07
7.801420397454192e-06   -1.8519407681423495e-06   3.315782690276812e-07
7.801420397454192e-06   -1.8519407681423495e-06   3.315782690276812e-07
7.801420397454192e-06   -1.8519407681423495e-06   3.315782690276812e-07
1.128543163685941e-05   -2.559893685857536e-06   -5.050335379351922e-06
1.128543163685941e-05   -2.559893685857536e-06   -5.050335379351922e-06
1.128543163685941e-05   -2.559893685857536e-06   -5.050335379351922e-06
1.128543163685941e-05   -2.559893685857536e-06   -5.050335379351922e-06
7.801420397454189e-06   -3.0157717256893313e-06   -1.3403600556947983e-05
7.801420397454189e-06   -3.0157717256893313e-06   -1.3403600556947983e-05
7.801420397454189e-06   -3.0157717256893313e-06   -1.3403600556947983e-05
7.801420397454189e-06   -3.0157717256893313e-06   -1.3403600556947983e-05
1.60425276930396e-05   -1.8519407681423495e-06   1.0298768435559001e-06
1.60425276930396e-05   -1.8519407681423495e-06   1.0298768435559001e-06
1.60425276930396e-05   -1.8519407681423495e-06   1.0298768435559001e-06
1.60425276930396e-05   -1.8519407681423495e-06   1.0298768435559001e-06
1.6455759753014405e-05   -2.685697905938382e-06   -1.4322426272916057e-05
1.6455759753014405e-05   -2.685697905938382e-06   -1.4322426272916057e-05
1.6455759753014405e-05   -2.685697905938382e-06   -1.4322426272916057e-05
1.6455759753014405e-05   -2.685697905938382e-06   -1.4322426272916057e-05
7.842724571426317e-06   -1.5854218058197571e-06   -6.275332970071738e-07
7.842724571426317e-06   -1.5854218058197571e-06   -6.275332970071738e-07
7.842724571426317e-06   -1.5854218058197571e-06   -6.275332970071738e-07
7.842724571426317e-06   -1.5854218058197571e-06   -6.275332970071738e-07
1.167550595487245e-05   -2.3578559114487087e-06   -6.5520418060399405e-06
1.167550595487245e-05   -2.3578559114487087e-06   -6.5520418060399405e-06
1.167550595487245e-05   -2.3578559114487087e-06   -6.5520418060399405e-06
1.167550595487245e-05   -2.3578559114487087e-06   -6.5520418060399405e-06
7.842724571426333e-06   -2.685697905938382e-06   -1.4982591932987218e-05
7.842724571426333e-06   -2.685697905938382e-06   -1.4982591932987218e-05
7.842724571426333e-06   -2.685697905938382e-06   -1.4982591932987218e-05
7.842724571426333e-06   -2.685697905938382e-06   -1.4982591932987218e-05
1.6455759753014378e-05   -1.5854218058197842e-06   3.2632363064082374e-08
1.6455759753014378e-05   -1.5854218058197842e-06   3.2632363064082374e-08
1.6455759753014378e-05   -1.5854218058197842e-06   3.2632363064082374e-08
1.6455759753014378e-05   -1.5854218058197842e-06   3.2632363064082374e-08
1.6898062975072537e-05   -1.9759447444916295e-06   -1.707916669573239e-05
1.6898062975072537e-05   -1.9759447444916295e-06   -1.707916669573239e-05
1.6898062975072537e-05   -1.9759447444916295e-06   -1.707916669573239e-05
1.6898062975072537e-05   -1.9759447444916295e-06   -1.707916669573239e-05
7.785886430068129e-06   -1.0179944647303386e-06   -2.4669759552485554e-06
7.785886430068129e-06   -1.0179944647303386e-06   -2.4669759552485554e-06
7.785886430068129e-06   -1.0179944647303386e-06   -2.4669759552485554e-06
7.785886430068129e-06   -1.0179944647303386e-06   -2.4669759552485554e-06
1.1632524798183195e-05   -2.0283309189852224e-06   -8.271838029554025e-06
1.1632524798183195e-05   -2.0283309189852224e-06   -8.271838029554025e-06
1.1632524798183195e-05   -2.0283309189852224e-06   -8.271838029554025e-06
1.1632524798183195e-05   -2.0283309189852224e-06   -8.271838029554025e-06
-1.8679939304086512e-05   2.8682404880483667e-06   -1.4264668543860053e-05
-1.8679939304086512e-05   2.8682404880483667e-06   -1.4264668543860053e-05
-1.8679939304086512e-05   2.8682404880483667e-06   -1.4264668543860053e-05
-1.8679939304086512e-05   2.8682404880483667e-06   -1.4264668543860053e-05
-1.2750987170686393e-05   1.816779300710847e-06   -5.013958367262331e-06
-1.2750987170686393e-05   1.816779300710847e-06   -5.013958367262331e-06
-1.2750987170686393e-05   1.816779300710847e-06   -5.013958367262331e-06
-1.2750987170686393e-05   1.816779300710847e-06   -5.013958367262331e-06
-1.270394543590917e-05   3.4742287647014105e-06   -1.211996198962267e-05
-1.270394543590917e-05   3.4742287647014105e-06   -1.211996198962267e-05
-1.270394543590917e-05   3.4742287647014105e-06   -1.211996198962267e-05
-1.270394543590917e-05   3.4742287647014105e-06   -1.211996198962267e-05
-1.8113617767800342e-05   2.316604436781804e-06   -2.409266839718978e-06
-1.8113617767800342e-05   2.316604436781804e-06   -2.409266839718978e-06
-1.8113617767800342e-05   2.316604436781804e-06   -2.409266839718978e-06
-1.8113617767800342e-05   2.316604436781804e-06   -2.409266839718978e-06
-1.4901707176834546e-05   2.7633923294524817e-06   -8.030523893597655e-06
-1.4901707176834546e-05   2.7633923294524817e-06   -8.030523893597655e-06
-1.4901707176834546e-05   2.7633923294524817e-06   -8.030523893597655e-06
-1.4901707176834546e-05   2.7633923294524817e-06   -8.030523893597655e-06
-1.8113617767800342e-05   3.4742287647014105e-06   -1.1425387392870922e-05
-1.8113617767800342e-05   3.4742287647014105e-06   -1.1425387392870922e-05
-1.8113617767800342e-05   3.4742287647014105e-06   -1.1425387392870922e-05
-1.8113617767800342e-05   3.4742287647014105e-06   -1.1425387392870922e-05
-1.2703945435909198e-05   2.3166044367818584e-06   -3.1038414364707307e-06
-1.2703945435909198e-05   2.3166044367818584e-06   -3.1038414364707307e-06
-1.2703945435909198e-05   2.3166044367818584e-06   -3.1038414364707307e-06
-1.2703945435909198e-05   2.3166044367818584e-06   -3.1038414364707307e-06
-1.2607177823784855e-05   3.741256323746791e-06   -1.056912793952154e-05
-1.2607177823784855e-05   3.741256323746791e-06   -1.056912793952154e-05
-1.2607177823784855e-05   3.741256323746791e-06   -1.056912793952154e-05
-1.2607177823784855e-05   3.741256323746791e-06   -1.056912793952154e-05
-1.76916203365045e-05   2.5505921377178e-06   -1.3806585733713915e-06
-1.76916203365045e-05   2.5505921377178e-06   -1.3806585733713915e-06
-1.76916203365045e-05   2.5505921377178e-06   -1.3806585733713915e-06
-1.76916203365045e-05   2.5505921377178e-06   -1.3806585733713915e-06
-1.4900040055980122e-05   3.0425205892027976e-06   -6.328449445136379e-06
-1.4900040055980122e-05   3.0425205892027976e-06   -6.328449445136379e-06
-1.4900040055980122e-05   3.0425205892027976e-06   -6.328449445136379e-06
-1.4900040055980122e-05   3.0425205892027976e-06   -6.328449445136379e-06
-1.76916203365045e-05   3.741256323746791e-06   -9.85472942790415e-06
-1.76916203365045e-05   3.741256323746791e-06   -9.85472942790415e-06
-1.76916203365045e-05   3.741256323746791e-06   -9.85472942790415e-06
-1.76916203365045e-05   3.741256323746791e-06   -9.85472942790415e-06
-1.2607177823784868e-05   2.5505921377178e-06   -2.0950570849887554e-06
-1.2607177823784868e-05   2.5505921377178e-06   -2.0950570849887554e-06
-1.2607177823784868e-05   2.5505921377178e-06   -2.0950570849887554e-06
-1.2607177823784868e-05   2.5505921377178e-06   -2.0950570849887554e-06
-1.2569318564309434e-05   4.006662203705257e-06   -8.426498102298465e-06
-1.2569318564309434e-05   4.006662203705257e-06   -8.426498102298465e-06
-1.2569318564309434e-05   4.006662203705257e-06   -8.426498102298465e-06
-1.2569318564309434e-05   4.006662203705257e-06   -8.426498102298465e-06
-1.7141032965624768e-05   2.8465277430462913e-06   -1.1089342371076952e-07
-1.7141032965624768e-05   2.8465277430462913e-06   -1.1089342371076952e-07
-1.7141032965624768e-05   2.8465277430462913e-06   -1.1089342371076952e-07
-1.7141032965624768e-05   2.8465277430462913e-06   -1.1089342371076952e-07
-1.445788992043222e-05   3.195875562911994e-06   -4.792407190951195e-06
-1.445788992043222e-05   3.195875562911994e-06   -4.792407190951195e-06
-1.445788992043222e-05   3.195875562911994e-06   -4.792407190951195e-06
-1.445788992043222e-05   3.195875562911994e-06   -4.792407190951195e-06
-1.2750987170686366e-05   1.4333208550923167e-06   -1.824681218852691e-05
-1.2750987170686366e-05   1.4333208550923167e-06   -1.824681218852691e-05
-1.2750987170686366e-05   1.4333208550923167e-06   -1.824681218852691e-05
-1.2750987170686366e-05   1.4333208550923167e-06   -1.824681218852691e-05
-7.367023954274869e-06   9.44518588256657e-07   -9.566821521275808e-06
-7.367023954274869e-06   9.44518588256657e-07   -9.566821521275808e-06
-7.367023954274869e-06   9.44518588256657e-07   -9.566821521275808e-06
-7.367023954274869e-06   9.44518588256657e-07   -9.566821521275808e-06
-7.3709102506579216e-06   2.0299719630254356e-06   -1.808743768819045e-05
-7.3709102506579216e-06   2.0299719630254356e-06   -1.808743768819045e-05
-7.3709102506579216e-06   2.0299719630254356e-06   -1.808743768819045e-05
-7.3709102506579216e-06   2.0299719630254356e-06   -1.808743768819045e-05
-1.270394543590917e-05   1.4729578962104604e-06   -8.864837272682611e-06
-1.270394543590917e-05   1.4729578962104604e-06   -8.864837272682611e-06
-1.270394543590917e-05   1.4729578962104604e-06   -8.864837272682611e-06
-1.270394543590917e-05   1.4729578962104604e-06   -8.864837272682611e-06
-9.955313615373178e-06   1.5710276723976467e-06   -1.3504732172621697e-05
-9.955313615373178e-06   1.5710276723976467e-06   -1.3504732172621697e-05
-9.955313615373178e-06   1.5710276723976467e-06   -1.3504732172621697e-05
-9.955313615373178e-06   1.5710276723976467e-06   -1.3504732172621697e-05
-1.2703945435909157e-05   2.0299719630254356e-06   -1.7753229248101314e-05
-1.2703945435909157e-05   2.0299719630254356e-06   -1.7753229248101314e-05
-1.2703945435909157e-05   2.0299719630254356e-06   -1.7753229248101314e-05
-1.2703945435909157e-05   2.0299719630254356e-06   -1.7753229248101314e-05
-7.3709102506579216e-06   1.4729578962104062e-06   -9.199045712771626e-06
-7.3709102506579216e-06   1.4729578962104062e-06   -9.199045712771626e-06
-7.3709102506579216e-06   1.4729578962104062e-06   -9.199045712771626e-06
-7.3709102506579216e-06   1.4729578962104062e-06   -9.199045712771626e-06
-7.365909596686916e-06   2.5610380367593075e-06   -1.7682324272841338e-05
-7.365909596686916e-06   2.5610380367593075e-06   -1.7682324272841338e-05
-7.365909596686916e-06   2.5610380367593075e-06   -1.7682324272841338e-05
-7.365909596686916e-06   2.5610380367593075e-06   -1.7682324272841338e-05
-1.2607177823784855e-05   1.9549077401459915e-06   -8.583199049710114e-06
-1.2607177823784855e-05   1.9549077401459915e-06   -8.583199049710114e-06
-1.2607177823784855e-05   1.9549077401459915e-06   -8.583199049710114e-06
-1.2607177823784855e-05   1.9549077401459915e-06   -8.583199049710114e-06
-9.909445045547447e-06   2.006030060524146e-06   -1.3110093738999217e-05
-9.909445045547447e-06   2.006030060524146e-06   -1.3110093738999217e-05
-9.909445045547447e-06   2.006030060524146e-06   -1.3110093738999217e-05
-9.909445045547447e-06   2.006030060524146e-06   -1.3110093738999217e-05
-1.2607177823784855e-05   2.5610380367593075e-06   -1.731864609487332e-05
-1.2607177823784855e-05   2.5610380367593075e-06   -1.731864609487332e-05
-1.2607177823784855e-05   2.5610380367593075e-06   -1.731864609487332e-05
-1.2607177823784855e-05   2.5610380367593075e-06   -1.731864609487332e-05
-7.365909596686933e-06   1.9549077401459915e-06   -8.94687722767805e-06
-7.365909596686933e-06   1.9549077401459915e-06   -8.94687722767805e-06
-7.365909596686933e-06   1.9549077401459915e-06   -8.94687722767805e-06
-7.365909596686933e-06   1.9549077401459915e-06   -8.94687722767805e-06
-7.372467509236964e-06   3.1270088489853862e-06   -1.7753980499656013e-05
-7.372467509236964e-06   3.1270088489853862e-06   -1.7753980499656013e-05
-7.372467509236964e-06   3.1270088489853862e-06   -1.7753980499656013e-05
-7.372467509236964e-06   3.1270088489853862e-06   -1.7753980499656013e-05
-1.2569318564309447e-05   2.4795372206650357e-06   -8.704079097542918e-06
-1.2569318564309447e-05   2.4795372206650357e-06   -8.704079097542918e-06
-1.2569318564309447e-05   2.4795372206650357e-06   -8.704079097542918e-06
-1.2569318564309447e-05   2.4795372206650357e-06   -8.704079097542918e-06
-9.974087516040193e-06   2.4375360209126506e-06   -1.3004263458140178e-05
-9.974087516040193e-06   2.4375360209126506e-06   -1.3004263458140178e-05
-9.974087516040193e-06   2.4375360209126506e-06   -1.3004263458140178e-05
-9.974087516040193e-06   2.4375360209126506e-06   -1.3004263458140178e-05
-7.367023954274852e-06   7.692367204507693e-08   -2.0152968150789064e-05
-7.367023954274852e-06   7.692367204507693e-08   -2.0152968150789064e-05
-7.367023954274852e-06   7.692367204507693e-08   -2.0152968150789064e-05
-7.367023954274852e-06   7.692367204507693e-08   -2.0152968150789064e-05
-2.0530531607344036e-06   1.6587724094519135e-07   -1.1242978020214984e-05
-2.0530531607344036e-06   1.6587724094519135e-07   -1.1242978020214984e-05
-2.0530531607344036e-06   1.6587724094519135e-07   -1.1242978020214984e-05
-2.0530531607344036e-06   1.6587724094519135e-07   -1.1242978020214984e-05
-2.057470348731703e-06   6.651490280092608e-07   -1.9926828055545978e-05
-2.057470348731703e-06   6.651490280092608e-07   -1.9926828055545978e-05
-2.057470348731703e-06   6.651490280092608e-07   -1.9926828055545978e-05
-2.057470348731703e-06   6.651490280092608e-07   -1.9926828055545978e-05
-7.370910250657905e-06   6.983397651330061e-07   -1.1091009327943209e-05
-7.370910250657905e-06   6.983397651330061e-07   -1.1091009327943209e-05
-7.370910250657905e-06   6.983397651330061e-07   -1.1091009327943209e-05
-7.370910250657905e-06   6.983397651330061e-07   -1.1091009327943209e-05
-4.680541118445008e-06   4.714141153456825e-07   -1.5438802491758954e-05
-4.680541118445008e-06   4.714141153456825e-07   -1.5438802491758954e-05
-4.680541118445008e-06   4.714141153456825e-07   -1.5438802491758954e-05
-4.680541118445008e-06   4.714141153456825e-07   -1.5438802491758954e-05
-7.370910250657905e-06   6.651490280092608e-07   -1.9946742497820214e-05
-7.370910250657905e-06   6.651490280092608e-07   -1.9946742497820214e-05
-7.370910250657905e-06   6.651490280092608e-07   -1.9946742497820214e-05
-7.370910250657905e-06   6.651490280092608e-07   -1.9946742497820214e-05
-2.057470348731703e-06   6.983397651330061e-07   -1.107109488566896e-05
-2.057470348731703e-06   6.983397651330061e-07   -1.107109488566896e-05
-2.057470348731703e-06   6.983397651330061e-07   -1.107109488566896e-05
-2.057470348731703e-06   6.983397651330061e-07   -1.107109488566896e-05
-2.0508026669968253e-06   1.2517145505715633e-06   -1.99761167695577e-05
-2.0508026669968253e-06   1.2517145505715633e-06   -1.99761167695577e-05
-2.0508026669968253e-06   1.2517145505715633e-06   -1.99761167695577e-05
-2.0508026669968253e-06   1.2517145505715633e-06   -1.99761167695577e-05
-7.365909596686916e-06   1.2325226967816816e-06   -1.1106090107800316e-05
-7.365909596686916e-06   1.2325226967816816e-06   -1.1106090107800316e-05
-7.365909596686916e-06   1.2325226967816816e-06   -1.1106090107800316e-05
-7.365909596686916e-06   1.2325226967816816e-06   -1.1106090107800316e-05
-4.712265760520585e-06   9.37867956434706e-07   -1.5352036990536053e-05
-4.712265760520585e-06   9.37867956434706e-07   -1.5352036990536053e-05
-4.712265760520585e-06   9.37867956434706e-07   -1.5352036990536053e-05
-4.712265760520585e-06   9.37867956434706e-07   -1.5352036990536053e-05
-7.365909596686916e-06   1.2517145505715633e-06   -1.996460165728381e-05
-7.365909596686916e-06   1.2517145505715633e-06   -1.996460165728381e-05
-7.365909596686916e-06   1.2517145505715633e-06   -1.996460165728381e-05
-7.365909596686916e-06   1.2517145505715633e-06   -1.996460165728381e-05
-2.0508026669968287e-06   1.2325226967816816e-06   -1.1117605220074193e-05
-2.0508026669968287e-06   1.2325226967816816e-06   -1.1117605220074193e-05
-2.0508026669968287e-06   1.2325226967816816e-06   -1.1117605220074193e-05
-2.0508026669968287e-06   1.2325226967816816e-06   -1.1117605220074193e-05
-2.054199121697375e-06   1.8518151353100329e-06   -2.0277824194679433e-05
-2.054199121697375e-06   1.8518151353100329e-06   -2.0277824194679433e-05
-2.054199121697375e-06   1.8518151353100329e-06   -2.0277824194679433e-05
-2.054199121697375e-06   1.8518151353100329e-06   -2.0277824194679433e-05
-7.372467509236954e-06   1.7760446283603517e-06   -1.136858124461024e-05
-7.372467509236954e-06   1.7760446283603517e-06   -1.136858124461024e-05
-7.372467509236954e-06   1.7760446283603517e-06   -1.136858124461024e-05
-7.372467509236954e-06   1.7760446283603517e-06   -1.136858124461024e-05
-4.753150410644782e-06   1.4104573158129057e-06   -1.5514757354735418e-05
-4.753150410644782e-06   1.4104573158129057e-06   -1.5514757354735418e-05
-4.753150410644782e-06   1.4104573158129057e-06   -1.5514757354735418e-05
-4.753150410644782e-06   1.4104573158129057e-06   -1.5514757354735418e-05
-2.0530531607344e-06   -1.1985105409102997e-06   -1.78370906820176e-05
-2.0530531607344e-06   -1.1985105409102997e-06   -1.78370906820176e-05
-2.0530531607344e-06   -1.1985105409102997e-06   -1.78370906820176e-05
-2.0530531607344e-06   -1.1985105409102997e-06   -1.78370906820176e-05
3.1761158859639835e-06   -5.453094396375038e-07   -8.729888276756638e-06
3.1761158859639835e-06   -5.453094396375038e-07   -8.729888276756638e-06
3.1761158859639835e-06   -5.453094396375038e-07   -8.729888276756638e-06
3.1761158859639835e-06   -5.453094396375038e-07   -8.729888276756638e-06
3.2185436903977722e-06   -6.58033373016596e-07   -1.7426107698558397e-05
3.2185436903977722e-06   -6.58033373016596e-07   -1.7426107698558397e-05
3.2185436903977722e-06   -6.58033373016596e-07   -1.7426107698558397e-05
3.2185436903977722e-06   -6.58033373016596e-07   -1.7426107698558397e-05
-2.057470348731703e-06   -4.261533896089426e-08   -9.002001787109463e-06
-2.057470348731703e-06   -4.261533896089426e-08   -9.002001787109463e-06
-2.057470348731703e-06   -4.261533896089426e-08   -9.002001787109463e-06
-2.057470348731703e-06   -4.261533896089426e-08   -9.002001787109463e-06
5.751405606267569e-07   -5.646619590670863e-07   -1.307645866397645e-05
5.751405606267569e-07   -5.646619590670863e-07   -1.307645866397645e-05
5.751405606267569e-07   -5.646619590670863e-07   -1.307645866397645e-05
5.751405606267569e-07   -5.646619590670863e-07   -1.307645866397645e-05
-2.057470348731703e-06   -6.58033373016596e-07   -1.779535851899192e-05
-2.057470348731703e-06   -6.58033373016596e-07   -1.779535851899192e-05
-2.057470348731703e-06   -6.58033373016596e-07   -1.779535851899192e-05
-2.057470348731703e-06   -6.58033373016596e-07   -1.779535851899192e-05
3.218543690397779e-06   -4.261533896084005e-08   -8.632750966676005e-06
3.218543690397779e-06   -4.261533896084005e-08   -8.632750966676005e-06
3.218543690397779e-06   -4.261533896084005e-08   -8.632750966676005e-06
3.218543690397779e-06   -4.261533896084005e-08   -8.632750966676005e-06
3.32041931749246e-06   -1.2805193794370156e-07   -1.778918038980028e-05
3.32041931749246e-06   -1.2805193794370156e-07   -1.778918038980028e-05
3.32041931749246e-06   -1.2805193794370156e-07   -1.778918038980028e-05
3.32041931749246e-06   -1.2805193794370156e-07   -1.778918038980028e-05
-2.0508026669968287e-06   4.399135596066801e-07   -9.177923047515e-06
-2.0508026669968287e-06   4.399135596066801e-07   -9.177923047515e-06
-2.0508026669968287e-06   4.399135596066801e-07   -9.177923047515e-06
-2.0508026669968287e-06   4.399135596066801e-07   -9.177923047515e-06
5.444714460891096e-07   -1.462191081225096e-07   -1.3151700302020756e-05
5.444714460891096e-07   -1.462191081225096e-07   -1.3151700302020756e-05
5.444714460891096e-07   -1.462191081225096e-07   -1.3151700302020756e-05
5.444714460891096e-07   -1.462191081225096e-07   -1.3151700302020756e-05
-2.0508026669968274e-06   -1.2805193794367445e-07   -1.812995968833046e-05
-2.0508026669968274e-06   -1.2805193794367445e-07   -1.812995968833046e-05
-2.0508026669968274e-06   -1.2805193794367445e-07   -1.812995968833046e-05
-2.0508026669968274e-06   -1.2805193794367445e-07   -1.812995968833046e-05
3.3204193174924735e-06   4.399135596066801e-07   -8.837143748984758e-06
3.3204193174924735e-06   4.399135596066801e-07   -8.837143748984758e-06
3.3204193174924735e-06   4.399135596066801e-07   -8.837143748984758e-06
3.3204193174924735e-06   4.399135596066801e-07   -8.837143748984758e-06
3.370757423566517e-06   4.904569415062972e-07   -1.8313209710919175e-05
3.370757423566517e-06   4.904569415062972e-07   -1.8313209710919175e-05
3.370757423566517e-06   4.904569415062972e-07   -1.8313209710919175e-05
3.370757423566517e-06   4.904569415062972e-07   -1.8313209710919175e-05
-2.054199121697372e-06   9.917503113812676e-07   -9.572391490737622e-06
-2.054199121697372e-06   9.917503113812676e-07   -9.572391490737622e-06
-2.054199121697372e-06   9.917503113812676e-07   -9.572391490737622e-06
-2.054199121697372e-06   9.917503113812676e-07   -9.572391490737622e-06
5.62185741014589e-07   3.001375864858315e-07   -1.3518065293653624e-05
5.62185741014589e-07   3.001375864858315e-07   -1.3518065293653624e-05
5.62185741014589e-07   3.001375864858315e-07   -1.3518065293653624e-05
5.62185741014589e-07   3.001375864858315e-07   -1.3518065293653624e-05
3.1761158859639767e-06   -2.1654368735575026e-06   -9.782836916566494e-06
3.1761158859639767e-06   -2.1654368735575026e-06   -9.782836916566494e-06
3.1761158859639767e-06   -2.1654368735575026e-06   -9.782836916566494e-06
3.1761158859639767e-06   -2.1654368735575026e-06   -9.782836916566494e-06
7.792328514125661e-06   -9.953626342393686e-07   -1.3871046593727943e-06
7.792328514125661e-06   -9.953626342393686e-07   -1.3871046593727943e-06
7.792328514125661e-06   -9.953626342393686e-07   -1.3871046593727943e-06
7.792328514125661e-06   -9.953626342393686e-07   -1.3871046593727943e-06
8.350610024940623e-06   -1.8519407681423495e-06   -1.0249992269418273e-05
8.350610024940623e-06   -1.8519407681423495e-06   -1.0249992269418273e-05
8.350610024940623e-06   -1.8519407681423495e-06   -1.0249992269418273e-05
8.350610024940623e-06   -1.8519407681423495e-06   -1.0249992269418273e-05
3.2185436903977722e-06   -6.53366987315464e-07   -2.415692647009623e-06
3.2185436903977722e-06   -6.53366987315464e-07   -2.415692647009623e-06
3.2185436903977722e-06   -6.53366987315464e-07   -2.415692647009623e-06
3.2185436903977722e-06   -6.53366987315464e-07   -2.415692647009623e-06
5.3941496680343674e-06   -1.3723924831765197e-06   -5.610287312220614e-06
5.3941496680343674e-06   -1.3723924831765197e-06   -5.610287312220614e-06
5.3941496680343674e-06   -1.3723924831765197e-06   -5.610287312220614e-06
5.3941496680343674e-06   -1.3723924831765197e-06   -5.610287312220614e-06
3.2185436903977722e-06   -1.8519407681423495e-06   -1.0969136537914245e-05
3.2185436903977722e-06   -1.8519407681423495e-06   -1.0969136537914245e-05
3.2185436903977722e-06   -1.8519407681423495e-06   -1.0969136537914245e-05
3.2185436903977722e-06   -1.8519407681423495e-06   -1.0969136537914245e-05
8.350610024940595e-06   -6.53366987315464e-07   -1.6965483785135295e-06
8.350610024940595e-06   -6.53366987315464e-07   -1.6965483785135295e-06
8.350610024940595e-06   -6.53366987315464e-07   -1.6965483785135295e-06
8.350610024940595e-06   -6.53366987315464e-07   -1.6965483785135295e-06
8.78154945481484e-06   -1.5854218058197571e-06   -1.1232512539971731e-05
8.78154945481484e-06   -1.5854218058197571e-06   -1.1232512539971731e-05
8.78154945481484e-06   -1.5854218058197571e-06   -1.1232512539971731e-05
8.78154945481484e-06   -1.5854218058197571e-06   -1.1232512539971731e-05
3.3204193174924735e-06   -4.186098845721203e-07   -2.8307161305164035e-06
3.3204193174924735e-06   -4.186098845721203e-07   -2.8307161305164035e-06
3.3204193174924735e-06   -4.186098845721203e-07   -2.8307161305164035e-06
3.3204193174924735e-06   -4.186098845721203e-07   -2.8307161305164035e-06
5.732926395245755e-06   -1.1961607960274466e-06   -6.3850307132319665e-06
5.732926395245755e-06   -1.1961607960274466e-06   -6.3850307132319665e-06
5.732926395245755e-06   -1.1961607960274466e-06   -6.3850307132319665e-06
5.732926395245755e-06   -1.1961607960274466e-06   -6.3850307132319665e-06
3.32041931749246e-06   -1.5854218058197842e-06   -1.1932599692720321e-05
3.32041931749246e-06   -1.5854218058197842e-06   -1.1932599692720321e-05
3.32041931749246e-06   -1.5854218058197842e-06   -1.1932599692720321e-05
3.32041931749246e-06   -1.5854218058197842e-06   -1.1932599692720321e-05
8.7815494548148e-06   -4.186098845721203e-07   -2.1306289777677455e-06
8.7815494548148e-06   -4.186098845721203e-07   -2.1306289777677455e-06
8.7815494548148e-06   -4.186098845721203e-07   -2.1306289777677455e-06
8.7815494548148e-06   -4.186098845721203e-07   -2.1306289777677455e-06
9.355975267188644e-06   -1.0179944647303657e-06   -1.3123318738874883e-05
9.355975267188644e-06   -1.0179944647303657e-06   -1.3123318738874883e-05
9.355975267188644e-06   -1.0179944647303657e-06   -1.3123318738874883e-05
9.355975267188644e-06   -1.0179944647303657e-06   -1.3123318738874883e-05
3.370757423566524e-06   4.033741625382491e-08   -3.782954794761807e-06
3.370757423566524e-06   4.033741625382491e-08   -3.782954794761807e-06
3.370757423566524e-06   4.033741625382491e-08   -3.782954794761807e-06
3.370757423566524e-06   4.033741625382491e-08   -3.782954794761807e-06
5.84989899898247e-06   -9.375898588536639e-07   -7.3281010553906265e-06
5.84989899898247e-06   -9.375898588536639e-07   -7.3281010553906265e-06
5.84989899898247e-06   -9.375898588536639e-07   -7.3281010553906265e-06
5.84989899898247e-06   -9.375898588536639e-07   -7.3281010553906265e-06
-1.1234774023486345e-05   1.816779300710847e-06   -1.0577367066939727e-05
-1.1234774023486345e-05   1.816779300710847e-06   -1.0577367066939727e-05
-1.1234774023486345e-05   1.816779300710847e-06   -1.0577367066939727e-05
-1.1234774023486345e-05   1.816779300710847e-06   -1.0577367066939727e-05
-8.33861200837486e-06   7.330160932479853e-07   -6.4006882995649875e-06
-8.33861200837486e-06   7.330160932479853e-07   -6.4006882995649875e-06
-8.33861200837486e-06   7.330160932479853e-07   -6.4006882995649875e-06
-8.33861200837486e-06   7.330160932479853e-07   -6.4006882995649875e-06
-8.218359153081958e-06   2.316604436781804e-06   -9.331427546149752e-06
-8.218359153081958e-06   2.316604436781804e-06   -9.331427546149752e-06
-8.218359153081958e-06   2.316604436781804e-06   -9.331427546149752e-06
-8.218359153081958e-06   2.316604436781804e-06   -9.331427546149752e-06
-1.0618992661520893e-05   1.1473808059983418e-06   -4.628837520281355e-06
-1.0618992661520893e-05   1.1473808059983418e-06   -4.628837520281355e-06
-1.0618992661520893e-05   1.1473808059983418e-06   -4.628837520281355e-06
-1.0618992661520893e-05   1.1473808059983418e-06   -4.628837520281355e-06
-9.19597129587537e-06   1.6310989904909194e-06   -7.290770707053264e-06
-9.19597129587537e-06   1.6310989904909194e-06   -7.290770707053264e-06
-9.19597129587537e-06   1.6310989904909194e-06   -7.290770707053264e-06
-9.19597129587537e-06   1.6310989904909194e-06   -7.290770707053264e-06
-1.0618992661520893e-05   2.316604436781804e-06   -8.629893367679707e-06
-1.0618992661520893e-05   2.316604436781804e-06   -8.629893367679707e-06
-1.0618992661520893e-05   2.316604436781804e-06   -8.629893367679707e-06
-1.0618992661520893e-05   2.316604436781804e-06   -8.629893367679707e-06
-8.218359153081971e-06   1.1473808059983418e-06   -5.330371698751508e-06
-8.218359153081971e-06   1.1473808059983418e-06   -5.330371698751508e-06
-8.218359153081971e-06   1.1473808059983418e-06   -5.330371698751508e-06
-8.218359153081971e-06   1.1473808059983418e-06   -5.330371698751508e-06
-8.045995481696894e-06   2.5505921377178e-06   -8.331450295111405e-06
-8.045995481696894e-06   2.5505921377178e-06   -8.331450295111405e-06
-8.045995481696894e-06   2.5505921377178e-06   -8.331450295111405e-06
-8.045995481696894e-06   2.5505921377178e-06   -8.331450295111405e-06
-1.0129950265014759e-05   1.3580872244479568e-06   -4.142689374953093e-06
-1.0129950265014759e-05   1.3580872244479568e-06   -4.142689374953093e-06
-1.0129950265014759e-05   1.3580872244479568e-06   -4.142689374953093e-06
-1.0129950265014759e-05   1.3580872244479568e-06   -4.142689374953093e-06
-9.034751241382174e-06   1.85523743042687e-06   -6.266311204594806e-06
-9.034751241382174e-06   1.85523743042687e-06   -6.266311204594806e-06
-9.034751241382174e-06   1.85523743042687e-06   -6.266311204594806e-06
-9.034751241382174e-06   1.85523743042687e-06   -6.266311204594806e-06
-1.0129950265014745e-05   2.5505921377178e-06   -7.615947347149553e-06
-1.0129950265014745e-05   2.5505921377178e-06   -7.615947347149553e-06
-1.0129950265014745e-05   2.5505921377178e-06   -7.615947347149553e-06
-1.0129950265014745e-05   2.5505921377178e-06   -7.615947347149553e-06
-8.04599548169692e-06   1.3580872244479568e-06   -4.8581923229149856e-06
-8.04599548169692e-06   1.3580872244479568e-06   -4.8581923229149856e-06
-8.04599548169692e-06   1.3580872244479568e-06   -4.8581923229149856e-06
-8.04599548169692e-06   1.3580872244479568e-06   -4.8581923229149856e-06
-7.930493081636923e-06   2.846527743046237e-06   -7.051526930315351e-06
-7.930493081636923e-06   2.846527743046237e-06   -7.051526930315351e-06
-7.930493081636923e-06   2.846527743046237e-06   -7.051526930315351e-06
-7.930493081636923e-06   2.846527743046237e-06   -7.051526930315351e-06
-9.507748238394572e-06   1.692519003951168e-06   -3.7303630922621146e-06
-9.507748238394572e-06   1.692519003951168e-06   -3.7303630922621146e-06
-9.507748238394572e-06   1.692519003951168e-06   -3.7303630922621146e-06
-9.507748238394572e-06   1.692519003951168e-06   -3.7303630922621146e-06
-8.614006199053257e-06   2.01275619254209e-06   -5.412075470985738e-06
-8.614006199053257e-06   2.01275619254209e-06   -5.412075470985738e-06
-8.614006199053257e-06   2.01275619254209e-06   -5.412075470985738e-06
-8.614006199053257e-06   2.01275619254209e-06   -5.412075470985738e-06
-8.33861200837486e-06   9.44518588256657e-07   -1.5487206785329537e-05
-8.33861200837486e-06   9.44518588256657e-07   -1.5487206785329537e-05
-8.33861200837486e-06   9.44518588256657e-07   -1.5487206785329537e-05
-8.33861200837486e-06   9.44518588256657e-07   -1.5487206785329537e-05
-5.980151804556366e-06   4.2811304939906897e-07   -1.1866283102279952e-05
-5.980151804556366e-06   4.2811304939906897e-07   -1.1866283102279952e-05
-5.980151804556366e-06   4.2811304939906897e-07   -1.1866283102279952e-05
-5.980151804556366e-06   4.2811304939906897e-07   -1.1866283102279952e-05
-5.903063305265504e-06   1.4729578962104062e-06   -1.543380805765028e-05
-5.903063305265504e-06   1.4729578962104062e-06   -1.543380805765028e-05
-5.903063305265504e-06   1.4729578962104062e-06   -1.543380805765028e-05
-5.903063305265504e-06   1.4729578962104062e-06   -1.543380805765028e-05
-8.218359153081971e-06   9.039834373962032e-07   -1.1233596969334187e-05
-8.218359153081971e-06   9.039834373962032e-07   -1.1233596969334187e-05
-8.218359153081971e-06   9.039834373962032e-07   -1.1233596969334187e-05
-8.218359153081971e-06   9.039834373962032e-07   -1.1233596969334187e-05
-7.04066657710134e-06   1.0305397383024548e-06   -1.3272351709846025e-05
-7.04066657710134e-06   1.0305397383024548e-06   -1.3272351709846025e-05
-7.04066657710134e-06   1.0305397383024548e-06   -1.3272351709846025e-05
-7.04066657710134e-06   1.0305397383024548e-06   -1.3272351709846025e-05
-8.218359153081944e-06   1.4729578962104062e-06   -1.5092423382361637e-05
-8.218359153081944e-06   1.4729578962104062e-06   -1.5092423382361637e-05
-8.218359153081944e-06   1.4729578962104062e-06   -1.5092423382361637e-05
-8.218359153081944e-06   1.4729578962104062e-06   -1.5092423382361637e-05
-5.903063305265504e-06   9.039834373962032e-07   -1.1574981644622774e-05
-5.903063305265504e-06   9.039834373962032e-07   -1.1574981644622774e-05
-5.903063305265504e-06   9.039834373962032e-07   -1.1574981644622774e-05
-5.903063305265504e-06   9.039834373962032e-07   -1.1574981644622774e-05
-5.817700695562819e-06   1.9549077401459915e-06   -1.5183976483849665e-05
-5.817700695562819e-06   1.9549077401459915e-06   -1.5183976483849665e-05
-5.817700695562819e-06   1.9549077401459915e-06   -1.5183976483849665e-05
-5.817700695562819e-06   1.9549077401459915e-06   -1.5183976483849665e-05
-8.04599548169692e-06   1.3476007001179155e-06   -1.1105767616275878e-05
-8.04599548169692e-06   1.3476007001179155e-06   -1.1105767616275878e-05
-8.04599548169692e-06   1.3476007001179155e-06   -1.1105767616275878e-05
-8.04599548169692e-06   1.3476007001179155e-06   -1.1105767616275878e-05
-6.938430932648466e-06   1.41653025673296e-06   -1.29930662653256e-05
-6.938430932648466e-06   1.41653025673296e-06   -1.29930662653256e-05
-6.938430932648466e-06   1.41653025673296e-06   -1.29930662653256e-05
-6.938430932648466e-06   1.41653025673296e-06   -1.29930662653256e-05
-8.045995481696894e-06   1.9549077401459915e-06   -1.4819592259832738e-05
-8.045995481696894e-06   1.9549077401459915e-06   -1.4819592259832738e-05
-8.045995481696894e-06   1.9549077401459915e-06   -1.4819592259832738e-05
-8.045995481696894e-06   1.9549077401459915e-06   -1.4819592259832738e-05
-5.817700695562813e-06   1.3476007001178613e-06   -1.147015184029275e-05
-5.817700695562813e-06   1.3476007001178613e-06   -1.147015184029275e-05
-5.817700695562813e-06   1.3476007001178613e-06   -1.147015184029275e-05
-5.817700695562813e-06   1.3476007001178613e-06   -1.147015184029275e-05
-5.742428651134716e-06   2.4795372206649815e-06   -1.5331367672591638e-05
-5.742428651134716e-06   2.4795372206649815e-06   -1.5331367672591638e-05
-5.742428651134716e-06   2.4795372206649815e-06   -1.5331367672591638e-05
-5.742428651134716e-06   2.4795372206649815e-06   -1.5331367672591638e-05
-7.930493081636936e-06   1.841644312599081e-06   -1.1301857876914925e-05
-7.930493081636936e-06   1.841644312599081e-06   -1.1301857876914925e-05
-7.930493081636936e-06   1.841644312599081e-06   -1.1301857876914925e-05
-7.930493081636936e-06   1.841644312599081e-06   -1.1301857876914925e-05
-6.900685501957829e-06   1.808724735167448e-06   -1.299845209658795e-05
-6.900685501957829e-06   1.808724735167448e-06   -1.299845209658795e-05
-6.900685501957829e-06   1.808724735167448e-06   -1.299845209658795e-05
-6.900685501957829e-06   1.808724735167448e-06   -1.299845209658795e-05
-5.980151804556346e-06   1.6587724094519135e-07   -1.7526578748923292e-05
-5.980151804556346e-06   1.6587724094519135e-07   -1.7526578748923292e-05
-5.980151804556346e-06   1.6587724094519135e-07   -1.7526578748923292e-05
-5.980151804556346e-06   1.6587724094519135e-07   -1.7526578748923292e-05
-3.6774438025731936e-06   2.501845893801099e-07   -1.3638147669890429e-05
-3.6774438025731936e-06   2.501845893801099e-07   -1.3638147669890429e-05
-3.6774438025731936e-06   2.501845893801099e-07   -1.3638147669890429e-05
-3.6774438025731936e-06   2.501845893801099e-07   -1.3638147669890429e-05
-3.6027101111433317e-06   6.983397651330061e-07   -1.7303092442180735e-05
-3.6027101111433317e-06   6.983397651330061e-07   -1.7303092442180735e-05
-3.6027101111433317e-06   6.983397651330061e-07   -1.7303092442180735e-05
-3.6027101111433317e-06   6.983397651330061e-07   -1.7303092442180735e-05
-5.903063305265504e-06   7.361384828682808e-07   -1.3491849682618125e-05
-5.903063305265504e-06   7.361384828682808e-07   -1.3491849682618125e-05
-5.903063305265504e-06   7.361384828682808e-07   -1.3491849682618125e-05
-5.903063305265504e-06   7.361384828682808e-07   -1.3491849682618125e-05
-4.759990370598705e-06   5.310121274044533e-07   -1.527389542711814e-05
-4.759990370598705e-06   5.310121274044533e-07   -1.527389542711814e-05
-4.759990370598705e-06   5.310121274044533e-07   -1.527389542711814e-05
-4.759990370598705e-06   5.310121274044533e-07   -1.527389542711814e-05
-5.90306330526549e-06   6.983397651330061e-07   -1.7325771672821834e-05
-5.90306330526549e-06   6.983397651330061e-07   -1.7325771672821834e-05
-5.90306330526549e-06   6.983397651330061e-07   -1.7325771672821834e-05
-5.90306330526549e-06   6.983397651330061e-07   -1.7325771672821834e-05
-3.6027101111433317e-06   7.361384828683351e-07   -1.3469170451977026e-05
-3.6027101111433317e-06   7.361384828683351e-07   -1.3469170451977026e-05
-3.6027101111433317e-06   7.361384828683351e-07   -1.3469170451977026e-05
-3.6027101111433317e-06   7.361384828683351e-07   -1.3469170451977026e-05
-3.517911199895448e-06   1.2325226967817358e-06   -1.7346928157136333e-05
-3.517911199895448e-06   1.2325226967817358e-06   -1.7346928157136333e-05
-3.517911199895448e-06   1.2325226967817358e-06   -1.7346928157136333e-05
-3.517911199895448e-06   1.2325226967817358e-06   -1.7346928157136333e-05
-5.817700695562813e-06   1.2262913748409265e-06   -1.3510206871192863e-05
-5.817700695562813e-06   1.2262913748409265e-06   -1.3510206871192863e-05
-5.817700695562813e-06   1.2262913748409265e-06   -1.3510206871192863e-05
-5.817700695562813e-06   1.2262913748409265e-06   -1.3510206871192863e-05
-4.7110630403917505e-06   9.494002379488832e-07   -1.5188468281009405e-05
-4.7110630403917505e-06   9.494002379488832e-07   -1.5188468281009405e-05
-4.7110630403917505e-06   9.494002379488832e-07   -1.5188468281009405e-05
-4.7110630403917505e-06   9.494002379488832e-07   -1.5188468281009405e-05
-5.817700695562799e-06   1.2325226967816816e-06   -1.7343189363971863e-05
-5.817700695562799e-06   1.2325226967816816e-06   -1.7343189363971863e-05
-5.817700695562799e-06   1.2325226967816816e-06   -1.7343189363971863e-05
-5.817700695562799e-06   1.2325226967816816e-06   -1.7343189363971863e-05
-3.517911199895454e-06   1.2262913748409265e-06   -1.3513945664357359e-05
-3.517911199895454e-06   1.2262913748409265e-06   -1.3513945664357359e-05
-3.517911199895454e-06   1.2262913748409265e-06   -1.3513945664357359e-05
-3.517911199895454e-06   1.2262913748409265e-06   -1.3513945664357359e-05
-3.441932767032725e-06   1.7760446283604059e-06   -1.7638668258760173e-05
-3.441932767032725e-06   1.7760446283604059e-06   -1.7638668258760173e-05
-3.441932767032725e-06   1.7760446283604059e-06   -1.7638668258760173e-05
-3.441932767032725e-06   1.7760446283604059e-06   -1.7638668258760173e-05
-5.742428651134729e-06   1.723908934871403e-06   -1.3773227035830015e-05
-5.742428651134729e-06   1.723908934871403e-06   -1.3773227035830015e-05
-5.742428651134729e-06   1.723908934871403e-06   -1.3773227035830015e-05
-5.742428651134729e-06   1.723908934871403e-06   -1.3773227035830015e-05
-4.671332053825656e-06   1.373371590602569e-06   -1.5348065624783984e-05
-4.671332053825656e-06   1.373371590602569e-06   -1.5348065624783984e-05
-4.671332053825656e-06   1.373371590602569e-06   -1.5348065624783984e-05
-4.671332053825656e-06   1.373371590602569e-06   -1.5348065624783984e-05
-3.6774438025731804e-06   -5.453094396375038e-07   -1.5354825257167726e-05
-3.6774438025731804e-06   -5.453094396375038e-07   -1.5354825257167726e-05
-3.6774438025731804e-06   -5.453094396375038e-07   -1.5354825257167726e-05
-3.6774438025731804e-06   -5.453094396375038e-07   -1.5354825257167726e-05
-1.453055440552859e-06   1.1561617296412764e-07   -1.1250955952906273e-05
-1.453055440552859e-06   1.1561617296412764e-07   -1.1250955952906273e-05
-1.453055440552859e-06   1.1561617296412764e-07   -1.1250955952906273e-05
-1.453055440552859e-06   1.1561617296412764e-07   -1.1250955952906273e-05
-1.3396708990723964e-06   -4.261533896084005e-08   -1.4856035212809632e-05
-1.3396708990723964e-06   -4.261533896084005e-08   -1.4856035212809632e-05
-1.3396708990723964e-06   -4.261533896084005e-08   -1.4856035212809632e-05
-1.3396708990723964e-06   -4.261533896084005e-08   -1.4856035212809632e-05
-3.6027101111433254e-06   5.87324879058361e-07   -1.1462267323502804e-05
-3.6027101111433254e-06   5.87324879058361e-07   -1.1462267323502804e-05
-3.6027101111433254e-06   5.87324879058361e-07   -1.1462267323502804e-05
-3.6027101111433254e-06   5.87324879058361e-07   -1.1462267323502804e-05
-2.4927395588121716e-06   7.77576698584052e-08   -1.3006477918534992e-05
-2.4927395588121716e-06   7.77576698584052e-08   -1.3006477918534992e-05
-2.4927395588121716e-06   7.77576698584052e-08   -1.3006477918534992e-05
-2.4927395588121716e-06   7.77576698584052e-08   -1.3006477918534992e-05
-3.602710111143319e-06   -4.261533896084005e-08   -1.5233999343621142e-05
-3.602710111143319e-06   -4.261533896084005e-08   -1.5233999343621142e-05
-3.602710111143319e-06   -4.261533896084005e-08   -1.5233999343621142e-05
-3.602710111143319e-06   -4.261533896084005e-08   -1.5233999343621142e-05
-1.3396708990723964e-06   5.87324879058361e-07   -1.1084303192691349e-05
-1.3396708990723964e-06   5.87324879058361e-07   -1.1084303192691349e-05
-1.3396708990723964e-06   5.87324879058361e-07   -1.1084303192691349e-05
-1.3396708990723964e-06   5.87324879058361e-07   -1.1084303192691349e-05
-1.1685308222672043e-06   4.399135596066801e-07   -1.5052674533923987e-05
-1.1685308222672043e-06   4.399135596066801e-07   -1.5052674533923987e-05
-1.1685308222672043e-06   4.399135596066801e-07   -1.5052674533923987e-05
-1.1685308222672043e-06   4.399135596066801e-07   -1.5052674533923987e-05
-3.517911199895448e-06   1.0308659773618223e-06   -1.149161202186332e-05
-3.517911199895448e-06   1.0308659773618223e-06   -1.149161202186332e-05
-3.517911199895448e-06   1.0308659773618223e-06   -1.149161202186332e-05
-3.517911199895448e-06   1.0308659773618223e-06   -1.149161202186332e-05
-2.4250195323166237e-06   4.591949673242576e-07   -1.297009552847221e-05
-2.4250195323166237e-06   4.591949673242576e-07   -1.297009552847221e-05
-2.4250195323166237e-06   4.591949673242576e-07   -1.297009552847221e-05
-2.4250195323166237e-06   4.591949673242576e-07   -1.297009552847221e-05
-3.5179111998954386e-06   4.399135596066801e-07   -1.5407245984576997e-05
-3.5179111998954386e-06   4.399135596066801e-07   -1.5407245984576997e-05
-3.5179111998954386e-06   4.399135596066801e-07   -1.5407245984576997e-05
-3.5179111998954386e-06   4.399135596066801e-07   -1.5407245984576997e-05
-1.1685308222672043e-06   1.0308659773618223e-06   -1.1137040571210276e-05
-1.1685308222672043e-06   1.0308659773618223e-06   -1.1137040571210276e-05
-1.1685308222672043e-06   1.0308659773618223e-06   -1.1137040571210276e-05
-1.1685308222672043e-06   1.0308659773618223e-06   -1.1137040571210276e-05
-1.0495157361159937e-06   9.917503113812676e-07   -1.5473374826630026e-05
-1.0495157361159937e-06   9.917503113812676e-07   -1.5473374826630026e-05
-1.0495157361159937e-06   9.917503113812676e-07   -1.5473374826630026e-05
-1.0495157361159937e-06   9.917503113812676e-07   -1.5473374826630026e-05
-3.441932767032725e-06   1.5311526015274256e-06   -1.1809654482523103e-05
-3.441932767032725e-06   1.5311526015274256e-06   -1.1809654482523103e-05
-3.441932767032725e-06   1.5311526015274256e-06   -1.1809654482523103e-05
-3.441932767032725e-06   1.5311526015274256e-06   -1.1809654482523103e-05
-2.354637824888676e-06   8.577366695690369e-07   -1.3217763160254818e-05
-2.354637824888676e-06   8.577366695690369e-07   -1.3217763160254818e-05
-2.354637824888676e-06   8.577366695690369e-07   -1.3217763160254818e-05
-2.354637824888676e-06   8.577366695690369e-07   -1.3217763160254818e-05
-1.4530554405528523e-06   -9.953626342393686e-07   -8.317530815813839e-06
-1.4530554405528523e-06   -9.953626342393686e-07   -8.317530815813839e-06
-1.4530554405528523e-06   -9.953626342393686e-07   -8.317530815813839e-06
-1.4530554405528523e-06   -9.953626342393686e-07   -8.317530815813839e-06
1.564675184300736e-07   1.70017340623749e-07   -4.935764565924372e-06
1.564675184300736e-07   1.70017340623749e-07   -4.935764565924372e-06
1.564675184300736e-07   1.70017340623749e-07   -4.935764565924372e-06
1.564675184300736e-07   1.70017340623749e-07   -4.935764565924372e-06
7.728777557619126e-07   -6.533669873155182e-07   -7.920511630002164e-06
7.728777557619126e-07   -6.533669873155182e-07   -7.920511630002164e-06
7.728777557619126e-07   -6.533669873155182e-07   -7.920511630002164e-06
7.728777557619126e-07   -6.533669873155182e-07   -7.920511630002164e-06
-1.3396708990723964e-06   5.440751179197514e-07   -5.1180624684193e-06
-1.3396708990723964e-06   5.440751179197514e-07   -5.1180624684193e-06
-1.3396708990723964e-06   5.440751179197514e-07   -5.1180624684193e-06
-1.3396708990723964e-06   5.440751179197514e-07   -5.1180624684193e-06
-4.5137527662284294e-07   -1.8438650530310137e-07   -6.161478198568374e-06
-4.5137527662284294e-07   -1.8438650530310137e-07   -6.161478198568374e-06
-4.5137527662284294e-07   -1.8438650530310137e-07   -6.161478198568374e-06
-4.5137527662284294e-07   -1.8438650530310137e-07   -6.161478198568374e-06
-1.3396708990723964e-06   -6.53366987315464e-07   -8.63897689314325e-06
-1.3396708990723964e-06   -6.53366987315464e-07   -8.63897689314325e-06
-1.3396708990723964e-06   -6.53366987315464e-07   -8.63897689314325e-06
-1.3396708990723964e-06   -6.53366987315464e-07   -8.63897689314325e-06
7.728777557618991e-07   5.440751179198056e-07   -4.399597205278268e-06
7.728777557618991e-07   5.440751179198056e-07   -4.399597205278268e-06
7.728777557618991e-07   5.440751179198056e-07   -4.399597205278268e-06
7.728777557618991e-07   5.440751179198056e-07   -4.399597205278268e-06
1.2600127891126083e-06   -4.186098845721203e-07   -8.342793772979335e-06
1.2600127891126083e-06   -4.186098845721203e-07   -8.342793772979335e-06
1.2600127891126083e-06   -4.186098845721203e-07   -8.342793772979335e-06
1.2600127891126083e-06   -4.186098845721203e-07   -8.342793772979335e-06
-1.1685308222671975e-06   7.53812019555042e-07   -4.998674229822508e-06
-1.1685308222671975e-06   7.53812019555042e-07   -4.998674229822508e-06
-1.1685308222671975e-06   7.53812019555042e-07   -4.998674229822508e-06
-1.1685308222671975e-06   7.53812019555042e-07   -4.998674229822508e-06
-1.4241733095067386e-07   -4.201735888419763e-09   -6.254055128750629e-06
-1.4241733095067386e-07   -4.201735888419763e-09   -6.254055128750629e-06
-1.4241733095067386e-07   -4.201735888419763e-09   -6.254055128750629e-06
-1.4241733095067386e-07   -4.201735888419763e-09   -6.254055128750629e-06
-1.1685308222672043e-06   -4.186098845721203e-07   -9.046246915455605e-06
-1.1685308222672043e-06   -4.186098845721203e-07   -9.046246915455605e-06
-1.1685308222672043e-06   -4.186098845721203e-07   -9.046246915455605e-06
-1.1685308222672043e-06   -4.186098845721203e-07   -9.046246915455605e-06
1.2600127891126083e-06   7.53812019555042e-07   -4.29522108734621e-06
1.2600127891126083e-06   7.53812019555042e-07   -4.29522108734621e-06
1.2600127891126083e-06   7.53812019555042e-07   -4.29522108734621e-06
1.2600127891126083e-06   7.53812019555042e-07   -4.29522108734621e-06
1.8772408462497593e-06   4.03374162537707e-08   -9.335235970983521e-06
1.8772408462497593e-06   4.03374162537707e-08   -9.335235970983521e-06
1.8772408462497593e-06   4.03374162537707e-08   -9.335235970983521e-06
1.8772408462497593e-06   4.03374162537707e-08   -9.335235970983521e-06
-1.0495157361159937e-06   1.1228010522467183e-06   -5.106786515302839e-06
-1.0495157361159937e-06   1.1228010522467183e-06   -5.106786515302839e-06
-1.0495157361159937e-06   1.1228010522467183e-06   -5.106786515302839e-06
-1.0495157361159937e-06   1.1228010522467183e-06   -5.106786515302839e-06
1.2810057178306179e-07   1.985241090346826e-07   -6.514914195874247e-06
1.2810057178306179e-07   1.985241090346826e-07   -6.514914195874247e-06
1.2810057178306179e-07   1.985241090346826e-07   -6.514914195874247e-06
1.2810057178306179e-07   1.985241090346826e-07   -6.514914195874247e-06
-3.836019702667295e-06   7.330160932479853e-07   -6.990767814448156e-06
-3.836019702667295e-06   7.330160932479853e-07   -6.990767814448156e-06
-3.836019702667295e-06   7.330160932479853e-07   -6.990767814448156e-06
-3.836019702667295e-06   7.330160932479853e-07   -6.990767814448156e-06
-3.962668383629788e-06   -3.5234881966446363e-07   -7.853067897133114e-06
-3.962668383629788e-06   -3.5234881966446363e-07   -7.853067897133114e-06
-3.962668383629788e-06   -3.5234881966446363e-07   -7.853067897133114e-06
-3.962668383629788e-06   -3.5234881966446363e-07   -7.853067897133114e-06
-3.7685557256762195e-06   1.147380805998396e-06   -6.570181364099858e-06
-3.7685557256762195e-06   1.147380805998396e-06   -6.570181364099858e-06
-3.7685557256762195e-06   1.147380805998396e-06   -6.570181364099858e-06
-3.7685557256762195e-06   1.147380805998396e-06   -6.570181364099858e-06
-3.1526621912970486e-06   -1.8620380017497946e-08   -6.897069876455654e-06
-3.1526621912970486e-06   -1.8620380017497946e-08   -6.897069876455654e-06
-3.1526621912970486e-06   -1.8620380017497946e-08   -6.897069876455654e-06
-3.1526621912970486e-06   -1.8620380017497946e-08   -6.897069876455654e-06
-3.5194566750992303e-06   5.05045383045015e-07   -6.5999451946231e-06
-3.5194566750992303e-06   5.05045383045015e-07   -6.5999451946231e-06
-3.5194566750992303e-06   5.05045383045015e-07   -6.5999451946231e-06
-3.5194566750992303e-06   5.05045383045015e-07   -6.5999451946231e-06
-3.1526621912970215e-06   1.147380805998396e-06   -5.870580652490387e-06
-3.1526621912970215e-06   1.147380805998396e-06   -5.870580652490387e-06
-3.1526621912970215e-06   1.147380805998396e-06   -5.870580652490387e-06
-3.1526621912970215e-06   1.147380805998396e-06   -5.870580652490387e-06
-3.7685557256762195e-06   -1.8620380017497946e-08   -7.596670588065261e-06
-3.7685557256762195e-06   -1.8620380017497946e-08   -7.596670588065261e-06
-3.7685557256762195e-06   -1.8620380017497946e-08   -7.596670588065261e-06
-3.7685557256762195e-06   -1.8620380017497946e-08   -7.596670588065261e-06
-3.5227866393383828e-06   1.3580872244479025e-06   -6.0964887868133555e-06
-3.5227866393383828e-06   1.3580872244479025e-06   -6.0964887868133555e-06
-3.5227866393383828e-06   1.3580872244479025e-06   -6.0964887868133555e-06
-3.5227866393383828e-06   1.3580872244479025e-06   -6.0964887868133555e-06
-2.5901031103315935e-06   1.7171977742167464e-07   -6.93914086694213e-06
-2.5901031103315935e-06   1.7171977742167464e-07   -6.93914086694213e-06
-2.5901031103315935e-06   1.7171977742167464e-07   -6.93914086694213e-06
-2.5901031103315935e-06   1.7171977742167464e-07   -6.93914086694213e-06
-3.1983209476515244e-06   6.772453819922121e-07   -6.228759834151594e-06
-3.1983209476515244e-06   6.772453819922121e-07   -6.228759834151594e-06
-3.1983209476515244e-06   6.772453819922121e-07   -6.228759834151594e-06
-3.1983209476515244e-06   6.772453819922121e-07   -6.228759834151594e-06
-2.5901031103315664e-06   1.3580872244479025e-06   -5.384668318597608e-06
-2.5901031103315664e-06   1.3580872244479025e-06   -5.384668318597608e-06
-2.5901031103315664e-06   1.3580872244479025e-06   -5.384668318597608e-06
-2.5901031103315664e-06   1.3580872244479025e-06   -5.384668318597608e-06
-3.5227866393383828e-06   1.7171977742167464e-07   -7.650961335157932e-06
-3.5227866393383828e-06   1.7171977742167464e-07   -7.650961335157932e-06
-3.5227866393383828e-06   1.7171977742167464e-07   -7.650961335157932e-06
-3.5227866393383828e-06   1.7171977742167464e-07   -7.650961335157932e-06
-3.3332018389150783e-06   1.692519003951168e-06   -5.659069273073044e-06
-3.3332018389150783e-06   1.692519003951168e-06   -5.659069273073044e-06
-3.3332018389150783e-06   1.692519003951168e-06   -5.659069273073044e-06
-3.3332018389150783e-06   1.692519003951168e-06   -5.659069273073044e-06
-1.8955199032485125e-06   5.508016730328483e-07   -7.370175433966269e-06
-1.8955199032485125e-06   5.508016730328483e-07   -7.370175433966269e-06
-1.8955199032485125e-06   5.508016730328483e-07   -7.370175433966269e-06
-1.8955199032485125e-06   5.508016730328483e-07   -7.370175433966269e-06
-2.798786813630846e-06   8.44231038268548e-07   -6.040788202470567e-06
-2.798786813630846e-06   8.44231038268548e-07   -6.040788202470567e-06
-2.798786813630846e-06   8.44231038268548e-07   -6.040788202470567e-06
-2.798786813630846e-06   8.44231038268548e-07   -6.040788202470567e-06
-3.962668383629788e-06   4.2811304939906897e-07   -1.279773824159594e-05
-3.962668383629788e-06   4.2811304939906897e-07   -1.279773824159594e-05
-3.962668383629788e-06   4.2811304939906897e-07   -1.279773824159594e-05
-3.962668383629788e-06   4.2811304939906897e-07   -1.279773824159594e-05
-4.623960202988619e-06   -7.125131295680678e-08   -1.4199509891274172e-05
-4.623960202988619e-06   -7.125131295680678e-08   -1.4199509891274172e-05
-4.623960202988619e-06   -7.125131295680678e-08   -1.4199509891274172e-05
-4.623960202988619e-06   -7.125131295680678e-08   -1.4199509891274172e-05
-4.468800376236735e-06   9.039834373961489e-07   -1.2805291951991347e-05
-4.468800376236735e-06   9.039834373961489e-07   -1.2805291951991347e-05
-4.468800376236735e-06   9.039834373961489e-07   -1.2805291951991347e-05
-4.468800376236735e-06   9.039834373961489e-07   -1.2805291951991347e-05
-3.7685557256762195e-06   3.5084124188180035e-07   -1.3640481052283441e-05
-3.7685557256762195e-06   3.5084124188180035e-07   -1.3640481052283441e-05
-3.7685557256762195e-06   3.5084124188180035e-07   -1.3640481052283441e-05
-3.7685557256762195e-06   3.5084124188180035e-07   -1.3640481052283441e-05
-4.1571454782154365e-06   4.970065355184563e-07   -1.308053064090035e-05
-4.1571454782154365e-06   4.970065355184563e-07   -1.308053064090035e-05
-4.1571454782154365e-06   4.970065355184563e-07   -1.308053064090035e-05
-4.1571454782154365e-06   4.970065355184563e-07   -1.308053064090035e-05
-3.768555725676206e-06   9.039834373961489e-07   -1.2473406634682565e-05
-3.768555725676206e-06   9.039834373961489e-07   -1.2473406634682565e-05
-3.768555725676206e-06   9.039834373961489e-07   -1.2473406634682565e-05
-3.768555725676206e-06   9.039834373961489e-07   -1.2473406634682565e-05
-4.468800376236721e-06   3.5084124188180035e-07   -1.3972366369592061e-05
-4.468800376236721e-06   3.5084124188180035e-07   -1.3972366369592061e-05
-4.468800376236721e-06   3.5084124188180035e-07   -1.3972366369592061e-05
-4.468800376236721e-06   3.5084124188180035e-07   -1.3972366369592061e-05
-4.307278949148209e-06   1.3476007001178613e-06   -1.2697676141946188e-05
-4.307278949148209e-06   1.3476007001178613e-06   -1.2697676141946188e-05
-4.307278949148209e-06   1.3476007001178613e-06   -1.2697676141946188e-05
-4.307278949148209e-06   1.3476007001178613e-06   -1.2697676141946188e-05
-3.52278663933841e-06   7.58247263831272e-07   -1.3651551263190473e-05
-3.52278663933841e-06   7.58247263831272e-07   -1.3651551263190473e-05
-3.52278663933841e-06   7.58247263831272e-07   -1.3651551263190473e-05
-3.52278663933841e-06   7.58247263831272e-07   -1.3651551263190473e-05
-4.001818876579461e-06   8.386273103906661e-07   -1.2901392229057776e-05
-4.001818876579461e-06   8.386273103906661e-07   -1.2901392229057776e-05
-4.001818876579461e-06   8.386273103906661e-07   -1.2901392229057776e-05
-4.001818876579461e-06   8.386273103906661e-07   -1.2901392229057776e-05
-3.5227866393383828e-06   1.3476007001178613e-06   -1.234406408017418e-05
-3.5227866393383828e-06   1.3476007001178613e-06   -1.234406408017418e-05
-3.5227866393383828e-06   1.3476007001178613e-06   -1.234406408017418e-05
-3.5227866393383828e-06   1.3476007001178613e-06   -1.234406408017418e-05
-4.307278949148195e-06   7.58247263831272e-07   -1.4005163324962372e-05
-4.307278949148195e-06   7.58247263831272e-07   -1.4005163324962372e-05
-4.307278949148195e-06   7.58247263831272e-07   -1.4005163324962372e-05
-4.307278949148195e-06   7.58247263831272e-07   -1.4005163324962372e-05
-4.1557417888570206e-06   1.841644312599081e-06   -1.290843666973884e-05
-4.1557417888570206e-06   1.841644312599081e-06   -1.290843666973884e-05
-4.1557417888570206e-06   1.841644312599081e-06   -1.290843666973884e-05
-4.1557417888570206e-06   1.841644312599081e-06   -1.290843666973884e-05
-3.3332018389150783e-06   1.2245145534823696e-06   -1.3909058730838625e-05
-3.3332018389150783e-06   1.2245145534823696e-06   -1.3909058730838625e-05
-3.3332018389150783e-06   1.2245145534823696e-06   -1.3909058730838625e-05
-3.3332018389150783e-06   1.2245145534823696e-06   -1.3909058730838625e-05
-3.865852827455673e-06   1.1981692743823777e-06   -1.3005499915810993e-05
-3.865852827455673e-06   1.1981692743823777e-06   -1.3005499915810993e-05
-3.865852827455673e-06   1.1981692743823777e-06   -1.3005499915810993e-05
-3.865852827455673e-06   1.1981692743823777e-06   -1.3005499915810993e-05
-4.623960202988599e-06   2.501845893800557e-07   -1.491980583568091e-05
-4.623960202988599e-06   2.501845893800557e-07   -1.491980583568091e-05
-4.623960202988599e-06   2.501845893800557e-07   -1.491980583568091e-05
-4.623960202988599e-06   2.501845893800557e-07   -1.491980583568091e-05
-5.312378662411485e-06   3.570846815984137e-07   -1.600302987938803e-05
-5.312378662411485e-06   3.570846815984137e-07   -1.600302987938803e-05
-5.312378662411485e-06   3.570846815984137e-07   -1.600302987938803e-05
-5.312378662411485e-06   3.570846815984137e-07   -1.600302987938803e-05
-5.160290284849042e-06   7.361384828682808e-07   -1.468703801792067e-05
-5.160290284849042e-06   7.361384828682808e-07   -1.468703801792067e-05
-5.160290284849042e-06   7.361384828682808e-07   -1.468703801792067e-05
-5.160290284849042e-06   7.361384828682808e-07   -1.468703801792067e-05
-4.468800376236721e-06   7.94675102978328e-07   -1.5874643171007112e-05
-4.468800376236721e-06   7.94675102978328e-07   -1.5874643171007112e-05
-4.468800376236721e-06   7.94675102978328e-07   -1.5874643171007112e-05
-4.468800376236721e-06   7.94675102978328e-07   -1.5874643171007112e-05
-4.861862060598176e-06   6.0307031947795e-07   -1.510457749363803e-05
-4.861862060598176e-06   6.0307031947795e-07   -1.510457749363803e-05
-4.861862060598176e-06   6.0307031947795e-07   -1.510457749363803e-05
-4.861862060598176e-06   6.0307031947795e-07   -1.510457749363803e-05
-4.468800376236714e-06   7.361384828683351e-07   -1.472215998998659e-05
-4.468800376236714e-06   7.361384828683351e-07   -1.472215998998659e-05
-4.468800376236714e-06   7.361384828683351e-07   -1.472215998998659e-05
-4.468800376236714e-06   7.361384828683351e-07   -1.472215998998659e-05
-5.160290284849052e-06   7.94675102978328e-07   -1.5839521198941233e-05
-5.160290284849052e-06   7.94675102978328e-07   -1.5839521198941233e-05
-5.160290284849052e-06   7.94675102978328e-07   -1.5839521198941233e-05
-5.160290284849052e-06   7.94675102978328e-07   -1.5839521198941233e-05
-4.9997281068697434e-06   1.2262913748409265e-06   -1.4728500758118821e-05
-4.9997281068697434e-06   1.2262913748409265e-06   -1.4728500758118821e-05
-4.9997281068697434e-06   1.2262913748409265e-06   -1.4728500758118821e-05
-4.9997281068697434e-06   1.2262913748409265e-06   -1.4728500758118821e-05
-4.307278949148209e-06   1.2416753993867245e-06   -1.5891813102382165e-05
-4.307278949148209e-06   1.2416753993867245e-06   -1.5891813102382165e-05
-4.307278949148209e-06   1.2416753993867245e-06   -1.5891813102382165e-05
-4.307278949148209e-06   1.2416753993867245e-06   -1.5891813102382165e-05
-4.735121878591921e-06   9.783132805183921e-07   -1.5020724281988526e-05
-4.735121878591921e-06   9.783132805183921e-07   -1.5020724281988526e-05
-4.735121878591921e-06   9.783132805183921e-07   -1.5020724281988526e-05
-4.735121878591921e-06   9.783132805183921e-07   -1.5020724281988526e-05
-4.307278949148195e-06   1.2262913748409265e-06   -1.47377311728463e-05
-4.307278949148195e-06   1.2262913748409265e-06   -1.47377311728463e-05
-4.307278949148195e-06   1.2262913748409265e-06   -1.47377311728463e-05
-4.307278949148195e-06   1.2262913748409265e-06   -1.47377311728463e-05
-4.9997281068697434e-06   1.2416753993867245e-06   -1.5882582687654632e-05
-4.9997281068697434e-06   1.2416753993867245e-06   -1.5882582687654632e-05
-4.9997281068697434e-06   1.2416753993867245e-06   -1.5882582687654632e-05
-4.9997281068697434e-06   1.2416753993867245e-06   -1.5882582687654632e-05
-4.848452679502859e-06   1.7239089348714573e-06   -1.5014437219896181e-05
-4.848452679502859e-06   1.7239089348714573e-06   -1.5014437219896181e-05
-4.848452679502859e-06   1.7239089348714573e-06   -1.5014437219896181e-05
-4.848452679502859e-06   1.7239089348714573e-06   -1.5014437219896181e-05
-4.1557417888570206e-06   1.6949637080683174e-06   -1.6151588234890717e-05
-4.1557417888570206e-06   1.6949637080683174e-06   -1.6151588234890717e-05
-4.1557417888570206e-06   1.6949637080683174e-06   -1.6151588234890717e-05
-4.1557417888570206e-06   1.6949637080683174e-06   -1.6151588234890717e-05
-4.6190279426361074e-06   1.358851027621769e-06   -1.5177777036990965e-05
-4.6190279426361074e-06   1.358851027621769e-06   -1.5177777036990965e-05
-4.6190279426361074e-06   1.358851027621769e-06   -1.5177777036990965e-05
-4.6190279426361074e-06   1.358851027621769e-06   -1.5177777036990965e-05
-5.312378662411467e-06   1.1561617296418185e-07   -1.2865029430926696e-05
-5.312378662411467e-06   1.1561617296418185e-07   -1.2865029430926696e-05
-5.312378662411467e-06   1.1561617296418185e-07   -1.2865029430926696e-05
-5.312378662411467e-06   1.1561617296418185e-07   -1.2865029430926696e-05
-6.044905377966065e-06   7.908362842264094e-07   -1.3680775223427028e-05
-6.044905377966065e-06   7.908362842264094e-07   -1.3680775223427028e-05
-6.044905377966065e-06   7.908362842264094e-07   -1.3680775223427028e-05
-6.044905377966065e-06   7.908362842264094e-07   -1.3680775223427028e-05
-5.859706736272633e-06   5.87324879058361e-07   -1.2294167642846804e-05
-5.859706736272633e-06   5.87324879058361e-07   -1.2294167642846804e-05
-5.859706736272633e-06   5.87324879058361e-07   -1.2294167642846804e-05
-5.859706736272633e-06   5.87324879058361e-07   -1.2294167642846804e-05
-5.160290284849042e-06   1.2306036233914646e-06   -1.3845828975152473e-05
-5.160290284849042e-06   1.2306036233914646e-06   -1.3845828975152473e-05
-5.160290284849042e-06   1.2306036233914646e-06   -1.3845828975152473e-05
-5.160290284849042e-06   1.2306036233914646e-06   -1.3845828975152473e-05
-5.550899482306139e-06   7.295686354223717e-07   -1.289419265327612e-05
-5.550899482306139e-06   7.295686354223717e-07   -1.289419265327612e-05
-5.550899482306139e-06   7.295686354223717e-07   -1.289419265327612e-05
-5.550899482306139e-06   7.295686354223717e-07   -1.289419265327612e-05
-5.160290284849033e-06   5.87324879058361e-07   -1.2680134889446557e-05
-5.160290284849033e-06   5.87324879058361e-07   -1.2680134889446557e-05
-5.160290284849033e-06   5.87324879058361e-07   -1.2680134889446557e-05
-5.160290284849033e-06   5.87324879058361e-07   -1.2680134889446557e-05
-5.859706736272633e-06   1.2306036233913561e-06   -1.3459861728552726e-05
-5.859706736272633e-06   1.2306036233913561e-06   -1.3459861728552726e-05
-5.859706736272633e-06   1.2306036233913561e-06   -1.3459861728552726e-05
-5.859706736272633e-06   1.2306036233913561e-06   -1.3459861728552726e-05
-5.617674349669357e-06   1.0308659773618223e-06   -1.2343417559029291e-05
-5.617674349669357e-06   1.0308659773618223e-06   -1.2343417559029291e-05
-5.617674349669357e-06   1.0308659773618223e-06   -1.2343417559029291e-05
-5.617674349669357e-06   1.0308659773618223e-06   -1.2343417559029291e-05
-4.999728106869734e-06   1.635448571687655e-06   -1.3736077520290668e-05
-4.999728106869734e-06   1.635448571687655e-06   -1.3736077520290668e-05
-4.999728106869734e-06   1.635448571687655e-06   -1.3736077520290668e-05
-4.999728106869734e-06   1.635448571687655e-06   -1.3736077520290668e-05
-5.385210800091901e-06   1.0792167669817186e-06   -1.2759867282097096e-05
-5.385210800091901e-06   1.0792167669817186e-06   -1.2759867282097096e-05
-5.385210800091901e-06   1.0792167669817186e-06   -1.2759867282097096e-05
-5.385210800091901e-06   1.0792167669817186e-06   -1.2759867282097096e-05
-4.9997281068697206e-06   1.0308659773618223e-06   -1.270616711562464e-05
-4.9997281068697206e-06   1.0308659773618223e-06   -1.270616711562464e-05
-4.9997281068697206e-06   1.0308659773618223e-06   -1.270616711562464e-05
-4.9997281068697206e-06   1.0308659773618223e-06   -1.270616711562464e-05
-5.617674349669364e-06   1.635448571687655e-06   -1.3373327963695273e-05
-5.617674349669364e-06   1.635448571687655e-06   -1.3373327963695273e-05
-5.617674349669364e-06   1.635448571687655e-06   -1.3373327963695273e-05
-5.617674349669364e-06   1.635448571687655e-06   -1.3373327963695273e-05
-5.428219327142585e-06   1.5311526015273713e-06   -1.2685581052556349e-05
-5.428219327142585e-06   1.5311526015273713e-06   -1.2685581052556349e-05
-5.428219327142585e-06   1.5311526015273713e-06   -1.2685581052556349e-05
-5.428219327142585e-06   1.5311526015273713e-06   -1.2685581052556349e-05
-4.848452679502859e-06   2.0878229314266793e-06   -1.398586099656203e-05
-4.848452679502859e-06   2.0878229314266793e-06   -1.398586099656203e-05
-4.848452679502859e-06   2.0878229314266793e-06   -1.398586099656203e-05
-4.848452679502859e-06   2.0878229314266793e-06   -1.398586099656203e-05
-5.263379747244867e-06   1.4354033148868475e-06   -1.290286411373466e-05
-5.263379747244867e-06   1.4354033148868475e-06   -1.290286411373466e-05
-5.263379747244867e-06   1.4354033148868475e-06   -1.290286411373466e-05
-5.263379747244867e-06   1.4354033148868475e-06   -1.290286411373466e-05
-6.0449053779660375e-06   1.70017340623749e-07   -6.843933962105383e-06
-6.0449053779660375e-06   1.70017340623749e-07   -6.843933962105383e-06
-6.0449053779660375e-06   1.70017340623749e-07   -6.843933962105383e-06
-6.0449053779660375e-06   1.70017340623749e-07   -6.843933962105383e-06
-7.371342621955866e-06   1.3341726538709884e-06   -8.356169514140137e-06
-7.371342621955866e-06   1.3341726538709884e-06   -8.356169514140137e-06
-7.371342621955866e-06   1.3341726538709884e-06   -8.356169514140137e-06
-7.371342621955866e-06   1.3341726538709884e-06   -8.356169514140137e-06
-6.696223893651765e-06   5.440751179197514e-07   -5.6139501401887375e-06
-6.696223893651765e-06   5.440751179197514e-07   -5.6139501401887375e-06
-6.696223893651765e-06   5.440751179197514e-07   -5.6139501401887375e-06
-6.696223893651765e-06   5.440751179197514e-07   -5.6139501401887375e-06
-5.859706736272619e-06   1.734036415229753e-06   -7.722122180873273e-06
-5.859706736272619e-06   1.734036415229753e-06   -7.722122180873273e-06
-5.859706736272619e-06   1.734036415229753e-06   -7.722122180873273e-06
-5.859706736272619e-06   1.734036415229753e-06   -7.722122180873273e-06
-6.230338222110586e-06   9.925149317066562e-07   -6.65949014769628e-06
-6.230338222110586e-06   9.925149317066562e-07   -6.65949014769628e-06
-6.230338222110586e-06   9.925149317066562e-07   -6.65949014769628e-06
-6.230338222110586e-06   9.925149317066562e-07   -6.65949014769628e-06
-5.8597067362726056e-06   5.440751179197514e-07   -6.3279269185747005e-06
-5.8597067362726056e-06   5.440751179197514e-07   -6.3279269185747005e-06
-5.8597067362726056e-06   5.440751179197514e-07   -6.3279269185747005e-06
-5.8597067362726056e-06   5.440751179197514e-07   -6.3279269185747005e-06
-6.696223893651752e-06   1.7340364152298613e-06   -7.008145402487276e-06
-6.696223893651752e-06   1.7340364152298613e-06   -7.008145402487276e-06
-6.696223893651752e-06   1.7340364152298613e-06   -7.008145402487276e-06
-6.696223893651752e-06   1.7340364152298613e-06   -7.008145402487276e-06
-6.14711114402948e-06   7.53812019555042e-07   -5.507129143897345e-06
-6.14711114402948e-06   7.53812019555042e-07   -5.507129143897345e-06
-6.14711114402948e-06   7.53812019555042e-07   -5.507129143897345e-06
-6.14711114402948e-06   7.53812019555042e-07   -5.507129143897345e-06
-5.617674349669357e-06   1.917015475795384e-06   -7.0874458749083804e-06
-5.617674349669357e-06   1.917015475795384e-06   -7.0874458749083804e-06
-5.617674349669357e-06   1.917015475795384e-06   -7.0874458749083804e-06
-5.617674349669357e-06   1.917015475795384e-06   -7.0874458749083804e-06
-5.947999737849074e-06   1.1790272634626701e-06   -6.094110633875975e-06
-5.947999737849074e-06   1.1790272634626701e-06   -6.094110633875975e-06
-5.947999737849074e-06   1.1790272634626701e-06   -6.094110633875975e-06
-5.947999737849074e-06   1.1790272634626701e-06   -6.094110633875975e-06
-5.617674349669344e-06   7.53812019555042e-07   -6.205051217641577e-06
-5.617674349669344e-06   7.53812019555042e-07   -6.205051217641577e-06
-5.617674349669344e-06   7.53812019555042e-07   -6.205051217641577e-06
-5.617674349669344e-06   7.53812019555042e-07   -6.205051217641577e-06
-6.14711114402948e-06   1.917015475795384e-06   -6.389523801164155e-06
-6.14711114402948e-06   1.917015475795384e-06   -6.389523801164155e-06
-6.14711114402948e-06   1.917015475795384e-06   -6.389523801164155e-06
-6.14711114402948e-06   1.917015475795384e-06   -6.389523801164155e-06
-5.472591079501904e-06   1.1228010522467183e-06   -5.6616608315430365e-06
-5.472591079501904e-06   1.1228010522467183e-06   -5.6616608315430365e-06
-5.472591079501904e-06   1.1228010522467183e-06   -5.6616608315430365e-06
-5.472591079501904e-06   1.1228010522467183e-06   -5.6616608315430365e-06
-5.428219327142571e-06   2.1972904320478838e-06   -6.380307380022575e-06
-5.428219327142571e-06   2.1972904320478838e-06   -6.380307380022575e-06
-5.428219327142571e-06   2.1972904320478838e-06   -6.380307380022575e-06
-5.428219327142571e-06   2.1972904320478838e-06   -6.380307380022575e-06
-5.522280669300873e-06   1.3276539540809599e-06   -5.701756589645201e-06
-5.522280669300873e-06   1.3276539540809599e-06   -5.701756589645201e-06
-5.522280669300873e-06   1.3276539540809599e-06   -5.701756589645201e-06
-5.522280669300873e-06   1.3276539540809599e-06   -5.701756589645201e-06
3.5774912421462956e-06   -3.5234881966446363e-07   -3.4696691818056477e-06
3.5774912421462956e-06   -3.5234881966446363e-07   -3.4696691818056477e-06
3.5774912421462956e-06   -3.5234881966446363e-07   -3.4696691818056477e-06
3.5774912421462956e-06   -3.5234881966446363e-07   -3.4696691818056477e-06
3.809083262600933e-07   -1.4501232764491155e-06   -9.455972049020117e-06
3.809083262600933e-07   -1.4501232764491155e-06   -9.455972049020117e-06
3.809083262600933e-07   -1.4501232764491155e-06   -9.455972049020117e-06
3.809083262600933e-07   -1.4501232764491155e-06   -9.455972049020117e-06
6.459904524625502e-07   -1.8620380017497946e-08   -3.849713833167052e-06
6.459904524625502e-07   -1.8620380017497946e-08   -3.849713833167052e-06
6.459904524625502e-07   -1.8620380017497946e-08   -3.849713833167052e-06
6.459904524625502e-07   -1.8620380017497946e-08   -3.849713833167052e-06
4.3323183172211995e-06   -1.193539718210364e-06   -9.288642004849005e-06
4.3323183172211995e-06   -1.193539718210364e-06   -9.288642004849005e-06
4.3323183172211995e-06   -1.193539718210364e-06   -9.288642004849005e-06
4.3323183172211995e-06   -1.193539718210364e-06   -9.288642004849005e-06
2.1499494596686244e-06   -6.083235103204526e-07   -6.002490300328699e-06
2.1499494596686244e-06   -6.083235103204526e-07   -6.002490300328699e-06
2.1499494596686244e-06   -6.083235103204526e-07   -6.002490300328699e-06
2.1499494596686244e-06   -6.083235103204526e-07   -6.002490300328699e-06
4.3323183172211995e-06   -1.8620380017497946e-08   -3.144762230251311e-06
4.3323183172211995e-06   -1.8620380017497946e-08   -3.144762230251311e-06
4.3323183172211995e-06   -1.8620380017497946e-08   -3.144762230251311e-06
4.3323183172211995e-06   -1.8620380017497946e-08   -3.144762230251311e-06
6.459904524625502e-07   -1.193539718210364e-06   -9.993593607764882e-06
6.459904524625502e-07   -1.193539718210364e-06   -9.993593607764882e-06
6.459904524625502e-07   -1.193539718210364e-06   -9.993593607764882e-06
6.459904524625502e-07   -1.193539718210364e-06   -9.993593607764882e-06
9.592821219739237e-07   1.7171977742167464e-07   -3.884699515216265e-06
9.592821219739237e-07   1.7171977742167464e-07   -3.884699515216265e-06
9.592821219739237e-07   1.7171977742167464e-07   -3.884699515216265e-06
9.592821219739237e-07   1.7171977742167464e-07   -3.884699515216265e-06
4.967662537536073e-06   -1.0206775708165253e-06   -9.84989513221025e-06
4.967662537536073e-06   -1.0206775708165253e-06   -9.84989513221025e-06
4.967662537536073e-06   -1.0206775708165253e-06   -9.84989513221025e-06
4.967662537536073e-06   -1.0206775708165253e-06   -9.84989513221025e-06
2.626808689949937e-06   -4.873104564146694e-07   -6.268492321541527e-06
2.626808689949937e-06   -4.873104564146694e-07   -6.268492321541527e-06
2.626808689949937e-06   -4.873104564146694e-07   -6.268492321541527e-06
2.626808689949937e-06   -4.873104564146694e-07   -6.268492321541527e-06
4.967662537536073e-06   1.7171977742167464e-07   -3.169261106273399e-06
4.967662537536073e-06   1.7171977742167464e-07   -3.169261106273399e-06
4.967662537536073e-06   1.7171977742167464e-07   -3.169261106273399e-06
4.967662537536073e-06   1.7171977742167464e-07   -3.169261106273399e-06
9.592821219739101e-07   -1.020677570816417e-06   -1.0565333541153198e-05
9.592821219739101e-07   -1.020677570816417e-06   -1.0565333541153198e-05
9.592821219739101e-07   -1.020677570816417e-06   -1.0565333541153198e-05
9.592821219739101e-07   -1.020677570816417e-06   -1.0565333541153198e-05
1.2151163923113106e-06   5.508016730328483e-07   -4.2711840241457756e-06
1.2151163923113106e-06   5.508016730328483e-07   -4.2711840241457756e-06
1.2151163923113106e-06   5.508016730328483e-07   -4.2711840241457756e-06
1.2151163923113106e-06   5.508016730328483e-07   -4.2711840241457756e-06
5.731102407016084e-06   -5.868674175920838e-07   -1.1115225927612167e-05
5.731102407016084e-06   -5.868674175920838e-07   -1.1115225927612167e-05
5.731102407016084e-06   -5.868674175920838e-07   -1.1115225927612167e-05
5.731102407016084e-06   -5.868674175920838e-07   -1.1115225927612167e-05
3.001755922586293e-06   -3.080263109517603e-07   -6.733619784213648e-06
3.001755922586293e-06   -3.080263109517603e-07   -6.733619784213648e-06
3.001755922586293e-06   -3.080263109517603e-07   -6.733619784213648e-06
3.001755922586293e-06   -3.080263109517603e-07   -6.733619784213648e-06
3.809083262600797e-07   -7.125131295680678e-08   -1.0175157232603961e-05
3.809083262600797e-07   -7.125131295680678e-08   -1.0175157232603961e-05
3.809083262600797e-07   -7.125131295680678e-08   -1.0175157232603961e-05
3.809083262600797e-07   -7.125131295680678e-08   -1.0175157232603961e-05
-3.3161187004323705e-06   -5.661840277436945e-07   -1.6633828572630213e-05
-3.3161187004323705e-06   -5.661840277436945e-07   -1.6633828572630213e-05
-3.3161187004323705e-06   -5.661840277436945e-07   -1.6633828572630213e-05
-3.3161187004323705e-06   -5.661840277436945e-07   -1.6633828572630213e-05
-3.085148874387009e-06   3.5084124188180035e-07   -1.0231490008847928e-05
-3.085148874387009e-06   3.5084124188180035e-07   -1.0231490008847928e-05
-3.085148874387009e-06   3.5084124188180035e-07   -1.0231490008847928e-05
-3.085148874387009e-06   3.5084124188180035e-07   -1.0231490008847928e-05
6.459904524625502e-07   -2.124349438893669e-07   -1.6112089842134475e-05
6.459904524625502e-07   -2.124349438893669e-07   -1.6112089842134475e-05
6.459904524625502e-07   -2.124349438893669e-07   -1.6112089842134475e-05
6.459904524625502e-07   -2.124349438893669e-07   -1.6112089842134475e-05
-1.313007787946475e-06   -1.5794810510178468e-08   -1.2965076854813619e-05
-1.313007787946475e-06   -1.5794810510178468e-08   -1.2965076854813619e-05
-1.313007787946475e-06   -1.5794810510178468e-08   -1.2965076854813619e-05
-1.313007787946475e-06   -1.5794810510178468e-08   -1.2965076854813619e-05
6.459904524625502e-07   3.5084124188180035e-07   -9.89352429738526e-06
6.459904524625502e-07   3.5084124188180035e-07   -9.89352429738526e-06
6.459904524625502e-07   3.5084124188180035e-07   -9.89352429738526e-06
6.459904524625502e-07   3.5084124188180035e-07   -9.89352429738526e-06
-3.085148874387009e-06   -2.124349438893669e-07   -1.6450055553597306e-05
-3.085148874387009e-06   -2.124349438893669e-07   -1.6450055553597306e-05
-3.085148874387009e-06   -2.124349438893669e-07   -1.6450055553597306e-05
-3.085148874387009e-06   -2.124349438893669e-07   -1.6450055553597306e-05
-2.8527964007303894e-06   7.58247263831272e-07   -1.0247848073128012e-05
-2.8527964007303894e-06   7.58247263831272e-07   -1.0247848073128012e-05
-2.8527964007303894e-06   7.58247263831272e-07   -1.0247848073128012e-05
-2.8527964007303894e-06   7.58247263831272e-07   -1.0247848073128012e-05
9.592821219739237e-07   1.5398288069927088e-07   -1.6238753647756035e-05
9.592821219739237e-07   1.5398288069927088e-07   -1.6238753647756035e-05
9.592821219739237e-07   1.5398288069927088e-07   -1.6238753647756035e-05
9.592821219739237e-07   1.5398288069927088e-07   -1.6238753647756035e-05
-1.109428342925815e-06   2.7601157527026507e-07   -1.2864120089665796e-05
-1.109428342925815e-06   2.7601157527026507e-07   -1.2864120089665796e-05
-1.109428342925815e-06   2.7601157527026507e-07   -1.2864120089665796e-05
-1.109428342925815e-06   2.7601157527026507e-07   -1.2864120089665796e-05
9.592821219739237e-07   7.58247263831272e-07   -9.885289443248779e-06
9.592821219739237e-07   7.58247263831272e-07   -9.885289443248779e-06
9.592821219739237e-07   7.58247263831272e-07   -9.885289443248779e-06
9.592821219739237e-07   7.58247263831272e-07   -9.885289443248779e-06
-2.8527964007303894e-06   1.5398288069916246e-07   -1.6601312277635268e-05
-2.8527964007303894e-06   1.5398288069916246e-07   -1.6601312277635268e-05
-2.8527964007303894e-06   1.5398288069916246e-07   -1.6601312277635268e-05
-2.8527964007303894e-06   1.5398288069916246e-07   -1.6601312277635268e-05
-2.631335747780783e-06   1.2245145534823696e-06   -1.0506412501775438e-05
-2.631335747780783e-06   1.2245145534823696e-06   -1.0506412501775438e-05
-2.631335747780783e-06   1.2245145534823696e-06   -1.0506412501775438e-05
-2.631335747780783e-06   1.2245145534823696e-06   -1.0506412501775438e-05
1.2151163923113106e-06   5.888885879685481e-07   -1.6535790489287394e-05
1.2151163923113106e-06   5.888885879685481e-07   -1.6535790489287394e-05
1.2151163923113106e-06   5.888885879685481e-07   -1.6535790489287394e-05
1.2151163923113106e-06   5.888885879685481e-07   -1.6535790489287394e-05
-8.816392463274591e-07   6.004795638399341e-07   -1.3048152343745815e-05
-8.816392463274591e-07   6.004795638399341e-07   -1.3048152343745815e-05
-8.816392463274591e-07   6.004795638399341e-07   -1.3048152343745815e-05
-8.816392463274591e-07   6.004795638399341e-07   -1.3048152343745815e-05
-3.3161187004323705e-06   3.570846815985221e-07   -1.233977690492103e-05
-3.3161187004323705e-06   3.570846815985221e-07   -1.233977690492103e-05
-3.3161187004323705e-06   3.570846815985221e-07   -1.233977690492103e-05
-3.3161187004323705e-06   3.570846815985221e-07   -1.233977690492103e-05
-6.978178843981064e-06   4.496773894246313e-07   -1.83876548528065e-05
-6.978178843981064e-06   4.496773894246313e-07   -1.83876548528065e-05
-6.978178843981064e-06   4.496773894246313e-07   -1.83876548528065e-05
-6.978178843981064e-06   4.496773894246313e-07   -1.83876548528065e-05
-6.745917028015927e-06   7.94675102978328e-07   -1.2115440986460932e-05
-6.745917028015927e-06   7.94675102978328e-07   -1.2115440986460932e-05
-6.745917028015927e-06   7.94675102978328e-07   -1.2115440986460932e-05
-6.745917028015927e-06   7.94675102978328e-07   -1.2115440986460932e-05
-3.085148874387009e-06   8.252181426484555e-07   -1.823504706631133e-05
-3.085148874387009e-06   8.252181426484555e-07   -1.823504706631133e-05
-3.085148874387009e-06   8.252181426484555e-07   -1.823504706631133e-05
-3.085148874387009e-06   8.252181426484555e-07   -1.823504706631133e-05
-5.002290405498233e-06   6.830279945442032e-07   -1.495449709226334e-05
-5.002290405498233e-06   6.830279945442032e-07   -1.495449709226334e-05
-5.002290405498233e-06   6.830279945442032e-07   -1.495449709226334e-05
-5.002290405498233e-06   6.830279945442032e-07   -1.495449709226334e-05
-3.085148874387009e-06   7.94675102978328e-07   -1.2133766810263128e-05
-3.085148874387009e-06   7.94675102978328e-07   -1.2133766810263128e-05
-3.085148874387009e-06   7.94675102978328e-07   -1.2133766810263128e-05
-3.085148874387009e-06   7.94675102978328e-07   -1.2133766810263128e-05
-6.745917028015927e-06   8.252181426484555e-07   -1.8216721242509228e-05
-6.745917028015927e-06   8.252181426484555e-07   -1.8216721242509228e-05
-6.745917028015927e-06   8.252181426484555e-07   -1.8216721242509228e-05
-6.745917028015927e-06   8.252181426484555e-07   -1.8216721242509228e-05
-6.50942686030086e-06   1.2416753993867245e-06   -1.2146162199726891e-05
-6.50942686030086e-06   1.2416753993867245e-06   -1.2146162199726891e-05
-6.50942686030086e-06   1.2416753993867245e-06   -1.2146162199726891e-05
-6.50942686030086e-06   1.2416753993867245e-06   -1.2146162199726891e-05
-2.852796400730396e-06   1.2222348174215254e-06   -1.8228881949831867e-05
-2.852796400730396e-06   1.2222348174215254e-06   -1.8228881949831867e-05
-2.852796400730396e-06   1.2222348174215254e-06   -1.8228881949831867e-05
-2.852796400730396e-06   1.2222348174215254e-06   -1.8228881949831867e-05
-4.798625128937225e-06   1.0115603754992392e-06   -1.4859429404334072e-05
-4.798625128937225e-06   1.0115603754992392e-06   -1.4859429404334072e-05
-4.798625128937225e-06   1.0115603754992392e-06   -1.4859429404334072e-05
-4.798625128937225e-06   1.0115603754992392e-06   -1.4859429404334072e-05
-2.852796400730396e-06   1.2416753993867245e-06   -1.2134497850547804e-05
-2.852796400730396e-06   1.2416753993867245e-06   -1.2134497850547804e-05
-2.852796400730396e-06   1.2416753993867245e-06   -1.2134497850547804e-05
-2.852796400730396e-06   1.2416753993867245e-06   -1.2134497850547804e-05
-6.5094268603008495e-06   1.2222348174215254e-06   -1.8240546299010953e-05
-6.5094268603008495e-06   1.2222348174215254e-06   -1.8240546299010953e-05
-6.5094268603008495e-06   1.2222348174215254e-06   -1.8240546299010953e-05
-6.5094268603008495e-06   1.2222348174215254e-06   -1.8240546299010953e-05
-6.284014018080063e-06   1.6949637080683174e-06   -1.2419935282881529e-05
-6.284014018080063e-06   1.6949637080683174e-06   -1.2419935282881529e-05
-6.284014018080063e-06   1.6949637080683174e-06   -1.2419935282881529e-05
-6.284014018080063e-06   1.6949637080683174e-06   -1.2419935282881529e-05
-2.6313357477807898e-06   1.626178487194982e-06   -1.846646126752298e-05
-2.6313357477807898e-06   1.626178487194982e-06   -1.846646126752298e-05
-2.6313357477807898e-06   1.626178487194982e-06   -1.846646126752298e-05
-2.6313357477807898e-06   1.626178487194982e-06   -1.846646126752298e-05
-4.609698204177956e-06   1.345157790039967e-06   -1.5000578088568265e-05
-4.609698204177956e-06   1.345157790039967e-06   -1.5000578088568265e-05
-4.609698204177956e-06   1.345157790039967e-06   -1.5000578088568265e-05
-4.609698204177956e-06   1.345157790039967e-06   -1.5000578088568265e-05
-6.978178843981079e-06   7.908362842264094e-07   -1.0367098691021668e-05
-6.978178843981079e-06   7.908362842264094e-07   -1.0367098691021668e-05
-6.978178843981079e-06   7.908362842264094e-07   -1.0367098691021668e-05
-6.978178843981079e-06   7.908362842264094e-07   -1.0367098691021668e-05
-1.0607758233205012e-05   1.4388787726073984e-06   -1.6027572180032955e-05
-1.0607758233205012e-05   1.4388787726073984e-06   -1.6027572180032955e-05
-1.0607758233205012e-05   1.4388787726073984e-06   -1.6027572180032955e-05
-1.0607758233205012e-05   1.4388787726073984e-06   -1.6027572180032955e-05
-1.0341503158742208e-05   1.2306036233914646e-06   -9.756210995619501e-06
-1.0341503158742208e-05   1.2306036233914646e-06   -9.756210995619501e-06
-1.0341503158742208e-05   1.2306036233914646e-06   -9.756210995619501e-06
-1.0341503158742208e-05   1.2306036233914646e-06   -9.756210995619501e-06
-6.745917028015927e-06   1.8398332351460354e-06   -1.6114392313882747e-05
-6.745917028015927e-06   1.8398332351460354e-06   -1.6114392313882747e-05
-6.745917028015927e-06   1.8398332351460354e-06   -1.6114392313882747e-05
-6.745917028015927e-06   1.8398332351460354e-06   -1.6114392313882747e-05
-8.60814265226022e-06   1.3761865080290543e-06   -1.2732494903872006e-05
-8.60814265226022e-06   1.3761865080290543e-06   -1.2732494903872006e-05
-8.60814265226022e-06   1.3761865080290543e-06   -1.2732494903872006e-05
-8.60814265226022e-06   1.3761865080290543e-06   -1.2732494903872006e-05
-6.745917028015939e-06   1.2306036233913561e-06   -1.0121748762672287e-05
-6.745917028015939e-06   1.2306036233913561e-06   -1.0121748762672287e-05
-6.745917028015939e-06   1.2306036233913561e-06   -1.0121748762672287e-05
-6.745917028015939e-06   1.2306036233913561e-06   -1.0121748762672287e-05
-1.0341503158742225e-05   1.8398332351460354e-06   -1.5748854546830107e-05
-1.0341503158742225e-05   1.8398332351460354e-06   -1.5748854546830107e-05
-1.0341503158742225e-05   1.8398332351460354e-06   -1.5748854546830107e-05
-1.0341503158742225e-05   1.8398332351460354e-06   -1.5748854546830107e-05
-1.0020268672771015e-05   1.635448571687655e-06   -9.660738081787026e-06
-1.0020268672771015e-05   1.635448571687655e-06   -9.660738081787026e-06
-1.0020268672771015e-05   1.635448571687655e-06   -9.660738081787026e-06
-1.0020268672771015e-05   1.635448571687655e-06   -9.660738081787026e-06
-6.50942686030086e-06   2.2003134893142052e-06   -1.585106005314657e-05
-6.50942686030086e-06   2.2003134893142052e-06   -1.585106005314657e-05
-6.50942686030086e-06   2.2003134893142052e-06   -1.585106005314657e-05
-6.50942686030086e-06   2.2003134893142052e-06   -1.585106005314657e-05
-8.338586228914201e-06   1.6935721608345384e-06   -1.2498416308370048e-05
-8.338586228914201e-06   1.6935721608345384e-06   -1.2498416308370048e-05
-8.338586228914201e-06   1.6935721608345384e-06   -1.2498416308370048e-05
-8.338586228914201e-06   1.6935721608345384e-06   -1.2498416308370048e-05
-6.5094268603008546e-06   1.635448571687655e-06   -9.999657032362826e-06
-6.5094268603008546e-06   1.635448571687655e-06   -9.999657032362826e-06
-6.5094268603008546e-06   1.635448571687655e-06   -9.999657032362826e-06
-6.5094268603008546e-06   1.635448571687655e-06   -9.999657032362826e-06
-1.0020268672771015e-05   2.2003134893142052e-06   -1.5512141102570678e-05
-1.0020268672771015e-05   2.2003134893142052e-06   -1.5512141102570678e-05
-1.0020268672771015e-05   2.2003134893142052e-06   -1.5512141102570678e-05
-1.0020268672771015e-05   2.2003134893142052e-06   -1.5512141102570678e-05
-9.75326909186818e-06   2.0878229314266793e-06   -9.928244541497814e-06
-9.75326909186818e-06   2.0878229314266793e-06   -9.928244541497814e-06
-9.75326909186818e-06   2.0878229314266793e-06   -9.928244541497814e-06
-9.75326909186818e-06   2.0878229314266793e-06   -9.928244541497814e-06
-6.284014018080063e-06   2.6021502097154205e-06   -1.601893269811785e-05
-6.284014018080063e-06   2.6021502097154205e-06   -1.601893269811785e-05
-6.284014018080063e-06   2.6021502097154205e-06   -1.601893269811785e-05
-6.284014018080063e-06   2.6021502097154205e-06   -1.601893269811785e-05
-8.161664208743279e-06   2.005357917996475e-06   -1.2531440338647902e-05
-8.161664208743279e-06   2.005357917996475e-06   -1.2531440338647902e-05
-8.161664208743279e-06   2.005357917996475e-06   -1.2531440338647902e-05
-8.161664208743279e-06   2.005357917996475e-06   -1.2531440338647902e-05
-1.0607758233205012e-05   1.3341726538709884e-06   -5.352160676654516e-06
-1.0607758233205012e-05   1.3341726538709884e-06   -5.352160676654516e-06
-1.0607758233205012e-05   1.3341726538709884e-06   -5.352160676654516e-06
-1.0607758233205012e-05   1.3341726538709884e-06   -5.352160676654516e-06
-1.4756486925835202e-05   2.4759015906386734e-06   -1.1581671135644329e-05
-1.4756486925835202e-05   2.4759015906386734e-06   -1.1581671135644329e-05
-1.4756486925835202e-05   2.4759015906386734e-06   -1.1581671135644329e-05
-1.4756486925835202e-05   2.4759015906386734e-06   -1.1581671135644329e-05
-1.4009506054939612e-05   1.7340364152298613e-06   -3.32285996154885e-06
-1.4009506054939612e-05   1.7340364152298613e-06   -3.32285996154885e-06
-1.4009506054939612e-05   1.7340364152298613e-06   -3.32285996154885e-06
-1.4009506054939612e-05   1.7340364152298613e-06   -3.32285996154885e-06
-1.0341503158742208e-05   2.8933888925487122e-06   -1.0131809608269133e-05
-1.0341503158742208e-05   2.8933888925487122e-06   -1.0131809608269133e-05
-1.0341503158742208e-05   2.8933888925487122e-06   -1.0131809608269133e-05
-1.0341503158742208e-05   2.8933888925487122e-06   -1.0131809608269133e-05
-1.1923445687068646e-05   2.1552260832393647e-06   -7.052341042139529e-06
-1.1923445687068646e-05   2.1552260832393647e-06   -7.052341042139529e-06
-1.1923445687068646e-05   2.1552260832393647e-06   -7.052341042139529e-06
-1.1923445687068646e-05   2.1552260832393647e-06   -7.052341042139529e-06
-1.0341503158742215e-05   1.7340364152298613e-06   -4.018471447940096e-06
-1.0341503158742215e-05   1.7340364152298613e-06   -4.018471447940096e-06
-1.0341503158742215e-05   1.7340364152298613e-06   -4.018471447940096e-06
-1.0341503158742215e-05   1.7340364152298613e-06   -4.018471447940096e-06
-1.4009506054939565e-05   2.8933888925487122e-06   -9.436198121877827e-06
-1.4009506054939565e-05   2.8933888925487122e-06   -9.436198121877827e-06
-1.4009506054939565e-05   2.8933888925487122e-06   -9.436198121877827e-06
-1.4009506054939565e-05   2.8933888925487122e-06   -9.436198121877827e-06
-1.3392220997741669e-05   1.917015475795384e-06   -2.6990387430651753e-06
-1.3392220997741669e-05   1.917015475795384e-06   -2.6990387430651753e-06
-1.3392220997741669e-05   1.917015475795384e-06   -2.6990387430651753e-06
-1.3392220997741669e-05   1.917015475795384e-06   -2.6990387430651753e-06
-1.0020268672770998e-05   3.043377559020389e-06   -8.994776534617942e-06
-1.0020268672770998e-05   3.043377559020389e-06   -8.994776534617942e-06
-1.0020268672770998e-05   3.043377559020389e-06   -8.994776534617942e-06
-1.0020268672770998e-05   3.043377559020389e-06   -8.994776534617942e-06
-1.1657912694430445e-05   2.3446382445428725e-06   -5.846126243165632e-06
-1.1657912694430445e-05   2.3446382445428725e-06   -5.846126243165632e-06
-1.1657912694430445e-05   2.3446382445428725e-06   -5.846126243165632e-06
-1.1657912694430445e-05   2.3446382445428725e-06   -5.846126243165632e-06
-1.0020268672771015e-05   1.917015475795384e-06   -3.374855993000113e-06
-1.0020268672771015e-05   1.917015475795384e-06   -3.374855993000113e-06
-1.0020268672771015e-05   1.917015475795384e-06   -3.374855993000113e-06
-1.0020268672771015e-05   1.917015475795384e-06   -3.374855993000113e-06
-1.3392220997741642e-05   3.043377559020389e-06   -8.31895928468299e-06
-1.3392220997741642e-05   3.043377559020389e-06   -8.31895928468299e-06
-1.3392220997741642e-05   3.043377559020389e-06   -8.31895928468299e-06
-1.3392220997741642e-05   3.043377559020389e-06   -8.31895928468299e-06
-1.2659045406885e-05   2.197290432047992e-06   -2.0370254850096995e-06
-1.2659045406885e-05   2.197290432047992e-06   -2.0370254850096995e-06
-1.2659045406885e-05   2.197290432047992e-06   -2.0370254850096995e-06
-1.2659045406885e-05   2.197290432047992e-06   -2.0370254850096995e-06
-9.75326909186818e-06   3.230069828528276e-06   -7.49965364792593e-06
-9.75326909186818e-06   3.230069828528276e-06   -7.49965364792593e-06
-9.75326909186818e-06   3.230069828528276e-06   -7.49965364792593e-06
-9.75326909186818e-06   3.230069828528276e-06   -7.49965364792593e-06
-1.1074272473542826e-05   2.434832359787917e-06   -4.820838863890838e-06
-1.1074272473542826e-05   2.434832359787917e-06   -4.820838863890838e-06
-1.1074272473542826e-05   2.434832359787917e-06   -4.820838863890838e-06
-1.1074272473542826e-05   2.434832359787917e-06   -4.820838863890838e-06
1.1092732990793287e-05   -1.4501232764491155e-06   3.6028774651848325e-08
1.1092732990793287e-05   -1.4501232764491155e-06   3.6028774651848325e-08
1.1092732990793287e-05   -1.4501232764491155e-06   3.6028774651848325e-08
1.1092732990793287e-05   -1.4501232764491155e-06   3.6028774651848325e-08
4.7066398497067524e-06   -2.599933220960083e-06   -1.1297345760532141e-05
4.7066398497067524e-06   -2.599933220960083e-06   -1.1297345760532141e-05
4.7066398497067524e-06   -2.599933220960083e-06   -1.1297345760532141e-05
4.7066398497067524e-06   -2.599933220960083e-06   -1.1297345760532141e-05
5.029190515221582e-06   -1.193539718210364e-06   -1.1289297695080006e-06
5.029190515221582e-06   -1.193539718210364e-06   -1.1289297695080006e-06
5.029190515221582e-06   -1.193539718210364e-06   -1.1289297695080006e-06
5.029190515221582e-06   -1.193539718210364e-06   -1.1289297695080006e-06
1.1913070654279362e-05   -2.4197752156963556e-06   -1.1866322036112645e-05
1.1913070654279362e-05   -2.4197752156963556e-06   -1.1866322036112645e-05
1.1913070654279362e-05   -2.4197752156963556e-06   -1.1866322036112645e-05
1.1913070654279362e-05   -2.4197752156963556e-06   -1.1866322036112645e-05
7.854297890935385e-06   -1.7185640005961712e-06   -5.522427492932864e-06
7.854297890935385e-06   -1.7185640005961712e-06   -5.522427492932864e-06
7.854297890935385e-06   -1.7185640005961712e-06   -5.522427492932864e-06
7.854297890935385e-06   -1.7185640005961712e-06   -5.522427492932864e-06
1.1913070654279376e-05   -1.193539718210364e-06   -3.9318847101636224e-07
1.1913070654279376e-05   -1.193539718210364e-06   -3.9318847101636224e-07
1.1913070654279376e-05   -1.193539718210364e-06   -3.9318847101636224e-07
1.1913070654279376e-05   -1.193539718210364e-06   -3.9318847101636224e-07
5.029190515221568e-06   -2.4197752156963556e-06   -1.2602063334604284e-05
5.029190515221568e-06   -2.4197752156963556e-06   -1.2602063334604284e-05
5.029190515221568e-06   -2.4197752156963556e-06   -1.2602063334604284e-05
5.029190515221568e-06   -2.4197752156963556e-06   -1.2602063334604284e-05
5.387098464641342e-06   -1.020677570816417e-06   -1.64289916332566e-06
5.387098464641342e-06   -1.020677570816417e-06   -1.64289916332566e-06
5.387098464641342e-06   -1.020677570816417e-06   -1.64289916332566e-06
5.387098464641342e-06   -1.020677570816417e-06   -1.64289916332566e-06
1.259981067773003e-05   -2.2626713857928265e-06   -1.2918889896154325e-05
1.259981067773003e-05   -2.2626713857928265e-06   -1.2918889896154325e-05
1.259981067773003e-05   -2.2626713857928265e-06   -1.2918889896154325e-05
1.259981067773003e-05   -2.2626713857928265e-06   -1.2918889896154325e-05
8.470066754410971e-06   -1.6484847629673251e-06   -6.40449533098451e-06
8.470066754410971e-06   -1.6484847629673251e-06   -6.40449533098451e-06
8.470066754410971e-06   -1.6484847629673251e-06   -6.40449533098451e-06
8.470066754410971e-06   -1.6484847629673251e-06   -6.40449533098451e-06
1.2599810677730057e-05   -1.020677570816417e-06   -8.977028743398143e-07
1.2599810677730057e-05   -1.020677570816417e-06   -8.977028743398143e-07
1.2599810677730057e-05   -1.020677570816417e-06   -8.977028743398143e-07
1.2599810677730057e-05   -1.020677570816417e-06   -8.977028743398143e-07
5.3870984646413284e-06   -2.2626713857928265e-06   -1.3664086185140225e-05
5.3870984646413284e-06   -2.2626713857928265e-06   -1.3664086185140225e-05
5.3870984646413284e-06   -2.2626713857928265e-06   -1.3664086185140225e-05
5.3870984646413284e-06   -2.2626713857928265e-06   -1.3664086185140225e-05
5.6810683040040835e-06   -5.868674175920838e-07   -2.821672260395428e-06
5.6810683040040835e-06   -5.868674175920838e-07   -2.821672260395428e-06
5.6810683040040835e-06   -5.868674175920838e-07   -2.821672260395428e-06
5.6810683040040835e-06   -5.868674175920838e-07   -2.821672260395428e-06
1.3397532356302806e-05   -1.768400277045749e-06   -1.4973525965220969e-05
1.3397532356302806e-05   -1.768400277045749e-06   -1.4973525965220969e-05
1.3397532356302806e-05   -1.768400277045749e-06   -1.4973525965220969e-05
1.3397532356302806e-05   -1.768400277045749e-06   -1.4973525965220969e-05
8.797003148958359e-06   -1.453090477282243e-06   -7.495163166172056e-06
8.797003148958359e-06   -1.453090477282243e-06   -7.495163166172056e-06
8.797003148958359e-06   -1.453090477282243e-06   -7.495163166172056e-06
8.797003148958359e-06   -1.453090477282243e-06   -7.495163166172056e-06
4.706639849706766e-06   -5.661840277436945e-07   -7.534754086792534e-06
4.706639849706766e-06   -5.661840277436945e-07   -7.534754086792534e-06
4.706639849706766e-06   -5.661840277436945e-07   -7.534754086792534e-06
4.706639849706766e-06   -5.661840277436945e-07   -7.534754086792534e-06
-2.031030999001944e-06   -1.2057507988507158e-06   -1.9147945563971318e-05
-2.031030999001944e-06   -1.2057507988507158e-06   -1.9147945563971318e-05
-2.031030999001944e-06   -1.2057507988507158e-06   -1.9147945563971318e-05
-2.031030999001944e-06   -1.2057507988507158e-06   -1.9147945563971318e-05
-1.7322621859876047e-06   -2.124349438893669e-07   -7.691082573518869e-06
-1.7322621859876047e-06   -2.124349438893669e-07   -7.691082573518869e-06
-1.7322621859876047e-06   -2.124349438893669e-07   -7.691082573518869e-06
-1.7322621859876047e-06   -2.124349438893669e-07   -7.691082573518869e-06
5.029190515221568e-06   -9.518625599579328e-07   -1.8516513839226265e-05
5.029190515221568e-06   -9.518625599579328e-07   -1.8516513839226265e-05
5.029190515221568e-06   -9.518625599579328e-07   -1.8516513839226265e-05
5.029190515221568e-06   -9.518625599579328e-07   -1.8516513839226265e-05
1.5092451678980124e-06   -5.808508248618697e-07   -1.2872545301411428e-05
1.5092451678980124e-06   -5.808508248618697e-07   -1.2872545301411428e-05
1.5092451678980124e-06   -5.808508248618697e-07   -1.2872545301411428e-05
1.5092451678980124e-06   -5.808508248618697e-07   -1.2872545301411428e-05
5.029190515221582e-06   -2.124349438893669e-07   -7.247426003877675e-06
5.029190515221582e-06   -2.124349438893669e-07   -7.247426003877675e-06
5.029190515221582e-06   -2.124349438893669e-07   -7.247426003877675e-06
5.029190515221582e-06   -2.124349438893669e-07   -7.247426003877675e-06
-1.732262185987598e-06   -9.518625599579328e-07   -1.896017040886746e-05
-1.732262185987598e-06   -9.518625599579328e-07   -1.896017040886746e-05
-1.732262185987598e-06   -9.518625599579328e-07   -1.896017040886746e-05
-1.732262185987598e-06   -9.518625599579328e-07   -1.896017040886746e-05
-1.4470481871913196e-06   1.5398288069927088e-07   -7.793824850917792e-06
-1.4470481871913196e-06   1.5398288069927088e-07   -7.793824850917792e-06
-1.4470481871913196e-06   1.5398288069927088e-07   -7.793824850917792e-06
-1.4470481871913196e-06   1.5398288069927088e-07   -7.793824850917792e-06
5.3870984646413284e-06   -6.418597542829675e-07   -1.8706563689649625e-05
5.3870984646413284e-06   -6.418597542829675e-07   -1.8706563689649625e-05
5.3870984646413284e-06   -6.418597542829675e-07   -1.8706563689649625e-05
5.3870984646413284e-06   -6.418597542829675e-07   -1.8706563689649625e-05
1.7445761972958552e-06   -3.554057187971603e-07   -1.2807565665365041e-05
1.7445761972958552e-06   -3.554057187971603e-07   -1.2807565665365041e-05
1.7445761972958552e-06   -3.554057187971603e-07   -1.2807565665365041e-05
1.7445761972958552e-06   -3.554057187971603e-07   -1.2807565665365041e-05
5.387098464641342e-06   1.5398288069927088e-07   -7.316319269928524e-06
5.387098464641342e-06   1.5398288069927088e-07   -7.316319269928524e-06
5.387098464641342e-06   1.5398288069927088e-07   -7.316319269928524e-06
5.387098464641342e-06   1.5398288069927088e-07   -7.316319269928524e-06
-1.4470481871913196e-06   -6.418597542829675e-07   -1.9184069270638973e-05
-1.4470481871913196e-06   -6.418597542829675e-07   -1.9184069270638973e-05
-1.4470481871913196e-06   -6.418597542829675e-07   -1.9184069270638973e-05
-1.4470481871913196e-06   -6.418597542829675e-07   -1.9184069270638973e-05
-1.1796316770489824e-06   5.888885879684396e-07   -8.063580165917688e-06
-1.1796316770489824e-06   5.888885879684396e-07   -8.063580165917688e-06
-1.1796316770489824e-06   5.888885879684396e-07   -8.063580165917688e-06
-1.1796316770489824e-06   5.888885879684396e-07   -8.063580165917688e-06
5.68106830400407e-06   -2.510194090683685e-07   -1.899413533611741e-05
5.68106830400407e-06   -2.510194090683685e-07   -1.899413533611741e-05
5.68106830400407e-06   -2.510194090683685e-07   -1.899413533611741e-05
5.68106830400407e-06   -2.510194090683685e-07   -1.899413533611741e-05
2.0409341516782533e-06   -7.683933977444511e-08   -1.3031753123817668e-05
2.0409341516782533e-06   -7.683933977444511e-08   -1.3031753123817668e-05
2.0409341516782533e-06   -7.683933977444511e-08   -1.3031753123817668e-05
2.0409341516782533e-06   -7.683933977444511e-08   -1.3031753123817668e-05
-2.0310309990019507e-06   4.496773894246313e-07   -9.727876054328808e-06
-2.0310309990019507e-06   4.496773894246313e-07   -9.727876054328808e-06
-2.0310309990019507e-06   4.496773894246313e-07   -9.727876054328808e-06
-2.0310309990019507e-06   4.496773894246313e-07   -9.727876054328808e-06
-8.649934806143045e-06   2.428044545056294e-07   -2.088350616051538e-05
-8.649934806143045e-06   2.428044545056294e-07   -2.088350616051538e-05
-8.649934806143045e-06   2.428044545056294e-07   -2.088350616051538e-05
-8.649934806143045e-06   2.428044545056294e-07   -2.088350616051538e-05
-8.328529692888888e-06   8.252181426484555e-07   -9.653895791097425e-06
-8.328529692888888e-06   8.252181426484555e-07   -9.653895791097425e-06
-8.328529692888888e-06   8.252181426484555e-07   -9.653895791097425e-06
-8.328529692888888e-06   8.252181426484555e-07   -9.653895791097425e-06
-1.732262185987598e-06   5.288486345409685e-07   -2.0469853264401677e-05
-1.732262185987598e-06   5.288486345409685e-07   -2.0469853264401677e-05
-1.732262185987598e-06   5.288486345409685e-07   -2.0469853264401677e-05
-1.732262185987598e-06   5.288486345409685e-07   -2.0469853264401677e-05
-5.150406892259606e-06   6.175050584909716e-07   -1.4826139274985028e-05
-5.150406892259606e-06   6.175050584909716e-07   -1.4826139274985028e-05
-5.150406892259606e-06   6.175050584909716e-07   -1.4826139274985028e-05
-5.150406892259606e-06   6.175050584909716e-07   -1.4826139274985028e-05
-1.7322621859876047e-06   8.252181426484555e-07   -9.476074086232878e-06
-1.7322621859876047e-06   8.252181426484555e-07   -9.476074086232878e-06
-1.7322621859876047e-06   8.252181426484555e-07   -9.476074086232878e-06
-1.7322621859876047e-06   8.252181426484555e-07   -9.476074086232878e-06
-8.328529692888888e-06   5.288486345409685e-07   -2.0647674969266237e-05
-8.328529692888888e-06   5.288486345409685e-07   -2.0647674969266237e-05
-8.328529692888888e-06   5.288486345409685e-07   -2.0647674969266237e-05
-8.328529692888888e-06   5.288486345409685e-07   -2.0647674969266237e-05
-8.01821864417316e-06   1.2222348174215254e-06   -9.639459038648978e-06
-8.01821864417316e-06   1.2222348174215254e-06   -9.639459038648978e-06
-8.01821864417316e-06   1.2222348174215254e-06   -9.639459038648978e-06
-8.01821864417316e-06   1.2222348174215254e-06   -9.639459038648978e-06
-1.4470481871913196e-06   8.587939581974294e-07   -2.0373345284750813e-05
-1.4470481871913196e-06   8.587939581974294e-07   -2.0373345284750813e-05
-1.4470481871913196e-06   8.587939581974294e-07   -2.0373345284750813e-05
-1.4470481871913196e-06   8.587939581974294e-07   -2.0373345284750813e-05
-4.874508829644437e-06   8.855401712552216e-07   -1.467695860849695e-05
-4.874508829644437e-06   8.855401712552216e-07   -1.467695860849695e-05
-4.874508829644437e-06   8.855401712552216e-07   -1.467695860849695e-05
-4.874508829644437e-06   8.855401712552216e-07   -1.467695860849695e-05
-1.4470481871913196e-06   1.2222348174215254e-06   -9.421394523114444e-06
-1.4470481871913196e-06   1.2222348174215254e-06   -9.421394523114444e-06
-1.4470481871913196e-06   1.2222348174215254e-06   -9.421394523114444e-06
-1.4470481871913196e-06   1.2222348174215254e-06   -9.421394523114444e-06
-8.01821864417316e-06   8.587939581974294e-07   -2.059140980028532e-05
-8.01821864417316e-06   8.587939581974294e-07   -2.059140980028532e-05
-8.01821864417316e-06   8.587939581974294e-07   -2.059140980028532e-05
-8.01821864417316e-06   8.587939581974294e-07   -2.059140980028532e-05
-7.73152769368044e-06   1.626178487194982e-06   -9.868861196097407e-06
-7.73152769368044e-06   1.626178487194982e-06   -9.868861196097407e-06
-7.73152769368044e-06   1.626178487194982e-06   -9.868861196097407e-06
-7.73152769368044e-06   1.626178487194982e-06   -9.868861196097407e-06
-1.1796316770489824e-06   1.1995354351075063e-06   -2.0532702059230777e-05
-1.1796316770489824e-06   1.1995354351075063e-06   -2.0532702059230777e-05
-1.1796316770489824e-06   1.1995354351075063e-06   -2.0532702059230777e-05
-1.1796316770489824e-06   1.1995354351075063e-06   -2.0532702059230777e-05
-4.6286048405730074e-06   1.1605313696473347e-06   -1.476101101408159e-05
-4.6286048405730074e-06   1.1605313696473347e-06   -1.476101101408159e-05
-4.6286048405730074e-06   1.1605313696473347e-06   -1.476101101408159e-05
-4.6286048405730074e-06   1.1605313696473347e-06   -1.476101101408159e-05
-8.649934806143058e-06   1.4388787726073984e-06   -7.880742635535246e-06
-8.649934806143058e-06   1.4388787726073984e-06   -7.880742635535246e-06
-8.649934806143058e-06   1.4388787726073984e-06   -7.880742635535246e-06
-8.649934806143058e-06   1.4388787726073984e-06   -7.880742635535246e-06
-1.5159706895403143e-05   1.7436589620252593e-06   -1.8547494670651335e-05
-1.5159706895403143e-05   1.7436589620252593e-06   -1.8547494670651335e-05
-1.5159706895403143e-05   1.7436589620252593e-06   -1.8547494670651335e-05
-1.5159706895403143e-05   1.7436589620252593e-06   -1.8547494670651335e-05
-1.4771461431372683e-05   1.8398332351460354e-06   -7.392301902813187e-06
-1.4771461431372683e-05   1.8398332351460354e-06   -7.392301902813187e-06
-1.4771461431372683e-05   1.8398332351460354e-06   -7.392301902813187e-06
-1.4771461431372683e-05   1.8398332351460354e-06   -7.392301902813187e-06
-8.328529692888901e-06   2.105274834575746e-06   -1.828978642661073e-05
-8.328529692888901e-06   2.105274834575746e-06   -1.828978642661073e-05
-8.328529692888901e-06   2.105274834575746e-06   -1.828978642661073e-05
-8.328529692888901e-06   2.105274834575746e-06   -1.828978642661073e-05
-1.1642003140407642e-05   1.8555705635055555e-06   -1.2617508118103994e-05
-1.1642003140407642e-05   1.8555705635055555e-06   -1.2617508118103994e-05
-1.1642003140407642e-05   1.8555705635055555e-06   -1.2617508118103994e-05
-1.1642003140407642e-05   1.8555705635055555e-06   -1.2617508118103994e-05
-8.328529692888901e-06   1.8398332351460354e-06   -7.551566862471035e-06
-8.328529692888901e-06   1.8398332351460354e-06   -7.551566862471035e-06
-8.328529692888901e-06   1.8398332351460354e-06   -7.551566862471035e-06
-8.328529692888901e-06   1.8398332351460354e-06   -7.551566862471035e-06
-1.477146143137271e-05   2.105274834575746e-06   -1.8130521466952834e-05
-1.477146143137271e-05   2.105274834575746e-06   -1.8130521466952834e-05
-1.477146143137271e-05   2.105274834575746e-06   -1.8130521466952834e-05
-1.477146143137271e-05   2.105274834575746e-06   -1.8130521466952834e-05
-1.4339970978682687e-05   2.2003134893142052e-06   -7.120290358871766e-06
-1.4339970978682687e-05   2.2003134893142052e-06   -7.120290358871766e-06
-1.4339970978682687e-05   2.2003134893142052e-06   -7.120290358871766e-06
-1.4339970978682687e-05   2.2003134893142052e-06   -7.120290358871766e-06
-8.018218644173176e-06   2.4164508791687297e-06   -1.7786226683633706e-05
-8.018218644173176e-06   2.4164508791687297e-06   -1.7786226683633706e-05
-8.018218644173176e-06   2.4164508791687297e-06   -1.7786226683633706e-05
-8.018218644173176e-06   2.4164508791687297e-06   -1.7786226683633706e-05
-1.1247371555178452e-05   2.138140502431357e-06   -1.2237318939249128e-05
-1.1247371555178452e-05   2.138140502431357e-06   -1.2237318939249128e-05
-1.1247371555178452e-05   2.138140502431357e-06   -1.2237318939249128e-05
-1.1247371555178452e-05   2.138140502431357e-06   -1.2237318939249128e-05
-8.018218644173167e-06   2.2003134893142052e-06   -7.249972792784448e-06
-8.018218644173167e-06   2.2003134893142052e-06   -7.249972792784448e-06
-8.018218644173167e-06   2.2003134893142052e-06   -7.249972792784448e-06
-8.018218644173167e-06   2.2003134893142052e-06   -7.249972792784448e-06
-1.4339970978682687e-05   2.4164508791687297e-06   -1.7656544249720983e-05
-1.4339970978682687e-05   2.4164508791687297e-06   -1.7656544249720983e-05
-1.4339970978682687e-05   2.4164508791687297e-06   -1.7656544249720983e-05
-1.4339970978682687e-05   2.4164508791687297e-06   -1.7656544249720983e-05
-1.3975856258787425e-05   2.6021502097154205e-06   -7.285704498333906e-06
-1.3975856258787425e-05   2.6021502097154205e-06   -7.285704498333906e-06
-1.3975856258787425e-05   2.6021502097154205e-06   -7.285704498333906e-06
-1.3975856258787425e-05   2.6021502097154205e-06   -7.285704498333906e-06
-7.731527693680452e-06   2.75941186943956e-06   -1.7787275769346714e-05
-7.731527693680452e-06   2.75941186943956e-06   -1.7787275769346714e-05
-7.731527693680452e-06   2.75941186943956e-06   -1.7787275769346714e-05
-7.731527693680452e-06   2.75941186943956e-06   -1.7787275769346714e-05
-1.1006560314798034e-05   2.3979078263280116e-06   -1.2111985641617186e-05
-1.1006560314798034e-05   2.3979078263280116e-06   -1.2111985641617186e-05
-1.1006560314798034e-05   2.3979078263280116e-06   -1.2111985641617186e-05
-1.1006560314798034e-05   2.3979078263280116e-06   -1.2111985641617186e-05
-1.5159706895403143e-05   2.475901590638565e-06   -3.937010839556439e-06
-1.5159706895403143e-05   2.475901590638565e-06   -3.937010839556439e-06
-1.5159706895403143e-05   2.475901590638565e-06   -3.937010839556439e-06
-1.5159706895403143e-05   2.475901590638565e-06   -3.937010839556439e-06
-2.2035010893620222e-05   3.4080953152240212e-06   -1.4836534601833781e-05
-2.2035010893620222e-05   3.4080953152240212e-06   -1.4836534601833781e-05
-2.2035010893620222e-05   3.4080953152240212e-06   -1.4836534601833781e-05
-2.2035010893620222e-05   3.4080953152240212e-06   -1.4836534601833781e-05
-2.1130128332786878e-05   2.8933888925487122e-06   -1.1780048385880344e-06
-2.1130128332786878e-05   2.8933888925487122e-06   -1.1780048385880344e-06
-2.1130128332786878e-05   2.8933888925487122e-06   -1.1780048385880344e-06
-2.1130128332786878e-05   2.8933888925487122e-06   -1.1780048385880344e-06
-1.4771461431372683e-05   3.888809101989144e-06   -1.2373035133275922e-05
-1.4771461431372683e-05   3.888809101989144e-06   -1.2373035133275922e-05
-1.4771461431372683e-05   3.888809101989144e-06   -1.2373035133275922e-05
-1.4771461431372683e-05   3.888809101989144e-06   -1.2373035133275922e-05
-1.75193682588749e-05   3.2461798112337625e-06   -7.407612846318986e-06
-1.75193682588749e-05   3.2461798112337625e-06   -7.407612846318986e-06
-1.75193682588749e-05   3.2461798112337625e-06   -7.407612846318986e-06
-1.75193682588749e-05   3.2461798112337625e-06   -7.407612846318986e-06
-1.47714614313727e-05   2.8933888925487122e-06   -1.7752569642522607e-06
-1.47714614313727e-05   2.8933888925487122e-06   -1.7752569642522607e-06
-1.47714614313727e-05   2.8933888925487122e-06   -1.7752569642522607e-06
-1.47714614313727e-05   2.8933888925487122e-06   -1.7752569642522607e-06
-2.1130128332786837e-05   3.888809101989144e-06   -1.1775783007611658e-05
-2.1130128332786837e-05   3.888809101989144e-06   -1.1775783007611658e-05
-2.1130128332786837e-05   3.888809101989144e-06   -1.1775783007611658e-05
-2.1130128332786837e-05   3.888809101989144e-06   -1.1775783007611658e-05
-2.03857719848267e-05   3.043377559020389e-06   -1.9357564665350296e-08
-2.03857719848267e-05   3.043377559020389e-06   -1.9357564665350296e-08
-2.03857719848267e-05   3.043377559020389e-06   -1.9357564665350296e-08
-2.03857719848267e-05   3.043377559020389e-06   -1.9357564665350296e-08
-1.4339970978682687e-05   4.015991269443273e-06   -1.0679260801159137e-05
-1.4339970978682687e-05   4.015991269443273e-06   -1.0679260801159137e-05
-1.4339970978682687e-05   4.015991269443273e-06   -1.0679260801159137e-05
-1.4339970978682687e-05   4.015991269443273e-06   -1.0679260801159137e-05
-1.7221642038674846e-05   3.44003642148232e-06   -5.530902792395457e-06
-1.7221642038674846e-05   3.44003642148232e-06   -5.530902792395457e-06
-1.7221642038674846e-05   3.44003642148232e-06   -5.530902792395457e-06
-1.7221642038674846e-05   3.44003642148232e-06   -5.530902792395457e-06
-1.4339970978682687e-05   3.043377559020389e-06   -6.029257909190701e-07
-1.4339970978682687e-05   3.043377559020389e-06   -6.029257909190701e-07
-1.4339970978682687e-05   3.043377559020389e-06   -6.029257909190701e-07
-1.4339970978682687e-05   3.043377559020389e-06   -6.029257909190701e-07
-2.0385771984826625e-05   4.015991269443273e-06   -1.0095692574905416e-05
-2.0385771984826625e-05   4.015991269443273e-06   -1.0095692574905416e-05
-2.0385771984826625e-05   4.015991269443273e-06   -1.0095692574905416e-05
-2.0385771984826625e-05   4.015991269443273e-06   -1.0095692574905416e-05
-1.9579413807358364e-05   3.230069828528276e-06   1.45988640930109e-06
-1.9579413807358364e-05   3.230069828528276e-06   1.45988640930109e-06
-1.9579413807358364e-05   3.230069828528276e-06   1.45988640930109e-06
-1.9579413807358364e-05   3.230069828528276e-06   1.45988640930109e-06
-1.3975856258787425e-05   4.121583535888823e-06   -8.414284396066795e-06
-1.3975856258787425e-05   4.121583535888823e-06   -8.414284396066795e-06
-1.3975856258787425e-05   4.121583535888823e-06   -8.414284396066795e-06
-1.3975856258787425e-05   4.121583535888823e-06   -8.414284396066795e-06
-1.6461219821758436e-05   3.471087829340488e-06   -3.881714367186376e-06
-1.6461219821758436e-05   3.471087829340488e-06   -3.881714367186376e-06
-1.6461219821758436e-05   3.471087829340488e-06   -3.881714367186376e-06
-1.6461219821758436e-05   3.471087829340488e-06   -3.881714367186376e-06
1.8694689850843043e-05   -2.5999332209599747e-06   3.8244889059118855e-06
1.8694689850843043e-05   -2.5999332209599747e-06   3.8244889059118855e-06
1.8694689850843043e-05   -2.5999332209599747e-06   3.8244889059118855e-06
1.8694689850843043e-05   -2.5999332209599747e-06   3.8244889059118855e-06
8.982803147202623e-06   -3.831867923228551e-06   -1.3101149754850077e-05
8.982803147202623e-06   -3.831867923228551e-06   -1.3101149754850077e-05
8.982803147202623e-06   -3.831867923228551e-06   -1.3101149754850077e-05
8.982803147202623e-06   -3.831867923228551e-06   -1.3101149754850077e-05
9.339540018074027e-06   -2.419775215696464e-06   1.906513660763858e-06
9.339540018074027e-06   -2.419775215696464e-06   1.906513660763858e-06
9.339540018074027e-06   -2.419775215696464e-06   1.906513660763858e-06
9.339540018074027e-06   -2.419775215696464e-06   1.906513660763858e-06
1.9533345783026687e-05   -3.7444858081796782e-06   -1.428833625866731e-05
1.9533345783026687e-05   -3.7444858081796782e-06   -1.428833625866731e-05
1.9533345783026687e-05   -3.7444858081796782e-06   -1.428833625866731e-05
1.9533345783026687e-05   -3.7444858081796782e-06   -1.428833625866731e-05
1.3561557573400849e-05   -2.842729808569017e-06   -4.8764095090572375e-06
1.3561557573400849e-05   -2.842729808569017e-06   -4.8764095090572375e-06
1.3561557573400849e-05   -2.842729808569017e-06   -4.8764095090572375e-06
1.3561557573400849e-05   -2.842729808569017e-06   -4.8764095090572375e-06
1.9533345783026714e-05   -2.419775215696464e-06   2.701340016253895e-06
1.9533345783026714e-05   -2.419775215696464e-06   2.701340016253895e-06
1.9533345783026714e-05   -2.419775215696464e-06   2.701340016253895e-06
1.9533345783026714e-05   -2.419775215696464e-06   2.701340016253895e-06
9.339540018074e-06   -3.7444858081796782e-06   -1.5083162614157265e-05
9.339540018074e-06   -3.7444858081796782e-06   -1.5083162614157265e-05
9.339540018074e-06   -3.7444858081796782e-06   -1.5083162614157265e-05
9.339540018074e-06   -3.7444858081796782e-06   -1.5083162614157265e-05
9.69470046725159e-06   -2.262671385792718e-06   9.632345830168408e-07
9.69470046725159e-06   -2.262671385792718e-06   9.632345830168408e-07
9.69470046725159e-06   -2.262671385792718e-06   9.632345830168408e-07
9.69470046725159e-06   -2.262671385792718e-06   9.632345830168408e-07
2.0175474761165063e-05   -3.6137789711607627e-06   -1.5694058022284774e-05
2.0175474761165063e-05   -3.6137789711607627e-06   -1.5694058022284774e-05
2.0175474761165063e-05   -3.6137789711607627e-06   -1.5694058022284774e-05
2.0175474761165063e-05   -3.6137789711607627e-06   -1.5694058022284774e-05
1.4269589283074325e-05   -2.8328838227064572e-06   -6.31945264787287e-06
1.4269589283074325e-05   -2.8328838227064572e-06   -6.31945264787287e-06
1.4269589283074325e-05   -2.8328838227064572e-06   -6.31945264787287e-06
1.4269589283074325e-05   -2.8328838227064572e-06   -6.31945264787287e-06
2.0175474761165063e-05   -2.262671385792718e-06   1.773899134237711e-06
2.0175474761165063e-05   -2.262671385792718e-06   1.773899134237711e-06
2.0175474761165063e-05   -2.262671385792718e-06   1.773899134237711e-06
2.0175474761165063e-05   -2.262671385792718e-06   1.773899134237711e-06
9.69470046725159e-06   -3.6137789711607627e-06   -1.6504722573505617e-05
9.69470046725159e-06   -3.6137789711607627e-06   -1.6504722573505617e-05
9.69470046725159e-06   -3.6137789711607627e-06   -1.6504722573505617e-05
9.69470046725159e-06   -3.6137789711607627e-06   -1.6504722573505617e-05
9.934126386491093e-06   -1.768400277045749e-06   -9.283927677203405e-07
9.934126386491093e-06   -1.768400277045749e-06   -9.283927677203405e-07
9.934126386491093e-06   -1.768400277045749e-06   -9.283927677203405e-07
9.934126386491093e-06   -1.768400277045749e-06   -9.283927677203405e-07
2.08550769877397e-05   -3.1065327601582622e-06   -1.8327097613267244e-05
2.08550769877397e-05   -3.1065327601582622e-06   -1.8327097613267244e-05
2.08550769877397e-05   -3.1065327601582622e-06   -1.8327097613267244e-05
2.08550769877397e-05   -3.1065327601582622e-06   -1.8327097613267244e-05
1.4459488312314383e-05   -2.6138005788465396e-06   -7.963422463012291e-06
1.4459488312314383e-05   -2.6138005788465396e-06   -7.963422463012291e-06
1.4459488312314383e-05   -2.6138005788465396e-06   -7.963422463012291e-06
1.4459488312314383e-05   -2.6138005788465396e-06   -7.963422463012291e-06
8.982803147202637e-06   -1.2057507988507158e-06   -4.381531656224278e-06
8.982803147202637e-06   -1.2057507988507158e-06   -4.381531656224278e-06
8.982803147202637e-06   -1.2057507988507158e-06   -4.381531656224278e-06
8.982803147202637e-06   -1.2057507988507158e-06   -4.381531656224278e-06
-5.910448501909795e-07   -2.454750049430375e-06   -2.1087344535561468e-05
-5.910448501909795e-07   -2.454750049430375e-06   -2.1087344535561468e-05
-5.910448501909795e-07   -2.454750049430375e-06   -2.1087344535561468e-05
-5.910448501909795e-07   -2.454750049430375e-06   -2.1087344535561468e-05
-2.258902298288919e-07   -9.518625599579328e-07   -4.836780045345515e-06
-2.258902298288919e-07   -9.518625599579328e-07   -4.836780045345515e-06
-2.258902298288919e-07   -9.518625599579328e-07   -4.836780045345515e-06
-2.258902298288919e-07   -9.518625599579328e-07   -4.836780045345515e-06
9.339540018074027e-06   -2.3332678957701082e-06   -1.9950320590363037e-05
9.339540018074027e-06   -2.3332678957701082e-06   -1.9950320590363037e-05
9.339540018074027e-06   -2.3332678957701082e-06   -1.9950320590363037e-05
9.339540018074027e-06   -2.3332678957701082e-06   -1.9950320590363037e-05
4.388621868475073e-06   -1.4864175864170298e-06   -1.2206900526643338e-05
4.388621868475073e-06   -1.4864175864170298e-06   -1.2206900526643338e-05
4.388621868475073e-06   -1.4864175864170298e-06   -1.2206900526643338e-05
4.388621868475073e-06   -1.4864175864170298e-06   -1.2206900526643338e-05
9.339540018074027e-06   -9.518625599579328e-07   -4.007936843858123e-06
9.339540018074027e-06   -9.518625599579328e-07   -4.007936843858123e-06
9.339540018074027e-06   -9.518625599579328e-07   -4.007936843858123e-06
9.339540018074027e-06   -9.518625599579328e-07   -4.007936843858123e-06
-2.258902298288919e-07   -2.3332678957701082e-06   -2.077916379185043e-05
-2.258902298288919e-07   -2.3332678957701082e-06   -2.077916379185043e-05
-2.258902298288919e-07   -2.3332678957701082e-06   -2.077916379185043e-05
-2.258902298288919e-07   -2.3332678957701082e-06   -2.077916379185043e-05
9.55747341672183e-08   -6.418597542829675e-07   -4.960129053312883e-06
9.55747341672183e-08   -6.418597542829675e-07   -4.960129053312883e-06
9.55747341672183e-08   -6.418597542829675e-07   -4.960129053312883e-06
9.55747341672183e-08   -6.418597542829675e-07   -4.960129053312883e-06
9.69470046725159e-06   -2.110003307316923e-06   -2.0077785809966513e-05
9.69470046725159e-06   -2.110003307316923e-06   -2.0077785809966513e-05
9.69470046725159e-06   -2.110003307316923e-06   -2.0077785809966513e-05
9.69470046725159e-06   -2.110003307316923e-06   -2.0077785809966513e-05
4.634715434089602e-06   -1.3602381593576327e-06   -1.209433651013853e-05
4.634715434089602e-06   -1.3602381593576327e-06   -1.209433651013853e-05
4.634715434089602e-06   -1.3602381593576327e-06   -1.209433651013853e-05
4.634715434089602e-06   -1.3602381593576327e-06   -1.209433651013853e-05
9.69470046725159e-06   -6.418597542830759e-07   -4.07924292149264e-06
9.69470046725159e-06   -6.418597542830759e-07   -4.07924292149264e-06
9.69470046725159e-06   -6.418597542830759e-07   -4.07924292149264e-06
9.69470046725159e-06   -6.418597542830759e-07   -4.07924292149264e-06
9.55747341672183e-08   -2.110003307316923e-06   -2.0958671941786837e-05
9.55747341672183e-08   -2.110003307316923e-06   -2.0958671941786837e-05
9.55747341672183e-08   -2.110003307316923e-06   -2.0958671941786837e-05
9.55747341672183e-08   -2.110003307316923e-06   -2.0958671941786837e-05
3.23554090091792e-07   -2.510194090683685e-07   -5.164744161802377e-06
3.23554090091792e-07   -2.510194090683685e-07   -5.164744161802377e-06
3.23554090091792e-07   -2.510194090683685e-07   -5.164744161802377e-06
3.23554090091792e-07   -2.510194090683685e-07   -5.164744161802377e-06
9.93412638649112e-06   -1.7921223071647478e-06   -2.025770291694338e-05
9.93412638649112e-06   -1.7921223071647478e-06   -2.025770291694338e-05
9.93412638649112e-06   -1.7921223071647478e-06   -2.025770291694338e-05
9.93412638649112e-06   -1.7921223071647478e-06   -2.025770291694338e-05
4.933051371943559e-06   -1.1397019854671956e-06   -1.231403008571623e-05
4.933051371943559e-06   -1.1397019854671956e-06   -1.231403008571623e-05
4.933051371943559e-06   -1.1397019854671956e-06   -1.231403008571623e-05
4.933051371943559e-06   -1.1397019854671956e-06   -1.231403008571623e-05
-5.910448501909795e-07   2.428044545056294e-07   -6.742368042164789e-06
-5.910448501909795e-07   2.428044545056294e-07   -6.742368042164789e-06
-5.910448501909795e-07   2.428044545056294e-07   -6.742368042164789e-06
-5.910448501909795e-07   2.428044545056294e-07   -6.742368042164789e-06
-1.00236029296798e-05   -1.24483908401534e-06   -2.3355884297758685e-05
-1.00236029296798e-05   -1.24483908401534e-06   -2.3355884297758685e-05
-1.00236029296798e-05   -1.24483908401534e-06   -2.3355884297758685e-05
-1.00236029296798e-05   -1.24483908401534e-06   -2.3355884297758685e-05
-9.585101870588202e-06   5.288486345409685e-07   -7.324048887059399e-06
-9.585101870588202e-06   5.288486345409685e-07   -7.324048887059399e-06
-9.585101870588202e-06   5.288486345409685e-07   -7.324048887059399e-06
-9.585101870588202e-06   5.288486345409685e-07   -7.324048887059399e-06
-2.258902298288919e-07   -1.1004613424250636e-06   -2.1945148968811835e-05
-2.258902298288919e-07   -1.1004613424250636e-06   -2.1945148968811835e-05
-2.258902298288919e-07   -1.1004613424250636e-06   -2.1945148968811835e-05
-2.258902298288919e-07   -1.1004613424250636e-06   -2.1945148968811835e-05
-5.047381756583869e-06   -2.1193972568253876e-07   -1.4442442727599165e-05
-5.047381756583869e-06   -2.1193972568253876e-07   -1.4442442727599165e-05
-5.047381756583869e-06   -2.1193972568253876e-07   -1.4442442727599165e-05
-5.047381756583869e-06   -2.1193972568253876e-07   -1.4442442727599165e-05
-2.258902298288919e-07   5.288486345409685e-07   -6.346462900879693e-06
-2.258902298288919e-07   5.288486345409685e-07   -6.346462900879693e-06
-2.258902298288919e-07   5.288486345409685e-07   -6.346462900879693e-06
-2.258902298288919e-07   5.288486345409685e-07   -6.346462900879693e-06
-9.585101870588202e-06   -1.1004613424250636e-06   -2.292273495499165e-05
-9.585101870588202e-06   -1.1004613424250636e-06   -2.292273495499165e-05
-9.585101870588202e-06   -1.1004613424250636e-06   -2.292273495499165e-05
-9.585101870588202e-06   -1.1004613424250636e-06   -2.292273495499165e-05
-9.182846095979938e-06   8.587939581974294e-07   -7.192613772669782e-06
-9.182846095979938e-06   8.587939581974294e-07   -7.192613772669782e-06
-9.182846095979938e-06   8.587939581974294e-07   -7.192613772669782e-06
-9.182846095979938e-06   8.587939581974294e-07   -7.192613772669782e-06
9.55747341672183e-08   -8.798872172109022e-07   -2.1613439784336794e-05
9.55747341672183e-08   -8.798872172109022e-07   -2.1613439784336794e-05
9.55747341672183e-08   -8.798872172109022e-07   -2.1613439784336794e-05
9.55747341672183e-08   -8.798872172109022e-07   -2.1613439784336794e-05
-4.6910880525087485e-06   -4.819362566595327e-08   -1.4134684628137016e-05
-4.6910880525087485e-06   -4.819362566595327e-08   -1.4134684628137016e-05
-4.6910880525087485e-06   -4.819362566595327e-08   -1.4134684628137016e-05
-4.6910880525087485e-06   -4.819362566595327e-08   -1.4134684628137016e-05
9.55747341672183e-08   8.587939581974294e-07   -6.149405067424805e-06
9.55747341672183e-08   8.587939581974294e-07   -6.149405067424805e-06
9.55747341672183e-08   8.587939581974294e-07   -6.149405067424805e-06
9.55747341672183e-08   8.587939581974294e-07   -6.149405067424805e-06
-9.182846095979958e-06   -8.798872172109022e-07   -2.265664848958177e-05
-9.182846095979958e-06   -8.798872172109022e-07   -2.265664848958177e-05
-9.182846095979958e-06   -8.798872172109022e-07   -2.265664848958177e-05
-9.182846095979958e-06   -8.798872172109022e-07   -2.265664848958177e-05
-8.911977686730003e-06   1.1995354351073979e-06   -7.3211638449642005e-06
-8.911977686730003e-06   1.1995354351073979e-06   -7.3211638449642005e-06
-8.911977686730003e-06   1.1995354351073979e-06   -7.3211638449642005e-06
-8.911977686730003e-06   1.1995354351073979e-06   -7.3211638449642005e-06
3.23554090091792e-07   -6.701274953434169e-07   -2.159191904806327e-05
3.23554090091792e-07   -6.701274953434169e-07   -2.159191904806327e-05
3.23554090091792e-07   -6.701274953434169e-07   -2.159191904806327e-05
3.23554090091792e-07   -6.701274953434169e-07   -2.159191904806327e-05
-4.4378811562433315e-06   1.3514260415251056e-07   -1.4139355697202494e-05
-4.4378811562433315e-06   1.3514260415251056e-07   -1.4139355697202494e-05
-4.4378811562433315e-06   1.3514260415251056e-07   -1.4139355697202494e-05
-4.4378811562433315e-06   1.3514260415251056e-07   -1.4139355697202494e-05
-1.0023602929679784e-05   1.7436589620251509e-06   -5.481810789064031e-06
-1.0023602929679784e-05   1.7436589620251509e-06   -5.481810789064031e-06
-1.0023602929679784e-05   1.7436589620251509e-06   -5.481810789064031e-06
-1.0023602929679784e-05   1.7436589620251509e-06   -5.481810789064031e-06
-1.959352039276207e-05   4.106479319687705e-07   -2.2231479845568334e-05
-1.959352039276207e-05   4.106479319687705e-07   -2.2231479845568334e-05
-1.959352039276207e-05   4.106479319687705e-07   -2.2231479845568334e-05
-1.959352039276207e-05   4.106479319687705e-07   -2.2231479845568334e-05
-1.896879590282461e-05   2.105274834575746e-06   -5.826277773897208e-06
-1.896879590282461e-05   2.105274834575746e-06   -5.826277773897208e-06
-1.896879590282461e-05   2.105274834575746e-06   -5.826277773897208e-06
-1.896879590282461e-05   2.105274834575746e-06   -5.826277773897208e-06
-9.585101870588188e-06   6.717457854200134e-07   -2.0605650398131257e-05
-9.585101870588188e-06   6.717457854200134e-07   -2.0605650398131257e-05
-9.585101870588188e-06   6.717457854200134e-07   -2.0605650398131257e-05
-9.585101870588188e-06   6.717457854200134e-07   -2.0605650398131257e-05
-1.4394084262513816e-05   1.3537578727771749e-06   -1.2999886997336178e-05
-1.4394084262513816e-05   1.3537578727771749e-06   -1.2999886997336178e-05
-1.4394084262513816e-05   1.3537578727771749e-06   -1.2999886997336178e-05
-1.4394084262513816e-05   1.3537578727771749e-06   -1.2999886997336178e-05
-9.585101870588188e-06   2.105274834575746e-06   -4.9661603444038985e-06
-9.585101870588188e-06   2.105274834575746e-06   -4.9661603444038985e-06
-9.585101870588188e-06   2.105274834575746e-06   -4.9661603444038985e-06
-9.585101870588188e-06   2.105274834575746e-06   -4.9661603444038985e-06
-1.8968795902824643e-05   6.717457854201218e-07   -2.146576782762464e-05
-1.8968795902824643e-05   6.717457854201218e-07   -2.146576782762464e-05
-1.8968795902824643e-05   6.717457854201218e-07   -2.146576782762464e-05
-1.8968795902824643e-05   6.717457854201218e-07   -2.146576782762464e-05
-1.8362902820319275e-05   2.4164508791687297e-06   -5.290407116718401e-06
-1.8362902820319275e-05   2.4164508791687297e-06   -5.290407116718401e-06
-1.8362902820319275e-05   2.4164508791687297e-06   -5.290407116718401e-06
-1.8362902820319275e-05   2.4164508791687297e-06   -5.290407116718401e-06
-9.182846095979958e-06   9.114901113350124e-07   -1.968752519658381e-05
-9.182846095979958e-06   9.114901113350124e-07   -1.968752519658381e-05
-9.182846095979958e-06   9.114901113350124e-07   -1.968752519658381e-05
-9.182846095979958e-06   9.114901113350124e-07   -1.968752519658381e-05
-1.3826533862859242e-05   1.5810225394031346e-06   -1.2349765041959131e-05
-1.3826533862859242e-05   1.5810225394031346e-06   -1.2349765041959131e-05
-1.3826533862859242e-05   1.5810225394031346e-06   -1.2349765041959131e-05
-1.3826533862859242e-05   1.5810225394031346e-06   -1.2349765041959131e-05
-9.182846095979928e-06   2.4164508791687297e-06   -4.387430656018127e-06
-9.182846095979928e-06   2.4164508791687297e-06   -4.387430656018127e-06
-9.182846095979928e-06   2.4164508791687297e-06   -4.387430656018127e-06
-9.182846095979928e-06   2.4164508791687297e-06   -4.387430656018127e-06
-1.836290282031931e-05   9.114901113351209e-07   -2.0590501657283928e-05
-1.836290282031931e-05   9.114901113351209e-07   -2.0590501657283928e-05
-1.836290282031931e-05   9.114901113351209e-07   -2.0590501657283928e-05
-1.836290282031931e-05   9.114901113351209e-07   -2.0590501657283928e-05
-1.7906162440528728e-05   2.7594118694396685e-06   -5.307613422883095e-06
-1.7906162440528728e-05   2.7594118694396685e-06   -5.307613422883095e-06
-1.7906162440528728e-05   2.7594118694396685e-06   -5.307613422883095e-06
-1.7906162440528728e-05   2.7594118694396685e-06   -5.307613422883095e-06
-8.91197768673002e-06   1.1129757043472311e-06   -1.931005964682544e-05
-8.91197768673002e-06   1.1129757043472311e-06   -1.931005964682544e-05
-8.91197768673002e-06   1.1129757043472311e-06   -1.931005964682544e-05
-8.91197768673002e-06   1.1129757043472311e-06   -1.931005964682544e-05
-1.3515315246870788e-05   1.7400317869620263e-06   -1.2014064029493103e-05
-1.3515315246870788e-05   1.7400317869620263e-06   -1.2014064029493103e-05
-1.3515315246870788e-05   1.7400317869620263e-06   -1.2014064029493103e-05
-1.3515315246870788e-05   1.7400317869620263e-06   -1.2014064029493103e-05
-1.959352039276207e-05   3.408095315223913e-06   -3.1299735730315904e-06
-1.959352039276207e-05   3.408095315223913e-06   -3.1299735730315904e-06
-1.959352039276207e-05   3.408095315223913e-06   -3.1299735730315904e-06
-1.959352039276207e-05   3.408095315223913e-06   -3.1299735730315904e-06
-2.9609077612429386e-05   3.2358846129155582e-06   -1.9925895360529055e-05
-2.9609077612429386e-05   3.2358846129155582e-06   -1.9925895360529055e-05
-2.9609077612429386e-05   3.2358846129155582e-06   -1.9925895360529055e-05
-2.9609077612429386e-05   3.2358846129155582e-06   -1.9925895360529055e-05
-2.836086671033388e-05   3.888809101989144e-06   4.067387219912344e-08
-2.836086671033388e-05   3.888809101989144e-06   4.067387219912344e-08
-2.836086671033388e-05   3.888809101989144e-06   4.067387219912344e-08
-2.836086671033388e-05   3.888809101989144e-06   4.067387219912344e-08
-1.8968795902824578e-05   4.071251289354907e-06   -1.5722242786069192e-05
-1.8968795902824578e-05   4.071251289354907e-06   -1.5722242786069192e-05
-1.8968795902824578e-05   4.071251289354907e-06   -1.5722242786069192e-05
-1.8968795902824578e-05   4.071251289354907e-06   -1.5722242786069192e-05
-2.3093325647926408e-05   3.835469791794543e-06   -8.706557645696527e-06
-2.3093325647926408e-05   3.835469791794543e-06   -8.706557645696527e-06
-2.3093325647926408e-05   3.835469791794543e-06   -8.706557645696527e-06
-2.3093325647926408e-05   3.835469791794543e-06   -8.706557645696527e-06
-1.8968795902824626e-05   3.888809101989144e-06   -6.879144022020438e-08
-1.8968795902824626e-05   3.888809101989144e-06   -6.879144022020438e-08
-1.8968795902824626e-05   3.888809101989144e-06   -6.879144022020438e-08
-1.8968795902824626e-05   3.888809101989144e-06   -6.879144022020438e-08
-2.836086671033388e-05   4.071251289354907e-06   -1.5612777473649614e-05
-2.836086671033388e-05   4.071251289354907e-06   -1.5612777473649614e-05
-2.836086671033388e-05   4.071251289354907e-06   -1.5612777473649614e-05
-2.836086671033388e-05   4.071251289354907e-06   -1.5612777473649614e-05
-2.7327994447087737e-05   4.015991269443382e-06   1.8333602914174358e-06
-2.7327994447087737e-05   4.015991269443382e-06   1.8333602914174358e-06
-2.7327994447087737e-05   4.015991269443382e-06   1.8333602914174358e-06
-2.7327994447087737e-05   4.015991269443382e-06   1.8333602914174358e-06
-1.8362902820319275e-05   4.260131202066535e-06   -1.3254943046103866e-05
-1.8362902820319275e-05   4.260131202066535e-06   -1.3254943046103866e-05
-1.8362902820319275e-05   4.260131202066535e-06   -1.3254943046103866e-05
-1.8362902820319275e-05   4.260131202066535e-06   -1.3254943046103866e-05
-2.2634987557896215e-05   4.111394359136711e-06   -6.045559711050877e-06
-2.2634987557896215e-05   4.111394359136711e-06   -6.045559711050877e-06
-2.2634987557896215e-05   4.111394359136711e-06   -6.045559711050877e-06
-2.2634987557896215e-05   4.111394359136711e-06   -6.045559711050877e-06
-1.836290282031931e-05   4.015991269443382e-06   1.6868763318434463e-06
-1.836290282031931e-05   4.015991269443382e-06   1.6868763318434463e-06
-1.836290282031931e-05   4.015991269443382e-06   1.6868763318434463e-06
-1.836290282031931e-05   4.015991269443382e-06   1.6868763318434463e-06
-2.7327994447087696e-05   4.260131202066643e-06   -1.3108459086529924e-05
-2.7327994447087696e-05   4.260131202066643e-06   -1.3108459086529924e-05
-2.7327994447087696e-05   4.260131202066643e-06   -1.3108459086529924e-05
-2.7327994447087696e-05   4.260131202066643e-06   -1.3108459086529924e-05
-2.6245225992597798e-05   4.121583535888823e-06   4.244262642663784e-06
-2.6245225992597798e-05   4.121583535888823e-06   4.244262642663784e-06
-2.6245225992597798e-05   4.121583535888823e-06   4.244262642663784e-06
-2.6245225992597798e-05   4.121583535888823e-06   4.244262642663784e-06
-1.7906162440528728e-05   4.57698634939122e-06   -9.927418298886114e-06
-1.7906162440528728e-05   4.57698634939122e-06   -9.927418298886114e-06
-1.7906162440528728e-05   4.57698634939122e-06   -9.927418298886114e-06
-1.7906162440528728e-05   4.57698634939122e-06   -9.927418298886114e-06
-2.1584470106409935e-05   4.201069605991987e-06   -3.5713554763781613e-06
-2.1584470106409935e-05   4.201069605991987e-06   -3.5713554763781613e-06
-2.1584470106409935e-05   4.201069605991987e-06   -3.5713554763781613e-06
-2.1584470106409935e-05   4.201069605991987e-06   -3.5713554763781613e-06
2.55993290640843e-05   -3.831867923228551e-06   8.826503075482287e-06
2.55993290640843e-05   -3.831867923228551e-06   8.826503075482287e-06
2.55993290640843e-05   -3.831867923228551e-06   8.826503075482287e-06
2.55993290640843e-05   -3.831867923228551e-06   8.826503075482287e-06
1.2839433832172941e-05   -4.8320566907237e-06   -1.3040102238200243e-05
1.2839433832172941e-05   -4.8320566907237e-06   -1.3040102238200243e-05
1.2839433832172941e-05   -4.8320566907237e-06   -1.3040102238200243e-05
1.2839433832172941e-05   -4.8320566907237e-06   -1.3040102238200243e-05
1.3143722821313911e-05   -3.7444858081796782e-06   6.354181722685701e-06
1.3143722821313911e-05   -3.7444858081796782e-06   6.354181722685701e-06
1.3143722821313911e-05   -3.7444858081796782e-06   6.354181722685701e-06
1.3143722821313911e-05   -3.7444858081796782e-06   6.354181722685701e-06
2.6225024472584373e-05   -4.953032011014531e-06   -1.472285997439756e-05
2.6225024472584373e-05   -4.953032011014531e-06   -1.472285997439756e-05
2.6225024472584373e-05   -4.953032011014531e-06   -1.472285997439756e-05
2.6225024472584373e-05   -4.953032011014531e-06   -1.472285997439756e-05
1.8675009050985293e-05   -3.91367551605187e-06   -2.763114835376614e-06
1.8675009050985293e-05   -3.91367551605187e-06   -2.763114835376614e-06
1.8675009050985293e-05   -3.91367551605187e-06   -2.763114835376614e-06
1.8675009050985293e-05   -3.91367551605187e-06   -2.763114835376614e-06
2.6225024472584373e-05   -3.7444858081796782e-06   7.079309444386569e-06
2.6225024472584373e-05   -3.7444858081796782e-06   7.079309444386569e-06
2.6225024472584373e-05   -3.7444858081796782e-06   7.079309444386569e-06
2.6225024472584373e-05   -3.7444858081796782e-06   7.079309444386569e-06
1.3143722821313911e-05   -4.953032011014531e-06   -1.5447987696098388e-05
1.3143722821313911e-05   -4.953032011014531e-06   -1.5447987696098388e-05
1.3143722821313911e-05   -4.953032011014531e-06   -1.5447987696098388e-05
1.3143722821313911e-05   -4.953032011014531e-06   -1.5447987696098388e-05
1.340070098810592e-05   -3.6137789711607627e-06   5.025834486121128e-06
1.340070098810592e-05   -3.6137789711607627e-06   5.025834486121128e-06
1.340070098810592e-05   -3.6137789711607627e-06   5.025834486121128e-06
1.340070098810592e-05   -3.6137789711607627e-06   5.025834486121128e-06
2.6614005683053596e-05   -4.906322970736577e-06   -1.6220813605712916e-05
2.6614005683053596e-05   -4.906322970736577e-06   -1.6220813605712916e-05
2.6614005683053596e-05   -4.906322970736577e-06   -1.6220813605712916e-05
2.6614005683053596e-05   -4.906322970736577e-06   -1.6220813605712916e-05
1.9324944623799927e-05   -4.035033447821442e-06   -4.595152220705881e-06
1.9324944623799927e-05   -4.035033447821442e-06   -4.595152220705881e-06
1.9324944623799927e-05   -4.035033447821442e-06   -4.595152220705881e-06
1.9324944623799927e-05   -4.035033447821442e-06   -4.595152220705881e-06
2.6614005683053596e-05   -3.6137789711607627e-06   5.801360885866595e-06
2.6614005683053596e-05   -3.6137789711607627e-06   5.801360885866595e-06
2.6614005683053596e-05   -3.6137789711607627e-06   5.801360885866595e-06
2.6614005683053596e-05   -3.6137789711607627e-06   5.801360885866595e-06
1.340070098810592e-05   -4.906322970736577e-06   -1.6996340005458383e-05
1.340070098810592e-05   -4.906322970736577e-06   -1.6996340005458383e-05
1.340070098810592e-05   -4.906322970736577e-06   -1.6996340005458383e-05
1.340070098810592e-05   -4.906322970736577e-06   -1.6996340005458383e-05
1.3667799935451697e-05   -3.1065327601582622e-06   2.459145723025238e-06
1.3667799935451697e-05   -3.1065327601582622e-06   2.459145723025238e-06
1.3667799935451697e-05   -3.1065327601582622e-06   2.459145723025238e-06
1.3667799935451697e-05   -3.1065327601582622e-06   2.459145723025238e-06
2.6997131187521837e-05   -4.628039931675598e-06   -1.8843502060847888e-05
2.6997131187521837e-05   -4.628039931675598e-06   -1.8843502060847888e-05
2.6997131187521837e-05   -4.628039931675598e-06   -1.8843502060847888e-05
2.6997131187521837e-05   -4.628039931675598e-06   -1.8843502060847888e-05
1.932550239407135e-05   -3.880334014745926e-06   -6.506077621921567e-06
1.932550239407135e-05   -3.880334014745926e-06   -6.506077621921567e-06
1.932550239407135e-05   -3.880334014745926e-06   -6.506077621921567e-06
1.932550239407135e-05   -3.880334014745926e-06   -6.506077621921567e-06
1.2839433832172941e-05   -2.4547500494304835e-06   9.89594584621732e-07
1.2839433832172941e-05   -2.4547500494304835e-06   9.89594584621732e-07
1.2839433832172941e-05   -2.4547500494304835e-06   9.89594584621732e-07
1.2839433832172941e-05   -2.4547500494304835e-06   9.89594584621732e-07
1.4476030630885837e-06   -4.779495327600228e-06   -1.93916371974207e-05
1.4476030630885837e-06   -4.779495327600228e-06   -1.93916371974207e-05
1.4476030630885837e-06   -4.779495327600228e-06   -1.93916371974207e-05
1.4476030630885837e-06   -4.779495327600228e-06   -1.93916371974207e-05
1.8013519770517173e-06   -2.3332678957701082e-06   3.6207271427802015e-08
1.8013519770517173e-06   -2.3332678957701082e-06   3.6207271427802015e-08
1.8013519770517173e-06   -2.3332678957701082e-06   3.6207271427802015e-08
1.8013519770517173e-06   -2.3332678957701082e-06   3.6207271427802015e-08
1.3143722821313931e-05   -4.751295354190428e-06   -1.7416927660623838e-05
1.3143722821313931e-05   -4.751295354190428e-06   -1.7416927660623838e-05
1.3143722821313931e-05   -4.751295354190428e-06   -1.7416927660623838e-05
1.3143722821313931e-05   -4.751295354190428e-06   -1.7416927660623838e-05
7.334767189145875e-06   -3.228426968410582e-06   -8.649055971811473e-06
7.334767189145875e-06   -3.228426968410582e-06   -8.649055971811473e-06
7.334767189145875e-06   -3.228426968410582e-06   -8.649055971811473e-06
7.334767189145875e-06   -3.228426968410582e-06   -8.649055971811473e-06
1.3143722821313897e-05   -2.3332678957701082e-06   1.4870237464799287e-06
1.3143722821313897e-05   -2.3332678957701082e-06   1.4870237464799287e-06
1.3143722821313897e-05   -2.3332678957701082e-06   1.4870237464799287e-06
1.3143722821313897e-05   -2.3332678957701082e-06   1.4870237464799287e-06
1.8013519770517105e-06   -4.751295354190211e-06   -1.8867744135675816e-05
1.8013519770517105e-06   -4.751295354190211e-06   -1.8867744135675816e-05
1.8013519770517105e-06   -4.751295354190211e-06   -1.8867744135675816e-05
1.8013519770517105e-06   -4.751295354190211e-06   -1.8867744135675816e-05
2.1205556775389964e-06   -2.1100033073168144e-06   -9.076197289960633e-08
2.1205556775389964e-06   -2.1100033073168144e-06   -9.076197289960633e-08
2.1205556775389964e-06   -2.1100033073168144e-06   -9.076197289960633e-08
2.1205556775389964e-06   -2.1100033073168144e-06   -9.076197289960633e-08
1.340070098810592e-05   -4.682558678249706e-06   -1.7347470934617944e-05
1.340070098810592e-05   -4.682558678249706e-06   -1.7347470934617944e-05
1.340070098810592e-05   -4.682558678249706e-06   -1.7347470934617944e-05
1.340070098810592e-05   -4.682558678249706e-06   -1.7347470934617944e-05
7.53244956480473e-06   -3.259541243743865e-06   -8.420862356486002e-06
7.53244956480473e-06   -3.259541243743865e-06   -8.420862356486002e-06
7.53244956480473e-06   -3.259541243743865e-06   -8.420862356486002e-06
7.53244956480473e-06   -3.259541243743865e-06   -8.420862356486002e-06
1.340070098810592e-05   -2.110003307316923e-06   1.4527712496602589e-06
1.340070098810592e-05   -2.110003307316923e-06   1.4527712496602589e-06
1.340070098810592e-05   -2.110003307316923e-06   1.4527712496602589e-06
1.340070098810592e-05   -2.110003307316923e-06   1.4527712496602589e-06
2.1205556775389964e-06   -4.682558678249706e-06   -1.8891004157177687e-05
2.1205556775389964e-06   -4.682558678249706e-06   -1.8891004157177687e-05
2.1205556775389964e-06   -4.682558678249706e-06   -1.8891004157177687e-05
2.1205556775389964e-06   -4.682558678249706e-06   -1.8891004157177687e-05
2.5977183040204533e-06   -1.7921223071647478e-06   -3.223757034021739e-07
2.5977183040204533e-06   -1.7921223071647478e-06   -3.223757034021739e-07
2.5977183040204533e-06   -1.7921223071647478e-06   -3.223757034021739e-07
2.5977183040204533e-06   -1.7921223071647478e-06   -3.223757034021739e-07
1.3667799935451676e-05   -4.548448328196017e-06   -1.711871614316885e-05
1.3667799935451676e-05   -4.548448328196017e-06   -1.711871614316885e-05
1.3667799935451676e-05   -4.548448328196017e-06   -1.711871614316885e-05
1.3667799935451676e-05   -4.548448328196017e-06   -1.711871614316885e-05
7.917410457677594e-06   -3.203131967054922e-06   -8.341923496896556e-06
7.917410457677594e-06   -3.203131967054922e-06   -8.341923496896556e-06
7.917410457677594e-06   -3.203131967054922e-06   -8.341923496896556e-06
7.917410457677594e-06   -3.203131967054922e-06   -8.341923496896556e-06
1.4476030630885837e-06   -1.2448390840152316e-06   -1.7812062213647074e-06
1.4476030630885837e-06   -1.2448390840152316e-06   -1.7812062213647074e-06
1.4476030630885837e-06   -1.2448390840152316e-06   -1.7812062213647074e-06
1.4476030630885837e-06   -1.2448390840152316e-06   -1.7812062213647074e-06
-9.82327694668768e-06   -5.693569540070678e-06   -2.3235244511291833e-05
-9.82327694668768e-06   -5.693569540070678e-06   -2.3235244511291833e-05
-9.82327694668768e-06   -5.693569540070678e-06   -2.3235244511291833e-05
-9.82327694668768e-06   -5.693569540070678e-06   -2.3235244511291833e-05
-9.271420315575123e-06   -1.1004613424250636e-06   -3.957819565662151e-06
-9.271420315575123e-06   -1.1004613424250636e-06   -3.957819565662151e-06
-9.271420315575123e-06   -1.1004613424250636e-06   -3.957819565662151e-06
-9.271420315575123e-06   -1.1004613424250636e-06   -3.957819565662151e-06
1.8013519770517105e-06   -5.813864109305723e-06   -1.9584398393245078e-05
1.8013519770517105e-06   -5.813864109305723e-06   -1.9584398393245078e-05
1.8013519770517105e-06   -5.813864109305723e-06   -1.9584398393245078e-05
1.8013519770517105e-06   -5.813864109305723e-06   -1.9584398393245078e-05
-3.834543803072801e-06   -3.2013969533859453e-06   -1.1758719053256124e-05
-3.834543803072801e-06   -3.2013969533859453e-06   -1.1758719053256124e-05
-3.834543803072801e-06   -3.2013969533859453e-06   -1.1758719053256124e-05
-3.834543803072801e-06   -3.2013969533859453e-06   -1.1758719053256124e-05
1.8013519770517105e-06   -1.1004613424250636e-06   -1.1297779055337125e-06
1.8013519770517105e-06   -1.1004613424250636e-06   -1.1297779055337125e-06
1.8013519770517105e-06   -1.1004613424250636e-06   -1.1297779055337125e-06
1.8013519770517105e-06   -1.1004613424250636e-06   -1.1297779055337125e-06
-9.271420315575144e-06   -5.813864109305723e-06   -2.2412440053373598e-05
-9.271420315575144e-06   -5.813864109305723e-06   -2.2412440053373598e-05
-9.271420315575144e-06   -5.813864109305723e-06   -2.2412440053373598e-05
-9.271420315575144e-06   -5.813864109305723e-06   -2.2412440053373598e-05
-8.794926775565664e-06   -8.798872172107938e-07   -3.6855285982999135e-06
-8.794926775565664e-06   -8.798872172107938e-07   -3.6855285982999135e-06
-8.794926775565664e-06   -8.798872172107938e-07   -3.6855285982999135e-06
-8.794926775565664e-06   -8.798872172107938e-07   -3.6855285982999135e-06
2.1205556775389964e-06   -5.77988518862837e-06   -1.8938000570623925e-05
2.1205556775389964e-06   -5.77988518862837e-06   -1.8938000570623925e-05
2.1205556775389964e-06   -5.77988518862837e-06   -1.8938000570623925e-05
2.1205556775389964e-06   -5.77988518862837e-06   -1.8938000570623925e-05
-3.4431118835552438e-06   -3.2690651785167437e-06   -1.1171713308200353e-05
-3.4431118835552438e-06   -3.2690651785167437e-06   -1.1171713308200353e-05
-3.4431118835552438e-06   -3.2690651785167437e-06   -1.1171713308200353e-05
-3.4431118835552438e-06   -3.2690651785167437e-06   -1.1171713308200353e-05
2.1205556775389964e-06   -8.798872172107938e-07   -7.455298154494545e-07
2.1205556775389964e-06   -8.798872172107938e-07   -7.455298154494545e-07
2.1205556775389964e-06   -8.798872172107938e-07   -7.455298154494545e-07
2.1205556775389964e-06   -8.798872172107938e-07   -7.455298154494545e-07
-8.794926775565691e-06   -5.779885188628153e-06   -2.187799935347444e-05
-8.794926775565691e-06   -5.779885188628153e-06   -2.187799935347444e-05
-8.794926775565691e-06   -5.779885188628153e-06   -2.187799935347444e-05
-8.794926775565691e-06   -5.779885188628153e-06   -2.187799935347444e-05
-7.97220800874844e-06   -6.701274953434169e-07   -3.6714153976137804e-06
-7.97220800874844e-06   -6.701274953434169e-07   -3.6714153976137804e-06
-7.97220800874844e-06   -6.701274953434169e-07   -3.6714153976137804e-06
-7.97220800874844e-06   -6.701274953434169e-07   -3.6714153976137804e-06
2.5977183040204533e-06   -5.569269665259497e-06   -1.8348473950279015e-05
2.5977183040204533e-06   -5.569269665259497e-06   -1.8348473950279015e-05
2.5977183040204533e-06   -5.569269665259497e-06   -1.8348473950279015e-05
2.5977183040204533e-06   -5.569269665259497e-06   -1.8348473950279015e-05
-2.9340613189039875e-06   -3.1903699155828944e-06   -1.0556181095210983e-05
-2.9340613189039875e-06   -3.1903699155828944e-06   -1.0556181095210983e-05
-2.9340613189039875e-06   -3.1903699155828944e-06   -1.0556181095210983e-05
-2.9340613189039875e-06   -3.1903699155828944e-06   -1.0556181095210983e-05
-9.823276946687667e-06   4.106479319687705e-07   -2.5262334247737415e-06
-9.823276946687667e-06   4.106479319687705e-07   -2.5262334247737415e-06
-9.823276946687667e-06   4.106479319687705e-07   -2.5262334247737415e-06
-9.823276946687667e-06   4.106479319687705e-07   -2.5262334247737415e-06
-2.236886687137615e-05   -7.028542187409188e-06   -2.78990640375479e-05
-2.236886687137615e-05   -7.028542187409188e-06   -2.78990640375479e-05
-2.236886687137615e-05   -7.028542187409188e-06   -2.78990640375479e-05
-2.236886687137615e-05   -7.028542187409188e-06   -2.78990640375479e-05
-2.1704244967460475e-05   6.717457854201218e-07   -6.769888650288666e-06
-2.1704244967460475e-05   6.717457854201218e-07   -6.769888650288666e-06
-2.1704244967460475e-05   6.717457854201218e-07   -6.769888650288666e-06
-2.1704244967460475e-05   6.717457854201218e-07   -6.769888650288666e-06
-9.271420315575123e-06   -7.876843617058132e-06   -2.236210942861057e-05
-9.271420315575123e-06   -7.876843617058132e-06   -2.236210942861057e-05
-9.271420315575123e-06   -7.876843617058132e-06   -2.236210942861057e-05
-9.271420315575123e-06   -7.876843617058132e-06   -2.236210942861057e-05
-1.5568534087912755e-05   -3.537479354682755e-06   -1.4470538365473067e-05
-1.5568534087912755e-05   -3.537479354682755e-06   -1.4470538365473067e-05
-1.5568534087912755e-05   -3.537479354682755e-06   -1.4470538365473067e-05
-1.5568534087912755e-05   -3.537479354682755e-06   -1.4470538365473067e-05
-9.271420315575123e-06   6.717457854201218e-07   -1.6407350088017787e-06
-9.271420315575123e-06   6.717457854201218e-07   -1.6407350088017787e-06
-9.271420315575123e-06   6.717457854201218e-07   -1.6407350088017787e-06
-9.271420315575123e-06   6.717457854201218e-07   -1.6407350088017787e-06
-2.1704244967460475e-05   -7.876843617057915e-06   -2.7491263070097537e-05
-2.1704244967460475e-05   -7.876843617057915e-06   -2.7491263070097537e-05
-2.1704244967460475e-05   -7.876843617057915e-06   -2.7491263070097537e-05
-2.1704244967460475e-05   -7.876843617057915e-06   -2.7491263070097537e-05
-2.1067764545082293e-05   9.114901113350124e-07   -6.011657320568304e-06
-2.1067764545082293e-05   9.114901113350124e-07   -6.011657320568304e-06
-2.1067764545082293e-05   9.114901113350124e-07   -6.011657320568304e-06
-2.1067764545082293e-05   9.114901113350124e-07   -6.011657320568304e-06
-8.794926775565678e-06   -7.913929914109058e-06   -2.1171134921162964e-05
-8.794926775565678e-06   -7.913929914109058e-06   -2.1171134921162964e-05
-8.794926775565678e-06   -7.913929914109058e-06   -2.1171134921162964e-05
-8.794926775565678e-06   -7.913929914109058e-06   -2.1171134921162964e-05
-1.4920305293785677e-05   -3.5432815796030076e-06   -1.3584559724833293e-05
-1.4920305293785677e-05   -3.5432815796030076e-06   -1.3584559724833293e-05
-1.4920305293785677e-05   -3.5432815796030076e-06   -1.3584559724833293e-05
-1.4920305293785677e-05   -3.5432815796030076e-06   -1.3584559724833293e-05
-8.794926775565671e-06   9.114901113350124e-07   -7.164053053019051e-07
-8.794926775565671e-06   9.114901113350124e-07   -7.164053053019051e-07
-8.794926775565671e-06   9.114901113350124e-07   -7.164053053019051e-07
-8.794926775565671e-06   9.114901113350124e-07   -7.164053053019051e-07
-2.1067764545082327e-05   -7.913929914109058e-06   -2.646638693642935e-05
-2.1067764545082327e-05   -7.913929914109058e-06   -2.646638693642935e-05
-2.1067764545082327e-05   -7.913929914109058e-06   -2.646638693642935e-05
-2.1067764545082327e-05   -7.913929914109058e-06   -2.646638693642935e-05
-2.0020210305043492e-05   1.1129757043471227e-06   -5.24440329586985e-06
-2.0020210305043492e-05   1.1129757043471227e-06   -5.24440329586985e-06
-2.0020210305043492e-05   1.1129757043471227e-06   -5.24440329586985e-06
-2.0020210305043492e-05   1.1129757043471227e-06   -5.24440329586985e-06
-7.972208008748468e-06   -7.181432725259906e-06   -2.0347762065263934e-05
-7.972208008748468e-06   -7.181432725259906e-06   -2.0347762065263934e-05
-7.972208008748468e-06   -7.181432725259906e-06   -2.0347762065263934e-05
-7.972208008748468e-06   -7.181432725259906e-06   -2.0347762065263934e-05
-1.4285443533650728e-05   -3.1003348805595018e-06   -1.227436156391341e-05
-1.4285443533650728e-05   -3.1003348805595018e-06   -1.227436156391341e-05
-1.4285443533650728e-05   -3.1003348805595018e-06   -1.227436156391341e-05
-1.4285443533650728e-05   -3.1003348805595018e-06   -1.227436156391341e-05
-2.236886687137615e-05   3.2358846129155582e-06   -4.5808365899761274e-06
-2.236886687137615e-05   3.2358846129155582e-06   -4.5808365899761274e-06
-2.236886687137615e-05   3.2358846129155582e-06   -4.5808365899761274e-06
-2.236886687137615e-05   3.2358846129155582e-06   -4.5808365899761274e-06
-3.835580155146272e-05   0.0   -3.316725849120312e-05
-3.835580155146272e-05   0.0   -3.316725849120312e-05
-3.835580155146272e-05   0.0   -3.316725849120312e-05
-3.835580155146272e-05   0.0   -3.316725849120312e-05
-3.7388454459552085e-05   4.071251289354907e-06   -3.469114382346236e-06
-3.7388454459552085e-05   4.071251289354907e-06   -3.469114382346236e-06
-3.7388454459552085e-05   4.071251289354907e-06   -3.469114382346236e-06
-3.7388454459552085e-05   4.071251289354907e-06   -3.469114382346236e-06
-2.1704244967460434e-05   0.0   -2.7166712762219367e-05
-2.1704244967460434e-05   0.0   -2.7166712762219367e-05
-2.1704244967460434e-05   0.0   -2.7166712762219367e-05
-2.1704244967460434e-05   0.0   -2.7166712762219367e-05
-2.8683049555763487e-05   1.2588611527695028e-06   -1.6290688473376042e-05
-2.8683049555763487e-05   1.2588611527695028e-06   -1.6290688473376042e-05
-2.8683049555763487e-05   1.2588611527695028e-06   -1.6290688473376042e-05
-2.8683049555763487e-05   1.2588611527695028e-06   -1.6290688473376042e-05
-2.170424496746045e-05   4.071251289355015e-06   -1.0263636087331834e-06
-2.170424496746045e-05   4.071251289355015e-06   -1.0263636087331834e-06
-2.170424496746045e-05   4.071251289355015e-06   -1.0263636087331834e-06
-2.170424496746045e-05   4.071251289355015e-06   -1.0263636087331834e-06
-3.7388454459552024e-05   0.0   -2.9609463535832325e-05
-3.7388454459552024e-05   0.0   -2.9609463535832325e-05
-3.7388454459552024e-05   0.0   -2.9609463535832325e-05
-3.7388454459552024e-05   0.0   -2.9609463535832325e-05
-3.656683938416669e-05   4.260131202066535e-06   -1.2321774306283404e-06
-3.656683938416669e-05   4.260131202066535e-06   -1.2321774306283404e-06
-3.656683938416669e-05   4.260131202066535e-06   -1.2321774306283404e-06
-3.656683938416669e-05   4.260131202066535e-06   -1.2321774306283404e-06
-2.1067764545082327e-05   0.0   -2.450789010786248e-05
-2.1067764545082327e-05   0.0   -2.450789010786248e-05
-2.1067764545082327e-05   0.0   -2.450789010786248e-05
-2.1067764545082327e-05   0.0   -2.450789010786248e-05
-2.8408644968383158e-05   1.975020817935897e-06   -1.3458101893122295e-05
-2.8408644968383158e-05   1.975020817935897e-06   -1.3458101893122295e-05
-2.8408644968383158e-05   1.975020817935897e-06   -1.3458101893122295e-05
-2.8408644968383158e-05   1.975020817935897e-06   -1.3458101893122295e-05
-2.1067764545082327e-05   4.260131202066535e-06   1.3239012906116022e-06
-2.1067764545082327e-05   4.260131202066535e-06   1.3239012906116022e-06
-2.1067764545082327e-05   4.260131202066535e-06   1.3239012906116022e-06
-2.1067764545082327e-05   4.260131202066535e-06   1.3239012906116022e-06
-3.656683938416663e-05   0.0   -2.706396882910236e-05
-3.656683938416663e-05   0.0   -2.706396882910236e-05
-3.656683938416663e-05   0.0   -2.706396882910236e-05
-3.656683938416663e-05   0.0   -2.706396882910236e-05
-3.492419394919895e-05   4.57698634939122e-06   2.3799079414902734e-06
-3.492419394919895e-05   4.57698634939122e-06   2.3799079414902734e-06
-3.492419394919895e-05   4.57698634939122e-06   2.3799079414902734e-06
-3.492419394919895e-05   4.57698634939122e-06   2.3799079414902734e-06
-2.002021030504353e-05   0.0   -1.9713872989134126e-05
-2.002021030504353e-05   0.0   -1.9713872989134126e-05
-2.002021030504353e-05   0.0   -1.9713872989134126e-05
-2.002021030504353e-05   0.0   -1.9713872989134126e-05
-2.6963370909742325e-05   2.430207825354679e-06   -9.600063343182278e-06
-2.6963370909742325e-05   2.430207825354679e-06   -9.600063343182278e-06
-2.6963370909742325e-05   2.430207825354679e-06   -9.600063343182278e-06
-2.6963370909742325e-05   2.430207825354679e-06   -9.600063343182278e-06
2.8319158122197815e-05   -4.8320566907237e-06   1.6847880967074745e-05
2.8319158122197815e-05   -4.8320566907237e-06   1.6847880967074745e-05
2.8319158122197815e-05   -4.8320566907237e-06   1.6847880967074745e-05
2.8319158122197815e-05   -4.8320566907237e-06   1.6847880967074745e-05
1.465652563974417e-05   -3.7516229823388644e-06   -5.274912945317208e-06
1.465652563974417e-05   -3.7516229823388644e-06   -5.274912945317208e-06
1.465652563974417e-05   -3.7516229823388644e-06   -5.274912945317208e-06
1.465652563974417e-05   -3.7516229823388644e-06   -5.274912945317208e-06
1.4295233057893606e-05   -4.953032011014531e-06   1.4846975034236618e-05
1.4295233057893606e-05   -4.953032011014531e-06   1.4846975034236618e-05
1.4295233057893606e-05   -4.953032011014531e-06   1.4846975034236618e-05
1.4295233057893606e-05   -4.953032011014531e-06   1.4846975034236618e-05
2.8026569710848598e-05   -4.119509939192563e-06   -8.538699297114795e-06
2.8026569710848598e-05   -4.119509939192563e-06   -8.538699297114795e-06
2.8026569710848598e-05   -4.119509939192563e-06   -8.538699297114795e-06
2.8026569710848598e-05   -4.119509939192563e-06   -8.538699297114795e-06
2.0449975488652346e-05   -4.178799013252561e-06   4.124531184314948e-06
2.0449975488652346e-05   -4.178799013252561e-06   4.124531184314948e-06
2.0449975488652346e-05   -4.178799013252561e-06   4.124531184314948e-06
2.0449975488652346e-05   -4.178799013252561e-06   4.124531184314948e-06
2.8026569710848598e-05   -4.953032011014531e-06   1.4346861791143589e-05
2.8026569710848598e-05   -4.953032011014531e-06   1.4346861791143589e-05
2.8026569710848598e-05   -4.953032011014531e-06   1.4346861791143589e-05
2.8026569710848598e-05   -4.953032011014531e-06   1.4346861791143589e-05
1.4295233057893606e-05   -4.119509939192563e-06   -8.038586054021643e-06
1.4295233057893606e-05   -4.119509939192563e-06   -8.038586054021643e-06
1.4295233057893606e-05   -4.119509939192563e-06   -8.038586054021643e-06
1.4295233057893606e-05   -4.119509939192563e-06   -8.038586054021643e-06
1.396770217726798e-05   -4.906322970736577e-06   1.3313482409411611e-05
1.396770217726798e-05   -4.906322970736577e-06   1.3313482409411611e-05
1.396770217726798e-05   -4.906322970736577e-06   1.3313482409411611e-05
1.396770217726798e-05   -4.906322970736577e-06   1.3313482409411611e-05
2.7685504243696423e-05   -4.151224787379447e-06   -1.0002579944650046e-05
2.7685504243696423e-05   -4.151224787379447e-06   -1.0002579944650046e-05
2.7685504243696423e-05   -4.151224787379447e-06   -1.0002579944650046e-05
2.7685504243696423e-05   -4.151224787379447e-06   -1.0002579944650046e-05
2.0443216315674463e-05   -4.252161341252803e-06   2.1284618677104225e-06
2.0443216315674463e-05   -4.252161341252803e-06   2.1284618677104225e-06
2.0443216315674463e-05   -4.252161341252803e-06   2.1284618677104225e-06
2.0443216315674463e-05   -4.252161341252803e-06   2.1284618677104225e-06
2.768550424369647e-05   -4.906322970736577e-06   1.286042349939729e-05
2.768550424369647e-05   -4.906322970736577e-06   1.286042349939729e-05
2.768550424369647e-05   -4.906322970736577e-06   1.286042349939729e-05
2.768550424369647e-05   -4.906322970736577e-06   1.286042349939729e-05
1.396770217726798e-05   -4.151224787379447e-06   -9.549521034635873e-06
1.396770217726798e-05   -4.151224787379447e-06   -9.549521034635873e-06
1.396770217726798e-05   -4.151224787379447e-06   -9.549521034635873e-06
1.396770217726798e-05   -4.151224787379447e-06   -9.549521034635873e-06
1.3567729258312043e-05   -4.628039931675598e-06   1.0818540406830617e-05
1.3567729258312043e-05   -4.628039931675598e-06   1.0818540406830617e-05
1.3567729258312043e-05   -4.628039931675598e-06   1.0818540406830617e-05
1.3567729258312043e-05   -4.628039931675598e-06   1.0818540406830617e-05
2.7150868806993988e-05   -4.057338562130173e-06   -1.2162446329366739e-05
2.7150868806993988e-05   -4.057338562130173e-06   -1.2162446329366739e-05
2.7150868806993988e-05   -4.057338562130173e-06   -1.2162446329366739e-05
2.7150868806993988e-05   -4.057338562130173e-06   -1.2162446329366739e-05
1.9753203057261715e-05   -4.042601545727184e-06   1.581543770118462e-07
1.9753203057261715e-05   -4.042601545727184e-06   1.581543770118462e-07
1.9753203057261715e-05   -4.042601545727184e-06   1.581543770118462e-07
1.9753203057261715e-05   -4.042601545727184e-06   1.581543770118462e-07
1.465652563974417e-05   -4.779495327600228e-06   1.2539453399786895e-05
1.465652563974417e-05   -4.779495327600228e-06   1.2539453399786895e-05
1.465652563974417e-05   -4.779495327600228e-06   1.2539453399786895e-05
1.465652563974417e-05   -4.779495327600228e-06   1.2539453399786895e-05
3.0188870595602096e-06   -2.2874400747387082e-06   -5.361377748802783e-06
3.0188870595602096e-06   -2.2874400747387082e-06   -5.361377748802783e-06
3.0188870595602096e-06   -2.2874400747387082e-06   -5.361377748802783e-06
3.0188870595602096e-06   -2.2874400747387082e-06   -5.361377748802783e-06
2.447257905063393e-06   -4.751295354190211e-06   1.4274471916228418e-05
2.447257905063393e-06   -4.751295354190211e-06   1.4274471916228418e-05
2.447257905063393e-06   -4.751295354190211e-06   1.4274471916228418e-05
2.447257905063393e-06   -4.751295354190211e-06   1.4274471916228418e-05
1.4295233057893606e-05   -2.4239006099953126e-06   -6.868590185005701e-06
1.4295233057893606e-05   -2.4239006099953126e-06   -6.868590185005701e-06
1.4295233057893606e-05   -2.4239006099953126e-06   -6.868590185005701e-06
1.4295233057893606e-05   -2.4239006099953126e-06   -6.868590185005701e-06
8.59099601934841e-06   -3.428169485373417e-06   3.241032871129882e-06
8.59099601934841e-06   -3.428169485373417e-06   3.241032871129882e-06
8.59099601934841e-06   -3.428169485373417e-06   3.241032871129882e-06
8.59099601934841e-06   -3.428169485373417e-06   3.241032871129882e-06
1.4295233057893613e-05   -4.751295354190428e-06   1.287803506971137e-05
1.4295233057893613e-05   -4.751295354190428e-06   1.287803506971137e-05
1.4295233057893613e-05   -4.751295354190428e-06   1.287803506971137e-05
1.4295233057893613e-05   -4.751295354190428e-06   1.287803506971137e-05
2.447257905063393e-06   -2.4239006099953126e-06   -5.47215333848868e-06
2.447257905063393e-06   -2.4239006099953126e-06   -5.47215333848868e-06
2.447257905063393e-06   -2.4239006099953126e-06   -5.47215333848868e-06
2.447257905063393e-06   -2.4239006099953126e-06   -5.47215333848868e-06
2.0384872824071292e-06   -4.682558678249706e-06   1.4282851510846002e-05
2.0384872824071292e-06   -4.682558678249706e-06   1.4282851510846002e-05
2.0384872824071292e-06   -4.682558678249706e-06   1.4282851510846002e-05
2.0384872824071292e-06   -4.682558678249706e-06   1.4282851510846002e-05
1.396770217726798e-05   -2.481725293926188e-06   -6.91967334451615e-06
1.396770217726798e-05   -2.481725293926188e-06   -6.91967334451615e-06
1.396770217726798e-05   -2.481725293926188e-06   -6.91967334451615e-06
1.396770217726798e-05   -2.481725293926188e-06   -6.91967334451615e-06
8.098283252376269e-06   -3.355755210346324e-06   3.3871094801557217e-06
8.098283252376269e-06   -3.355755210346324e-06   3.3871094801557217e-06
8.098283252376269e-06   -3.355755210346324e-06   3.3871094801557217e-06
8.098283252376269e-06   -3.355755210346324e-06   3.3871094801557217e-06
1.3967702177268001e-05   -4.682558678249923e-06   1.2962351480251956e-05
1.3967702177268001e-05   -4.682558678249923e-06   1.2962351480251956e-05
1.3967702177268001e-05   -4.682558678249923e-06   1.2962351480251956e-05
1.3967702177268001e-05   -4.682558678249923e-06   1.2962351480251956e-05
2.0384872824071292e-06   -2.481725293926188e-06   -5.599173313922037e-06
2.0384872824071292e-06   -2.481725293926188e-06   -5.599173313922037e-06
2.0384872824071292e-06   -2.481725293926188e-06   -5.599173313922037e-06
2.0384872824071292e-06   -2.481725293926188e-06   -5.599173313922037e-06
1.5842372620435052e-06   -4.548448328196017e-06   1.4732889536565332e-05
1.5842372620435052e-06   -4.548448328196017e-06   1.4732889536565332e-05
1.5842372620435052e-06   -4.548448328196017e-06   1.4732889536565332e-05
1.5842372620435052e-06   -4.548448328196017e-06   1.4732889536565332e-05
1.3567729258312037e-05   -2.420683479620496e-06   -6.5162560330275055e-06
1.3567729258312037e-05   -2.420683479620496e-06   -6.5162560330275055e-06
1.3567729258312037e-05   -2.420683479620496e-06   -6.5162560330275055e-06
1.3567729258312037e-05   -2.420683479620496e-06   -6.5162560330275055e-06
7.799202370837997e-06   -3.204590265134654e-06   3.5682995174043854e-06
7.799202370837997e-06   -3.204590265134654e-06   3.5682995174043854e-06
7.799202370837997e-06   -3.204590265134654e-06   3.5682995174043854e-06
7.799202370837997e-06   -3.204590265134654e-06   3.5682995174043854e-06
3.0188870595602163e-06   -5.693569540070678e-06   1.286031751126604e-05
3.0188870595602163e-06   -5.693569540070678e-06   1.286031751126604e-05
3.0188870595602163e-06   -5.693569540070678e-06   1.286031751126604e-05
3.0188870595602163e-06   -5.693569540070678e-06   1.286031751126604e-05
-8.167910976323745e-06   -9.120558172271906e-07   -2.9154376481679584e-06
-8.167910976323745e-06   -9.120558172271906e-07   -2.9154376481679584e-06
-8.167910976323745e-06   -9.120558172271906e-07   -2.9154376481679584e-06
-8.167910976323745e-06   -9.120558172271906e-07   -2.9154376481679584e-06
-9.056293857887841e-06   -5.813864109305723e-06   1.646923707516383e-05
-9.056293857887841e-06   -5.813864109305723e-06   1.646923707516383e-05
-9.056293857887841e-06   -5.813864109305723e-06   1.646923707516383e-05
-9.056293857887841e-06   -5.813864109305723e-06   1.646923707516383e-05
2.4472579050634e-06   -9.614984151312764e-07   -5.614768612926212e-06
2.4472579050634e-06   -9.614984151312764e-07   -5.614768612926212e-06
2.4472579050634e-06   -9.614984151312764e-07   -5.614768612926212e-06
2.4472579050634e-06   -9.614984151312764e-07   -5.614768612926212e-06
-2.842284717418632e-06   -3.236335748510368e-06   4.5660381579043095e-06
-2.842284717418632e-06   -3.236335748510368e-06   4.5660381579043095e-06
-2.842284717418632e-06   -3.236335748510368e-06   4.5660381579043095e-06
-2.842284717418632e-06   -3.236335748510368e-06   4.5660381579043095e-06
2.447257905063393e-06   -5.813864109305723e-06   1.3557817658659075e-05
2.447257905063393e-06   -5.813864109305723e-06   1.3557817658659075e-05
2.447257905063393e-06   -5.813864109305723e-06   1.3557817658659075e-05
2.447257905063393e-06   -5.813864109305723e-06   1.3557817658659075e-05
-9.056293857887828e-06   -9.614984151314933e-07   -2.70334919642162e-06
-9.056293857887828e-06   -9.614984151314933e-07   -2.70334919642162e-06
-9.056293857887828e-06   -9.614984151314933e-07   -2.70334919642162e-06
-9.056293857887828e-06   -9.614984151314933e-07   -2.70334919642162e-06
-9.601164482834042e-06   -5.779885188628153e-06   1.709008999393742e-05
-9.601164482834042e-06   -5.779885188628153e-06   1.709008999393742e-05
-9.601164482834042e-06   -5.779885188628153e-06   1.709008999393742e-05
-9.601164482834042e-06   -5.779885188628153e-06   1.709008999393742e-05
2.0384872824071292e-06   -1.022827027732584e-06   -5.163564511335387e-06
2.0384872824071292e-06   -1.022827027732584e-06   -5.163564511335387e-06
2.0384872824071292e-06   -1.022827027732584e-06   -5.163564511335387e-06
2.0384872824071292e-06   -1.022827027732584e-06   -5.163564511335387e-06
-3.4446328534225014e-06   -3.2208711347428594e-06   5.293795512586867e-06
-3.4446328534225014e-06   -3.2208711347428594e-06   5.293795512586867e-06
-3.4446328534225014e-06   -3.2208711347428594e-06   5.293795512586867e-06
-3.4446328534225014e-06   -3.2208711347428594e-06   5.293795512586867e-06
2.0384872824071292e-06   -5.779885188628153e-06   1.4235855097399818e-05
2.0384872824071292e-06   -5.779885188628153e-06   1.4235855097399818e-05
2.0384872824071292e-06   -5.779885188628153e-06   1.4235855097399818e-05
2.0384872824071292e-06   -5.779885188628153e-06   1.4235855097399818e-05
-9.601164482834029e-06   -1.022827027732584e-06   -2.309329614798056e-06
-9.601164482834029e-06   -1.022827027732584e-06   -2.309329614798056e-06
-9.601164482834029e-06   -1.022827027732584e-06   -2.309329614798056e-06
-9.601164482834029e-06   -1.022827027732584e-06   -2.309329614798056e-06
-1.0239767596572928e-05   -5.569269665259497e-06   1.7890868073508698e-05
-1.0239767596572928e-05   -5.569269665259497e-06   1.7890868073508698e-05
-1.0239767596572928e-05   -5.569269665259497e-06   1.7890868073508698e-05
-1.0239767596572928e-05   -5.569269665259497e-06   1.7890868073508698e-05
1.5842372620435052e-06   -1.0127017795345458e-06   -4.549747422286877e-06
1.5842372620435052e-06   -1.0127017795345458e-06   -4.549747422286877e-06
1.5842372620435052e-06   -1.0127017795345458e-06   -4.549747422286877e-06
1.5842372620435052e-06   -1.0127017795345458e-06   -4.549747422286877e-06
-3.936097240214261e-06   -3.085796938155118e-06   5.8946671766481784e-06
-3.936097240214261e-06   -3.085796938155118e-06   5.8946671766481784e-06
-3.936097240214261e-06   -3.085796938155118e-06   5.8946671766481784e-06
-3.936097240214261e-06   -3.085796938155118e-06   5.8946671766481784e-06
-8.167910976323766e-06   -7.028542187409188e-06   1.5528920290342634e-05
-8.167910976323766e-06   -7.028542187409188e-06   1.5528920290342634e-05
-8.167910976323766e-06   -7.028542187409188e-06   1.5528920290342634e-05
-8.167910976323766e-06   -7.028542187409188e-06   1.5528920290342634e-05
-2.085073950107022e-05   1.1231546963492729e-06   -7.181091206462506e-07
-2.085073950107022e-05   1.1231546963492729e-06   -7.181091206462506e-07
-2.085073950107022e-05   1.1231546963492729e-06   -7.181091206462506e-07
-2.085073950107022e-05   1.1231546963492729e-06   -7.181091206462506e-07
-2.192531949902853e-05   -7.876843617057915e-06   2.1887091747007075e-05
-2.192531949902853e-05   -7.876843617057915e-06   2.1887091747007075e-05
-2.192531949902853e-05   -7.876843617057915e-06   2.1887091747007075e-05
-2.192531949902853e-05   -7.876843617057915e-06   2.1887091747007075e-05
-9.056293857887828e-06   1.0690297947426545e-06   -4.928808368641154e-06
-9.056293857887828e-06   1.0690297947426545e-06   -4.928808368641154e-06
-9.056293857887828e-06   1.0690297947426545e-06   -4.928808368641154e-06
-9.056293857887828e-06   1.0690297947426545e-06   -4.928808368641154e-06
-1.4795005732113284e-05   -2.853131981576636e-06   6.989008487526271e-06
-1.4795005732113284e-05   -2.853131981576636e-06   6.989008487526271e-06
-1.4795005732113284e-05   -2.853131981576636e-06   6.989008487526271e-06
-1.4795005732113284e-05   -2.853131981576636e-06   6.989008487526271e-06
-9.056293857887841e-06   -7.876843617057915e-06   1.651956769992667e-05
-9.056293857887841e-06   -7.876843617057915e-06   1.651956769992667e-05
-9.056293857887841e-06   -7.876843617057915e-06   1.651956769992667e-05
-9.056293857887841e-06   -7.876843617057915e-06   1.651956769992667e-05
-2.192531949902853e-05   1.0690297947426545e-06   4.3871567843932046e-07
-2.192531949902853e-05   1.0690297947426545e-06   4.3871567843932046e-07
-2.192531949902853e-05   1.0690297947426545e-06   4.3871567843932046e-07
-2.192531949902853e-05   1.0690297947426545e-06   4.3871567843932046e-07
-2.2578889896421986e-05   -7.913929914109058e-06   2.312148315613378e-05
-2.2578889896421986e-05   -7.913929914109058e-06   2.312148315613378e-05
-2.2578889896421986e-05   -7.913929914109058e-06   2.312148315613378e-05
-2.2578889896421986e-05   -7.913929914109058e-06   2.312148315613378e-05
-9.601164482834029e-06   9.602846356992784e-07   -3.8325879297311174e-06
-9.601164482834029e-06   9.602846356992784e-07   -3.8325879297311174e-06
-9.601164482834029e-06   9.602846356992784e-07   -3.8325879297311174e-06
-9.601164482834029e-06   9.602846356992784e-07   -3.8325879297311174e-06
-1.5488311299427508e-05   -3.3084588235423543e-06   8.540569506803122e-06
-1.5488311299427508e-05   -3.3084588235423543e-06   8.540569506803122e-06
-1.5488311299427508e-05   -3.3084588235423543e-06   8.540569506803122e-06
-1.5488311299427508e-05   -3.3084588235423543e-06   8.540569506803122e-06
-9.601164482834022e-06   -7.913929914109058e-06   1.77969544262488e-05
-9.601164482834022e-06   -7.913929914109058e-06   1.77969544262488e-05
-9.601164482834022e-06   -7.913929914109058e-06   1.77969544262488e-05
-9.601164482834022e-06   -7.913929914109058e-06   1.77969544262488e-05
-2.2578889896421946e-05   9.602846356992784e-07   1.491940800153876e-06
-2.2578889896421946e-05   9.602846356992784e-07   1.491940800153876e-06
-2.2578889896421946e-05   9.602846356992784e-07   1.491940800153876e-06
-2.2578889896421946e-05   9.602846356992784e-07   1.491940800153876e-06
-2.328469577923152e-05   -7.181432725259906e-06   2.364152219208669e-05
-2.328469577923152e-05   -7.181432725259906e-06   2.364152219208669e-05
-2.328469577923152e-05   -7.181432725259906e-06   2.364152219208669e-05
-2.328469577923152e-05   -7.181432725259906e-06   2.364152219208669e-05
-1.0239767596572894e-05   8.359954940953887e-07   -2.910481710624173e-06
-1.0239767596572894e-05   8.359954940953887e-07   -2.910481710624173e-06
-1.0239767596572894e-05   8.359954940953887e-07   -2.910481710624173e-06
-1.0239767596572894e-05   8.359954940953887e-07   -2.910481710624173e-06
-1.62083873877681e-05   -3.328715801665695e-06   9.536044718824765e-06
-1.62083873877681e-05   -3.328715801665695e-06   9.536044718824765e-06
-1.62083873877681e-05   -3.328715801665695e-06   9.536044718824765e-06
-1.62083873877681e-05   -3.328715801665695e-06   9.536044718824765e-06
-2.0850739501070153e-05   0.0   1.7093274734691737e-05
-2.0850739501070153e-05   0.0   1.7093274734691737e-05
-2.0850739501070153e-05   0.0   1.7093274734691737e-05
-2.0850739501070153e-05   0.0   1.7093274734691737e-05
-3.655633511916222e-05   4.812390911791958e-06   -6.195283415053271e-06
-3.655633511916222e-05   4.812390911791958e-06   -6.195283415053271e-06
-3.655633511916222e-05   4.812390911791958e-06   -6.195283415053271e-06
-3.655633511916222e-05   4.812390911791958e-06   -6.195283415053271e-06
-3.802504130722396e-05   0.0   2.50079854080534e-05
-3.802504130722396e-05   0.0   2.50079854080534e-05
-3.802504130722396e-05   0.0   2.50079854080534e-05
-3.802504130722396e-05   0.0   2.50079854080534e-05
-2.1925319499028496e-05   4.660572255280569e-06   -4.621227625440749e-06
-2.1925319499028496e-05   4.660572255280569e-06   -4.621227625440749e-06
-2.1925319499028496e-05   4.660572255280569e-06   -4.621227625440749e-06
-2.1925319499028496e-05   4.660572255280569e-06   -4.621227625440749e-06
-2.809091670044898e-05   2.8539986064177528e-06   6.738711899577756e-06
-2.809091670044898e-05   2.8539986064177528e-06   6.738711899577756e-06
-2.809091670044898e-05   2.8539986064177528e-06   6.738711899577756e-06
-2.809091670044898e-05   2.8539986064177528e-06   6.738711899577756e-06
-2.1925319499028475e-05   0.0   2.2211642054885124e-05
-2.1925319499028475e-05   0.0   2.2211642054885124e-05
-2.1925319499028475e-05   0.0   2.2211642054885124e-05
-2.1925319499028475e-05   0.0   2.2211642054885124e-05
-3.8025041307224015e-05   4.660572255280569e-06   -1.824884272272364e-06
-3.8025041307224015e-05   4.660572255280569e-06   -1.824884272272364e-06
-3.8025041307224015e-05   4.660572255280569e-06   -1.824884272272364e-06
-3.8025041307224015e-05   4.660572255280569e-06   -1.824884272272364e-06
-3.876309978439343e-05   0.0   2.7808141650415832e-05
-3.876309978439343e-05   0.0   2.7808141650415832e-05
-3.876309978439343e-05   0.0   2.7808141650415832e-05
-3.876309978439343e-05   0.0   2.7808141650415832e-05
-2.2578889896421946e-05   4.546936109525203e-06   -1.89370316191852e-06
-2.2578889896421946e-05   4.546936109525203e-06   -1.89370316191852e-06
-2.2578889896421946e-05   4.546936109525203e-06   -1.89370316191852e-06
-2.2578889896421946e-05   4.546936109525203e-06   -1.89370316191852e-06
-2.952474510777695e-05   2.3874592909034487e-06   1.0978408281513174e-05
-2.952474510777695e-05   2.3874592909034487e-06   1.0978408281513174e-05
-2.952474510777695e-05   2.3874592909034487e-06   1.0978408281513174e-05
-2.952474510777695e-05   2.3874592909034487e-06   1.0978408281513174e-05
-2.2578889896421946e-05   0.0   2.507997998470071e-05
-2.2578889896421946e-05   0.0   2.507997998470071e-05
-2.2578889896421946e-05   0.0   2.507997998470071e-05
-2.2578889896421946e-05   0.0   2.507997998470071e-05
-3.876309978439356e-05   4.546936109525203e-06   8.344585037965745e-07
-3.876309978439356e-05   4.546936109525203e-06   8.344585037965745e-07
-3.876309978439356e-05   4.546936109525203e-06   8.344585037965745e-07
-3.876309978439356e-05   4.546936109525203e-06   8.344585037965745e-07
-3.957873560394632e-05   0.0   3.153883645207168e-05
-3.957873560394632e-05   0.0   3.153883645207168e-05
-3.957873560394632e-05   0.0   3.153883645207168e-05
-3.957873560394632e-05   0.0   3.153883645207168e-05
-2.328469577923152e-05   3.811300210151492e-06   2.095323284789224e-06
-2.328469577923152e-05   3.811300210151492e-06   2.095323284789224e-06
-2.328469577923152e-05   3.811300210151492e-06   2.095323284789224e-06
-2.328469577923152e-05   3.811300210151492e-06   2.095323284789224e-06
-2.97486588153214e-05   1.6875083481901476e-06   1.4142870128782531e-05
-2.97486588153214e-05   1.6875083481901476e-06   1.4142870128782531e-05
-2.97486588153214e-05   1.6875083481901476e-06   1.4142870128782531e-05
-2.97486588153214e-05   1.6875083481901476e-06   1.4142870128782531e-05
2.5030917399937154e-05   -3.751622982339081e-06   1.766330101425932e-05
2.5030917399937154e-05   -3.751622982339081e-06   1.766330101425932e-05
2.5030917399937154e-05   -3.751622982339081e-06   1.766330101425932e-05
2.5030917399937154e-05   -3.751622982339081e-06   1.766330101425932e-05
1.2634021196356337e-05   -2.8525897460189662e-06   -2.458772716583315e-06
1.2634021196356337e-05   -2.8525897460189662e-06   -2.458772716583315e-06
1.2634021196356337e-05   -2.8525897460189662e-06   -2.458772716583315e-06
1.2634021196356337e-05   -2.8525897460189662e-06   -2.458772716583315e-06
1.230777368730849e-05   -4.119509939192563e-06   1.5393969627878145e-05
1.230777368730849e-05   -4.119509939192563e-06   1.5393969627878145e-05
1.230777368730849e-05   -4.119509939192563e-06   1.5393969627878145e-05
1.230777368730849e-05   -4.119509939192563e-06   1.5393969627878145e-05
2.445158307270018e-05   -3.2268962949041262e-06   -5.381280867681216e-06
2.445158307270018e-05   -3.2268962949041262e-06   -5.381280867681216e-06
2.445158307270018e-05   -3.2268962949041262e-06   -5.381280867681216e-06
2.445158307270018e-05   -3.2268962949041262e-06   -5.381280867681216e-06
1.7777773356978794e-05   -3.3500865420722824e-06   5.8156494734887135e-06
1.7777773356978794e-05   -3.3500865420722824e-06   5.8156494734887135e-06
1.7777773356978794e-05   -3.3500865420722824e-06   5.8156494734887135e-06
1.7777773356978794e-05   -3.3500865420722824e-06   5.8156494734887135e-06
2.4451583072700138e-05   -4.119509939192563e-06   1.4858401441304866e-05
2.4451583072700138e-05   -4.119509939192563e-06   1.4858401441304866e-05
2.4451583072700138e-05   -4.119509939192563e-06   1.4858401441304866e-05
2.4451583072700138e-05   -4.119509939192563e-06   1.4858401441304866e-05
1.230777368730851e-05   -3.2268962949041262e-06   -4.845712681107988e-06
1.230777368730851e-05   -3.2268962949041262e-06   -4.845712681107988e-06
1.230777368730851e-05   -3.2268962949041262e-06   -4.845712681107988e-06
1.230777368730851e-05   -3.2268962949041262e-06   -4.845712681107988e-06
1.188752376023824e-05   -4.1512247873796634e-06   1.3803095811423848e-05
1.188752376023824e-05   -4.1512247873796634e-06   1.3803095811423848e-05
1.188752376023824e-05   -4.1512247873796634e-06   1.3803095811423848e-05
1.188752376023824e-05   -4.1512247873796634e-06   1.3803095811423848e-05
2.386419753209564e-05   -3.2810465614615527e-06   -6.680134077222554e-06
2.386419753209564e-05   -3.2810465614615527e-06   -6.680134077222554e-06
2.386419753209564e-05   -3.2810465614615527e-06   -6.680134077222554e-06
2.386419753209564e-05   -3.2810465614615527e-06   -6.680134077222554e-06
1.762240108134863e-05   -3.4949211239631737e-06   3.851184744856702e-06
1.762240108134863e-05   -3.4949211239631737e-06   3.851184744856702e-06
1.762240108134863e-05   -3.4949211239631737e-06   3.851184744856702e-06
1.762240108134863e-05   -3.4949211239631737e-06   3.851184744856702e-06
2.386419753209564e-05   -4.151224787379447e-06   1.3280988875873177e-05
2.386419753209564e-05   -4.151224787379447e-06   1.3280988875873177e-05
2.386419753209564e-05   -4.151224787379447e-06   1.3280988875873177e-05
2.386419753209564e-05   -4.151224787379447e-06   1.3280988875873177e-05
1.188752376023824e-05   -3.2810465614615527e-06   -6.158027141671754e-06
1.188752376023824e-05   -3.2810465614615527e-06   -6.158027141671754e-06
1.188752376023824e-05   -3.2810465614615527e-06   -6.158027141671754e-06
1.188752376023824e-05   -3.2810465614615527e-06   -6.158027141671754e-06
1.1446064339415027e-05   -4.05733856213039e-06   1.1437715665861634e-05
1.1446064339415027e-05   -4.05733856213039e-06   1.1437715665861634e-05
1.1446064339415027e-05   -4.05733856213039e-06   1.1437715665861634e-05
1.1446064339415027e-05   -4.05733856213039e-06   1.1437715665861634e-05
2.312846569673264e-05   -3.2536873627238587e-06   -8.51514398264486e-06
2.312846569673264e-05   -3.2536873627238587e-06   -8.51514398264486e-06
2.312846569673264e-05   -3.2536873627238587e-06   -8.51514398264486e-06
2.312846569673264e-05   -3.2536873627238587e-06   -8.51514398264486e-06
1.6849048500886105e-05   -3.401224808460574e-06   2.039073811208351e-06
1.6849048500886105e-05   -3.401224808460574e-06   2.039073811208351e-06
1.6849048500886105e-05   -3.401224808460574e-06   2.039073811208351e-06
1.6849048500886105e-05   -3.401224808460574e-06   2.039073811208351e-06
1.2634021196356364e-05   -2.2874400747384914e-06   1.6621023000848922e-05
1.2634021196356364e-05   -2.2874400747384914e-06   1.6621023000848922e-05
1.2634021196356364e-05   -2.2874400747384914e-06   1.6621023000848922e-05
1.2634021196356364e-05   -2.2874400747384914e-06   1.6621023000848922e-05
1.3231990766772697e-06   -9.984550010307689e-07   -1.4569561543914967e-06
1.3231990766772697e-06   -9.984550010307689e-07   -1.4569561543914967e-06
1.3231990766772697e-06   -9.984550010307689e-07   -1.4569561543914967e-06
1.3231990766772697e-06   -9.984550010307689e-07   -1.4569561543914967e-06
9.98382471698111e-07   -2.4239006099953126e-06   1.7299418828579157e-05
9.98382471698111e-07   -2.4239006099953126e-06   1.7299418828579157e-05
9.98382471698111e-07   -2.4239006099953126e-06   1.7299418828579157e-05
9.98382471698111e-07   -2.4239006099953126e-06   1.7299418828579157e-05
1.230777368730851e-05   -1.198145057186746e-06   -2.285019862456619e-06
1.230777368730851e-05   -1.198145057186746e-06   -2.285019862456619e-06
1.230777368730851e-05   -1.198145057186746e-06   -2.285019862456619e-06
1.230777368730851e-05   -1.198145057186746e-06   -2.285019862456619e-06
6.750137794648716e-06   -1.6068292654291367e-06   7.222917150255135e-06
6.750137794648716e-06   -1.6068292654291367e-06   7.222917150255135e-06
6.750137794648716e-06   -1.6068292654291367e-06   7.222917150255135e-06
6.750137794648716e-06   -1.6068292654291367e-06   7.222917150255135e-06
1.2307773687308504e-05   -2.4239006099953126e-06   1.6563965496893952e-05
1.2307773687308504e-05   -2.4239006099953126e-06   1.6563965496893952e-05
1.2307773687308504e-05   -2.4239006099953126e-06   1.6563965496893952e-05
1.2307773687308504e-05   -2.4239006099953126e-06   1.6563965496893952e-05
9.98382471698111e-07   -1.198145057186746e-06   -1.5495665307716172e-06
9.98382471698111e-07   -1.198145057186746e-06   -1.5495665307716172e-06
9.98382471698111e-07   -1.198145057186746e-06   -1.5495665307716172e-06
9.98382471698111e-07   -1.198145057186746e-06   -1.5495665307716172e-06
5.8452615097652e-07   -2.481725293926188e-06   1.7125724043221425e-05
5.8452615097652e-07   -2.481725293926188e-06   1.7125724043221425e-05
5.8452615097652e-07   -2.481725293926188e-06   1.7125724043221425e-05
5.8452615097652e-07   -2.481725293926188e-06   1.7125724043221425e-05
1.188752376023824e-05   -1.327091057796363e-06   -2.4053858472260925e-06
1.188752376023824e-05   -1.327091057796363e-06   -2.4053858472260925e-06
1.188752376023824e-05   -1.327091057796363e-06   -2.4053858472260925e-06
1.188752376023824e-05   -1.327091057796363e-06   -2.4053858472260925e-06
6.336953130353097e-06   -1.6813564167172251e-06   7.058124417935372e-06
6.336953130353097e-06   -1.6813564167172251e-06   7.058124417935372e-06
6.336953130353097e-06   -1.6813564167172251e-06   7.058124417935372e-06
6.336953130353097e-06   -1.6813564167172251e-06   7.058124417935372e-06
1.188752376023822e-05   -2.4817252939264046e-06   1.643294350154353e-05
1.188752376023822e-05   -2.4817252939264046e-06   1.643294350154353e-05
1.188752376023822e-05   -2.4817252939264046e-06   1.643294350154353e-05
1.188752376023822e-05   -2.4817252939264046e-06   1.643294350154353e-05
5.8452615097652e-07   -1.327091057796363e-06   -1.7126053055480485e-06
5.8452615097652e-07   -1.327091057796363e-06   -1.7126053055480485e-06
5.8452615097652e-07   -1.327091057796363e-06   -1.7126053055480485e-06
5.8452615097652e-07   -1.327091057796363e-06   -1.7126053055480485e-06
1.274333461091803e-07   -2.420683479620279e-06   1.7366242543267367e-05
1.274333461091803e-07   -2.420683479620279e-06   1.7366242543267367e-05
1.274333461091803e-07   -2.420683479620279e-06   1.7366242543267367e-05
1.274333461091803e-07   -2.420683479620279e-06   1.7366242543267367e-05
1.144606433941502e-05   -1.3794211416306035e-06   -2.12289984836963e-06
1.144606433941502e-05   -1.3794211416306035e-06   -2.12289984836963e-06
1.144606433941502e-05   -1.3794211416306035e-06   -2.12289984836963e-06
1.144606433941502e-05   -1.3794211416306035e-06   -2.12289984836963e-06
6.003572653652111e-06   -1.6626054644430528e-06   7.117830221589725e-06
6.003572653652111e-06   -1.6626054644430528e-06   7.117830221589725e-06
6.003572653652111e-06   -1.6626054644430528e-06   7.117830221589725e-06
6.003572653652111e-06   -1.6626054644430528e-06   7.117830221589725e-06
1.3231990766772697e-06   -9.120558172274074e-07   1.6971445912002483e-05
1.3231990766772697e-06   -9.120558172274074e-07   1.6971445912002483e-05
1.3231990766772697e-06   -9.120558172274074e-07   1.6971445912002483e-05
1.3231990766772697e-06   -9.120558172274074e-07   1.6971445912002483e-05
-9.640491917830128e-06   9.048829537379325e-07   -2.1120914959745028e-07
-9.640491917830128e-06   9.048829537379325e-07   -2.1120914959745028e-07
-9.640491917830128e-06   9.048829537379325e-07   -2.1120914959745028e-07
-9.640491917830128e-06   9.048829537379325e-07   -2.1120914959745028e-07
-1.0006765082954929e-05   -9.614984151312764e-07   1.8186519443757977e-05
-1.0006765082954929e-05   -9.614984151312764e-07   1.8186519443757977e-05
-1.0006765082954929e-05   -9.614984151312764e-07   1.8186519443757977e-05
-1.0006765082954929e-05   -9.614984151312764e-07   1.8186519443757977e-05
9.98382471698111e-07   7.546947342291837e-07   -1.1851090369469075e-06
9.98382471698111e-07   7.546947342291837e-07   -1.1851090369469075e-06
9.98382471698111e-07   7.546947342291837e-07   -1.1851090369469075e-06
9.98382471698111e-07   7.546947342291837e-07   -1.1851090369469075e-06
-4.323741184927275e-06   2.5667998584900584e-08   8.122513098815498e-06
-4.323741184927275e-06   2.5667998584900584e-08   8.122513098815498e-06
-4.323741184927275e-06   2.5667998584900584e-08   8.122513098815498e-06
-4.323741184927275e-06   2.5667998584900584e-08   8.122513098815498e-06
9.98382471698111e-07   -9.614984151312764e-07   1.715680355414157e-05
9.98382471698111e-07   -9.614984151312764e-07   1.715680355414157e-05
9.98382471698111e-07   -9.614984151312764e-07   1.715680355414157e-05
9.98382471698111e-07   -9.614984151312764e-07   1.715680355414157e-05
-1.0006765082954929e-05   7.546947342291837e-07   -1.553931473305013e-07
-1.0006765082954929e-05   7.546947342291837e-07   -1.553931473305013e-07
-1.0006765082954929e-05   7.546947342291837e-07   -1.553931473305013e-07
-1.0006765082954929e-05   7.546947342291837e-07   -1.553931473305013e-07
-1.0496037727610887e-05   -1.022827027732584e-06   1.8543974040405287e-05
-1.0496037727610887e-05   -1.022827027732584e-06   1.8543974040405287e-05
-1.0496037727610887e-05   -1.022827027732584e-06   1.8543974040405287e-05
-1.0496037727610887e-05   -1.022827027732584e-06   1.8543974040405287e-05
5.8452615097652e-07   6.14908296595832e-07   -9.062736185041641e-07
5.8452615097652e-07   6.14908296595832e-07   -9.062736185041641e-07
5.8452615097652e-07   6.14908296595832e-07   -9.062736185041641e-07
5.8452615097652e-07   6.14908296595832e-07   -9.062736185041641e-07
-4.684557193638533e-06   -1.4716300428588812e-08   8.25330671406886e-06
-4.684557193638533e-06   -1.4716300428588812e-08   8.25330671406886e-06
-4.684557193638533e-06   -1.4716300428588812e-08   8.25330671406886e-06
-4.684557193638533e-06   -1.4716300428588812e-08   8.25330671406886e-06
5.8452615097652e-07   -1.022827027732584e-06   1.756133284580813e-05
5.8452615097652e-07   -1.022827027732584e-06   1.756133284580813e-05
5.8452615097652e-07   -1.022827027732584e-06   1.756133284580813e-05
5.8452615097652e-07   -1.022827027732584e-06   1.756133284580813e-05
-1.0496037727610874e-05   6.14908296595832e-07   7.636757609283135e-08
-1.0496037727610874e-05   6.14908296595832e-07   7.636757609283135e-08
-1.0496037727610874e-05   6.14908296595832e-07   7.636757609283135e-08
-1.0496037727610874e-05   6.14908296595832e-07   7.636757609283135e-08
-1.1017277508023064e-05   -1.0127017795347627e-06   1.8972640925413024e-05
-1.1017277508023064e-05   -1.0127017795347627e-06   1.8972640925413024e-05
-1.1017277508023064e-05   -1.0127017795347627e-06   1.8972640925413024e-05
-1.1017277508023064e-05   -1.0127017795347627e-06   1.8972640925413024e-05
1.274333461091803e-07   5.148793547156329e-07   -5.184258453576042e-07
1.274333461091803e-07   5.148793547156329e-07   -5.184258453576042e-07
1.274333461091803e-07   5.148793547156329e-07   -5.184258453576042e-07
1.274333461091803e-07   5.148793547156329e-07   -5.184258453576042e-07
-5.1440093083422645e-06   -4.2692032243044596e-08   8.601854744236985e-06
-5.1440093083422645e-06   -4.2692032243044596e-08   8.601854744236985e-06
-5.1440093083422645e-06   -4.2692032243044596e-08   8.601854744236985e-06
-5.1440093083422645e-06   -4.2692032243044596e-08   8.601854744236985e-06
-9.640491917830094e-06   1.1231546963494897e-06   1.5367919571848102e-05
-9.640491917830094e-06   1.1231546963494897e-06   1.5367919571848102e-05
-9.640491917830094e-06   1.1231546963494897e-06   1.5367919571848102e-05
-9.640491917830094e-06   1.1231546963494897e-06   1.5367919571848102e-05
-2.040175816294228e-05   2.9249698259994168e-06   -1.4864350922155442e-06
-2.040175816294228e-05   2.9249698259994168e-06   -1.4864350922155442e-06
-2.040175816294228e-05   2.9249698259994168e-06   -1.4864350922155442e-06
-2.040175816294228e-05   2.9249698259994168e-06   -1.4864350922155442e-06
-2.093144086415694e-05   1.0690297947426545e-06   1.6985169352746847e-05
-2.093144086415694e-05   1.0690297947426545e-06   1.6985169352746847e-05
-2.093144086415694e-05   1.0690297947426545e-06   1.6985169352746847e-05
-2.093144086415694e-05   1.0690297947426545e-06   1.6985169352746847e-05
-1.0006765082954895e-05   2.7758782634233585e-06   -2.2467326971315556e-06
-1.0006765082954895e-05   2.7758782634233585e-06   -2.2467326971315556e-06
-1.0006765082954895e-05   2.7758782634233585e-06   -2.2467326971315556e-06
-1.0006765082954895e-05   2.7758782634233585e-06   -2.2467326971315556e-06
-1.5127455443627757e-05   2.0034922091679425e-06   6.751182869876377e-06
-1.5127455443627757e-05   2.0034922091679425e-06   6.751182869876377e-06
-1.5127455443627757e-05   2.0034922091679425e-06   6.751182869876377e-06
-1.5127455443627757e-05   2.0034922091679425e-06   6.751182869876377e-06
-1.0006765082954908e-05   1.0690297947426545e-06   1.5961060271538403e-05
-1.0006765082954908e-05   1.0690297947426545e-06   1.5961060271538403e-05
-1.0006765082954908e-05   1.0690297947426545e-06   1.5961060271538403e-05
-1.0006765082954908e-05   1.0690297947426545e-06   1.5961060271538403e-05
-2.09314408641569e-05   2.77587826342325e-06   -1.2226236159232741e-06
-2.09314408641569e-05   2.77587826342325e-06   -1.2226236159232741e-06
-2.09314408641569e-05   2.77587826342325e-06   -1.2226236159232741e-06
-2.09314408641569e-05   2.77587826342325e-06   -1.2226236159232741e-06
-2.1581863680270703e-05   9.602846356994953e-07   1.802652683483713e-05
-2.1581863680270703e-05   9.602846356994953e-07   1.802652683483713e-05
-2.1581863680270703e-05   9.602846356994953e-07   1.802652683483713e-05
-2.1581863680270703e-05   9.602846356994953e-07   1.802652683483713e-05
-1.0496037727610874e-05   2.6366364846410134e-06   -1.45566086229431e-06
-1.0496037727610874e-05   2.6366364846410134e-06   -1.45566086229431e-06
-1.0496037727610874e-05   2.6366364846410134e-06   -1.45566086229431e-06
-1.0496037727610874e-05   2.6366364846410134e-06   -1.45566086229431e-06
-1.551938369010906e-05   1.9721829860150537e-06   7.315254507711625e-06
-1.551938369010906e-05   1.9721829860150537e-06   7.315254507711625e-06
-1.551938369010906e-05   1.9721829860150537e-06   7.315254507711625e-06
-1.551938369010906e-05   1.9721829860150537e-06   7.315254507711625e-06
-1.049603772761086e-05   9.602846356992784e-07   1.7020715725472022e-05
-1.049603772761086e-05   9.602846356992784e-07   1.7020715725472022e-05
-1.049603772761086e-05   9.602846356992784e-07   1.7020715725472022e-05
-1.049603772761086e-05   9.602846356992784e-07   1.7020715725472022e-05
-2.1581863680270703e-05   2.636636484640905e-06   -4.498497529292853e-07
-2.1581863680270703e-05   2.636636484640905e-06   -4.498497529292853e-07
-2.1581863680270703e-05   2.636636484640905e-06   -4.498497529292853e-07
-2.1581863680270703e-05   2.636636484640905e-06   -4.498497529292853e-07
-2.226860999999352e-05   8.359954940953887e-07   1.8845112760242197e-05
-2.226860999999352e-05   8.359954940953887e-07   1.8845112760242197e-05
-2.226860999999352e-05   8.359954940953887e-07   1.8845112760242197e-05
-2.226860999999352e-05   8.359954940953887e-07   1.8845112760242197e-05
-1.1017277508023024e-05   2.447906918431127e-06   -8.742549143099624e-07
-1.1017277508023024e-05   2.447906918431127e-06   -8.742549143099624e-07
-1.1017277508023024e-05   2.447906918431127e-06   -8.742549143099624e-07
-1.1017277508023024e-05   2.447906918431127e-06   -8.742549143099624e-07
-1.6181382505072863e-05   1.8603004862914607e-06   8.085150606724101e-06
-1.6181382505072863e-05   1.8603004862914607e-06   8.085150606724101e-06
-1.6181382505072863e-05   1.8603004862914607e-06   8.085150606724101e-06
-1.6181382505072863e-05   1.8603004862914607e-06   8.085150606724101e-06
-2.040175816294228e-05   4.812390911791741e-06   8.084399808155874e-06
-2.040175816294228e-05   4.812390911791741e-06   8.084399808155874e-06
-2.040175816294228e-05   4.812390911791741e-06   8.084399808155874e-06
-2.040175816294228e-05   4.812390911791741e-06   8.084399808155874e-06
-3.0733196130657646e-05   4.75701248060182e-06   -9.167890530083678e-06
-3.0733196130657646e-05   4.75701248060182e-06   -9.167890530083678e-06
-3.0733196130657646e-05   4.75701248060182e-06   -9.167890530083678e-06
-3.0733196130657646e-05   4.75701248060182e-06   -9.167890530083678e-06
-3.168620382253626e-05   4.660572255280569e-06   1.2041950110752838e-05
-3.168620382253626e-05   4.660572255280569e-06   1.2041950110752838e-05
-3.168620382253626e-05   4.660572255280569e-06   1.2041950110752838e-05
-3.168620382253626e-05   4.660572255280569e-06   1.2041950110752838e-05
-2.09314408641569e-05   4.855112358424004e-06   -5.999378881765501e-06
-2.09314408641569e-05   4.855112358424004e-06   -5.999378881765501e-06
-2.09314408641569e-05   4.855112358424004e-06   -5.999378881765501e-06
-2.09314408641569e-05   4.855112358424004e-06   -5.999378881765501e-06
-2.489407038409291e-05   4.840244033904725e-06   6.139246461727007e-07
-2.489407038409291e-05   4.840244033904725e-06   6.139246461727007e-07
-2.489407038409291e-05   4.840244033904725e-06   6.139246461727007e-07
-2.489407038409291e-05   4.840244033904725e-06   6.139246461727007e-07
-2.0931440864156887e-05   4.660572255280569e-06   1.1925226048866778e-05
-2.0931440864156887e-05   4.660572255280569e-06   1.1925226048866778e-05
-2.0931440864156887e-05   4.660572255280569e-06   1.1925226048866778e-05
-2.0931440864156887e-05   4.660572255280569e-06   1.1925226048866778e-05
-3.168620382253626e-05   4.8551123584238956e-06   -5.8826548198794406e-06
-3.168620382253626e-05   4.8551123584238956e-06   -5.8826548198794406e-06
-3.168620382253626e-05   4.8551123584238956e-06   -5.8826548198794406e-06
-3.168620382253626e-05   4.8551123584238956e-06   -5.8826548198794406e-06
-3.2620617311466656e-05   4.546936109524986e-06   1.4806150063414406e-05
-3.2620617311466656e-05   4.546936109524986e-06   1.4806150063414406e-05
-3.2620617311466656e-05   4.546936109524986e-06   1.4806150063414406e-05
-3.2620617311466656e-05   4.546936109524986e-06   1.4806150063414406e-05
-2.1581863680270662e-05   4.822381427274885e-06   -3.757039845895502e-06
-2.1581863680270662e-05   4.822381427274885e-06   -3.757039845895502e-06
-2.1581863680270662e-05   4.822381427274885e-06   -3.757039845895502e-06
-2.1581863680270662e-05   4.822381427274885e-06   -3.757039845895502e-06
-2.599880859376576e-05   4.845578377731408e-06   3.5906168396561064e-06
-2.599880859376576e-05   4.845578377731408e-06   3.5906168396561064e-06
-2.599880859376576e-05   4.845578377731408e-06   3.5906168396561064e-06
-2.599880859376576e-05   4.845578377731408e-06   3.5906168396561064e-06
-2.1581863680270662e-05   4.546936109525203e-06   1.4640882872764597e-05
-2.1581863680270662e-05   4.546936109525203e-06   1.4640882872764597e-05
-2.1581863680270662e-05   4.546936109525203e-06   1.4640882872764597e-05
-2.1581863680270662e-05   4.546936109525203e-06   1.4640882872764597e-05
-3.2620617311466656e-05   4.822381427274885e-06   -3.5917726552456655e-06
-3.2620617311466656e-05   4.822381427274885e-06   -3.5917726552456655e-06
-3.2620617311466656e-05   4.822381427274885e-06   -3.5917726552456655e-06
-3.2620617311466656e-05   4.822381427274885e-06   -3.5917726552456655e-06
-3.372377119066045e-05   3.8113002101517086e-06   1.9421382468507646e-05
-3.372377119066045e-05   3.8113002101517086e-06   1.9421382468507646e-05
-3.372377119066045e-05   3.8113002101517086e-06   1.9421382468507646e-05
-3.372377119066045e-05   3.8113002101517086e-06   1.9421382468507646e-05
-2.2268609999993447e-05   4.446169617593697e-06   -5.147449373601315e-08
-2.2268609999993447e-05   4.446169617593697e-06   -5.147449373601315e-08
-2.2268609999993447e-05   4.446169617593697e-06   -5.147449373601315e-08
-2.2268609999993447e-05   4.446169617593697e-06   -5.147449373601315e-08
-2.6377578468974495e-05   4.620537360482601e-06   6.692185642165956e-06
-2.6377578468974495e-05   4.620537360482601e-06   6.692185642165956e-06
-2.6377578468974495e-05   4.620537360482601e-06   6.692185642165956e-06
-2.6377578468974495e-05   4.620537360482601e-06   6.692185642165956e-06
2.043556760012008e-05   -2.8525897460189662e-06   1.5658358773322674e-05
2.043556760012008e-05   -2.8525897460189662e-06   1.5658358773322674e-05
2.043556760012008e-05   -2.8525897460189662e-06   1.5658358773322674e-05
2.043556760012008e-05   -2.8525897460189662e-06   1.5658358773322674e-05
1.0096679264169078e-05   -2.1093314767385574e-06   -1.1271668250274975e-06
1.0096679264169078e-05   -2.1093314767385574e-06   -1.1271668250274975e-06
1.0096679264169078e-05   -2.1093314767385574e-06   -1.1271668250274975e-06
1.0096679264169078e-05   -2.1093314767385574e-06   -1.1271668250274975e-06
9.72048090152992e-06   -3.226896294904018e-06   1.3599870357635562e-05
9.72048090152992e-06   -3.226896294904018e-06   1.3599870357635562e-05
9.72048090152992e-06   -3.226896294904018e-06   1.3599870357635562e-05
9.72048090152992e-06   -3.226896294904018e-06   1.3599870357635562e-05
1.9744692019576133e-05   -2.4418602240907977e-06   -3.578169814929388e-06
1.9744692019576133e-05   -2.4418602240907977e-06   -3.578169814929388e-06
1.9744692019576133e-05   -2.4418602240907977e-06   -3.578169814929388e-06
1.9744692019576133e-05   -2.4418602240907977e-06   -3.578169814929388e-06
1.4312995473275529e-05   -2.6300700958967454e-06   5.587583685321741e-06
1.4312995473275529e-05   -2.6300700958967454e-06   5.587583685321741e-06
1.4312995473275529e-05   -2.6300700958967454e-06   5.587583685321741e-06
1.4312995473275529e-05   -2.6300700958967454e-06   5.587583685321741e-06
1.97446920195761e-05   -3.2268962949041262e-06   1.3128848715147586e-05
1.97446920195761e-05   -3.2268962949041262e-06   1.3128848715147586e-05
1.97446920195761e-05   -3.2268962949041262e-06   1.3128848715147586e-05
1.97446920195761e-05   -3.2268962949041262e-06   1.3128848715147586e-05
9.720480901529954e-06   -2.4418602240907977e-06   -3.1071481724413534e-06
9.720480901529954e-06   -2.4418602240907977e-06   -3.1071481724413534e-06
9.720480901529954e-06   -2.4418602240907977e-06   -3.1071481724413534e-06
9.720480901529954e-06   -2.4418602240907977e-06   -3.1071481724413534e-06
9.301848933695247e-06   -3.2810465614614443e-06   1.217705006241682e-05
9.301848933695247e-06   -3.2810465614614443e-06   1.217705006241682e-05
9.301848933695247e-06   -3.2810465614614443e-06   1.217705006241682e-05
9.301848933695247e-06   -3.2810465614614443e-06   1.217705006241682e-05
1.9117822118097e-05   -2.507655243434389e-06   -4.6469400357358175e-06
1.9117822118097e-05   -2.507655243434389e-06   -4.6469400357358175e-06
1.9117822118097e-05   -2.507655243434389e-06   -4.6469400357358175e-06
1.9117822118097e-05   -2.507655243434389e-06   -4.6469400357358175e-06
1.4059685948282256e-05   -2.7594021711433575e-06   3.934335070580853e-06
1.4059685948282256e-05   -2.7594021711433575e-06   3.934335070580853e-06
1.4059685948282256e-05   -2.7594021711433575e-06   3.934335070580853e-06
1.4059685948282256e-05   -2.7594021711433575e-06   3.934335070580853e-06
1.9117822118096937e-05   -3.2810465614615527e-06   1.1713015271600392e-05
1.9117822118096937e-05   -3.2810465614615527e-06   1.1713015271600392e-05
1.9117822118096937e-05   -3.2810465614615527e-06   1.1713015271600392e-05
1.9117822118096937e-05   -3.2810465614615527e-06   1.1713015271600392e-05
9.301848933695264e-06   -2.507655243434389e-06   -4.182905244919425e-06
9.301848933695264e-06   -2.507655243434389e-06   -4.182905244919425e-06
9.301848933695264e-06   -2.507655243434389e-06   -4.182905244919425e-06
9.301848933695264e-06   -2.507655243434389e-06   -4.182905244919425e-06
8.898644815454363e-06   -3.2536873627238587e-06   1.0184560717543898e-05
8.898644815454363e-06   -3.2536873627238587e-06   1.0184560717543898e-05
8.898644815454363e-06   -3.2536873627238587e-06   1.0184560717543898e-05
8.898644815454363e-06   -3.2536873627238587e-06   1.0184560717543898e-05
1.8406651557778945e-05   -2.5291112211026697e-06   -6.096862871303027e-06
1.8406651557778945e-05   -2.5291112211026697e-06   -6.096862871303027e-06
1.8406651557778945e-05   -2.5291112211026697e-06   -6.096862871303027e-06
1.8406651557778945e-05   -2.5291112211026697e-06   -6.096862871303027e-06
1.3349287239176318e-05   -2.710672902696623e-06   2.4410146686579975e-06
1.3349287239176318e-05   -2.710672902696623e-06   2.4410146686579975e-06
1.3349287239176318e-05   -2.710672902696623e-06   2.4410146686579975e-06
1.3349287239176318e-05   -2.710672902696623e-06   2.4410146686579975e-06
1.0096679264169078e-05   -9.984550010307689e-07   1.633273925285791e-05
1.0096679264169078e-05   -9.984550010307689e-07   1.633273925285791e-05
1.0096679264169078e-05   -9.984550010307689e-07   1.633273925285791e-05
1.0096679264169078e-05   -9.984550010307689e-07   1.633273925285791e-05
3.910343834205731e-07   -4.054786882107947e-07   5.124502393024765e-07
3.910343834205731e-07   -4.054786882107947e-07   5.124502393024765e-07
3.910343834205731e-07   -4.054786882107947e-07   5.124502393024765e-07
3.910343834205731e-07   -4.054786882107947e-07   5.124502393024765e-07
2.9257014066708933e-08   -1.198145057186746e-06   1.6495461521956012e-05
2.9257014066708933e-08   -1.198145057186746e-06   1.6495461521956012e-05
2.9257014066708933e-08   -1.198145057186746e-06   1.6495461521956012e-05
2.9257014066708933e-08   -1.198145057186746e-06   1.6495461521956012e-05
9.720480901529954e-06   -6.399811477383367e-07   8.523363848207937e-09
9.720480901529954e-06   -6.399811477383367e-07   8.523363848207937e-09
9.720480901529954e-06   -6.399811477383367e-07   8.523363848207937e-09
9.720480901529954e-06   -6.399811477383367e-07   8.523363848207937e-09
4.997619551773723e-06   -7.811742844599564e-07   7.964674828808157e-06
4.997619551773723e-06   -7.811742844599564e-07   7.964674828808157e-06
4.997619551773723e-06   -7.811742844599564e-07   7.964674828808157e-06
4.997619551773723e-06   -7.811742844599564e-07   7.964674828808157e-06
9.720480901529947e-06   -1.1981450571868545e-06   1.6160563176286836e-05
9.720480901529947e-06   -1.1981450571868545e-06   1.6160563176286836e-05
9.720480901529947e-06   -1.1981450571868545e-06   1.6160563176286836e-05
9.720480901529947e-06   -1.1981450571868545e-06   1.6160563176286836e-05
2.9257014066708933e-08   -6.399811477383367e-07   3.43421709517221e-07
2.9257014066708933e-08   -6.399811477383367e-07   3.43421709517221e-07
2.9257014066708933e-08   -6.399811477383367e-07   3.43421709517221e-07
2.9257014066708933e-08   -6.399811477383367e-07   3.43421709517221e-07
-3.468348113708759e-07   -1.3270910577964715e-06   1.6238415271433685e-05
-3.468348113708759e-07   -1.3270910577964715e-06   1.6238415271433685e-05
-3.468348113708759e-07   -1.3270910577964715e-06   1.6238415271433685e-05
-3.468348113708759e-07   -1.3270910577964715e-06   1.6238415271433685e-05
9.301848933695264e-06   -8.125512001779401e-07   -1.514482182476387e-07
9.301848933695264e-06   -8.125512001779401e-07   -1.514482182476387e-07
9.301848933695264e-06   -8.125512001779401e-07   -1.514482182476387e-07
9.301848933695264e-06   -8.125512001779401e-07   -1.514482182476387e-07
4.580823059464454e-06   -9.032969070496338e-07   7.771375662926931e-06
4.580823059464454e-06   -9.032969070496338e-07   7.771375662926931e-06
4.580823059464454e-06   -9.032969070496338e-07   7.771375662926931e-06
4.580823059464454e-06   -9.032969070496338e-07   7.771375662926931e-06
9.301848933695247e-06   -1.3270910577964715e-06   1.5929691356862522e-05
9.301848933695247e-06   -1.3270910577964715e-06   1.5929691356862522e-05
9.301848933695247e-06   -1.3270910577964715e-06   1.5929691356862522e-05
9.301848933695247e-06   -1.3270910577964715e-06   1.5929691356862522e-05
-3.468348113708759e-07   -8.125512001778317e-07   1.5727569632338796e-07
-3.468348113708759e-07   -8.125512001778317e-07   1.5727569632338796e-07
-3.468348113708759e-07   -8.125512001778317e-07   1.5727569632338796e-07
-3.468348113708759e-07   -8.125512001778317e-07   1.5727569632338796e-07
-7.383907136949576e-07   -1.3794211416304951e-06   1.6354232632736208e-05
-7.383907136949576e-07   -1.3794211416304951e-06   1.6354232632736208e-05
-7.383907136949576e-07   -1.3794211416304951e-06   1.6354232632736208e-05
-7.383907136949576e-07   -1.3794211416304951e-06   1.6354232632736208e-05
8.89864481545438e-06   -9.467236406958011e-07   3.28882502597313e-08
8.89864481545438e-06   -9.467236406958011e-07   3.28882502597313e-08
8.89864481545438e-06   -9.467236406958011e-07   3.28882502597313e-08
8.89864481545438e-06   -9.467236406958011e-07   3.28882502597313e-08
4.270006518456469e-06   -9.669089488636897e-07   7.759396596824044e-06
4.270006518456469e-06   -9.669089488636897e-07   7.759396596824044e-06
4.270006518456469e-06   -9.669089488636897e-07   7.759396596824044e-06
4.270006518456469e-06   -9.669089488636897e-07   7.759396596824044e-06
3.910343834205731e-07   9.04882953737824e-07   1.684410878276493e-05
3.910343834205731e-07   9.04882953737824e-07   1.684410878276493e-05
3.910343834205731e-07   9.04882953737824e-07   1.684410878276493e-05
3.910343834205731e-07   9.04882953737824e-07   1.684410878276493e-05
-9.035549911178196e-06   1.3003306104590173e-06   1.3704035524663414e-06
-9.035549911178196e-06   1.3003306104590173e-06   1.3704035524663414e-06
-9.035549911178196e-06   1.3003306104590173e-06   1.3704035524663414e-06
-9.035549911178196e-06   1.3003306104590173e-06   1.3704035524663414e-06
-9.4139253102724e-06   7.546947342291837e-07   1.707134793076158e-05
-9.4139253102724e-06   7.546947342291837e-07   1.707134793076158e-05
-9.4139253102724e-06   7.546947342291837e-07   1.707134793076158e-05
-9.4139253102724e-06   7.546947342291837e-07   1.707134793076158e-05
2.9257014066708933e-08   1.1070762591973904e-06   1.1212818085488458e-06
2.9257014066708933e-08   1.1070762591973904e-06   1.1212818085488458e-06
2.9257014066708933e-08   1.1070762591973904e-06   1.1212818085488458e-06
2.9257014066708933e-08   1.1070762591973904e-06   1.1212818085488458e-06
-4.514131925287183e-06   1.0266171947064754e-06   8.741872146166474e-06
-4.514131925287183e-06   1.0266171947064754e-06   8.741872146166474e-06
-4.514131925287183e-06   1.0266171947064754e-06   8.741872146166474e-06
-4.514131925287183e-06   1.0266171947064754e-06   8.741872146166474e-06
2.9257014066708933e-08   7.546947342291837e-07   1.6859919015780613e-05
2.9257014066708933e-08   7.546947342291837e-07   1.6859919015780613e-05
2.9257014066708933e-08   7.546947342291837e-07   1.6859919015780613e-05
2.9257014066708933e-08   7.546947342291837e-07   1.6859919015780613e-05
-9.4139253102724e-06   1.1070762591973904e-06   1.3327107235297183e-06
-9.4139253102724e-06   1.1070762591973904e-06   1.3327107235297183e-06
-9.4139253102724e-06   1.1070762591973904e-06   1.3327107235297183e-06
-9.4139253102724e-06   1.1070762591973904e-06   1.3327107235297183e-06
-9.812980802441258e-06   6.14908296595832e-07   1.722750889458465e-05
-9.812980802441258e-06   6.14908296595832e-07   1.722750889458465e-05
-9.812980802441258e-06   6.14908296595832e-07   1.722750889458465e-05
-9.812980802441258e-06   6.14908296595832e-07   1.722750889458465e-05
-3.468348113708759e-07   9.195115234411676e-07   1.267836973360261e-06
-3.468348113708759e-07   9.195115234411676e-07   1.267836973360261e-06
-3.468348113708759e-07   9.195115234411676e-07   1.267836973360261e-06
-3.468348113708759e-07   9.195115234411676e-07   1.267836973360261e-06
-4.865299621836614e-06   9.173423245528375e-07   8.799913176802738e-06
-4.865299621836614e-06   9.173423245528375e-07   8.799913176802738e-06
-4.865299621836614e-06   9.173423245528375e-07   8.799913176802738e-06
-4.865299621836614e-06   9.173423245528375e-07   8.799913176802738e-06
-3.468348113708759e-07   6.14908296595832e-07   1.7044746958477623e-05
-3.468348113708759e-07   6.14908296595832e-07   1.7044746958477623e-05
-3.468348113708759e-07   6.14908296595832e-07   1.7044746958477623e-05
-3.468348113708759e-07   6.14908296595832e-07   1.7044746958477623e-05
-9.812980802441278e-06   9.195115234411676e-07   1.450598909467438e-06
-9.812980802441278e-06   9.195115234411676e-07   1.450598909467438e-06
-9.812980802441278e-06   9.195115234411676e-07   1.450598909467438e-06
-9.812980802441278e-06   9.195115234411676e-07   1.450598909467438e-06
-1.022448798174954e-05   5.148793547156329e-07   1.7476626468944313e-05
-1.022448798174954e-05   5.148793547156329e-07   1.7476626468944313e-05
-1.022448798174954e-05   5.148793547156329e-07   1.7476626468944313e-05
-1.022448798174954e-05   5.148793547156329e-07   1.7476626468944313e-05
-7.383907136949576e-07   7.526747480324269e-07   1.5237871195300013e-06
-7.383907136949576e-07   7.526747480324269e-07   1.5237871195300013e-06
-7.383907136949576e-07   7.526747480324269e-07   1.5237871195300013e-06
-7.383907136949576e-07   7.526747480324269e-07   1.5237871195300013e-06
-5.24536851415163e-06   8.128687443546573e-07   8.9993003891647e-06
-5.24536851415163e-06   8.128687443546573e-07   8.9993003891647e-06
-5.24536851415163e-06   8.128687443546573e-07   8.9993003891647e-06
-5.24536851415163e-06   8.128687443546573e-07   8.9993003891647e-06
-9.035549911178237e-06   2.9249698259994168e-06   1.4725062356389521e-05
-9.035549911178237e-06   2.9249698259994168e-06   1.4725062356389521e-05
-9.035549911178237e-06   2.9249698259994168e-06   1.4725062356389521e-05
-9.035549911178237e-06   2.9249698259994168e-06   1.4725062356389521e-05
-1.8184445235630374e-05   2.9624401637346875e-06   -5.006143150562475e-07
-1.8184445235630374e-05   2.9624401637346875e-06   -5.006143150562475e-07
-1.8184445235630374e-05   2.9624401637346875e-06   -5.006143150562475e-07
-1.8184445235630374e-05   2.9624401637346875e-06   -5.006143150562475e-07
-1.862346823130578e-05   2.7758782634233585e-06   1.4982223341975529e-05
-1.862346823130578e-05   2.7758782634233585e-06   1.4982223341975529e-05
-1.862346823130578e-05   2.7758782634233585e-06   1.4982223341975529e-05
-1.862346823130578e-05   2.7758782634233585e-06   1.4982223341975529e-05
-9.413925310272414e-06   2.7795698651150117e-06   -3.692298207618231e-07
-9.413925310272414e-06   2.7795698651150117e-06   -3.692298207618231e-07
-9.413925310272414e-06   2.7795698651150117e-06   -3.692298207618231e-07
-9.413925310272414e-06   2.7795698651150117e-06   -3.692298207618231e-07
-1.3752702891921133e-05   2.851374367919589e-06   6.818983446969952e-06
-1.3752702891921133e-05   2.851374367919589e-06   6.818983446969952e-06
-1.3752702891921133e-05   2.851374367919589e-06   6.818983446969952e-06
-1.3752702891921133e-05   2.851374367919589e-06   6.818983446969952e-06
-9.413925310272414e-06   2.7758782634233585e-06   1.4980008380960472e-05
-9.413925310272414e-06   2.7758782634233585e-06   1.4980008380960472e-05
-9.413925310272414e-06   2.7758782634233585e-06   1.4980008380960472e-05
-9.413925310272414e-06   2.7758782634233585e-06   1.4980008380960472e-05
-1.8623468231305753e-05   2.7795698651150117e-06   -3.670148597467661e-07
-1.8623468231305753e-05   2.7795698651150117e-06   -3.670148597467661e-07
-1.8623468231305753e-05   2.7795698651150117e-06   -3.670148597467661e-07
-1.8623468231305753e-05   2.7795698651150117e-06   -3.670148597467661e-07
-1.9109115413856053e-05   2.6366364846410134e-06   1.5679225500209865e-05
-1.9109115413856053e-05   2.6366364846410134e-06   1.5679225500209865e-05
-1.9109115413856053e-05   2.6366364846410134e-06   1.5679225500209865e-05
-1.9109115413856053e-05   2.6366364846410134e-06   1.5679225500209865e-05
-9.812980802441278e-06   2.6095448913279013e-06   2.0192277050619953e-07
-9.812980802441278e-06   2.6095448913279013e-06   2.0192277050619953e-07
-9.812980802441278e-06   2.6095448913279013e-06   2.0192277050619953e-07
-9.812980802441278e-06   2.6095448913279013e-06   2.0192277050619953e-07
-1.406716475628938e-05   2.7490616240318563e-06   7.208519320630718e-06
-1.406716475628938e-05   2.7490616240318563e-06   7.208519320630718e-06
-1.406716475628938e-05   2.7490616240318563e-06   7.208519320630718e-06
-1.406716475628938e-05   2.7490616240318563e-06   7.208519320630718e-06
-9.812980802441265e-06   2.6366364846410134e-06   1.5695480456197645e-05
-9.812980802441265e-06   2.6366364846410134e-06   1.5695480456197645e-05
-9.812980802441265e-06   2.6366364846410134e-06   1.5695480456197645e-05
-9.812980802441265e-06   2.6366364846410134e-06   1.5695480456197645e-05
-1.9109115413856026e-05   2.6095448913280098e-06   1.8566781451845966e-07
-1.9109115413856026e-05   2.6095448913280098e-06   1.8566781451845966e-07
-1.9109115413856026e-05   2.6095448913280098e-06   1.8566781451845966e-07
-1.9109115413856026e-05   2.6095448913280098e-06   1.8566781451845966e-07
-1.957140326324557e-05   2.447906918431127e-06   1.6175863917680775e-05
-1.957140326324557e-05   2.447906918431127e-06   1.6175863917680775e-05
-1.957140326324557e-05   2.447906918431127e-06   1.6175863917680775e-05
-1.957140326324557e-05   2.447906918431127e-06   1.6175863917680775e-05
-1.0224487981749575e-05   2.4005989154957065e-06   6.260565836152792e-07
-1.0224487981749575e-05   2.4005989154957065e-06   6.260565836152792e-07
-1.0224487981749575e-05   2.4005989154957065e-06   6.260565836152792e-07
-1.0224487981749575e-05   2.4005989154957065e-06   6.260565836152792e-07
-1.457400394376939e-05   2.6142910053447797e-06   7.747034599739556e-06
-1.457400394376939e-05   2.6142910053447797e-06   7.747034599739556e-06
-1.457400394376939e-05   2.6142910053447797e-06   7.747034599739556e-06
-1.457400394376939e-05   2.6142910053447797e-06   7.747034599739556e-06
-1.8184445235630347e-05   4.75701248060182e-06   7.099316179876437e-06
-1.8184445235630347e-05   4.75701248060182e-06   7.099316179876437e-06
-1.8184445235630347e-05   4.75701248060182e-06   7.099316179876437e-06
-1.8184445235630347e-05   4.75701248060182e-06   7.099316179876437e-06
-2.6911696006126377e-05   4.281575570490108e-06   -7.731363917017314e-06
-2.6911696006126377e-05   4.281575570490108e-06   -7.731363917017314e-06
-2.6911696006126377e-05   4.281575570490108e-06   -7.731363917017314e-06
-2.6911696006126377e-05   4.281575570490108e-06   -7.731363917017314e-06
-2.760345849539863e-05   4.855112358424004e-06   9.891753842956093e-06
-2.760345849539863e-05   4.855112358424004e-06   9.891753842956093e-06
-2.760345849539863e-05   4.855112358424004e-06   9.891753842956093e-06
-2.760345849539863e-05   4.855112358424004e-06   9.891753842956093e-06
-1.862346823130578e-05   4.33225530312891e-06   -4.7611823640216335e-06
-1.862346823130578e-05   4.33225530312891e-06   -4.7611823640216335e-06
-1.862346823130578e-05   4.33225530312891e-06   -4.7611823640216335e-06
-1.862346823130578e-05   4.33225530312891e-06   -4.7611823640216335e-06
-2.1955703752200127e-05   4.526849046205877e-06   6.757872582894046e-07
-2.1955703752200127e-05   4.526849046205877e-06   6.757872582894046e-07
-2.1955703752200127e-05   4.526849046205877e-06   6.757872582894046e-07
-2.1955703752200127e-05   4.526849046205877e-06   6.757872582894046e-07
-1.862346823130574e-05   4.8551123584238956e-06   1.0205468076133085e-05
-1.862346823130574e-05   4.8551123584238956e-06   1.0205468076133085e-05
-1.862346823130574e-05   4.8551123584238956e-06   1.0205468076133085e-05
-1.862346823130574e-05   4.8551123584238956e-06   1.0205468076133085e-05
-2.7603458495398725e-05   4.33225530312891e-06   -5.07489659719876e-06
-2.7603458495398725e-05   4.33225530312891e-06   -5.07489659719876e-06
-2.7603458495398725e-05   4.33225530312891e-06   -5.07489659719876e-06
-2.7603458495398725e-05   4.33225530312891e-06   -5.07489659719876e-06
-2.8277546111132567e-05   4.822381427274885e-06   1.205023663425472e-05
-2.8277546111132567e-05   4.822381427274885e-06   1.205023663425472e-05
-2.8277546111132567e-05   4.822381427274885e-06   1.205023663425472e-05
-2.8277546111132567e-05   4.822381427274885e-06   1.205023663425472e-05
-1.9109115413856053e-05   4.286050138960413e-06   -2.90868242155078e-06
-1.9109115413856053e-05   4.286050138960413e-06   -2.90868242155078e-06
-1.9109115413856053e-05   4.286050138960413e-06   -2.90868242155078e-06
-1.9109115413856053e-05   4.286050138960413e-06   -2.90868242155078e-06
-2.2815282013581437e-05   4.611539697846161e-06   3.072968175993763e-06
-2.2815282013581437e-05   4.611539697846161e-06   3.072968175993763e-06
-2.2815282013581437e-05   4.611539697846161e-06   3.072968175993763e-06
-2.2815282013581437e-05   4.611539697846161e-06   3.072968175993763e-06
-1.9109115413856053e-05   4.822381427274885e-06   1.237203540724362e-05
-1.9109115413856053e-05   4.822381427274885e-06   1.237203540724362e-05
-1.9109115413856053e-05   4.822381427274885e-06   1.237203540724362e-05
-1.9109115413856053e-05   4.822381427274885e-06   1.237203540724362e-05
-2.8277546111132648e-05   4.286050138960413e-06   -3.2304811945395176e-06
-2.8277546111132648e-05   4.286050138960413e-06   -3.2304811945395176e-06
-2.8277546111132648e-05   4.286050138960413e-06   -3.2304811945395176e-06
-2.8277546111132648e-05   4.286050138960413e-06   -3.2304811945395176e-06
-2.9063407641608338e-05   4.446169617593697e-06   1.573938390821096e-05
-2.9063407641608338e-05   4.446169617593697e-06   1.573938390821096e-05
-2.9063407641608338e-05   4.446169617593697e-06   1.573938390821096e-05
-2.9063407641608338e-05   4.446169617593697e-06   1.573938390821096e-05
-1.957140326324557e-05   3.959313658523519e-06   2.114901863818435e-07
-1.957140326324557e-05   3.959313658523519e-06   2.114901863818435e-07
-1.957140326324557e-05   3.959313658523519e-06   2.114901863818435e-07
-1.957140326324557e-05   3.959313658523519e-06   2.114901863818435e-07
-2.3019226340976565e-05   4.476412643364142e-06   5.647602591696033e-06
-2.3019226340976565e-05   4.476412643364142e-06   5.647602591696033e-06
-2.3019226340976565e-05   4.476412643364142e-06   5.647602591696033e-06
-2.3019226340976565e-05   4.476412643364142e-06   5.647602591696033e-06
1.5640961476628107e-05   -2.1093314767385574e-06   1.3165083616376505e-05
1.5640961476628107e-05   -2.1093314767385574e-06   1.3165083616376505e-05
1.5640961476628107e-05   -2.1093314767385574e-06   1.3165083616376505e-05
1.5640961476628107e-05   -2.1093314767385574e-06   1.3165083616376505e-05
7.351966688413536e-06   -1.4097253803182705e-06   -2.3014403946236724e-07
7.351966688413536e-06   -1.4097253803182705e-06   -2.3014403946236724e-07
7.351966688413536e-06   -1.4097253803182705e-06   -2.3014403946236724e-07
7.351966688413536e-06   -1.4097253803182705e-06   -2.3014403946236724e-07
7.014894031526597e-06   -2.441860224090906e-06   1.1554113893631822e-05
7.014894031526597e-06   -2.441860224090906e-06   1.1554113893631822e-05
7.014894031526597e-06   -2.441860224090906e-06   1.1554113893631822e-05
7.014894031526597e-06   -2.441860224090906e-06   1.1554113893631822e-05
1.4987916412341381e-05   -1.7052874789158469e-06   -2.176200388164457e-06
1.4987916412341381e-05   -1.7052874789158469e-06   -2.176200388164457e-06
1.4987916412341381e-05   -1.7052874789158469e-06   -2.176200388164457e-06
1.4987916412341381e-05   -1.7052874789158469e-06   -2.176200388164457e-06
1.0720237585480304e-05   -1.9300423732655173e-06   5.071450593213911e-06
1.0720237585480304e-05   -1.9300423732655173e-06   5.071450593213911e-06
1.0720237585480304e-05   -1.9300423732655173e-06   5.071450593213911e-06
1.0720237585480304e-05   -1.9300423732655173e-06   5.071450593213911e-06
1.4987916412341381e-05   -2.441860224090906e-06   1.1112170246526916e-05
1.4987916412341381e-05   -2.441860224090906e-06   1.1112170246526916e-05
1.4987916412341381e-05   -2.441860224090906e-06   1.1112170246526916e-05
1.4987916412341381e-05   -2.441860224090906e-06   1.1112170246526916e-05
7.01489403152661e-06   -1.7052874789158469e-06   -1.7342567410594907e-06
7.01489403152661e-06   -1.7052874789158469e-06   -1.7342567410594907e-06
7.01489403152661e-06   -1.7052874789158469e-06   -1.7342567410594907e-06
7.01489403152661e-06   -1.7052874789158469e-06   -1.7342567410594907e-06
6.641995887402193e-06   -2.507655243434389e-06   1.0423137246218911e-05
6.641995887402193e-06   -2.507655243434389e-06   1.0423137246218911e-05
6.641995887402193e-06   -2.507655243434389e-06   1.0423137246218911e-05
6.641995887402193e-06   -2.507655243434389e-06   1.0423137246218911e-05
1.4414509730679215e-05   -1.7833920719357828e-06   -2.9656103954752835e-06
1.4414509730679215e-05   -1.7833920719357828e-06   -2.9656103954752835e-06
1.4414509730679215e-05   -1.7833920719357828e-06   -2.9656103954752835e-06
1.4414509730679215e-05   -1.7833920719357828e-06   -2.9656103954752835e-06
1.0455490588340575e-05   -2.0504364519878006e-06   3.7929814697871362e-06
1.0455490588340575e-05   -2.0504364519878006e-06   3.7929814697871362e-06
1.0455490588340575e-05   -2.0504364519878006e-06   3.7929814697871362e-06
1.0455490588340575e-05   -2.0504364519878006e-06   3.7929814697871362e-06
1.441450973067919e-05   -2.507655243434389e-06   9.988579343319791e-06
1.441450973067919e-05   -2.507655243434389e-06   9.988579343319791e-06
1.441450973067919e-05   -2.507655243434389e-06   9.988579343319791e-06
1.441450973067919e-05   -2.507655243434389e-06   9.988579343319791e-06
6.6419958874022035e-06   -1.7833920719357828e-06   -2.531052492576102e-06
6.6419958874022035e-06   -1.7833920719357828e-06   -2.531052492576102e-06
6.6419958874022035e-06   -1.7833920719357828e-06   -2.531052492576102e-06
6.6419958874022035e-06   -1.7833920719357828e-06   -2.531052492576102e-06
6.297194114716977e-06   -2.5291112211026697e-06   8.883403483930514e-06
6.297194114716977e-06   -2.5291112211026697e-06   8.883403483930514e-06
6.297194114716977e-06   -2.5291112211026697e-06   8.883403483930514e-06
6.297194114716977e-06   -2.5291112211026697e-06   8.883403483930514e-06
1.3772264402339957e-05   -1.8524210734316513e-06   -3.981061084043776e-06
1.3772264402339957e-05   -1.8524210734316513e-06   -3.981061084043776e-06
1.3772264402339957e-05   -1.8524210734316513e-06   -3.981061084043776e-06
1.3772264402339957e-05   -1.8524210734316513e-06   -3.981061084043776e-06
9.85088891613732e-06   -2.036688096868078e-06   2.665124940356132e-06
9.85088891613732e-06   -2.036688096868078e-06   2.665124940356132e-06
9.85088891613732e-06   -2.036688096868078e-06   2.665124940356132e-06
9.85088891613732e-06   -2.036688096868078e-06   2.665124940356132e-06
7.3519666884135125e-06   -4.054786882107947e-07   1.486867855086645e-05
7.3519666884135125e-06   -4.054786882107947e-07   1.486867855086645e-05
7.3519666884135125e-06   -4.054786882107947e-07   1.486867855086645e-05
7.3519666884135125e-06   -4.054786882107947e-07   1.486867855086645e-05
-4.872439463619416e-07   -1.5489763222401552e-08   2.0373208479004747e-06
-4.872439463619416e-07   -1.5489763222401552e-08   2.0373208479004747e-06
-4.872439463619416e-07   -1.5489763222401552e-08   2.0373208479004747e-06
-4.872439463619416e-07   -1.5489763222401552e-08   2.0373208479004747e-06
-8.046157216872398e-07   -6.399811477383367e-07   1.4891126047587898e-05
-8.046157216872398e-07   -6.399811477383367e-07   1.4891126047587898e-05
-8.046157216872398e-07   -6.399811477383367e-07   1.4891126047587898e-05
-8.046157216872398e-07   -6.399811477383367e-07   1.4891126047587898e-05
7.01489403152661e-06   -2.7108011829441586e-07   1.6372691745651156e-06
7.01489403152661e-06   -2.7108011829441586e-07   1.6372691745651156e-06
7.01489403152661e-06   -2.7108011829441586e-07   1.6372691745651156e-06
7.01489403152661e-06   -2.7108011829441586e-07   1.6372691745651156e-06
3.215537392661604e-06   -3.4252897431375114e-07   8.012399552951574e-06
3.215537392661604e-06   -3.4252897431375114e-07   8.012399552951574e-06
3.215537392661604e-06   -3.4252897431375114e-07   8.012399552951574e-06
3.215537392661604e-06   -3.4252897431375114e-07   8.012399552951574e-06
7.01489403152659e-06   -6.399811477383367e-07   1.4669785429921437e-05
7.01489403152659e-06   -6.399811477383367e-07   1.4669785429921437e-05
7.01489403152659e-06   -6.399811477383367e-07   1.4669785429921437e-05
7.01489403152659e-06   -6.399811477383367e-07   1.4669785429921437e-05
-8.046157216872398e-07   -2.7108011829441586e-07   1.858609792231502e-06
-8.046157216872398e-07   -2.7108011829441586e-07   1.858609792231502e-06
-8.046157216872398e-07   -2.7108011829441586e-07   1.858609792231502e-06
-8.046157216872398e-07   -2.7108011829441586e-07   1.858609792231502e-06
-1.1289347558686156e-06   -8.125512001778317e-07   1.4659451875307446e-05
-1.1289347558686156e-06   -8.125512001778317e-07   1.4659451875307446e-05
-1.1289347558686156e-06   -8.125512001778317e-07   1.4659451875307446e-05
-1.1289347558686156e-06   -8.125512001778317e-07   1.4659451875307446e-05
6.6419958874022035e-06   -4.711218628166477e-07   1.5030432007725684e-06
6.6419958874022035e-06   -4.711218628166477e-07   1.5030432007725684e-06
6.6419958874022035e-06   -4.711218628166477e-07   1.5030432007725684e-06
6.6419958874022035e-06   -4.711218628166477e-07   1.5030432007725684e-06
2.858249723412466e-06   -4.995165960900664e-07   7.826323647386807e-06
2.858249723412466e-06   -4.995165960900664e-07   7.826323647386807e-06
2.858249723412466e-06   -4.995165960900664e-07   7.826323647386807e-06
2.858249723412466e-06   -4.995165960900664e-07   7.826323647386807e-06
6.641995887402193e-06   -8.125512001779401e-07   1.445459427289067e-05
6.641995887402193e-06   -8.125512001779401e-07   1.445459427289067e-05
6.641995887402193e-06   -8.125512001779401e-07   1.445459427289067e-05
6.641995887402193e-06   -8.125512001779401e-07   1.445459427289067e-05
-1.1289347558686156e-06   -4.711218628166477e-07   1.7079008031894083e-06
-1.1289347558686156e-06   -4.711218628166477e-07   1.7079008031894083e-06
-1.1289347558686156e-06   -4.711218628166477e-07   1.7079008031894083e-06
-1.1289347558686156e-06   -4.711218628166477e-07   1.7079008031894083e-06
-1.455132555172546e-06   -9.467236406958011e-07   1.4753669975145186e-05
-1.455132555172546e-06   -9.467236406958011e-07   1.4753669975145186e-05
-1.455132555172546e-06   -9.467236406958011e-07   1.4753669975145186e-05
-1.455132555172546e-06   -9.467236406958011e-07   1.4753669975145186e-05
6.297194114716984e-06   -6.546218829882452e-07   1.6578644707046297e-06
6.297194114716984e-06   -6.546218829882452e-07   1.6578644707046297e-06
6.297194114716984e-06   -6.546218829882452e-07   1.6578644707046297e-06
6.297194114716984e-06   -6.546218829882452e-07   1.6578644707046297e-06
2.587533182529541e-06   -6.140229919319442e-07   7.81627335638357e-06
2.587533182529541e-06   -6.140229919319442e-07   7.81627335638357e-06
2.587533182529541e-06   -6.140229919319442e-07   7.81627335638357e-06
2.587533182529541e-06   -6.140229919319442e-07   7.81627335638357e-06
-4.872439463619416e-07   1.3003306104591257e-06   1.5723356624990754e-05
-4.872439463619416e-07   1.3003306104591257e-06   1.5723356624990754e-05
-4.872439463619416e-07   1.3003306104591257e-06   1.5723356624990754e-05
-4.872439463619416e-07   1.3003306104591257e-06   1.5723356624990754e-05
-8.161791974847267e-06   1.3416284708866327e-06   2.957221960438465e-06
-8.161791974847267e-06   1.3416284708866327e-06   2.957221960438465e-06
-8.161791974847267e-06   1.3416284708866327e-06   2.957221960438465e-06
-8.161791974847267e-06   1.3416284708866327e-06   2.957221960438465e-06
-8.481352667995124e-06   1.1070762591973904e-06   1.5675926202745618e-05
-8.481352667995124e-06   1.1070762591973904e-06   1.5675926202745618e-05
-8.481352667995124e-06   1.1070762591973904e-06   1.5675926202745618e-05
-8.481352667995124e-06   1.1070762591973904e-06   1.5675926202745618e-05
-8.046157216872466e-07   1.1186430194077245e-06   2.8744245694396233e-06
-8.046157216872466e-07   1.1186430194077245e-06   2.8744245694396233e-06
-8.046157216872466e-07   1.1186430194077245e-06   2.8744245694396233e-06
-8.046157216872466e-07   1.1186430194077245e-06   2.8744245694396233e-06
-4.4952837839099625e-06   1.1946932961001515e-06   8.979907840462009e-06
-4.4952837839099625e-06   1.1946932961001515e-06   8.979907840462009e-06
-4.4952837839099625e-06   1.1946932961001515e-06   8.979907840462009e-06
-4.4952837839099625e-06   1.1946932961001515e-06   8.979907840462009e-06
-8.046157216872466e-07   1.1070762591973904e-06   1.5668986146619482e-05
-8.046157216872466e-07   1.1070762591973904e-06   1.5668986146619482e-05
-8.046157216872466e-07   1.1070762591973904e-06   1.5668986146619482e-05
-8.046157216872466e-07   1.1070762591973904e-06   1.5668986146619482e-05
-8.481352667995124e-06   1.1186430194077245e-06   2.8813646255657858e-06
-8.481352667995124e-06   1.1186430194077245e-06   2.8813646255657858e-06
-8.481352667995124e-06   1.1186430194077245e-06   2.8813646255657858e-06
-8.481352667995124e-06   1.1186430194077245e-06   2.8813646255657858e-06
-8.808632125863563e-06   9.195115234410592e-07   1.5757868976416572e-05
-8.808632125863563e-06   9.195115234410592e-07   1.5757868976416572e-05
-8.808632125863563e-06   9.195115234410592e-07   1.5757868976416572e-05
-8.808632125863563e-06   9.195115234410592e-07   1.5757868976416572e-05
-1.1289347558686156e-06   8.992712302285499e-07   2.97051753568608e-06
-1.1289347558686156e-06   8.992712302285499e-07   2.97051753568608e-06
-1.1289347558686156e-06   8.992712302285499e-07   2.97051753568608e-06
-1.1289347558686156e-06   8.992712302285499e-07   2.97051753568608e-06
-4.791543484790377e-06   1.045472807858919e-06   8.987144470644256e-06
-4.791543484790377e-06   1.045472807858919e-06   8.987144470644256e-06
-4.791543484790377e-06   1.045472807858919e-06   8.987144470644256e-06
-4.791543484790377e-06   1.045472807858919e-06   8.987144470644256e-06
-1.1289347558686156e-06   9.195115234410592e-07   1.577001315234425e-05
-1.1289347558686156e-06   9.195115234410592e-07   1.577001315234425e-05
-1.1289347558686156e-06   9.195115234410592e-07   1.577001315234425e-05
-1.1289347558686156e-06   9.195115234410592e-07   1.577001315234425e-05
-8.808632125863563e-06   8.992712302285499e-07   2.958373359758374e-06
-8.808632125863563e-06   8.992712302285499e-07   2.958373359758374e-06
-8.808632125863563e-06   8.992712302285499e-07   2.958373359758374e-06
-8.808632125863563e-06   8.992712302285499e-07   2.958373359758374e-06
-9.135542458289632e-06   7.526747480323184e-07   1.5948082955541962e-05
-9.135542458289632e-06   7.526747480323184e-07   1.5948082955541962e-05
-9.135542458289632e-06   7.526747480323184e-07   1.5948082955541962e-05
-9.135542458289632e-06   7.526747480323184e-07   1.5948082955541962e-05
-1.4551325551725528e-06   6.912291008448869e-07   3.1842671719925936e-06
-1.4551325551725528e-06   6.912291008448869e-07   3.1842671719925936e-06
-1.4551325551725528e-06   6.912291008448869e-07   3.1842671719925936e-06
-1.4551325551725528e-06   6.912291008448869e-07   3.1842671719925936e-06
-5.101921363162656e-06   9.002700719672532e-07   9.13682393596972e-06
-5.101921363162656e-06   9.002700719672532e-07   9.13682393596972e-06
-5.101921363162656e-06   9.002700719672532e-07   9.13682393596972e-06
-5.101921363162656e-06   9.002700719672532e-07   9.13682393596972e-06
-8.161791974847253e-06   2.9624401637346875e-06   1.3854635271083452e-05
-8.161791974847253e-06   2.9624401637346875e-06   1.3854635271083452e-05
-8.161791974847253e-06   2.9624401637346875e-06   1.3854635271083452e-05
-8.161791974847253e-06   2.9624401637346875e-06   1.3854635271083452e-05
-1.5680431578517307e-05   2.649897890122355e-06   1.1360439007993884e-06
-1.5680431578517307e-05   2.649897890122355e-06   1.1360439007993884e-06
-1.5680431578517307e-05   2.649897890122355e-06   1.1360439007993884e-06
-1.5680431578517307e-05   2.649897890122355e-06   1.1360439007993884e-06
-1.6024692308633402e-05   2.7795698651150117e-06   1.3768879160092214e-05
-1.6024692308633402e-05   2.7795698651150117e-06   1.3768879160092214e-05
-1.6024692308633402e-05   2.7795698651150117e-06   1.3768879160092214e-05
-1.6024692308633402e-05   2.7795698651150117e-06   1.3768879160092214e-05
-8.481352667995138e-06   2.437725701178611e-06   1.401752924057e-06
-8.481352667995138e-06   2.437725701178611e-06   1.401752924057e-06
-8.481352667995138e-06   2.437725701178611e-06   1.401752924057e-06
-8.481352667995138e-06   2.437725701178611e-06   1.401752924057e-06
-1.2046759760710074e-05   2.6704238635146807e-06   7.204479181180135e-06
-1.2046759760710074e-05   2.6704238635146807e-06   7.204479181180135e-06
-1.2046759760710074e-05   2.6704238635146807e-06   7.204479181180135e-06
-1.2046759760710074e-05   2.6704238635146807e-06   7.204479181180135e-06
-8.481352667995124e-06   2.7795698651150117e-06   1.3973985658454076e-05
-8.481352667995124e-06   2.7795698651150117e-06   1.3973985658454076e-05
-8.481352667995124e-06   2.7795698651150117e-06   1.3973985658454076e-05
-8.481352667995124e-06   2.7795698651150117e-06   1.3973985658454076e-05
-1.6024692308633402e-05   2.437725701178611e-06   1.1966464256950565e-06
-1.6024692308633402e-05   2.437725701178611e-06   1.1966464256950565e-06
-1.6024692308633402e-05   2.437725701178611e-06   1.1966464256950565e-06
-1.6024692308633402e-05   2.437725701178611e-06   1.1966464256950565e-06
-1.640301920833429e-05   2.6095448913279013e-06   1.4286712854812904e-05
-1.640301920833429e-05   2.6095448913279013e-06   1.4286712854812904e-05
-1.640301920833429e-05   2.6095448913279013e-06   1.4286712854812904e-05
-1.640301920833429e-05   2.6095448913279013e-06   1.4286712854812904e-05
-8.808632125863577e-06   2.238744920256882e-06   1.8518810333376546e-06
-8.808632125863577e-06   2.238744920256882e-06   1.8518810333376546e-06
-8.808632125863577e-06   2.238744920256882e-06   1.8518810333376546e-06
-8.808632125863577e-06   2.238744920256882e-06   1.8518810333376546e-06
-1.2291126177580545e-05   2.535552929120474e-06   7.477952980881528e-06
-1.2291126177580545e-05   2.535552929120474e-06   7.477952980881528e-06
-1.2291126177580545e-05   2.535552929120474e-06   7.477952980881528e-06
-1.2291126177580545e-05   2.535552929120474e-06   7.477952980881528e-06
-8.808632125863577e-06   2.6095448913280098e-06   1.4509192837455537e-05
-8.808632125863577e-06   2.6095448913280098e-06   1.4509192837455537e-05
-8.808632125863577e-06   2.6095448913280098e-06   1.4509192837455537e-05
-8.808632125863577e-06   2.6095448913280098e-06   1.4509192837455537e-05
-1.640301920833429e-05   2.238744920256882e-06   1.6294010506950484e-06
-1.640301920833429e-05   2.238744920256882e-06   1.6294010506950484e-06
-1.640301920833429e-05   2.238744920256882e-06   1.6294010506950484e-06
-1.640301920833429e-05   2.238744920256882e-06   1.6294010506950484e-06
-1.6748173934057054e-05   2.4005989154957065e-06   1.4670823435180658e-05
-1.6748173934057054e-05   2.4005989154957065e-06   1.4670823435180658e-05
-1.6748173934057054e-05   2.4005989154957065e-06   1.4670823435180658e-05
-1.6748173934057054e-05   2.4005989154957065e-06   1.4670823435180658e-05
-9.135542458289645e-06   2.0058460014017645e-06   2.219956057358146e-06
-9.135542458289645e-06   2.0058460014017645e-06   2.219956057358146e-06
-9.135542458289645e-06   2.0058460014017645e-06   2.219956057358146e-06
-9.135542458289645e-06   2.0058460014017645e-06   2.219956057358146e-06
-1.268560527592687e-05   2.381992529201706e-06   7.91103950340753e-06
-1.268560527592687e-05   2.381992529201706e-06   7.91103950340753e-06
-1.268560527592687e-05   2.381992529201706e-06   7.91103950340753e-06
-1.268560527592687e-05   2.381992529201706e-06   7.91103950340753e-06
-1.5680431578517307e-05   4.281575570490108e-06   6.7216224510221545e-06
-1.5680431578517307e-05   4.281575570490108e-06   6.7216224510221545e-06
-1.5680431578517307e-05   4.281575570490108e-06   6.7216224510221545e-06
-1.5680431578517307e-05   4.281575570490108e-06   6.7216224510221545e-06
-2.2851404665736387e-05   3.668880627497864e-06   -5.597616326805002e-06
-2.2851404665736387e-05   3.668880627497864e-06   -5.597616326805002e-06
-2.2851404665736387e-05   3.668880627497864e-06   -5.597616326805002e-06
-2.2851404665736387e-05   3.668880627497864e-06   -5.597616326805002e-06
-2.3471639443570474e-05   4.33225530312891e-06   8.968659282614327e-06
-2.3471639443570474e-05   4.33225530312891e-06   8.968659282614327e-06
-2.3471639443570474e-05   4.33225530312891e-06   8.968659282614327e-06
-2.3471639443570474e-05   4.33225530312891e-06   8.968659282614327e-06
-1.6024692308633402e-05   3.6555013477906255e-06   -3.0368669024113362e-06
-1.6024692308633402e-05   3.6555013477906255e-06   -3.0368669024113362e-06
-1.6024692308633402e-05   3.6555013477906255e-06   -3.0368669024113362e-06
-1.6024692308633402e-05   3.6555013477906255e-06   -3.0368669024113362e-06
-1.876415714452798e-05   3.924228445036418e-06   1.367671565732253e-06
-1.876415714452798e-05   3.924228445036418e-06   1.367671565732253e-06
-1.876415714452798e-05   3.924228445036418e-06   1.367671565732253e-06
-1.876415714452798e-05   3.924228445036418e-06   1.367671565732253e-06
-1.602469230863339e-05   4.3322553031290185e-06   9.374711655817211e-06
-1.602469230863339e-05   4.3322553031290185e-06   9.374711655817211e-06
-1.602469230863339e-05   4.3322553031290185e-06   9.374711655817211e-06
-1.602469230863339e-05   4.3322553031290185e-06   9.374711655817211e-06
-2.3471639443570528e-05   3.6555013477906255e-06   -3.4429192756143287e-06
-2.3471639443570528e-05   3.6555013477906255e-06   -3.4429192756143287e-06
-2.3471639443570528e-05   3.6555013477906255e-06   -3.4429192756143287e-06
-2.3471639443570528e-05   3.6555013477906255e-06   -3.4429192756143287e-06
-2.4025540135480533e-05   4.286050138960305e-06   1.0770328615640999e-05
-2.4025540135480533e-05   4.286050138960305e-06   1.0770328615640999e-05
-2.4025540135480533e-05   4.286050138960305e-06   1.0770328615640999e-05
-2.4025540135480533e-05   4.286050138960305e-06   1.0770328615640999e-05
-1.640301920833429e-05   3.582660133789233e-06   -1.5118389265002285e-06
-1.640301920833429e-05   3.582660133789233e-06   -1.5118389265002285e-06
-1.640301920833429e-05   3.582660133789233e-06   -1.5118389265002285e-06
-1.640301920833429e-05   3.582660133789233e-06   -1.5118389265002285e-06
-1.9484111281011043e-05   3.969375351326344e-06   3.3912853974395088e-06
-1.9484111281011043e-05   3.969375351326344e-06   3.3912853974395088e-06
-1.9484111281011043e-05   3.969375351326344e-06   3.3912853974395088e-06
-1.9484111281011043e-05   3.969375351326344e-06   3.3912853974395088e-06
-1.640301920833429e-05   4.286050138960305e-06   1.1192362618743664e-05
-1.640301920833429e-05   4.286050138960305e-06   1.1192362618743664e-05
-1.640301920833429e-05   4.286050138960305e-06   1.1192362618743664e-05
-1.640301920833429e-05   4.286050138960305e-06   1.1192362618743664e-05
-2.402554013548056e-05   3.582660133789233e-06   -1.933872929602812e-06
-2.402554013548056e-05   3.582660133789233e-06   -1.933872929602812e-06
-2.402554013548056e-05   3.582660133789233e-06   -1.933872929602812e-06
-2.402554013548056e-05   3.582660133789233e-06   -1.933872929602812e-06
-2.46606315229855e-05   3.95931365852341e-06   1.3863480799029848e-05
-2.46606315229855e-05   3.95931365852341e-06   1.3863480799029848e-05
-2.46606315229855e-05   3.95931365852341e-06   1.3863480799029848e-05
-2.46606315229855e-05   3.95931365852341e-06   1.3863480799029848e-05
-1.6748173934057054e-05   3.2573785907259343e-06   1.0972125248275499e-06
-1.6748173934057054e-05   3.2573785907259343e-06   1.0972125248275499e-06
-1.6748173934057054e-05   3.2573785907259343e-06   1.0972125248275499e-06
-1.6748173934057054e-05   3.2573785907259343e-06   1.0972125248275499e-06
-1.9626577019447446e-05   3.834034976168315e-06   5.548557169213133e-06
-1.9626577019447446e-05   3.834034976168315e-06   5.548557169213133e-06
-1.9626577019447446e-05   3.834034976168315e-06   5.548557169213133e-06
-1.9626577019447446e-05   3.834034976168315e-06   5.548557169213133e-06
1.089699485230214e-05   -1.409725380318379e-06   1.0799861460328286e-05
1.089699485230214e-05   -1.409725380318379e-06   1.0799861460328286e-05
1.089699485230214e-05   -1.409725380318379e-06   1.0799861460328286e-05
1.089699485230214e-05   -1.409725380318379e-06   1.0799861460328286e-05
4.529173031690715e-06   -7.10311965576322e-07   6.064731414877952e-07
4.529173031690715e-06   -7.10311965576322e-07   6.064731414877952e-07
4.529173031690715e-06   -7.10311965576322e-07   6.064731414877952e-07
4.529173031690715e-06   -7.10311965576322e-07   6.064731414877952e-07
4.256539559857913e-06   -1.7052874789158469e-06   9.69603567345541e-06
4.256539559857913e-06   -1.7052874789158469e-06   9.69603567345541e-06
4.256539559857913e-06   -1.7052874789158469e-06   9.69603567345541e-06
4.256539559857913e-06   -1.7052874789158469e-06   9.69603567345541e-06
1.0314695379385587e-05   -9.765732409501224e-07   -8.38119235203526e-07
1.0314695379385587e-05   -9.765732409501224e-07   -8.38119235203526e-07
1.0314695379385587e-05   -9.765732409501224e-07   -8.38119235203526e-07
1.0314695379385587e-05   -9.765732409501224e-07   -8.38119235203526e-07
7.12706324118288e-06   -1.2281835717409609e-06   4.6255671936090465e-06
7.12706324118288e-06   -1.2281835717409609e-06   4.6255671936090465e-06
7.12706324118288e-06   -1.2281835717409609e-06   4.6255671936090465e-06
7.12706324118288e-06   -1.2281835717409609e-06   4.6255671936090465e-06
1.0314695379385604e-05   -1.7052874789159553e-06   9.258807130675933e-06
1.0314695379385604e-05   -1.7052874789159553e-06   9.258807130675933e-06
1.0314695379385604e-05   -1.7052874789159553e-06   9.258807130675933e-06
1.0314695379385604e-05   -1.7052874789159553e-06   9.258807130675933e-06
4.256539559857899e-06   -9.765732409501224e-07   -4.0089069242406827e-07
4.256539559857899e-06   -9.765732409501224e-07   -4.0089069242406827e-07
4.256539559857899e-06   -9.765732409501224e-07   -4.0089069242406827e-07
4.256539559857899e-06   -9.765732409501224e-07   -4.0089069242406827e-07
3.949365211118389e-06   -1.7833920719357828e-06   8.878199890764835e-06
3.949365211118389e-06   -1.7833920719357828e-06   8.878199890764835e-06
3.949365211118389e-06   -1.7833920719357828e-06   8.878199890764835e-06
3.949365211118389e-06   -1.7833920719357828e-06   8.878199890764835e-06
9.813839048374456e-06   -1.0672231855632331e-06   -1.3256245031521247e-06
9.813839048374456e-06   -1.0672231855632331e-06   -1.3256245031521247e-06
9.813839048374456e-06   -1.0672231855632331e-06   -1.3256245031521247e-06
9.813839048374456e-06   -1.0672231855632331e-06   -1.3256245031521247e-06
6.872819002489679e-06   -1.341481106567101e-06   3.7406303259250964e-06
6.872819002489679e-06   -1.341481106567101e-06   3.7406303259250964e-06
6.872819002489679e-06   -1.341481106567101e-06   3.7406303259250964e-06
6.872819002489679e-06   -1.341481106567101e-06   3.7406303259250964e-06
9.813839048374473e-06   -1.7833920719357828e-06   8.448498558941294e-06
9.813839048374473e-06   -1.7833920719357828e-06   8.448498558941294e-06
9.813839048374473e-06   -1.7833920719357828e-06   8.448498558941294e-06
9.813839048374473e-06   -1.7833920719357828e-06   8.448498558941294e-06
3.949365211118382e-06   -1.0672231855632331e-06   -8.959231713286044e-07
3.949365211118382e-06   -1.0672231855632331e-06   -8.959231713286044e-07
3.949365211118382e-06   -1.0672231855632331e-06   -8.959231713286044e-07
3.949365211118382e-06   -1.0672231855632331e-06   -8.959231713286044e-07
3.673606127868273e-06   -1.8524210734316513e-06   7.808762546394129e-06
3.673606127868273e-06   -1.8524210734316513e-06   7.808762546394129e-06
3.673606127868273e-06   -1.8524210734316513e-06   7.808762546394129e-06
3.673606127868273e-06   -1.8524210734316513e-06   7.808762546394129e-06
9.244075892114328e-06   -1.1838088907484149e-06   -1.8765210369592176e-06
9.244075892114328e-06   -1.1838088907484149e-06   -1.8765210369592176e-06
9.244075892114328e-06   -1.1838088907484149e-06   -1.8765210369592176e-06
9.244075892114328e-06   -1.1838088907484149e-06   -1.8765210369592176e-06
6.387481359387627e-06   -1.3614609477681982e-06   2.9910610851305102e-06
6.387481359387627e-06   -1.3614609477681982e-06   2.9910610851305102e-06
6.387481359387627e-06   -1.3614609477681982e-06   2.9910610851305102e-06
6.387481359387627e-06   -1.3614609477681982e-06   2.9910610851305102e-06
4.529173031690733e-06   -1.5489763222401552e-08   1.325298104154325e-05
4.529173031690733e-06   -1.5489763222401552e-08   1.325298104154325e-05
4.529173031690733e-06   -1.5489763222401552e-08   1.325298104154325e-05
4.529173031690733e-06   -1.5489763222401552e-08   1.325298104154325e-05
-1.4373382444600422e-06   3.4236274981550106e-07   3.523507089114744e-06
-1.4373382444600422e-06   3.4236274981550106e-07   3.523507089114744e-06
-1.4373382444600422e-06   3.4236274981550106e-07   3.523507089114744e-06
-1.4373382444600422e-06   3.4236274981550106e-07   3.523507089114744e-06
-1.6882729762042914e-06   -2.7108011829441586e-07   1.3274969250250015e-05
-1.6882729762042914e-06   -2.7108011829441586e-07   1.3274969250250015e-05
-1.6882729762042914e-06   -2.7108011829441586e-07   1.3274969250250015e-05
-1.6882729762042914e-06   -2.7108011829441586e-07   1.3274969250250015e-05
4.256539559857899e-06   7.459931698912924e-08   3.15954069564292e-06
4.256539559857899e-06   7.459931698912924e-08   3.15954069564292e-06
4.256539559857899e-06   7.459931698912924e-08   3.15954069564292e-06
4.256539559857899e-06   7.459931698912924e-08   3.15954069564292e-06
1.3721623778224965e-06   9.17092738859579e-09   8.006093032795895e-06
1.3721623778224965e-06   9.17092738859579e-09   8.006093032795895e-06
1.3721623778224965e-06   9.17092738859579e-09   8.006093032795895e-06
1.3721623778224965e-06   9.17092738859579e-09   8.006093032795895e-06
4.2565395598579096e-06   -2.7108011829430744e-07   1.3067561589079888e-05
4.2565395598579096e-06   -2.7108011829430744e-07   1.3067561589079888e-05
4.2565395598579096e-06   -2.7108011829430744e-07   1.3067561589079888e-05
4.2565395598579096e-06   -2.7108011829430744e-07   1.3067561589079888e-05
-1.6882729762042914e-06   7.459931698912924e-08   3.366948356813037e-06
-1.6882729762042914e-06   7.459931698912924e-08   3.366948356813037e-06
-1.6882729762042914e-06   7.459931698912924e-08   3.366948356813037e-06
-1.6882729762042914e-06   7.459931698912924e-08   3.366948356813037e-06
-1.9450527785646837e-06   -4.711218628166477e-07   1.3109073772547288e-05
-1.9450527785646837e-06   -4.711218628166477e-07   1.3109073772547288e-05
-1.9450527785646837e-06   -4.711218628166477e-07   1.3109073772547288e-05
-1.9450527785646837e-06   -4.711218628166477e-07   1.3109073772547288e-05
3.949365211118382e-06   -1.4315821542727931e-07   3.088265601308557e-06
3.949365211118382e-06   -1.4315821542727931e-07   3.088265601308557e-06
3.949365211118382e-06   -1.4315821542727931e-07   3.088265601308557e-06
3.949365211118382e-06   -1.4315821542727931e-07   3.088265601308557e-06
1.095303031201604e-06   -1.6861761698494168e-07   7.860311542104935e-06
1.095303031201604e-06   -1.6861761698494168e-07   7.860311542104935e-06
1.095303031201604e-06   -1.6861761698494168e-07   7.860311542104935e-06
1.095303031201604e-06   -1.6861761698494168e-07   7.860311542104935e-06
3.949365211118396e-06   -4.711218628166477e-07   1.2912295584113624e-05
3.949365211118396e-06   -4.711218628166477e-07   1.2912295584113624e-05
3.949365211118396e-06   -4.711218628166477e-07   1.2912295584113624e-05
3.949365211118396e-06   -4.711218628166477e-07   1.2912295584113624e-05
-1.9450527785646837e-06   -1.431582154271709e-07   3.285043789742184e-06
-1.9450527785646837e-06   -1.431582154271709e-07   3.285043789742184e-06
-1.9450527785646837e-06   -1.431582154271709e-07   3.285043789742184e-06
-1.9450527785646837e-06   -1.431582154271709e-07   3.285043789742184e-06
-2.1998404507340155e-06   -6.546218829882452e-07   1.3220821611930169e-05
-2.1998404507340155e-06   -6.546218829882452e-07   1.3220821611930169e-05
-2.1998404507340155e-06   -6.546218829882452e-07   1.3220821611930169e-05
-2.1998404507340155e-06   -6.546218829882452e-07   1.3220821611930169e-05
3.6736061278682576e-06   -3.560425506711788e-07   3.2525963815361476e-06
3.6736061278682576e-06   -3.560425506711788e-07   3.2525963815361476e-06
3.6736061278682576e-06   -3.560425506711788e-07   3.2525963815361476e-06
3.6736061278682576e-06   -3.560425506711788e-07   3.2525963815361476e-06
8.781658832975452e-07   -3.152210250145608e-07   7.887170540426711e-06
8.781658832975452e-07   -3.152210250145608e-07   7.887170540426711e-06
8.781658832975452e-07   -3.152210250145608e-07   7.887170540426711e-06
8.781658832975452e-07   -3.152210250145608e-07   7.887170540426711e-06
-1.4373382444600355e-06   1.3416284708866327e-06   1.4362814945647446e-05
-1.4373382444600355e-06   1.3416284708866327e-06   1.4362814945647446e-05
-1.4373382444600355e-06   1.3416284708866327e-06   1.4362814945647446e-05
-1.4373382444600355e-06   1.3416284708866327e-06   1.4362814945647446e-05
-7.302173363675268e-06   1.3248599548046618e-06   4.578028637306267e-06
-7.302173363675268e-06   1.3248599548046618e-06   4.578028637306267e-06
-7.302173363675268e-06   1.3248599548046618e-06   4.578028637306267e-06
-7.302173363675268e-06   1.3248599548046618e-06   4.578028637306267e-06
-7.550214657194384e-06   1.1186430194077245e-06   1.4269423636590565e-05
-7.550214657194384e-06   1.1186430194077245e-06   1.4269423636590565e-05
-7.550214657194384e-06   1.1186430194077245e-06   1.4269423636590565e-05
-7.550214657194384e-06   1.1186430194077245e-06   1.4269423636590565e-05
-1.6882729762042847e-06   1.0830423679617082e-06   4.520881225808014e-06
-1.6882729762042847e-06   1.0830423679617082e-06   4.520881225808014e-06
-1.6882729762042847e-06   1.0830423679617082e-06   4.520881225808014e-06
-1.6882729762042847e-06   1.0830423679617082e-06   4.520881225808014e-06
-4.505856386469919e-06   1.1858650310520068e-06   9.155159978396771e-06
-4.505856386469919e-06   1.1858650310520068e-06   9.155159978396771e-06
-4.505856386469919e-06   1.1858650310520068e-06   9.155159978396771e-06
-4.505856386469919e-06   1.1858650310520068e-06   9.155159978396771e-06
-1.6882729762042914e-06   1.1186430194077245e-06   1.4290784027458164e-05
-1.6882729762042914e-06   1.1186430194077245e-06   1.4290784027458164e-05
-1.6882729762042914e-06   1.1186430194077245e-06   1.4290784027458164e-05
-1.6882729762042914e-06   1.1186430194077245e-06   1.4290784027458164e-05
-7.550214657194384e-06   1.0830423679615998e-06   4.499520834940428e-06
-7.550214657194384e-06   1.0830423679615998e-06   4.499520834940428e-06
-7.550214657194384e-06   1.0830423679615998e-06   4.499520834940428e-06
-7.550214657194384e-06   1.0830423679615998e-06   4.499520834940428e-06
-7.804030401987333e-06   8.992712302285499e-07   1.4338555384226588e-05
-7.804030401987333e-06   8.992712302285499e-07   1.4338555384226588e-05
-7.804030401987333e-06   8.992712302285499e-07   1.4338555384226588e-05
-7.804030401987333e-06   8.992712302285499e-07   1.4338555384226588e-05
-1.945052778564677e-06   8.440460288662186e-07   4.606727799339488e-06
-1.945052778564677e-06   8.440460288662186e-07   4.606727799339488e-06
-1.945052778564677e-06   8.440460288662186e-07   4.606727799339488e-06
-1.945052778564677e-06   8.440460288662186e-07   4.606727799339488e-06
-4.7325514619543124e-06   1.0109881800657349e-06   9.152393647602751e-06
-4.7325514619543124e-06   1.0109881800657349e-06   9.152393647602751e-06
-4.7325514619543124e-06   1.0109881800657349e-06   9.152393647602751e-06
-4.7325514619543124e-06   1.0109881800657349e-06   9.152393647602751e-06
-1.9450527785646837e-06   8.992712302285499e-07   1.437169050504377e-05
-1.9450527785646837e-06   8.992712302285499e-07   1.437169050504377e-05
-1.9450527785646837e-06   8.992712302285499e-07   1.437169050504377e-05
-1.9450527785646837e-06   8.992712302285499e-07   1.437169050504377e-05
-7.804030401987333e-06   8.440460288661102e-07   4.573592678522157e-06
-7.804030401987333e-06   8.440460288661102e-07   4.573592678522157e-06
-7.804030401987333e-06   8.440460288661102e-07   4.573592678522157e-06
-7.804030401987333e-06   8.440460288661102e-07   4.573592678522157e-06
-8.054700573789045e-06   6.912291008448869e-07   1.452572927646814e-05
-8.054700573789045e-06   6.912291008448869e-07   1.452572927646814e-05
-8.054700573789045e-06   6.912291008448869e-07   1.452572927646814e-05
-8.054700573789045e-06   6.912291008448869e-07   1.452572927646814e-05
-2.1998404507340088e-06   6.141724639691223e-07   4.81386305350183e-06
-2.1998404507340088e-06   6.141724639691223e-07   4.81386305350183e-06
-2.1998404507340088e-06   6.141724639691223e-07   4.81386305350183e-06
-2.1998404507340088e-06   6.141724639691223e-07   4.81386305350183e-06
-4.969915698821452e-06   8.403908712919291e-07   9.29492408925398e-06
-4.969915698821452e-06   8.403908712919291e-07   9.29492408925398e-06
-4.969915698821452e-06   8.403908712919291e-07   9.29492408925398e-06
-4.969915698821452e-06   8.403908712919291e-07   9.29492408925398e-06
-7.302173363675268e-06   2.649897890122355e-06   1.2719101140526575e-05
-7.302173363675268e-06   2.649897890122355e-06   1.2719101140526575e-05
-7.302173363675268e-06   2.649897890122355e-06   1.2719101140526575e-05
-7.302173363675268e-06   2.649897890122355e-06   1.2719101140526575e-05
-1.3078366577042903e-05   2.281819720897308e-06   2.871265550045488e-06
-1.3078366577042903e-05   2.281819720897308e-06   2.871265550045488e-06
-1.3078366577042903e-05   2.281819720897308e-06   2.871265550045488e-06
-1.3078366577042903e-05   2.281819720897308e-06   2.871265550045488e-06
-1.334499623832812e-05   2.437725701178611e-06   1.255515676983792e-05
-1.334499623832812e-05   2.437725701178611e-06   1.255515676983792e-05
-1.334499623832812e-05   2.437725701178611e-06   1.255515676983792e-05
-1.334499623832812e-05   2.437725701178611e-06   1.255515676983792e-05
-7.550214657194357e-06   2.046633759105539e-06   3.1318426331921386e-06
-7.550214657194357e-06   2.046633759105539e-06   3.1318426331921386e-06
-7.550214657194357e-06   2.046633759105539e-06   3.1318426331921386e-06
-7.550214657194357e-06   2.046633759105539e-06   3.1318426331921386e-06
-1.0289452438455539e-05   2.312379368559869e-06   7.537791569621867e-06
-1.0289452438455539e-05   2.312379368559869e-06   7.537791569621867e-06
-1.0289452438455539e-05   2.312379368559869e-06   7.537791569621867e-06
-1.0289452438455539e-05   2.312379368559869e-06   7.537791569621867e-06
-7.550214657194384e-06   2.4377257011785024e-06   1.2789811935081806e-05
-7.550214657194384e-06   2.4377257011785024e-06   1.2789811935081806e-05
-7.550214657194384e-06   2.4377257011785024e-06   1.2789811935081806e-05
-7.550214657194384e-06   2.4377257011785024e-06   1.2789811935081806e-05
-1.3344996238328093e-05   2.046633759105539e-06   2.8971874679483605e-06
-1.3344996238328093e-05   2.046633759105539e-06   2.8971874679483605e-06
-1.3344996238328093e-05   2.046633759105539e-06   2.8971874679483605e-06
-1.3344996238328093e-05   2.046633759105539e-06   2.8971874679483605e-06
-1.3644551777735407e-05   2.238744920256882e-06   1.2985562254416824e-05
-1.3644551777735407e-05   2.238744920256882e-06   1.2985562254416824e-05
-1.3644551777735407e-05   2.238744920256882e-06   1.2985562254416824e-05
-1.3644551777735407e-05   2.238744920256882e-06   1.2985562254416824e-05
-7.804030401987306e-06   1.8279102479421602e-06   3.4978607648923166e-06
-7.804030401987306e-06   1.8279102479421602e-06   3.4978607648923166e-06
-7.804030401987306e-06   1.8279102479421602e-06   3.4978607648923166e-06
-7.804030401987306e-06   1.8279102479421602e-06   3.4978607648923166e-06
-1.0471847177796951e-05   2.1526493555309913e-06   7.749378593355433e-06
-1.0471847177796951e-05   2.1526493555309913e-06   7.749378593355433e-06
-1.0471847177796951e-05   2.1526493555309913e-06   7.749378593355433e-06
-1.0471847177796951e-05   2.1526493555309913e-06   7.749378593355433e-06
-7.80403040198732e-06   2.238744920256882e-06   1.3232063057805679e-05
-7.80403040198732e-06   2.238744920256882e-06   1.3232063057805679e-05
-7.80403040198732e-06   2.238744920256882e-06   1.3232063057805679e-05
-7.80403040198732e-06   2.238744920256882e-06   1.3232063057805679e-05
-1.364455177773538e-05   1.8279102479421602e-06   3.251359961503489e-06
-1.364455177773538e-05   1.8279102479421602e-06   3.251359961503489e-06
-1.364455177773538e-05   1.8279102479421602e-06   3.251359961503489e-06
-1.364455177773538e-05   1.8279102479421602e-06   3.251359961503489e-06
-1.3910059274658147e-05   2.0058460014017645e-06   1.3344166503689078e-05
-1.3910059274658147e-05   2.0058460014017645e-06   1.3344166503689078e-05
-1.3910059274658147e-05   2.0058460014017645e-06   1.3344166503689078e-05
-1.3910059274658147e-05   2.0058460014017645e-06   1.3344166503689078e-05
-8.054700573789018e-06   1.582314257306673e-06   3.839354382031019e-06
-8.054700573789018e-06   1.582314257306673e-06   3.839354382031019e-06
-8.054700573789018e-06   1.582314257306673e-06   3.839354382031019e-06
-8.054700573789018e-06   1.582314257306673e-06   3.839354382031019e-06
-1.0773369280937636e-05   1.983282895218208e-06   8.12988771119866e-06
-1.0773369280937636e-05   1.983282895218208e-06   8.12988771119866e-06
-1.0773369280937636e-05   1.983282895218208e-06   8.12988771119866e-06
-1.0773369280937636e-05   1.983282895218208e-06   8.12988771119866e-06
-1.3078366577042903e-05   3.668880627497864e-06   6.1322109771825574e-06
-1.3078366577042903e-05   3.668880627497864e-06   6.1322109771825574e-06
-1.3078366577042903e-05   3.668880627497864e-06   6.1322109771825574e-06
-1.3078366577042903e-05   3.668880627497864e-06   6.1322109771825574e-06
-1.8523798692438574e-05   3.0092234035286386e-06   -3.339303549525159e-06
-1.8523798692438574e-05   3.0092234035286386e-06   -3.339303549525159e-06
-1.8523798692438574e-05   3.0092234035286386e-06   -3.339303549525159e-06
-1.8523798692438574e-05   3.0092234035286386e-06   -3.339303549525159e-06
-1.908340616745089e-05   3.655501347790734e-06   7.89029820434824e-06
-1.908340616745089e-05   3.655501347790734e-06   7.89029820434824e-06
-1.908340616745089e-05   3.655501347790734e-06   7.89029820434824e-06
-1.908340616745089e-05   3.655501347790734e-06   7.89029820434824e-06
-1.3344996238328079e-05   2.9365926188187506e-06   -1.2423731068064768e-06
-1.3344996238328079e-05   2.9365926188187506e-06   -1.2423731068064768e-06
-1.3344996238328079e-05   2.9365926188187506e-06   -1.2423731068064768e-06
-1.3344996238328079e-05   2.9365926188187506e-06   -1.2423731068064768e-06
-1.5406995029590008e-05   3.2553432806803253e-06   2.0030411481800655e-06
-1.5406995029590008e-05   3.2553432806803253e-06   2.0030411481800655e-06
-1.5406995029590008e-05   3.2553432806803253e-06   2.0030411481800655e-06
-1.5406995029590008e-05   3.2553432806803253e-06   2.0030411481800655e-06
-1.3344996238328106e-05   3.655501347790734e-06   8.321643441731527e-06
-1.3344996238328106e-05   3.655501347790734e-06   8.321643441731527e-06
-1.3344996238328106e-05   3.655501347790734e-06   8.321643441731527e-06
-1.3344996238328106e-05   3.655501347790734e-06   8.321643441731527e-06
-1.9083406167450916e-05   2.9365926188187506e-06   -1.673718344189683e-06
-1.9083406167450916e-05   2.9365926188187506e-06   -1.673718344189683e-06
-1.9083406167450916e-05   2.9365926188187506e-06   -1.673718344189683e-06
-1.9083406167450916e-05   2.9365926188187506e-06   -1.673718344189683e-06
-1.9570241757810986e-05   3.5826601337891244e-06   9.400899503324268e-06
-1.9570241757810986e-05   3.5826601337891244e-06   9.400899503324268e-06
-1.9570241757810986e-05   3.5826601337891244e-06   9.400899503324268e-06
-1.9570241757810986e-05   3.5826601337891244e-06   9.400899503324268e-06
-1.3644551777735353e-05   2.843622177293721e-06   -3.182768957104274e-08
-1.3644551777735353e-05   2.843622177293721e-06   -3.182768957104274e-08
-1.3644551777735353e-05   2.843622177293721e-06   -3.182768957104274e-08
-1.3644551777735353e-05   2.843622177293721e-06   -3.182768957104274e-08
-1.6004400953128214e-05   3.2595217783917916e-06   3.65171450875866e-06
-1.6004400953128214e-05   3.2595217783917916e-06   3.65171450875866e-06
-1.6004400953128214e-05   3.2595217783917916e-06   3.65171450875866e-06
-1.6004400953128214e-05   3.2595217783917916e-06   3.65171450875866e-06
-1.3644551777735407e-05   3.582660133789233e-06   9.844322277221629e-06
-1.3644551777735407e-05   3.582660133789233e-06   9.844322277221629e-06
-1.3644551777735407e-05   3.582660133789233e-06   9.844322277221629e-06
-1.3644551777735407e-05   3.582660133789233e-06   9.844322277221629e-06
-1.9570241757810986e-05   2.843622177293721e-06   -4.752504634683227e-07
-1.9570241757810986e-05   2.843622177293721e-06   -4.752504634683227e-07
-1.9570241757810986e-05   2.843622177293721e-06   -4.752504634683227e-07
-1.9570241757810986e-05   2.843622177293721e-06   -4.752504634683227e-07
-2.0133738283295994e-05   3.257378590725826e-06   1.2020868595127529e-05
-2.0133738283295994e-05   3.257378590725826e-06   1.2020868595127529e-05
-2.0133738283295994e-05   3.257378590725826e-06   1.2020868595127529e-05
-2.0133738283295994e-05   3.257378590725826e-06   1.2020868595127529e-05
-1.3910059274658092e-05   2.528368383246881e-06   2.0854763718851127e-06
-1.3910059274658092e-05   2.528368383246881e-06   2.0854763718851127e-06
-1.3910059274658092e-05   2.528368383246881e-06   2.0854763718851127e-06
-1.3910059274658092e-05   2.528368383246881e-06   2.0854763718851127e-06
-1.6128865015194346e-05   3.1219190290642483e-06   5.42735555195508e-06
-1.6128865015194346e-05   3.1219190290642483e-06   5.42735555195508e-06
-1.6128865015194346e-05   3.1219190290642483e-06   5.42735555195508e-06
-1.6128865015194346e-05   3.1219190290642483e-06   5.42735555195508e-06
6.180734356135544e-06   -7.10311965576322e-07   8.570806575992256e-06
6.180734356135544e-06   -7.10311965576322e-07   8.570806575992256e-06
6.180734356135544e-06   -7.10311965576322e-07   8.570806575992256e-06
6.180734356135544e-06   -7.10311965576322e-07   8.570806575992256e-06
1.6662918264937654e-06   -1.2415076545697727e-08   1.46547382667443e-06
1.6662918264937654e-06   -1.2415076545697727e-08   1.46547382667443e-06
1.6662918264937654e-06   -1.2415076545697727e-08   1.46547382667443e-06
1.6662918264937654e-06   -1.2415076545697727e-08   1.46547382667443e-06
1.4602993833125554e-06   -9.765732409501224e-07   7.973865973175804e-06
1.4602993833125554e-06   -9.765732409501224e-07   7.973865973175804e-06
1.4602993833125554e-06   -9.765732409501224e-07   7.973865973175804e-06
1.4602993833125554e-06   -9.765732409501224e-07   7.973865973175804e-06
5.670080759363269e-06   -2.522503281090008e-07   5.229699320534288e-07
5.670080759363269e-06   -2.522503281090008e-07   5.229699320534288e-07
5.670080759363269e-06   -2.522503281090008e-07   5.229699320534288e-07
5.670080759363269e-06   -2.522503281090008e-07   5.229699320534288e-07
3.5256459053687708e-06   -5.218070935116698e-07   4.258762081286083e-06
3.5256459053687708e-06   -5.218070935116698e-07   4.258762081286083e-06
3.5256459053687708e-06   -5.218070935116698e-07   4.258762081286083e-06
3.5256459053687708e-06   -5.218070935116698e-07   4.258762081286083e-06
5.670080759363283e-06   -9.76573240950014e-07   7.539272225471261e-06
5.670080759363283e-06   -9.76573240950014e-07   7.539272225471261e-06
5.670080759363283e-06   -9.76573240950014e-07   7.539272225471261e-06
5.670080759363283e-06   -9.76573240950014e-07   7.539272225471261e-06
1.460299383312552e-06   -2.522503281090008e-07   9.575636797580327e-07
1.460299383312552e-06   -2.522503281090008e-07   9.575636797580327e-07
1.460299383312552e-06   -2.522503281090008e-07   9.575636797580327e-07
1.460299383312552e-06   -2.522503281090008e-07   9.575636797580327e-07
1.2193314141392075e-06   -1.0672231855632331e-06   7.47235125786352e-06
1.2193314141392075e-06   -1.0672231855632331e-06   7.47235125786352e-06
1.2193314141392075e-06   -1.0672231855632331e-06   7.47235125786352e-06
1.2193314141392075e-06   -1.0672231855632331e-06   7.47235125786352e-06
5.236679386034974e-06   -3.5422579839434944e-07   3.489728724026577e-07
5.236679386034974e-06   -3.5422579839434944e-07   3.489728724026577e-07
5.236679386034974e-06   -3.5422579839434944e-07   3.489728724026577e-07
5.236679386034974e-06   -3.5422579839434944e-07   3.489728724026577e-07
3.282335785124733e-06   -6.26637070633867e-07   3.769658970596715e-06
3.282335785124733e-06   -6.26637070633867e-07   3.769658970596715e-06
3.282335785124733e-06   -6.26637070633867e-07   3.769658970596715e-06
3.282335785124733e-06   -6.26637070633867e-07   3.769658970596715e-06
5.236679386034984e-06   -1.0672231855632331e-06   7.044552825562233e-06
5.236679386034984e-06   -1.0672231855632331e-06   7.044552825562233e-06
5.236679386034984e-06   -1.0672231855632331e-06   7.044552825562233e-06
5.236679386034984e-06   -1.0672231855632331e-06   7.044552825562233e-06
1.2193314141392024e-06   -3.5422579839434944e-07   7.76771304703992e-07
1.2193314141392024e-06   -3.5422579839434944e-07   7.76771304703992e-07
1.2193314141392024e-06   -3.5422579839434944e-07   7.76771304703992e-07
1.2193314141392024e-06   -3.5422579839434944e-07   7.76771304703992e-07
1.0100841682940712e-06   -1.1838088907484149e-06   6.883987846114867e-06
1.0100841682940712e-06   -1.1838088907484149e-06   6.883987846114867e-06
1.0100841682940712e-06   -1.1838088907484149e-06   6.883987846114867e-06
1.0100841682940712e-06   -1.1838088907484149e-06   6.883987846114867e-06
4.727679189100344e-06   -5.213796882895614e-07   2.90538623295839e-07
4.727679189100344e-06   -5.213796882895614e-07   2.90538623295839e-07
4.727679189100344e-06   -5.213796882895614e-07   2.90538623295839e-07
4.727679189100344e-06   -5.213796882895614e-07   2.90538623295839e-07
2.9141425849357877e-06   -6.781002092820032e-07   3.40713194283226e-06
2.9141425849357877e-06   -6.781002092820032e-07   3.40713194283226e-06
2.9141425849357877e-06   -6.781002092820032e-07   3.40713194283226e-06
2.9141425849357877e-06   -6.781002092820032e-07   3.40713194283226e-06
1.6662918264937688e-06   3.4236274981550106e-07   1.1691867149214881e-05
1.6662918264937688e-06   3.4236274981550106e-07   1.1691867149214881e-05
1.6662918264937688e-06   3.4236274981550106e-07   1.1691867149214881e-05
1.6662918264937688e-06   3.4236274981550106e-07   1.1691867149214881e-05
-2.4381146346658e-06   6.613034742675248e-07   5.042554148620136e-06
-2.4381146346658e-06   6.613034742675248e-07   5.042554148620136e-06
-2.4381146346658e-06   6.613034742675248e-07   5.042554148620136e-06
-2.4381146346658e-06   6.613034742675248e-07   5.042554148620136e-06
-2.619565226975423e-06   7.459931698912924e-08   1.1724854103522077e-05
-2.619565226975423e-06   7.459931698912924e-08   1.1724854103522077e-05
-2.619565226975423e-06   7.459931698912924e-08   1.1724854103522077e-05
-2.619565226975423e-06   7.459931698912924e-08   1.1724854103522077e-05
1.460299383312552e-06   3.9219388745458626e-07   4.734523010762915e-06
1.460299383312552e-06   3.9219388745458626e-07   4.734523010762915e-06
1.460299383312552e-06   3.9219388745458626e-07   4.734523010762915e-06
1.460299383312552e-06   3.9219388745458626e-07   4.734523010762915e-06
-5.14074980117266e-07   3.3996538387128395e-07   8.056484051962974e-06
-5.14074980117266e-07   3.3996538387128395e-07   8.056484051962974e-06
-5.14074980117266e-07   3.3996538387128395e-07   8.056484051962974e-06
-5.14074980117266e-07   3.3996538387128395e-07   8.056484051962974e-06
1.4602993833125537e-06   7.459931698902082e-08   1.1534297361242782e-05
1.4602993833125537e-06   7.459931698902082e-08   1.1534297361242782e-05
1.4602993833125537e-06   7.459931698902082e-08   1.1534297361242782e-05
1.4602993833125537e-06   7.459931698902082e-08   1.1534297361242782e-05
-2.619565226975423e-06   3.9219388745458626e-07   4.9250797530422485e-06
-2.619565226975423e-06   3.9219388745458626e-07   4.9250797530422485e-06
-2.619565226975423e-06   3.9219388745458626e-07   4.9250797530422485e-06
-2.619565226975423e-06   3.9219388745458626e-07   4.9250797530422485e-06
-2.806520685487734e-06   -1.4315821542727931e-07   1.164175706340763e-05
-2.806520685487734e-06   -1.4315821542727931e-07   1.164175706340763e-05
-2.806520685487734e-06   -1.4315821542727931e-07   1.164175706340763e-05
-2.806520685487734e-06   -1.4315821542727931e-07   1.164175706340763e-05
1.2193314141392024e-06   1.6553683941753373e-07   4.746786531122538e-06
1.2193314141392024e-06   1.6553683941753373e-07   4.746786531122538e-06
1.2193314141392024e-06   1.6553683941753373e-07   4.746786531122538e-06
1.2193314141392024e-06   1.6553683941753373e-07   4.746786531122538e-06
-7.08353737343034e-07   1.5316776440568985e-07   7.967016561933601e-06
-7.08353737343034e-07   1.5316776440568985e-07   7.967016561933601e-06
-7.08353737343034e-07   1.5316776440568985e-07   7.967016561933601e-06
-7.08353737343034e-07   1.5316776440568985e-07   7.967016561933601e-06
1.2193314141392075e-06   -1.4315821542727931e-07   1.1456540030500698e-05
1.2193314141392075e-06   -1.4315821542727931e-07   1.1456540030500698e-05
1.2193314141392075e-06   -1.4315821542727931e-07   1.1456540030500698e-05
1.2193314141392075e-06   -1.4315821542727931e-07   1.1456540030500698e-05
-2.8065206854877407e-06   1.6553683941753373e-07   4.932003564029469e-06
-2.8065206854877407e-06   1.6553683941753373e-07   4.932003564029469e-06
-2.8065206854877407e-06   1.6553683941753373e-07   4.932003564029469e-06
-2.8065206854877407e-06   1.6553683941753373e-07   4.932003564029469e-06
-2.990922528273523e-06   -3.560425506711788e-07   1.1786947248563888e-05
-2.990922528273523e-06   -3.560425506711788e-07   1.1786947248563888e-05
-2.990922528273523e-06   -3.560425506711788e-07   1.1786947248563888e-05
-2.990922528273523e-06   -3.560425506711788e-07   1.1786947248563888e-05
1.0100841682940695e-06   -6.436039473188462e-08   4.943593460721029e-06
1.0100841682940695e-06   -6.436039473188462e-08   4.943593460721029e-06
1.0100841682940695e-06   -6.436039473188462e-08   4.943593460721029e-06
1.0100841682940695e-06   -6.436039473188462e-08   4.943593460721029e-06
-8.719063484214131e-07   -1.2842169790040422e-08   8.049333386948599e-06
-8.719063484214131e-07   -1.2842169790040422e-08   8.049333386948599e-06
-8.719063484214131e-07   -1.2842169790040422e-08   8.049333386948599e-06
-8.719063484214131e-07   -1.2842169790040422e-08   8.049333386948599e-06
-2.4381146346658e-06   1.3248599548046618e-06   1.2947814241726747e-05
-2.4381146346658e-06   1.3248599548046618e-06   1.2947814241726747e-05
-2.4381146346658e-06   1.3248599548046618e-06   1.2947814241726747e-05
-2.4381146346658e-06   1.3248599548046618e-06   1.2947814241726747e-05
-6.467438616952198e-06   1.2534060888457063e-06   6.1894019516739625e-06
-6.467438616952198e-06   1.2534060888457063e-06   6.1894019516739625e-06
-6.467438616952198e-06   1.2534060888457063e-06   6.1894019516739625e-06
-6.467438616952198e-06   1.2534060888457063e-06   6.1894019516739625e-06
-6.641976607656255e-06   1.0830423679617082e-06   1.2833010982887143e-05
-6.641976607656255e-06   1.0830423679617082e-06   1.2833010982887143e-05
-6.641976607656255e-06   1.0830423679617082e-06   1.2833010982887143e-05
-6.641976607656255e-06   1.0830423679617082e-06   1.2833010982887143e-05
-2.619565226975416e-06   1.0067490519117617e-06   6.174768004715825e-06
-2.619565226975416e-06   1.0067490519117617e-06   6.174768004715825e-06
-2.619565226975416e-06   1.0067490519117617e-06   6.174768004715825e-06
-2.619565226975416e-06   1.0067490519117617e-06   6.174768004715825e-06
-4.55067883769116e-06   1.137818491601223e-06   9.314649025428764e-06
-4.55067883769116e-06   1.137818491601223e-06   9.314649025428764e-06
-4.55067883769116e-06   1.137818491601223e-06   9.314649025428764e-06
-4.55067883769116e-06   1.137818491601223e-06   9.314649025428764e-06
-2.619565226975423e-06   1.0830423679617082e-06   1.2878786972517122e-05
-2.619565226975423e-06   1.0830423679617082e-06   1.2878786972517122e-05
-2.619565226975423e-06   1.0830423679617082e-06   1.2878786972517122e-05
-2.619565226975423e-06   1.0830423679617082e-06   1.2878786972517122e-05
-6.641976607656242e-06   1.0067490519117617e-06   6.1289920150858735e-06
-6.641976607656242e-06   1.0067490519117617e-06   6.1289920150858735e-06
-6.641976607656242e-06   1.0067490519117617e-06   6.1289920150858735e-06
-6.641976607656242e-06   1.0067490519117617e-06   6.1289920150858735e-06
-6.822067951291373e-06   8.440460288662186e-07   1.2913851954271104e-05
-6.822067951291373e-06   8.440460288662186e-07   1.2913851954271104e-05
-6.822067951291373e-06   8.440460288662186e-07   1.2913851954271104e-05
-6.822067951291373e-06   8.440460288662186e-07   1.2913851954271104e-05
-2.806520685487727e-06   7.613974976431468e-07   6.270862296665555e-06
-2.806520685487727e-06   7.613974976431468e-07   6.270862296665555e-06
-2.806520685487727e-06   7.613974976431468e-07   6.270862296665555e-06
-2.806520685487727e-06   7.613974976431468e-07   6.270862296665555e-06
-4.705734333208177e-06   9.508698611944639e-07   9.322534958068867e-06
-4.705734333208177e-06   9.508698611944639e-07   9.322534958068867e-06
-4.705734333208177e-06   9.508698611944639e-07   9.322534958068867e-06
-4.705734333208177e-06   9.508698611944639e-07   9.322534958068867e-06
-2.8065206854877407e-06   8.440460288662186e-07   1.2963441073004893e-05
-2.8065206854877407e-06   8.440460288662186e-07   1.2963441073004893e-05
-2.8065206854877407e-06   8.440460288662186e-07   1.2963441073004893e-05
-2.8065206854877407e-06   8.440460288662186e-07   1.2963441073004893e-05
-6.82206795129136e-06   7.613974976431468e-07   6.221273177931739e-06
-6.82206795129136e-06   7.613974976431468e-07   6.221273177931739e-06
-6.82206795129136e-06   7.613974976431468e-07   6.221273177931739e-06
-6.82206795129136e-06   7.613974976431468e-07   6.221273177931739e-06
-6.9992312038563855e-06   6.141724639692307e-07   1.3116668484399428e-05
-6.9992312038563855e-06   6.141724639692307e-07   1.3116668484399428e-05
-6.9992312038563855e-06   6.141724639692307e-07   1.3116668484399428e-05
-6.9992312038563855e-06   6.141724639692307e-07   1.3116668484399428e-05
-2.9909225282735163e-06   5.268427360692303e-07   6.488551861834777e-06
-2.9909225282735163e-06   5.268427360692303e-07   6.488551861834777e-06
-2.9909225282735163e-06   5.268427360692303e-07   6.488551861834777e-06
-2.9909225282735163e-06   5.268427360692303e-07   6.488551861834777e-06
-4.870856217132841e-06   7.678550683045066e-07   9.477167277259296e-06
-4.870856217132841e-06   7.678550683045066e-07   9.477167277259296e-06
-4.870856217132841e-06   7.678550683045066e-07   9.477167277259296e-06
-4.870856217132841e-06   7.678550683045066e-07   9.477167277259296e-06
-6.467438616952198e-06   2.281819720897308e-06   1.1419025736425666e-05
-6.467438616952198e-06   2.281819720897308e-06   1.1419025736425666e-05
-6.467438616952198e-06   2.281819720897308e-06   1.1419025736425666e-05
-6.467438616952198e-06   2.281819720897308e-06   1.1419025736425666e-05
-1.0431255948779487e-05   1.8717755462353824e-06   4.56663701191637e-06
-1.0431255948779487e-05   1.8717755462353824e-06   4.56663701191637e-06
-1.0431255948779487e-05   1.8717755462353824e-06   4.56663701191637e-06
-1.0431255948779487e-05   1.8717755462353824e-06   4.56663701191637e-06
-1.0621980716505475e-05   2.046633759105539e-06   1.1211562612007558e-05
-1.0621980716505475e-05   2.046633759105539e-06   1.1211562612007558e-05
-1.0621980716505475e-05   2.046633759105539e-06   1.1211562612007558e-05
-1.0621980716505475e-05   2.046633759105539e-06   1.1211562612007558e-05
-6.641976607656228e-06   1.6236834772198833e-06   4.831992599723615e-06
-6.641976607656228e-06   1.6236834772198833e-06   4.831992599723615e-06
-6.641976607656228e-06   1.6236834772198833e-06   4.831992599723615e-06
-6.641976607656228e-06   1.6236834772198833e-06   4.831992599723615e-06
-8.519871488065724e-06   1.922345862256057e-06   7.782619969384953e-06
-8.519871488065724e-06   1.922345862256057e-06   7.782619969384953e-06
-8.519871488065724e-06   1.922345862256057e-06   7.782619969384953e-06
-8.519871488065724e-06   1.922345862256057e-06   7.782619969384953e-06
-6.641976607656255e-06   2.046633759105539e-06   1.1465332781138962e-05
-6.641976607656255e-06   2.046633759105539e-06   1.1465332781138962e-05
-6.641976607656255e-06   2.046633759105539e-06   1.1465332781138962e-05
-6.641976607656255e-06   2.046633759105539e-06   1.1465332781138962e-05
-1.0621980716505447e-05   1.6236834772199917e-06   4.578222430592346e-06
-1.0621980716505447e-05   1.6236834772199917e-06   4.578222430592346e-06
-1.0621980716505447e-05   1.6236834772199917e-06   4.578222430592346e-06
-1.0621980716505447e-05   1.6236834772199917e-06   4.578222430592346e-06
-1.084727513380414e-05   1.8279102479421602e-06   1.157969016093237e-05
-1.084727513380414e-05   1.8279102479421602e-06   1.157969016093237e-05
-1.084727513380414e-05   1.8279102479421602e-06   1.157969016093237e-05
-1.084727513380414e-05   1.8279102479421602e-06   1.157969016093237e-05
-6.82206795129136e-06   1.3971937817604816e-06   5.129441403120175e-06
-6.82206795129136e-06   1.3971937817604816e-06   5.129441403120175e-06
-6.82206795129136e-06   1.3971937817604816e-06   5.129441403120175e-06
-6.82206795129136e-06   1.3971937817604816e-06   5.129441403120175e-06
-8.641959728369422e-06   1.7473860912384839e-06   7.952478979230012e-06
-8.641959728369422e-06   1.7473860912384839e-06   7.952478979230012e-06
-8.641959728369422e-06   1.7473860912384839e-06   7.952478979230012e-06
-8.641959728369422e-06   1.7473860912384839e-06   7.952478979230012e-06
-6.822067951291373e-06   1.8279102479421602e-06   1.183812004064129e-05
-6.822067951291373e-06   1.8279102479421602e-06   1.183812004064129e-05
-6.822067951291373e-06   1.8279102479421602e-06   1.183812004064129e-05
-6.822067951291373e-06   1.8279102479421602e-06   1.183812004064129e-05
-1.0847275133804086e-05   1.3971937817604816e-06   4.871011523411092e-06
-1.0847275133804086e-05   1.3971937817604816e-06   4.871011523411092e-06
-1.0847275133804086e-05   1.3971937817604816e-06   4.871011523411092e-06
-1.0847275133804086e-05   1.3971937817604816e-06   4.871011523411092e-06
-1.1039877078433712e-05   1.582314257306673e-06   1.193150569193664e-05
-1.1039877078433712e-05   1.582314257306673e-06   1.193150569193664e-05
-1.1039877078433712e-05   1.582314257306673e-06   1.193150569193664e-05
-1.1039877078433712e-05   1.582314257306673e-06   1.193150569193664e-05
-6.999231203856345e-06   1.1541674187776898e-06   5.453984004091849e-06
-6.999231203856345e-06   1.1541674187776898e-06   5.453984004091849e-06
-6.999231203856345e-06   1.1541674187776898e-06   5.453984004091849e-06
-6.999231203856345e-06   1.1541674187776898e-06   5.453984004091849e-06
-8.854715620037953e-06   1.5711089208582428e-06   8.296293129813313e-06
-8.854715620037953e-06   1.5711089208582428e-06   8.296293129813313e-06
-8.854715620037953e-06   1.5711089208582428e-06   8.296293129813313e-06
-8.854715620037953e-06   1.5711089208582428e-06   8.296293129813313e-06
-1.0431255948779514e-05   3.0092234035286386e-06   5.358224466439426e-06
-1.0431255948779514e-05   3.0092234035286386e-06   5.358224466439426e-06
-1.0431255948779514e-05   3.0092234035286386e-06   5.358224466439426e-06
-1.0431255948779514e-05   3.0092234035286386e-06   5.358224466439426e-06
-1.40358179969695e-05   2.318157768828018e-06   -1.0640183280309217e-06
-1.40358179969695e-05   2.318157768828018e-06   -1.0640183280309217e-06
-1.40358179969695e-05   2.318157768828018e-06   -1.0640183280309217e-06
-1.40358179969695e-05   2.318157768828018e-06   -1.0640183280309217e-06
-1.4526050596682744e-05   2.9365926188187506e-06   6.625557191667058e-06
-1.4526050596682744e-05   2.9365926188187506e-06   6.625557191667058e-06
-1.4526050596682744e-05   2.9365926188187506e-06   6.625557191667058e-06
-1.4526050596682744e-05   2.9365926188187506e-06   6.625557191667058e-06
-1.062198071650542e-05   2.192517876176115e-06   5.652189036238302e-07
-1.062198071650542e-05   2.192517876176115e-06   5.652189036238302e-07
-1.062198071650542e-05   2.192517876176115e-06   5.652189036238302e-07
-1.062198071650542e-05   2.192517876176115e-06   5.652189036238302e-07
-1.1951250836937777e-05   2.564011849438136e-06   2.5577727203878213e-06
-1.1951250836937777e-05   2.564011849438136e-06   2.5577727203878213e-06
-1.1951250836937777e-05   2.564011849438136e-06   2.5577727203878213e-06
-1.1951250836937777e-05   2.564011849438136e-06   2.5577727203878213e-06
-1.062198071650542e-05   2.9365926188187506e-06   7.072002037252639e-06
-1.062198071650542e-05   2.9365926188187506e-06   7.072002037252639e-06
-1.062198071650542e-05   2.9365926188187506e-06   7.072002037252639e-06
-1.062198071650542e-05   2.9365926188187506e-06   7.072002037252639e-06
-1.4526050596682798e-05   2.192517876176115e-06   1.1877405803831654e-07
-1.4526050596682798e-05   2.192517876176115e-06   1.1877405803831654e-07
-1.4526050596682798e-05   2.192517876176115e-06   1.1877405803831654e-07
-1.4526050596682798e-05   2.192517876176115e-06   1.1877405803831654e-07
-1.4946812044449751e-05   2.843622177293721e-06   7.841712583323045e-06
-1.4946812044449751e-05   2.843622177293721e-06   7.841712583323045e-06
-1.4946812044449751e-05   2.843622177293721e-06   7.841712583323045e-06
-1.4946812044449751e-05   2.843622177293721e-06   7.841712583323045e-06
-1.0847275133804086e-05   2.0856389664028778e-06   1.4639409921149806e-06
-1.0847275133804086e-05   2.0856389664028778e-06   1.4639409921149806e-06
-1.0847275133804086e-05   2.0856389664028778e-06   1.4639409921149806e-06
-1.0847275133804086e-05   2.0856389664028778e-06   1.4639409921149806e-06
-1.2424818361012651e-05   2.5327050212681137e-06   3.824940071210311e-06
-1.2424818361012651e-05   2.5327050212681137e-06   3.824940071210311e-06
-1.2424818361012651e-05   2.5327050212681137e-06   3.824940071210311e-06
-1.2424818361012651e-05   2.5327050212681137e-06   3.824940071210311e-06
-1.0847275133804113e-05   2.8436221772938294e-06   8.296502509857703e-06
-1.0847275133804113e-05   2.8436221772938294e-06   8.296502509857703e-06
-1.0847275133804113e-05   2.8436221772938294e-06   8.296502509857703e-06
-1.0847275133804113e-05   2.8436221772938294e-06   8.296502509857703e-06
-1.4946812044449779e-05   2.0856389664028778e-06   1.0091510655804448e-06
-1.4946812044449779e-05   2.0856389664028778e-06   1.0091510655804448e-06
-1.4946812044449779e-05   2.0856389664028778e-06   1.0091510655804448e-06
-1.4946812044449779e-05   2.0856389664028778e-06   1.0091510655804448e-06
-1.544892812001497e-05   2.5283683832469893e-06   9.989829283291196e-06
-1.544892812001497e-05   2.5283683832469893e-06   9.989829283291196e-06
-1.544892812001497e-05   2.5283683832469893e-06   9.989829283291196e-06
-1.544892812001497e-05   2.5283683832469893e-06   9.989829283291196e-06
-1.1039877078433658e-05   1.7918393083192529e-06   3.083328325612409e-06
-1.1039877078433658e-05   1.7918393083192529e-06   3.083328325612409e-06
-1.1039877078433658e-05   1.7918393083192529e-06   3.083328325612409e-06
-1.1039877078433658e-05   1.7918393083192529e-06   3.083328325612409e-06
-1.2536816125869322e-05   2.399085644131261e-06   5.213878936518191e-06
-1.2536816125869322e-05   2.399085644131261e-06   5.213878936518191e-06
-1.2536816125869322e-05   2.399085644131261e-06   5.213878936518191e-06
-1.2536816125869322e-05   2.399085644131261e-06   5.213878936518191e-06
1.4271790539450768e-06   -1.2415076545697727e-08   6.463007053773915e-06
1.4271790539450768e-06   -1.2415076545697727e-08   6.463007053773915e-06
1.4271790539450768e-06   -1.2415076545697727e-08   6.463007053773915e-06
1.4271790539450768e-06   -1.2415076545697727e-08   6.463007053773915e-06
-1.212541222923208e-06   6.623410470085202e-07   2.468326933125907e-06
-1.212541222923208e-06   6.623410470085202e-07   2.468326933125907e-06
-1.212541222923208e-06   6.623410470085202e-07   2.468326933125907e-06
-1.212541222923208e-06   6.623410470085202e-07   2.468326933125907e-06
-1.3613150481942394e-06   -2.522503281091092e-07   6.350651612403756e-06
-1.3613150481942394e-06   -2.522503281091092e-07   6.350651612403756e-06
-1.3613150481942394e-06   -2.522503281091092e-07   6.350651612403756e-06
-1.3613150481942394e-06   -2.522503281091092e-07   6.350651612403756e-06
9.767678444659938e-07   4.3840834058981454e-07   2.0394515900840922e-06
9.767678444659938e-07   4.3840834058981454e-07   2.0394515900840922e-06
9.767678444659938e-07   4.3840834058981454e-07   2.0394515900840922e-06
9.767678444659938e-07   4.3840834058981454e-07   2.0394515900840922e-06
-1.0960838468433624e-07   1.6998328419679963e-07   4.011133672503729e-06
-1.0960838468433624e-07   1.6998328419679963e-07   4.011133672503729e-06
-1.0960838468433624e-07   1.6998328419679963e-07   4.011133672503729e-06
-1.0960838468433624e-07   1.6998328419679963e-07   4.011133672503729e-06
9.767678444659938e-07   -2.522503281091092e-07   5.9362564111845e-06
9.767678444659938e-07   -2.522503281091092e-07   5.9362564111845e-06
9.767678444659938e-07   -2.522503281091092e-07   5.9362564111845e-06
9.767678444659938e-07   -2.522503281091092e-07   5.9362564111845e-06
-1.3613150481942394e-06   4.3840834058981454e-07   2.4538467913034438e-06
-1.3613150481942394e-06   4.3840834058981454e-07   2.4538467913034438e-06
-1.3613150481942394e-06   4.3840834058981454e-07   2.4538467913034438e-06
-1.3613150481942394e-06   4.3840834058981454e-07   2.4538467913034438e-06
-1.545582051723147e-06   -3.5422579839445786e-07   6.169293398395302e-06
-1.545582051723147e-06   -3.5422579839445786e-07   6.169293398395302e-06
-1.545582051723147e-06   -3.5422579839445786e-07   6.169293398395302e-06
-1.545582051723147e-06   -3.5422579839445786e-07   6.169293398395302e-06
5.846613821378855e-07   3.171713105093476e-07   2.2160494099512557e-06
5.846613821378855e-07   3.171713105093476e-07   2.2160494099512557e-06
5.846613821378855e-07   3.171713105093476e-07   2.2160494099512557e-06
5.846613821378855e-07   3.171713105093476e-07   2.2160494099512557e-06
-3.5056070317761174e-07   7.471942483787191e-08   3.920224016879973e-06
-3.5056070317761174e-07   7.471942483787191e-08   3.920224016879973e-06
-3.5056070317761174e-07   7.471942483787191e-08   3.920224016879973e-06
-3.5056070317761174e-07   7.471942483787191e-08   3.920224016879973e-06
5.846613821378855e-07   -3.5422579839445786e-07   5.7664551330529755e-06
5.846613821378855e-07   -3.5422579839445786e-07   5.7664551330529755e-06
5.846613821378855e-07   -3.5422579839445786e-07   5.7664551330529755e-06
5.846613821378855e-07   -3.5422579839445786e-07   5.7664551330529755e-06
-1.5455820517231437e-06   3.171713105093476e-07   2.618887675293535e-06
-1.5455820517231437e-06   3.171713105093476e-07   2.618887675293535e-06
-1.5455820517231437e-06   3.171713105093476e-07   2.618887675293535e-06
-1.5455820517231437e-06   3.171713105093476e-07   2.618887675293535e-06
-1.7004034806385796e-06   -5.213796882895614e-07   6.082388333090592e-06
-1.7004034806385796e-06   -5.213796882895614e-07   6.082388333090592e-06
-1.7004034806385796e-06   -5.213796882895614e-07   6.082388333090592e-06
-1.7004034806385796e-06   -5.213796882895614e-07   6.082388333090592e-06
9.174076129765527e-08   6.199772494984348e-08   2.745454815253264e-06
9.174076129765527e-08   6.199772494984348e-08   2.745454815253264e-06
9.174076129765527e-08   6.199772494984348e-08   2.745454815253264e-06
9.174076129765527e-08   6.199772494984348e-08   2.745454815253264e-06
-6.172337659343377e-07   -9.628641410661803e-09   3.97005484712286e-06
-6.172337659343377e-07   -9.628641410661803e-09   3.97005484712286e-06
-6.172337659343377e-07   -9.628641410661803e-09   3.97005484712286e-06
-6.172337659343377e-07   -9.628641410661803e-09   3.97005484712286e-06
-1.212541222923208e-06   6.613034742676332e-07   1.0253576615180948e-05
-1.212541222923208e-06   6.613034742676332e-07   1.0253576615180948e-05
-1.212541222923208e-06   6.613034742676332e-07   1.0253576615180948e-05
-1.212541222923208e-06   6.613034742676332e-07   1.0253576615180948e-05
-3.4180035804635693e-06   7.983017465910264e-07   6.66000498267445e-06
-3.4180035804635693e-06   7.983017465910264e-07   6.66000498267445e-06
-3.4180035804635693e-06   7.983017465910264e-07   6.66000498267445e-06
-3.4180035804635693e-06   7.983017465910264e-07   6.66000498267445e-06
-3.531217481345023e-06   3.9219388745458626e-07   1.0221887560687851e-05
-3.531217481345023e-06   3.9219388745458626e-07   1.0221887560687851e-05
-3.531217481345023e-06   3.9219388745458626e-07   1.0221887560687851e-05
-3.531217481345023e-06   3.9219388745458626e-07   1.0221887560687851e-05
-1.3613150481942394e-06   5.493215829197149e-07   6.511106888157382e-06
-1.3613150481942394e-06   5.493215829197149e-07   6.511106888157382e-06
-1.3613150481942394e-06   5.493215829197149e-07   6.511106888157382e-06
-1.3613150481942394e-06   5.493215829197149e-07   6.511106888157382e-06
-2.397046706574756e-06   5.702504533407681e-07   8.224768996538954e-06
-2.397046706574756e-06   5.702504533407681e-07   8.224768996538954e-06
-2.397046706574756e-06   5.702504533407681e-07   8.224768996538954e-06
-2.397046706574756e-06   5.702504533407681e-07   8.224768996538954e-06
-1.3613150481942411e-06   3.9219388745458626e-07   1.0127610943408676e-05
-1.3613150481942411e-06   3.9219388745458626e-07   1.0127610943408676e-05
-1.3613150481942411e-06   3.9219388745458626e-07   1.0127610943408676e-05
-1.3613150481942411e-06   3.9219388745458626e-07   1.0127610943408676e-05
-3.5312174813450164e-06   5.493215829197149e-07   6.605383505436496e-06
-3.5312174813450164e-06   5.493215829197149e-07   6.605383505436496e-06
-3.5312174813450164e-06   5.493215829197149e-07   6.605383505436496e-06
-3.5312174813450164e-06   5.493215829197149e-07   6.605383505436496e-06
-3.6481368383690894e-06   1.6553683941764215e-07   1.0232774022848846e-05
-3.6481368383690894e-06   1.6553683941764215e-07   1.0232774022848846e-05
-3.6481368383690894e-06   1.6553683941764215e-07   1.0232774022848846e-05
-3.6481368383690894e-06   1.6553683941764215e-07   1.0232774022848846e-05
-1.5455820517231437e-06   3.213125028092871e-07   6.6350506470706066e-06
-1.5455820517231437e-06   3.213125028092871e-07   6.6350506470706066e-06
-1.5455820517231437e-06   3.213125028092871e-07   6.6350506470706066e-06
-1.5455820517231437e-06   3.213125028092871e-07   6.6350506470706066e-06
-2.512962774206589e-06   3.8938134887218446e-07   8.206510543572082e-06
-2.512962774206589e-06   3.8938134887218446e-07   8.206510543572082e-06
-2.512962774206589e-06   3.8938134887218446e-07   8.206510543572082e-06
-2.512962774206589e-06   3.8938134887218446e-07   8.206510543572082e-06
-1.545582051723147e-06   1.6553683941764215e-07   1.0139308624813794e-05
-1.545582051723147e-06   1.6553683941764215e-07   1.0139308624813794e-05
-1.545582051723147e-06   1.6553683941764215e-07   1.0139308624813794e-05
-1.545582051723147e-06   1.6553683941764215e-07   1.0139308624813794e-05
-3.6481368383690894e-06   3.213125028092871e-07   6.728516045105581e-06
-3.6481368383690894e-06   3.213125028092871e-07   6.728516045105581e-06
-3.6481368383690894e-06   3.213125028092871e-07   6.728516045105581e-06
-3.6481368383690894e-06   3.213125028092871e-07   6.728516045105581e-06
-3.763212526227341e-06   -6.43603947317762e-08   1.0422338120540467e-05
-3.763212526227341e-06   -6.43603947317762e-08   1.0422338120540467e-05
-3.763212526227341e-06   -6.43603947317762e-08   1.0422338120540467e-05
-3.763212526227341e-06   -6.43603947317762e-08   1.0422338120540467e-05
-1.7004034806385796e-06   7.622705776809922e-08   6.899970573059317e-06
-1.7004034806385796e-06   7.622705776809922e-08   6.899970573059317e-06
-1.7004034806385796e-06   7.622705776809922e-08   6.899970573059317e-06
-1.7004034806385796e-06   7.622705776809922e-08   6.899970573059317e-06
-2.628085378799825e-06   2.1335749607228867e-07   8.363828807012144e-06
-2.628085378799825e-06   2.1335749607228867e-07   8.363828807012144e-06
-2.628085378799825e-06   2.1335749607228867e-07   8.363828807012144e-06
-2.628085378799825e-06   2.1335749607228867e-07   8.363828807012144e-06
-3.4180035804635625e-06   1.2534060888457063e-06   1.1525495701204336e-05
-3.4180035804635625e-06   1.2534060888457063e-06   1.1525495701204336e-05
-3.4180035804635625e-06   1.2534060888457063e-06   1.1525495701204336e-05
-3.4180035804635625e-06   1.2534060888457063e-06   1.1525495701204336e-05
-5.6057257880913545e-06   9.69370661102367e-07   7.708870765178673e-06
-5.6057257880913545e-06   9.69370661102367e-07   7.708870765178673e-06
-5.6057257880913545e-06   9.69370661102367e-07   7.708870765178673e-06
-5.6057257880913545e-06   9.69370661102367e-07   7.708870765178673e-06
-5.702214381948751e-06   1.0067490519117617e-06   1.131157803937956e-05
-5.702214381948751e-06   1.0067490519117617e-06   1.131157803937956e-05
-5.702214381948751e-06   1.0067490519117617e-06   1.131157803937956e-05
-5.702214381948751e-06   1.0067490519117617e-06   1.131157803937956e-05
-3.5312174813450164e-06   7.40086096942072e-07   7.853247644688509e-06
-3.5312174813450164e-06   7.40086096942072e-07   7.853247644688509e-06
-3.5312174813450164e-06   7.40086096942072e-07   7.853247644688509e-06
-3.5312174813450164e-06   7.40086096942072e-07   7.853247644688509e-06
-4.56728589693351e-06   9.717487292118239e-07   9.441030757974123e-06
-4.56728589693351e-06   9.717487292118239e-07   9.441030757974123e-06
-4.56728589693351e-06   9.717487292118239e-07   9.441030757974123e-06
-4.56728589693351e-06   9.717487292118239e-07   9.441030757974123e-06
-3.5312174813450164e-06   1.0067490519117617e-06   1.1471575812361373e-05
-3.5312174813450164e-06   1.0067490519117617e-06   1.1471575812361373e-05
-3.5312174813450164e-06   1.0067490519117617e-06   1.1471575812361373e-05
-3.5312174813450164e-06   1.0067490519117617e-06   1.1471575812361373e-05
-5.702214381948751e-06   7.40086096942072e-07   7.693249871706709e-06
-5.702214381948751e-06   7.40086096942072e-07   7.693249871706709e-06
-5.702214381948751e-06   7.40086096942072e-07   7.693249871706709e-06
-5.702214381948751e-06   7.40086096942072e-07   7.693249871706709e-06
-5.805348574555236e-06   7.613974976431468e-07   1.1419116682226686e-05
-5.805348574555236e-06   7.613974976431468e-07   1.1419116682226686e-05
-5.805348574555236e-06   7.613974976431468e-07   1.1419116682226686e-05
-5.805348574555236e-06   7.613974976431468e-07   1.1419116682226686e-05
-3.6481368383690894e-06   5.072040422127188e-07   7.976279861841403e-06
-3.6481368383690894e-06   5.072040422127188e-07   7.976279861841403e-06
-3.6481368383690894e-06   5.072040422127188e-07   7.976279861841403e-06
-3.6481368383690894e-06   5.072040422127188e-07   7.976279861841403e-06
-4.649768714586315e-06   7.88928684765692e-07   9.47663153667158e-06
-4.649768714586315e-06   7.88928684765692e-07   9.47663153667158e-06
-4.649768714586315e-06   7.88928684765692e-07   9.47663153667158e-06
-4.649768714586315e-06   7.88928684765692e-07   9.47663153667158e-06
-3.6481368383690894e-06   7.613974976432552e-07   1.1571632755484878e-05
-3.6481368383690894e-06   7.613974976432552e-07   1.1571632755484878e-05
-3.6481368383690894e-06   7.613974976432552e-07   1.1571632755484878e-05
-3.6481368383690894e-06   7.613974976432552e-07   1.1571632755484878e-05
-5.805348574555236e-06   5.072040422126646e-07   7.82376378858309e-06
-5.805348574555236e-06   5.072040422126646e-07   7.82376378858309e-06
-5.805348574555236e-06   5.072040422126646e-07   7.82376378858309e-06
-5.805348574555236e-06   5.072040422126646e-07   7.82376378858309e-06
-5.906369349758928e-06   5.268427360692303e-07   1.164847317432731e-05
-5.906369349758928e-06   5.268427360692303e-07   1.164847317432731e-05
-5.906369349758928e-06   5.268427360692303e-07   1.164847317432731e-05
-5.906369349758928e-06   5.268427360692303e-07   1.164847317432731e-05
-3.763212526227341e-06   2.871526464637937e-07   8.220359188871327e-06
-3.763212526227341e-06   2.871526464637937e-07   8.220359188871327e-06
-3.763212526227341e-06   2.871526464637937e-07   8.220359188871327e-06
-3.763212526227341e-06   2.871526464637937e-07   8.220359188871327e-06
-4.7416140714143985e-06   6.091565140870577e-07   9.657826110275774e-06
-4.7416140714143985e-06   6.091565140870577e-07   9.657826110275774e-06
-4.7416140714143985e-06   6.091565140870577e-07   9.657826110275774e-06
-4.7416140714143985e-06   6.091565140870577e-07   9.657826110275774e-06
-5.605725788091382e-06   1.8717755462353824e-06   9.978336009597863e-06
-5.605725788091382e-06   1.8717755462353824e-06   9.978336009597863e-06
-5.605725788091382e-06   1.8717755462353824e-06   9.978336009597863e-06
-5.605725788091382e-06   1.8717755462353824e-06   9.978336009597863e-06
-7.762246041764949e-06   1.3183077226216252e-06   6.05205489264024e-06
-7.762246041764949e-06   1.3183077226216252e-06   6.05205489264024e-06
-7.762246041764949e-06   1.3183077226216252e-06   6.05205489264024e-06
-7.762246041764949e-06   1.3183077226216252e-06   6.05205489264024e-06
-7.868494533953542e-06   1.6236834772199917e-06   9.686722635459354e-06
-7.868494533953542e-06   1.6236834772199917e-06   9.686722635459354e-06
-7.868494533953542e-06   1.6236834772199917e-06   9.686722635459354e-06
-7.868494533953542e-06   1.6236834772199917e-06   9.686722635459354e-06
-5.702214381948751e-06   1.0772568296232594e-06   6.404111704009434e-06
-5.702214381948751e-06   1.0772568296232594e-06   6.404111704009434e-06
-5.702214381948751e-06   1.0772568296232594e-06   6.404111704009434e-06
-5.702214381948751e-06   1.0772568296232594e-06   6.404111704009434e-06
-6.720365370870288e-06   1.4582050606340804e-06   7.872461080272102e-06
-6.720365370870288e-06   1.4582050606340804e-06   7.872461080272102e-06
-6.720365370870288e-06   1.4582050606340804e-06   7.872461080272102e-06
-6.720365370870288e-06   1.4582050606340804e-06   7.872461080272102e-06
-5.702214381948751e-06   1.6236834772199917e-06   1.0014578624017382e-05
-5.702214381948751e-06   1.6236834772199917e-06   1.0014578624017382e-05
-5.702214381948751e-06   1.6236834772199917e-06   1.0014578624017382e-05
-5.702214381948751e-06   1.6236834772199917e-06   1.0014578624017382e-05
-7.868494533953515e-06   1.0772568296232052e-06   6.076255715451392e-06
-7.868494533953515e-06   1.0772568296232052e-06   6.076255715451392e-06
-7.868494533953515e-06   1.0772568296232052e-06   6.076255715451392e-06
-7.868494533953515e-06   1.0772568296232052e-06   6.076255715451392e-06
-8.013947687228001e-06   1.3971937817604816e-06   1.0006221603169475e-05
-8.013947687228001e-06   1.3971937817604816e-06   1.0006221603169475e-05
-8.013947687228001e-06   1.3971937817604816e-06   1.0006221603169475e-05
-8.013947687228001e-06   1.3971937817604816e-06   1.0006221603169475e-05
-5.805348574555236e-06   8.62088274684457e-07   6.646286386293739e-06
-5.805348574555236e-06   8.62088274684457e-07   6.646286386293739e-06
-5.805348574555236e-06   8.62088274684457e-07   6.646286386293739e-06
-5.805348574555236e-06   8.62088274684457e-07   6.646286386293739e-06
-6.778016429059402e-06   1.2810727634252799e-06   8.016008783889536e-06
-6.778016429059402e-06   1.2810727634252799e-06   8.016008783889536e-06
-6.778016429059402e-06   1.2810727634252799e-06   8.016008783889536e-06
-6.778016429059402e-06   1.2810727634252799e-06   8.016008783889536e-06
-5.805348574555236e-06   1.3971937817603731e-06   1.032728490741496e-05
-5.805348574555236e-06   1.3971937817603731e-06   1.032728490741496e-05
-5.805348574555236e-06   1.3971937817603731e-06   1.032728490741496e-05
-5.805348574555236e-06   1.3971937817603731e-06   1.032728490741496e-05
-8.013947687228001e-06   8.62088274684457e-07   6.325223082048214e-06
-8.013947687228001e-06   8.62088274684457e-07   6.325223082048214e-06
-8.013947687228001e-06   8.62088274684457e-07   6.325223082048214e-06
-8.013947687228001e-06   8.62088274684457e-07   6.325223082048214e-06
-8.130233090123393e-06   1.1541674187776898e-06   1.0359077157729248e-05
-8.130233090123393e-06   1.1541674187776898e-06   1.0359077157729248e-05
-8.130233090123393e-06   1.1541674187776898e-06   1.0359077157729248e-05
-8.130233090123393e-06   1.1541674187776898e-06   1.0359077157729248e-05
-5.906369349758915e-06   6.421240927856602e-07   6.959863586050312e-06
-5.906369349758915e-06   6.421240927856602e-07   6.959863586050312e-06
-5.906369349758915e-06   6.421240927856602e-07   6.959863586050312e-06
-5.906369349758915e-06   6.421240927856602e-07   6.959863586050312e-06
-6.899253283547018e-06   1.1117920622191269e-06   8.332869360703978e-06
-6.899253283547018e-06   1.1117920622191269e-06   8.332869360703978e-06
-6.899253283547018e-06   1.1117920622191269e-06   8.332869360703978e-06
-6.899253283547018e-06   1.1117920622191269e-06   8.332869360703978e-06
-7.762246041764949e-06   2.318157768828018e-06   4.4302393563026106e-06
-7.762246041764949e-06   2.318157768828018e-06   4.4302393563026106e-06
-7.762246041764949e-06   2.318157768828018e-06   4.4302393563026106e-06
-7.762246041764949e-06   2.318157768828018e-06   4.4302393563026106e-06
-9.490937101267507e-06   1.5711022808633196e-06   1.100854297686303e-06
-9.490937101267507e-06   1.5711022808633196e-06   1.100854297686303e-06
-9.490937101267507e-06   1.5711022808633196e-06   1.100854297686303e-06
-9.490937101267507e-06   1.5711022808633196e-06   1.100854297686303e-06
-9.889516332368232e-06   2.192517876176115e-06   5.204751053151284e-06
-9.889516332368232e-06   2.192517876176115e-06   5.204751053151284e-06
-9.889516332368232e-06   2.192517876176115e-06   5.204751053151284e-06
-9.889516332368232e-06   2.192517876176115e-06   5.204751053151284e-06
-7.868494533953515e-06   1.41090445061003e-06   2.305349444466418e-06
-7.868494533953515e-06   1.41090445061003e-06   2.305349444466418e-06
-7.868494533953515e-06   1.41090445061003e-06   2.305349444466418e-06
-7.868494533953515e-06   1.41090445061003e-06   2.305349444466418e-06
-8.44823266726692e-06   1.851740570432323e-06   3.0070779947620366e-06
-8.44823266726692e-06   1.851740570432323e-06   3.0070779947620366e-06
-8.44823266726692e-06   1.851740570432323e-06   3.0070779947620366e-06
-8.44823266726692e-06   1.851740570432323e-06   3.0070779947620366e-06
-7.868494533953542e-06   2.192517876176115e-06   5.6737191084907834e-06
-7.868494533953542e-06   2.192517876176115e-06   5.6737191084907834e-06
-7.868494533953542e-06   2.192517876176115e-06   5.6737191084907834e-06
-7.868494533953542e-06   2.192517876176115e-06   5.6737191084907834e-06
-9.889516332368286e-06   1.4109044506100841e-06   1.836381389126722e-06
-9.889516332368286e-06   1.4109044506100841e-06   1.836381389126722e-06
-9.889516332368286e-06   1.4109044506100841e-06   1.836381389126722e-06
-9.889516332368286e-06   1.4109044506100841e-06   1.836381389126722e-06
-1.0230673014085748e-05   2.0856389664027693e-06   6.127906706164445e-06
-1.0230673014085748e-05   2.0856389664027693e-06   6.127906706164445e-06
-1.0230673014085748e-05   2.0856389664027693e-06   6.127906706164445e-06
-1.0230673014085748e-05   2.0856389664027693e-06   6.127906706164445e-06
-8.013947687228001e-06   1.3002316902213477e-06   2.9046088604438585e-06
-8.013947687228001e-06   1.3002316902213477e-06   2.9046088604438585e-06
-8.013947687228001e-06   1.3002316902213477e-06   2.9046088604438585e-06
-8.013947687228001e-06   1.3002316902213477e-06   2.9046088604438585e-06
-8.787739269788868e-06   1.7902222409322491e-06   3.900267167618961e-06
-8.787739269788868e-06   1.7902222409322491e-06   3.900267167618961e-06
-8.787739269788868e-06   1.7902222409322491e-06   3.900267167618961e-06
-8.787739269788868e-06   1.7902222409322491e-06   3.900267167618961e-06
-8.013947687228001e-06   2.0856389664028778e-06   6.599151071873363e-06
-8.013947687228001e-06   2.0856389664028778e-06   6.599151071873363e-06
-8.013947687228001e-06   2.0856389664028778e-06   6.599151071873363e-06
-8.013947687228001e-06   2.0856389664028778e-06   6.599151071873363e-06
-1.0230673014085775e-05   1.300231690221402e-06   2.433364494734922e-06
-1.0230673014085775e-05   1.300231690221402e-06   2.433364494734922e-06
-1.0230673014085775e-05   1.300231690221402e-06   2.433364494734922e-06
-1.0230673014085775e-05   1.300231690221402e-06   2.433364494734922e-06
-1.0662780940102259e-05   1.7918393083193613e-06   7.795930443001186e-06
-1.0662780940102259e-05   1.7918393083193613e-06   7.795930443001186e-06
-1.0662780940102259e-05   1.7918393083193613e-06   7.795930443001186e-06
-1.0662780940102259e-05   1.7918393083193613e-06   7.795930443001186e-06
-8.130233090123366e-06   1.0428740760430252e-06   4.024396499068889e-06
-8.130233090123366e-06   1.0428740760430252e-06   4.024396499068889e-06
-8.130233090123366e-06   1.0428740760430252e-06   4.024396499068889e-06
-8.130233090123366e-06   1.0428740760430252e-06   4.024396499068889e-06
-8.881835878092733e-06   1.6679207367110592e-06   4.902039815950438e-06
-8.881835878092733e-06   1.6679207367110592e-06   4.902039815950438e-06
-8.881835878092733e-06   1.6679207367110592e-06   4.902039815950438e-06
-8.881835878092733e-06   1.6679207367110592e-06   4.902039815950438e-06
-3.5660192708573837e-06   6.623410470085202e-07   4.674565023007145e-06
-3.5660192708573837e-06   6.623410470085202e-07   4.674565023007145e-06
-3.5660192708573837e-06   6.623410470085202e-07   4.674565023007145e-06
-3.5660192708573837e-06   6.623410470085202e-07   4.674565023007145e-06
-4.039152333610114e-06   1.276388306968427e-06   4.254438274395214e-06
-4.039152333610114e-06   1.276388306968427e-06   4.254438274395214e-06
-4.039152333610114e-06   1.276388306968427e-06   4.254438274395214e-06
-4.039152333610114e-06   1.276388306968427e-06   4.254438274395214e-06
-4.150041735527168e-06   4.3840834058981454e-07   4.983349041473719e-06
-4.150041735527168e-06   4.3840834058981454e-07   4.983349041473719e-06
-4.150041735527168e-06   4.3840834058981454e-07   4.983349041473719e-06
-4.150041735527168e-06   4.3840834058981454e-07   4.983349041473719e-06
-4.018896167286363e-06   9.921411030584435e-07   4.432533436924523e-06
-4.018896167286363e-06   9.921411030584435e-07   4.432533436924523e-06
-4.018896167286363e-06   9.921411030584435e-07   4.432533436924523e-06
-4.018896167286363e-06   9.921411030584435e-07   4.432533436924523e-06
-3.849752198648005e-06   7.84699418787194e-07   4.27509183309001e-06
-3.849752198648005e-06   7.84699418787194e-07   4.27509183309001e-06
-3.849752198648005e-06   7.84699418787194e-07   4.27509183309001e-06
-3.849752198648005e-06   7.84699418787194e-07   4.27509183309001e-06
-4.01889616728637e-06   4.3840834058981454e-07   4.651109383992525e-06
-4.01889616728637e-06   4.3840834058981454e-07   4.651109383992525e-06
-4.01889616728637e-06   4.3840834058981454e-07   4.651109383992525e-06
-4.01889616728637e-06   4.3840834058981454e-07   4.651109383992525e-06
-4.150041735527168e-06   9.921411030584435e-07   4.764773094405723e-06
-4.150041735527168e-06   9.921411030584435e-07   4.764773094405723e-06
-4.150041735527168e-06   9.921411030584435e-07   4.764773094405723e-06
-4.150041735527168e-06   9.921411030584435e-07   4.764773094405723e-06
-4.2936957820508925e-06   3.171713105093476e-07   5.118881421864398e-06
-4.2936957820508925e-06   3.171713105093476e-07   5.118881421864398e-06
-4.2936957820508925e-06   3.171713105093476e-07   5.118881421864398e-06
-4.2936957820508925e-06   3.171713105093476e-07   5.118881421864398e-06
-4.460979658048126e-06   7.976399448091391e-07   5.1094067012798396e-06
-4.460979658048126e-06   7.976399448091391e-07   5.1094067012798396e-06
-4.460979658048126e-06   7.976399448091391e-07   5.1094067012798396e-06
-4.460979658048126e-06   7.976399448091391e-07   5.1094067012798396e-06
-4.11852984481807e-06   6.626939408575371e-07   4.619624614933903e-06
-4.11852984481807e-06   6.626939408575371e-07   4.619624614933903e-06
-4.11852984481807e-06   6.626939408575371e-07   4.619624614933903e-06
-4.11852984481807e-06   6.626939408575371e-07   4.619624614933903e-06
-4.460979658048136e-06   3.171713105093476e-07   4.830600241284376e-06
-4.460979658048136e-06   3.171713105093476e-07   4.830600241284376e-06
-4.460979658048136e-06   3.171713105093476e-07   4.830600241284376e-06
-4.460979658048136e-06   3.171713105093476e-07   4.830600241284376e-06
-4.2936957820508925e-06   7.976399448091391e-07   5.397687881859712e-06
-4.2936957820508925e-06   7.976399448091391e-07   5.397687881859712e-06
-4.2936957820508925e-06   7.976399448091391e-07   5.397687881859712e-06
-4.2936957820508925e-06   7.976399448091391e-07   5.397687881859712e-06
-4.387669711626193e-06   6.199772494984348e-08   5.587290600154494e-06
-4.387669711626193e-06   6.199772494984348e-08   5.587290600154494e-06
-4.387669711626193e-06   6.199772494984348e-08   5.587290600154494e-06
-4.387669711626193e-06   6.199772494984348e-08   5.587290600154494e-06
-4.93270019476427e-06   3.203520887173363e-07   6.3406621204574104e-06
-4.93270019476427e-06   3.203520887173363e-07   6.3406621204574104e-06
-4.93270019476427e-06   3.203520887173363e-07   6.3406621204574104e-06
-4.93270019476427e-06   3.203520887173363e-07   6.3406621204574104e-06
-4.31463780555875e-06   5.154740410143188e-07   5.193484967069869e-06
-4.31463780555875e-06   5.154740410143188e-07   5.193484967069869e-06
-4.31463780555875e-06   5.154740410143188e-07   5.193484967069869e-06
-4.31463780555875e-06   5.154740410143188e-07   5.193484967069869e-06
-4.039152333610107e-06   7.983017465910264e-07   9.152472465137526e-06
-4.039152333610107e-06   7.983017465910264e-07   9.152472465137526e-06
-4.039152333610107e-06   7.983017465910264e-07   9.152472465137526e-06
-4.039152333610107e-06   7.983017465910264e-07   9.152472465137526e-06
-4.179516396394499e-06   3.316721858494156e-07   8.638554624051893e-06
-4.179516396394499e-06   3.316721858494156e-07   8.638554624051893e-06
-4.179516396394499e-06   3.316721858494156e-07   8.638554624051893e-06
-4.179516396394499e-06   3.316721858494156e-07   8.638554624051893e-06
-4.217560747389796e-06   5.493215829197149e-07   8.804082803050555e-06
-4.217560747389796e-06   5.493215829197149e-07   8.804082803050555e-06
-4.217560747389796e-06   5.493215829197149e-07   8.804082803050555e-06
-4.217560747389796e-06   5.493215829197149e-07   8.804082803050555e-06
-4.150041735527168e-06   1.551110241243027e-07   8.928077451890021e-06
-4.150041735527168e-06   1.551110241243027e-07   8.928077451890021e-06
-4.150041735527168e-06   1.551110241243027e-07   8.928077451890021e-06
-4.150041735527168e-06   1.551110241243027e-07   8.928077451890021e-06
-4.13574393274581e-06   4.040074803657919e-07   8.75490990684287e-06
-4.13574393274581e-06   4.040074803657919e-07   8.75490990684287e-06
-4.13574393274581e-06   4.040074803657919e-07   8.75490990684287e-06
-4.13574393274581e-06   4.040074803657919e-07   8.75490990684287e-06
-4.150041735527165e-06   5.493215829197149e-07   9.040609138327542e-06
-4.150041735527165e-06   5.493215829197149e-07   9.040609138327542e-06
-4.150041735527165e-06   5.493215829197149e-07   9.040609138327542e-06
-4.150041735527165e-06   5.493215829197149e-07   9.040609138327542e-06
-4.217560747389783e-06   1.551110241243027e-07   8.69155111661281e-06
-4.217560747389783e-06   1.551110241243027e-07   8.69155111661281e-06
-4.217560747389783e-06   1.551110241243027e-07   8.69155111661281e-06
-4.217560747389783e-06   1.551110241243027e-07   8.69155111661281e-06
-4.26396492863827e-06   3.213125028092871e-07   8.914615315611671e-06
-4.26396492863827e-06   3.213125028092871e-07   8.914615315611671e-06
-4.26396492863827e-06   3.213125028092871e-07   8.914615315611671e-06
-4.26396492863827e-06   3.213125028092871e-07   8.914615315611671e-06
-4.2936957820508925e-06   -4.606929390700348e-08   9.184595815995657e-06
-4.2936957820508925e-06   -4.606929390700348e-08   9.184595815995657e-06
-4.2936957820508925e-06   -4.606929390700348e-08   9.184595815995657e-06
-4.2936957820508925e-06   -4.606929390700348e-08   9.184595815995657e-06
-4.181566339755225e-06   2.596638785799972e-07   8.814273508677255e-06
-4.181566339755225e-06   2.596638785799972e-07   8.814273508677255e-06
-4.181566339755225e-06   2.596638785799972e-07   8.814273508677255e-06
-4.181566339755225e-06   2.596638785799972e-07   8.814273508677255e-06
-4.2936957820508925e-06   3.213125028092871e-07   9.135044393641229e-06
-4.2936957820508925e-06   3.213125028092871e-07   9.135044393641229e-06
-4.2936957820508925e-06   3.213125028092871e-07   9.135044393641229e-06
-4.2936957820508925e-06   3.213125028092871e-07   9.135044393641229e-06
-4.263964928638256e-06   -4.606929390705769e-08   8.964166737965887e-06
-4.263964928638256e-06   -4.606929390705769e-08   8.964166737965887e-06
-4.263964928638256e-06   -4.606929390705769e-08   8.964166737965887e-06
-4.263964928638256e-06   -4.606929390705769e-08   8.964166737965887e-06
-4.299860738707191e-06   7.622705776804501e-08   9.161093752245648e-06
-4.299860738707191e-06   7.622705776804501e-08   9.161093752245648e-06
-4.299860738707191e-06   7.622705776804501e-08   9.161093752245648e-06
-4.299860738707191e-06   7.622705776804501e-08   9.161093752245648e-06
-4.387669711626186e-06   -3.082498718506117e-07   9.538128198215087e-06
-4.387669711626186e-06   -3.082498718506117e-07   9.538128198215087e-06
-4.387669711626186e-06   -3.082498718506117e-07   9.538128198215087e-06
-4.387669711626186e-06   -3.082498718506117e-07   9.538128198215087e-06
-4.2505934796750355e-06   9.218652161416523e-08   9.069405975550802e-06
-4.2505934796750355e-06   9.218652161416523e-08   9.069405975550802e-06
-4.2505934796750355e-06   9.218652161416523e-08   9.069405975550802e-06
-4.2505934796750355e-06   9.218652161416523e-08   9.069405975550802e-06
-4.1795163963945125e-06   9.693706611023129e-07   1.009178176784284e-05
-4.1795163963945125e-06   9.693706611023129e-07   1.009178176784284e-05
-4.1795163963945125e-06   9.693706611023129e-07   1.009178176784284e-05
-4.1795163963945125e-06   9.693706611023129e-07   1.009178176784284e-05
-4.5697987642794e-06   9.412003199000618e-08   8.916160777233887e-06
-4.5697987642794e-06   9.412003199000618e-08   8.916160777233887e-06
-4.5697987642794e-06   9.412003199000618e-08   8.916160777233887e-06
-4.5697987642794e-06   9.412003199000618e-08   8.916160777233887e-06
-4.586296493579376e-06   7.40086096942072e-07   9.576202596526108e-06
-4.586296493579376e-06   7.40086096942072e-07   9.576202596526108e-06
-4.586296493579376e-06   7.40086096942072e-07   9.576202596526108e-06
-4.586296493579376e-06   7.40086096942072e-07   9.576202596526108e-06
-4.217560747389783e-06   -5.282114601853731e-08   9.437387365319872e-06
-4.217560747389783e-06   -5.282114601853731e-08   9.437387365319872e-06
-4.217560747389783e-06   -5.282114601853731e-08   9.437387365319872e-06
-4.217560747389783e-06   -5.282114601853731e-08   9.437387365319872e-06
-4.3817207072022585e-06   4.2178535352311447e-07   9.42622339861562e-06
-4.3817207072022585e-06   4.2178535352311447e-07   9.42622339861562e-06
-4.3817207072022585e-06   4.2178535352311447e-07   9.42622339861562e-06
-4.3817207072022585e-06   4.2178535352311447e-07   9.42622339861562e-06
-4.217560747389783e-06   7.40086096942072e-07   1.0051946942302473e-05
-4.217560747389783e-06   7.40086096942072e-07   1.0051946942302473e-05
-4.217560747389783e-06   7.40086096942072e-07   1.0051946942302473e-05
-4.217560747389783e-06   7.40086096942072e-07   1.0051946942302473e-05
-4.586296493579376e-06   -5.282114601859152e-08   8.961643019543452e-06
-4.586296493579376e-06   -5.282114601859152e-08   8.961643019543452e-06
-4.586296493579376e-06   -5.282114601859152e-08   8.961643019543452e-06
-4.586296493579376e-06   -5.282114601859152e-08   8.961643019543452e-06
-4.612001890613591e-06   5.072040422126646e-07   9.720889280432124e-06
-4.612001890613591e-06   5.072040422126646e-07   9.720889280432124e-06
-4.612001890613591e-06   5.072040422126646e-07   9.720889280432124e-06
-4.612001890613591e-06   5.072040422126646e-07   9.720889280432124e-06
-4.26396492863827e-06   -2.286123776461626e-07   9.58231752905515e-06
-4.26396492863827e-06   -2.286123776461626e-07   9.58231752905515e-06
-4.26396492863827e-06   -2.286123776461626e-07   9.58231752905515e-06
-4.26396492863827e-06   -2.286123776461626e-07   9.58231752905515e-06
-4.389374423429081e-06   2.7718897476115703e-07   9.487852542261856e-06
-4.389374423429081e-06   2.7718897476115703e-07   9.487852542261856e-06
-4.389374423429081e-06   2.7718897476115703e-07   9.487852542261856e-06
-4.389374423429081e-06   2.7718897476115703e-07   9.487852542261856e-06
-4.26396492863827e-06   5.072040422127188e-07   1.016237913234729e-05
-4.26396492863827e-06   5.072040422127188e-07   1.016237913234729e-05
-4.26396492863827e-06   5.072040422127188e-07   1.016237913234729e-05
-4.26396492863827e-06   5.072040422127188e-07   1.016237913234729e-05
-4.612001890613577e-06   -2.286123776461084e-07   9.140827677139835e-06
-4.612001890613577e-06   -2.286123776461084e-07   9.140827677139835e-06
-4.612001890613577e-06   -2.286123776461084e-07   9.140827677139835e-06
-4.612001890613577e-06   -2.286123776461084e-07   9.140827677139835e-06
-4.630592067948476e-06   2.871526464637937e-07   9.982586279589669e-06
-4.630592067948476e-06   2.871526464637937e-07   9.982586279589669e-06
-4.630592067948476e-06   2.871526464637937e-07   9.982586279589669e-06
-4.630592067948476e-06   2.871526464637937e-07   9.982586279589669e-06
-4.299860738707184e-06   -4.037533818162446e-07   9.84591101448878e-06
-4.299860738707184e-06   -4.037533818162446e-07   9.84591101448878e-06
-4.299860738707184e-06   -4.037533818162446e-07   9.84591101448878e-06
-4.299860738707184e-06   -4.037533818162446e-07   9.84591101448878e-06
-4.404612019316476e-06   1.2883296988177315e-07   9.700944671151815e-06
-4.404612019316476e-06   1.2883296988177315e-07   9.700944671151815e-06
-4.404612019316476e-06   1.2883296988177315e-07   9.700944671151815e-06
-4.404612019316476e-06   1.2883296988177315e-07   9.700944671151815e-06
-4.5697987642794e-06   1.3183077226216252e-06   8.241896212005193e-06
-4.5697987642794e-06   1.3183077226216252e-06   8.241896212005193e-06
-4.5697987642794e-06   1.3183077226216252e-06   8.241896212005193e-06
-4.5697987642794e-06   1.3183077226216252e-06   8.241896212005193e-06
-5.103527694150673e-06   4.366797366558311e-07   6.823371203973716e-06
-5.103527694150673e-06   4.366797366558311e-07   6.823371203973716e-06
-5.103527694150673e-06   4.366797366558311e-07   6.823371203973716e-06
-5.103527694150673e-06   4.366797366558311e-07   6.823371203973716e-06
-5.117484807415769e-06   1.0772568296232052e-06   7.786112388775176e-06
-5.117484807415769e-06   1.0772568296232052e-06   7.786112388775176e-06
-5.117484807415769e-06   1.0772568296232052e-06   7.786112388775176e-06
-5.117484807415769e-06   1.0772568296232052e-06   7.786112388775176e-06
-4.586296493579376e-06   2.4233676286706564e-07   7.401750572434858e-06
-4.586296493579376e-06   2.4233676286706564e-07   7.401750572434858e-06
-4.586296493579376e-06   2.4233676286706564e-07   7.401750572434858e-06
-4.586296493579376e-06   2.4233676286706564e-07   7.401750572434858e-06
-4.831776944861022e-06   7.85004531801475e-07   7.485283996543703e-06
-4.831776944861022e-06   7.85004531801475e-07   7.485283996543703e-06
-4.831776944861022e-06   7.85004531801475e-07   7.485283996543703e-06
-4.831776944861022e-06   7.85004531801475e-07   7.485283996543703e-06
-4.586296493579376e-06   1.0772568296232052e-06   8.287064428828778e-06
-4.586296493579376e-06   1.0772568296232052e-06   8.287064428828778e-06
-4.586296493579376e-06   1.0772568296232052e-06   8.287064428828778e-06
-4.586296493579376e-06   1.0772568296232052e-06   8.287064428828778e-06
-5.117484807415769e-06   2.4233676286706564e-07   6.900798532381215e-06
-5.117484807415769e-06   2.4233676286706564e-07   6.900798532381215e-06
-5.117484807415769e-06   2.4233676286706564e-07   6.900798532381215e-06
-5.117484807415769e-06   2.4233676286706564e-07   6.900798532381215e-06
-5.177498847959666e-06   8.62088274684457e-07   8.071462286321539e-06
-5.177498847959666e-06   8.62088274684457e-07   8.071462286321539e-06
-5.177498847959666e-06   8.62088274684457e-07   8.071462286321539e-06
-5.177498847959666e-06   8.62088274684457e-07   8.071462286321539e-06
-4.612001890613591e-06   7.550562164903001e-08   7.600916949232657e-06
-4.612001890613591e-06   7.550562164903001e-08   7.600916949232657e-06
-4.612001890613591e-06   7.550562164903001e-08   7.600916949232657e-06
-4.612001890613591e-06   7.550562164903001e-08   7.600916949232657e-06
-4.8229925455745405e-06   6.263787523002381e-07   7.622044162443114e-06
-4.8229925455745405e-06   6.263787523002381e-07   7.622044162443114e-06
-4.8229925455745405e-06   6.263787523002381e-07   7.622044162443114e-06
-4.8229925455745405e-06   6.263787523002381e-07   7.622044162443114e-06
-4.612001890613577e-06   8.620882746845113e-07   8.543411878142557e-06
-4.612001890613577e-06   8.620882746845113e-07   8.543411878142557e-06
-4.612001890613577e-06   8.620882746845113e-07   8.543411878142557e-06
-4.612001890613577e-06   8.620882746845113e-07   8.543411878142557e-06
-5.177498847959666e-06   7.55056216489758e-08   7.1289673574113615e-06
-5.177498847959666e-06   7.55056216489758e-08   7.1289673574113615e-06
-5.177498847959666e-06   7.55056216489758e-08   7.1289673574113615e-06
-5.177498847959666e-06   7.55056216489758e-08   7.1289673574113615e-06
-5.214801567694999e-06   6.421240927856602e-07   8.424863041461036e-06
-5.214801567694999e-06   6.421240927856602e-07   8.424863041461036e-06
-5.214801567694999e-06   6.421240927856602e-07   8.424863041461036e-06
-5.214801567694999e-06   6.421240927856602e-07   8.424863041461036e-06
-4.630592067948462e-06   -9.294538899927473e-08   7.89222223095438e-06
-4.630592067948462e-06   -9.294538899927473e-08   7.89222223095438e-06
-4.630592067948462e-06   -9.294538899927473e-08   7.89222223095438e-06
-4.630592067948462e-06   -9.294538899927473e-08   7.89222223095438e-06
-4.852496494207848e-06   4.84134278315603e-07   7.915815140997583e-06
-4.852496494207848e-06   4.84134278315603e-07   7.915815140997583e-06
-4.852496494207848e-06   4.84134278315603e-07   7.915815140997583e-06
-4.852496494207848e-06   4.84134278315603e-07   7.915815140997583e-06
-5.103527694150646e-06   1.5711022808633196e-06   3.2099521182506175e-06
-5.103527694150646e-06   1.5711022808633196e-06   3.2099521182506175e-06
-5.103527694150646e-06   1.5711022808633196e-06   3.2099521182506175e-06
-5.103527694150646e-06   1.5711022808633196e-06   3.2099521182506175e-06
-5.11924243988001e-06   7.290827219834915e-07   2.6785491400404236e-06
-5.11924243988001e-06   7.290827219834915e-07   2.6785491400404236e-06
-5.11924243988001e-06   7.290827219834915e-07   2.6785491400404236e-06
-5.11924243988001e-06   7.290827219834915e-07   2.6785491400404236e-06
-5.382874931942391e-06   1.4109044506100841e-06   3.5228805501350295e-06
-5.382874931942391e-06   1.4109044506100841e-06   3.5228805501350295e-06
-5.382874931942391e-06   1.4109044506100841e-06   3.5228805501350295e-06
-5.382874931942391e-06   1.4109044506100841e-06   3.5228805501350295e-06
-5.117484807415769e-06   5.903618378515305e-07   3.57288924357908e-06
-5.117484807415769e-06   5.903618378515305e-07   3.57288924357908e-06
-5.117484807415769e-06   5.903618378515305e-07   3.57288924357908e-06
-5.117484807415769e-06   5.903618378515305e-07   3.57288924357908e-06
-5.011718162702941e-06   1.1087683080192464e-06   3.085567620290399e-06
-5.011718162702941e-06   1.1087683080192464e-06   3.085567620290399e-06
-5.011718162702941e-06   1.1087683080192464e-06   3.085567620290399e-06
-5.011718162702941e-06   1.1087683080192464e-06   3.085567620290399e-06
-5.117484807415742e-06   1.4109044506100841e-06   4.015206117789999e-06
-5.117484807415742e-06   1.4109044506100841e-06   4.015206117789999e-06
-5.117484807415742e-06   1.4109044506100841e-06   4.015206117789999e-06
-5.117484807415742e-06   1.4109044506100841e-06   4.015206117789999e-06
-5.382874931942391e-06   5.903618378515847e-07   3.080563675923948e-06
-5.382874931942391e-06   5.903618378515847e-07   3.080563675923948e-06
-5.382874931942391e-06   5.903618378515847e-07   3.080563675923948e-06
-5.382874931942391e-06   5.903618378515847e-07   3.080563675923948e-06
-5.6137672533045524e-06   1.300231690221402e-06   4.1706813000492635e-06
-5.6137672533045524e-06   1.300231690221402e-06   4.1706813000492635e-06
-5.6137672533045524e-06   1.300231690221402e-06   4.1706813000492635e-06
-5.6137672533045524e-06   1.300231690221402e-06   4.1706813000492635e-06
-5.177498847959666e-06   4.99953749108278e-07   3.923734055808837e-06
-5.177498847959666e-06   4.99953749108278e-07   3.923734055808837e-06
-5.177498847959666e-06   4.99953749108278e-07   3.923734055808837e-06
-5.177498847959666e-06   4.99953749108278e-07   3.923734055808837e-06
-5.201633290350912e-06   1.0295953333836036e-06   3.6461731758954973e-06
-5.201633290350912e-06   1.0295953333836036e-06   3.6461731758954973e-06
-5.201633290350912e-06   1.0295953333836036e-06   3.6461731758954973e-06
-5.201633290350912e-06   1.0295953333836036e-06   3.6461731758954973e-06
-5.177498847959639e-06   1.3002316902213477e-06   4.650848064717008e-06
-5.177498847959639e-06   1.3002316902213477e-06   4.650848064717008e-06
-5.177498847959639e-06   1.3002316902213477e-06   4.650848064717008e-06
-5.177498847959639e-06   1.3002316902213477e-06   4.650848064717008e-06
-5.613767253304607e-06   4.99953749108278e-07   3.443567291140984e-06
-5.613767253304607e-06   4.99953749108278e-07   3.443567291140984e-06
-5.613767253304607e-06   4.99953749108278e-07   3.443567291140984e-06
-5.613767253304607e-06   4.99953749108278e-07   3.443567291140984e-06
-5.95234778351134e-06   1.0428740760430252e-06   5.359694213948941e-06
-5.95234778351134e-06   1.0428740760430252e-06   5.359694213948941e-06
-5.95234778351134e-06   1.0428740760430252e-06   5.359694213948941e-06
-5.95234778351134e-06   1.0428740760430252e-06   5.359694213948941e-06
-5.214801567694999e-06   3.146611824998203e-07   4.567378257047455e-06
-5.214801567694999e-06   3.146611824998203e-07   4.567378257047455e-06
-5.214801567694999e-06   3.146611824998203e-07   4.567378257047455e-06
-5.214801567694999e-06   3.146611824998203e-07   4.567378257047455e-06
-5.2663061417236796e-06   9.32765857458869e-07   4.28235640878604e-06
-5.2663061417236796e-06   9.32765857458869e-07   4.28235640878604e-06
-5.2663061417236796e-06   9.32765857458869e-07   4.28235640878604e-06
-5.2663061417236796e-06   9.32765857458869e-07   4.28235640878604e-06
-9.626531848660167e-06   1.2763883069683729e-06   3.960933182926016e-06
-9.626531848660167e-06   1.2763883069683729e-06   3.960933182926016e-06
-9.626531848660167e-06   1.2763883069683729e-06   3.960933182926016e-06
-9.626531848660167e-06   1.2763883069683729e-06   3.960933182926016e-06
-6.5626995357028175e-06   1.759579362820517e-06   9.357235004699496e-06
-6.5626995357028175e-06   1.759579362820517e-06   9.357235004699496e-06
-6.5626995357028175e-06   1.759579362820517e-06   9.357235004699496e-06
-6.5626995357028175e-06   1.759579362820517e-06   9.357235004699496e-06
-6.563979563610325e-06   9.921411030584435e-07   4.439857465834003e-06
-6.563979563610325e-06   9.921411030584435e-07   4.439857465834003e-06
-6.563979563610325e-06   9.921411030584435e-07   4.439857465834003e-06
-6.563979563610325e-06   9.921411030584435e-07   4.439857465834003e-06
-1.0639178657981175e-05   6.813363294071303e-07   1.1418338820642954e-05
-1.0639178657981175e-05   6.813363294071303e-07   1.1418338820642954e-05
-1.0639178657981175e-05   6.813363294071303e-07   1.1418338820642954e-05
-1.0639178657981175e-05   6.813363294071303e-07   1.1418338820642954e-05
-7.915983654335026e-06   1.0353903524362533e-06   6.667248067415204e-06
-7.915983654335026e-06   1.0353903524362533e-06   6.667248067415204e-06
-7.915983654335026e-06   1.0353903524362533e-06   6.667248067415204e-06
-7.915983654335026e-06   1.0353903524362533e-06   6.667248067415204e-06
-1.0639178657981192e-05   9.921411030583893e-07   4.6263403300247745e-06
-1.0639178657981192e-05   9.921411030583893e-07   4.6263403300247745e-06
-1.0639178657981192e-05   9.921411030583893e-07   4.6263403300247745e-06
-1.0639178657981192e-05   9.921411030583893e-07   4.6263403300247745e-06
-6.563979563610325e-06   6.813363294071303e-07   1.1231855956452176e-05
-6.563979563610325e-06   6.813363294071303e-07   1.1231855956452176e-05
-6.563979563610325e-06   6.813363294071303e-07   1.1231855956452176e-05
-6.563979563610325e-06   6.813363294071303e-07   1.1231855956452176e-05
-6.664731480702669e-06   7.976399448091391e-07   4.938065137478703e-06
-6.664731480702669e-06   7.976399448091391e-07   4.938065137478703e-06
-6.664731480702669e-06   7.976399448091391e-07   4.938065137478703e-06
-6.664731480702669e-06   7.976399448091391e-07   4.938065137478703e-06
-1.0686788314601472e-05   4.777376978114224e-07   1.1833434542175307e-05
-1.0686788314601472e-05   4.777376978114224e-07   1.1833434542175307e-05
-1.0686788314601472e-05   4.777376978114224e-07   1.1833434542175307e-05
-1.0686788314601472e-05   4.777376978114224e-07   1.1833434542175307e-05
-8.464974217372346e-06   6.35269941340734e-07   8.035891700675741e-06
-8.464974217372346e-06   6.35269941340734e-07   8.035891700675741e-06
-8.464974217372346e-06   6.35269941340734e-07   8.035891700675741e-06
-8.464974217372346e-06   6.35269941340734e-07   8.035891700675741e-06
-1.0686788314601492e-05   7.976399448091391e-07   5.130006485677311e-06
-1.0686788314601492e-05   7.976399448091391e-07   5.130006485677311e-06
-1.0686788314601492e-05   7.976399448091391e-07   5.130006485677311e-06
-1.0686788314601492e-05   7.976399448091391e-07   5.130006485677311e-06
-6.664731480702655e-06   4.777376978114224e-07   1.1641493193976685e-05
-6.664731480702655e-06   4.777376978114224e-07   1.1641493193976685e-05
-6.664731480702655e-06   4.777376978114224e-07   1.1641493193976685e-05
-6.664731480702655e-06   4.777376978114224e-07   1.1641493193976685e-05
-6.604632008033706e-06   3.203520887173363e-07   5.807302236602628e-06
-6.604632008033706e-06   3.203520887173363e-07   5.807302236602628e-06
-6.604632008033706e-06   3.203520887173363e-07   5.807302236602628e-06
-6.604632008033706e-06   3.203520887173363e-07   5.807302236602628e-06
-1.0819981567464508e-05   -3.946948912801748e-07   1.3261913023652441e-05
-1.0819981567464508e-05   -3.946948912801748e-07   1.3261913023652441e-05
-1.0819981567464508e-05   -3.946948912801748e-07   1.3261913023652441e-05
-1.0819981567464508e-05   -3.946948912801748e-07   1.3261913023652441e-05
-8.347149978468768e-06   2.9407530128757907e-07   8.727264926452229e-06
-8.347149978468768e-06   2.9407530128757907e-07   8.727264926452229e-06
-8.347149978468768e-06   2.9407530128757907e-07   8.727264926452229e-06
-8.347149978468768e-06   2.9407530128757907e-07   8.727264926452229e-06
-6.562699535702826e-06   3.316721858493614e-07   8.914941902538878e-06
-6.562699535702826e-06   3.316721858493614e-07   8.914941902538878e-06
-6.562699535702826e-06   3.316721858493614e-07   8.914941902538878e-06
-6.562699535702826e-06   3.316721858493614e-07   8.914941902538878e-06
-4.057416693040951e-06   -2.0881874145581812e-06   1.1638497546730825e-05
-4.057416693040951e-06   -2.0881874145581812e-06   1.1638497546730825e-05
-4.057416693040951e-06   -2.0881874145581812e-06   1.1638497546730825e-05
-4.057416693040951e-06   -2.0881874145581812e-06   1.1638497546730825e-05
-4.072829817758247e-06   1.551110241243569e-07   7.478001007241489e-06
-4.072829817758247e-06   1.551110241243569e-07   7.478001007241489e-06
-4.072829817758247e-06   1.551110241243569e-07   7.478001007241489e-06
-4.072829817758247e-06   1.551110241243569e-07   7.478001007241489e-06
-6.563979563610325e-06   -1.720157002670444e-06   1.275507806640519e-05
-6.563979563610325e-06   -1.720157002670444e-06   1.275507806640519e-05
-6.563979563610325e-06   -1.720157002670444e-06   1.275507806640519e-05
-6.563979563610325e-06   -1.720157002670444e-06   1.275507806640519e-05
-5.288729543515499e-06   -1.0347122889137412e-06   1.0218394537993221e-05
-5.288729543515499e-06   -1.0347122889137412e-06   1.0218394537993221e-05
-5.288729543515499e-06   -1.0347122889137412e-06   1.0218394537993221e-05
-5.288729543515499e-06   -1.0347122889137412e-06   1.0218394537993221e-05
-6.563979563610329e-06   1.551110241243569e-07   8.603161823318294e-06
-6.563979563610329e-06   1.551110241243569e-07   8.603161823318294e-06
-6.563979563610329e-06   1.551110241243569e-07   8.603161823318294e-06
-6.563979563610329e-06   1.551110241243569e-07   8.603161823318294e-06
-4.0728298177582404e-06   -1.720157002670444e-06   1.1629917250328351e-05
-4.0728298177582404e-06   -1.720157002670444e-06   1.1629917250328351e-05
-4.0728298177582404e-06   -1.720157002670444e-06   1.1629917250328351e-05
-4.0728298177582404e-06   -1.720157002670444e-06   1.1629917250328351e-05
-4.099082726712039e-06   -4.606929390700348e-08   7.699186840712968e-06
-4.099082726712039e-06   -4.606929390700348e-08   7.699186840712968e-06
-4.099082726712039e-06   -4.606929390700348e-08   7.699186840712968e-06
-4.099082726712039e-06   -4.606929390700348e-08   7.699186840712968e-06
-6.664731480702655e-06   -1.7557130120765584e-06   1.3001054328265681e-05
-6.664731480702655e-06   -1.7557130120765584e-06   1.3001054328265681e-05
-6.664731480702655e-06   -1.7557130120765584e-06   1.3001054328265681e-05
-6.664731480702655e-06   -1.7557130120765584e-06   1.3001054328265681e-05
-5.257469220196074e-06   -9.045191897435014e-07   1.0144900934021495e-05
-5.257469220196074e-06   -9.045191897435014e-07   1.0144900934021495e-05
-5.257469220196074e-06   -9.045191897435014e-07   1.0144900934021495e-05
-5.257469220196074e-06   -9.045191897435014e-07   1.0144900934021495e-05
-6.664731480702669e-06   -4.606929390700348e-08   8.724973071614706e-06
-6.664731480702669e-06   -4.606929390700348e-08   8.724973071614706e-06
-6.664731480702669e-06   -4.606929390700348e-08   8.724973071614706e-06
-6.664731480702669e-06   -4.606929390700348e-08   8.724973071614706e-06
-4.099082726712026e-06   -1.7557130120765584e-06   1.197526809736397e-05
-4.099082726712026e-06   -1.7557130120765584e-06   1.197526809736397e-05
-4.099082726712026e-06   -1.7557130120765584e-06   1.197526809736397e-05
-4.099082726712026e-06   -1.7557130120765584e-06   1.197526809736397e-05
-4.071373464271697e-06   -3.082498718506117e-07   7.977508318976072e-06
-4.071373464271697e-06   -3.082498718506117e-07   7.977508318976072e-06
-4.071373464271697e-06   -3.082498718506117e-07   7.977508318976072e-06
-4.071373464271697e-06   -3.082498718506117e-07   7.977508318976072e-06
-6.604632008033693e-06   -1.761995500390264e-06   1.3071853269036472e-05
-6.604632008033693e-06   -1.761995500390264e-06   1.3071853269036472e-05
-6.604632008033693e-06   -1.761995500390264e-06   1.3071853269036472e-05
-6.604632008033693e-06   -1.761995500390264e-06   1.3071853269036472e-05
-5.292828632029977e-06   -1.0090019891254747e-06   1.0433718202271418e-05
-5.292828632029977e-06   -1.0090019891254747e-06   1.0433718202271418e-05
-5.292828632029977e-06   -1.0090019891254747e-06   1.0433718202271418e-05
-5.292828632029977e-06   -1.0090019891254747e-06   1.0433718202271418e-05
-4.057416693040951e-06   9.41200319900604e-08   8.265782672943738e-06
-4.057416693040951e-06   9.41200319900604e-08   8.265782672943738e-06
-4.057416693040951e-06   9.41200319900604e-08   8.265782672943738e-06
-4.057416693040951e-06   9.41200319900604e-08   8.265782672943738e-06
-3.022349686706755e-06   -1.632413082617429e-06   8.95497448140294e-06
-3.022349686706755e-06   -1.632413082617429e-06   8.95497448140294e-06
-3.022349686706755e-06   -1.632413082617429e-06   8.95497448140294e-06
-3.022349686706755e-06   -1.632413082617429e-06   8.95497448140294e-06
-3.0036233826800284e-06   -5.282114601853731e-08   7.293569177198008e-06
-3.0036233826800284e-06   -5.282114601853731e-08   7.293569177198008e-06
-3.0036233826800284e-06   -5.282114601853731e-08   7.293569177198008e-06
-3.0036233826800284e-06   -5.282114601853731e-08   7.293569177198008e-06
-4.0728298177582404e-06   -1.6032679439360322e-06   1.0005847981078934e-05
-4.0728298177582404e-06   -1.6032679439360322e-06   1.0005847981078934e-05
-4.0728298177582404e-06   -1.6032679439360322e-06   1.0005847981078934e-05
-4.0728298177582404e-06   -1.6032679439360322e-06   1.0005847981078934e-05
-3.518560989228164e-06   -8.227480496698285e-07   8.613754663635816e-06
-3.518560989228164e-06   -8.227480496698285e-07   8.613754663635816e-06
-3.518560989228164e-06   -8.227480496698285e-07   8.613754663635816e-06
-3.518560989228164e-06   -8.227480496698285e-07   8.613754663635816e-06
-4.0728298177582404e-06   -5.282114601853731e-08   8.22383725594851e-06
-4.0728298177582404e-06   -5.282114601853731e-08   8.22383725594851e-06
-4.0728298177582404e-06   -5.282114601853731e-08   8.22383725594851e-06
-4.0728298177582404e-06   -5.282114601853731e-08   8.22383725594851e-06
-3.003623382680042e-06   -1.6032679439360593e-06   9.075579902328482e-06
-3.003623382680042e-06   -1.6032679439360593e-06   9.075579902328482e-06
-3.003623382680042e-06   -1.6032679439360593e-06   9.075579902328482e-06
-3.003623382680042e-06   -1.6032679439360593e-06   9.075579902328482e-06
-2.9903499843768035e-06   -2.286123776461626e-07   7.4643682736583086e-06
-2.9903499843768035e-06   -2.286123776461626e-07   7.4643682736583086e-06
-2.9903499843768035e-06   -2.286123776461626e-07   7.4643682736583086e-06
-2.9903499843768035e-06   -2.286123776461626e-07   7.4643682736583086e-06
-4.099082726712026e-06   -1.6502279745526872e-06   1.0165225535694228e-05
-4.099082726712026e-06   -1.6502279745526872e-06   1.0165225535694228e-05
-4.099082726712026e-06   -1.6502279745526872e-06   1.0165225535694228e-05
-4.099082726712026e-06   -1.6502279745526872e-06   1.0165225535694228e-05
-3.495833613387784e-06   -8.729306017404034e-07   8.693431923132913e-06
-3.495833613387784e-06   -8.729306017404034e-07   8.693431923132913e-06
-3.495833613387784e-06   -8.729306017404034e-07   8.693431923132913e-06
-3.495833613387784e-06   -8.729306017404034e-07   8.693431923132913e-06
-4.099082726712026e-06   -2.286123776461084e-07   8.317337631802218e-06
-4.099082726712026e-06   -2.286123776461084e-07   8.317337631802218e-06
-4.099082726712026e-06   -2.286123776461084e-07   8.317337631802218e-06
-4.099082726712026e-06   -2.286123776461084e-07   8.317337631802218e-06
-2.9903499843768035e-06   -1.6502279745526872e-06   9.312256177550319e-06
-2.9903499843768035e-06   -1.6502279745526872e-06   9.312256177550319e-06
-2.9903499843768035e-06   -1.6502279745526872e-06   9.312256177550319e-06
-2.9903499843768035e-06   -1.6502279745526872e-06   9.312256177550319e-06
-2.943337785050394e-06   -4.037533818162988e-07   7.73013353807942e-06
-2.943337785050394e-06   -4.037533818162988e-07   7.73013353807942e-06
-2.943337785050394e-06   -4.037533818162988e-07   7.73013353807942e-06
-2.943337785050394e-06   -4.037533818162988e-07   7.73013353807942e-06
-4.071373464271697e-06   -1.7134929733855038e-06   1.0396036758389721e-05
-4.071373464271697e-06   -1.7134929733855038e-06   1.0396036758389721e-05
-4.071373464271697e-06   -1.7134929733855038e-06   1.0396036758389721e-05
-4.071373464271697e-06   -1.7134929733855038e-06   1.0396036758389721e-05
-3.469890960537312e-06   -9.480732226777228e-07   8.934314068407775e-06
-3.469890960537312e-06   -9.480732226777228e-07   8.934314068407775e-06
-3.469890960537312e-06   -9.480732226777228e-07   8.934314068407775e-06
-3.469890960537312e-06   -9.480732226777228e-07   8.934314068407775e-06
-3.022349686706755e-06   4.366797366558311e-07   5.666050022498469e-06
-3.022349686706755e-06   4.366797366558311e-07   5.666050022498469e-06
-3.022349686706755e-06   4.366797366558311e-07   5.666050022498469e-06
-3.022349686706755e-06   4.366797366558311e-07   5.666050022498469e-06
-2.563763234167865e-06   -6.736009872208707e-07   5.764192342403934e-06
-2.563763234167865e-06   -6.736009872208707e-07   5.764192342403934e-06
-2.563763234167865e-06   -6.736009872208707e-07   5.764192342403934e-06
-2.563763234167865e-06   -6.736009872208707e-07   5.764192342403934e-06
-2.5182254789639965e-06   2.4233676286706564e-07   5.117281660990604e-06
-2.5182254789639965e-06   2.4233676286706564e-07   5.117281660990604e-06
-2.5182254789639965e-06   2.4233676286706564e-07   5.117281660990604e-06
-2.5182254789639965e-06   2.4233676286706564e-07   5.117281660990604e-06
-3.0036233826800284e-06   -7.849883522976662e-07   6.542673236282863e-06
-3.0036233826800284e-06   -7.849883522976662e-07   6.542673236282863e-06
-3.0036233826800284e-06   -7.849883522976662e-07   6.542673236282863e-06
-3.0036233826800284e-06   -7.849883522976662e-07   6.542673236282863e-06
-2.7571524338314003e-06   -1.5428524317270863e-07   5.753466456060352e-06
-2.7571524338314003e-06   -1.5428524317270863e-07   5.753466456060352e-06
-2.7571524338314003e-06   -1.5428524317270863e-07   5.753466456060352e-06
-2.7571524338314003e-06   -1.5428524317270863e-07   5.753466456060352e-06
-3.0036233826800284e-06   2.4233676286706564e-07   5.733676730089454e-06
-3.0036233826800284e-06   2.4233676286706564e-07   5.733676730089454e-06
-3.0036233826800284e-06   2.4233676286706564e-07   5.733676730089454e-06
-3.0036233826800284e-06   2.4233676286706564e-07   5.733676730089454e-06
-2.5182254789639965e-06   -7.849883522976662e-07   5.92627816718404e-06
-2.5182254789639965e-06   -7.849883522976662e-07   5.92627816718404e-06
-2.5182254789639965e-06   -7.849883522976662e-07   5.92627816718404e-06
-2.5182254789639965e-06   -7.849883522976662e-07   5.92627816718404e-06
-2.503244489409891e-06   7.55056216489758e-08   5.35658308365442e-06
-2.503244489409891e-06   7.55056216489758e-08   5.35658308365442e-06
-2.503244489409891e-06   7.55056216489758e-08   5.35658308365442e-06
-2.503244489409891e-06   7.55056216489758e-08   5.35658308365442e-06
-2.99034998437679e-06   -8.709518151786316e-07   6.736300037362466e-06
-2.99034998437679e-06   -8.709518151786316e-07   6.736300037362466e-06
-2.99034998437679e-06   -8.709518151786316e-07   6.736300037362466e-06
-2.99034998437679e-06   -8.709518151786316e-07   6.736300037362466e-06
-2.7116831326048273e-06   -2.712979671051297e-07   5.91206297556482e-06
-2.7116831326048273e-06   -2.712979671051297e-07   5.91206297556482e-06
-2.7116831326048273e-06   -2.712979671051297e-07   5.91206297556482e-06
-2.7116831326048273e-06   -2.712979671051297e-07   5.91206297556482e-06
-2.99034998437679e-06   7.55056216489758e-08   5.924457545750968e-06
-2.99034998437679e-06   7.55056216489758e-08   5.924457545750968e-06
-2.99034998437679e-06   7.55056216489758e-08   5.924457545750968e-06
-2.99034998437679e-06   7.55056216489758e-08   5.924457545750968e-06
-2.503244489409891e-06   -8.709518151786316e-07   6.168425575265877e-06
-2.503244489409891e-06   -8.709518151786316e-07   6.168425575265877e-06
-2.503244489409891e-06   -8.709518151786316e-07   6.168425575265877e-06
-2.503244489409891e-06   -8.709518151786316e-07   6.168425575265877e-06
-2.4724498722926294e-06   -9.294538899922052e-08   5.657069964605456e-06
-2.4724498722926294e-06   -9.294538899922052e-08   5.657069964605456e-06
-2.4724498722926294e-06   -9.294538899922052e-08   5.657069964605456e-06
-2.4724498722926294e-06   -9.294538899922052e-08   5.657069964605456e-06
-2.943337785050394e-06   -9.828094005118768e-07   6.975801559442566e-06
-2.943337785050394e-06   -9.828094005118768e-07   6.975801559442566e-06
-2.943337785050394e-06   -9.828094005118768e-07   6.975801559442566e-06
-2.943337785050394e-06   -9.828094005118768e-07   6.975801559442566e-06
-2.6798509645885007e-06   -3.747344339246261e-07   6.171811878720549e-06
-2.6798509645885007e-06   -3.747344339246261e-07   6.171811878720549e-06
-2.6798509645885007e-06   -3.747344339246261e-07   6.171811878720549e-06
-2.6798509645885007e-06   -3.747344339246261e-07   6.171811878720549e-06
-2.563763234167865e-06   7.290827219834915e-07   1.3602712595671364e-06
-2.563763234167865e-06   7.290827219834915e-07   1.3602712595671364e-06
-2.563763234167865e-06   7.290827219834915e-07   1.3602712595671364e-06
-2.563763234167865e-06   7.290827219834915e-07   1.3602712595671364e-06
-1.5506544680908704e-06   -6.928266972939536e-08   2.5697666346677307e-06
-1.5506544680908704e-06   -6.928266972939536e-08   2.5697666346677307e-06
-1.5506544680908704e-06   -6.928266972939536e-08   2.5697666346677307e-06
-1.5506544680908704e-06   -6.928266972939536e-08   2.5697666346677307e-06
-1.6462121706905804e-06   5.903618378515847e-07   1.3756658804278026e-06
-1.6462121706905804e-06   5.903618378515847e-07   1.3756658804278026e-06
-1.6462121706905804e-06   5.903618378515847e-07   1.3756658804278026e-06
-1.6462121706905804e-06   5.903618378515847e-07   1.3756658804278026e-06
-2.5182254789639965e-06   -9.914898174955824e-08   3.2427278859776545e-06
-2.5182254789639965e-06   -9.914898174955824e-08   3.2427278859776545e-06
-2.5182254789639965e-06   -9.914898174955824e-08   3.2427278859776545e-06
-2.5182254789639965e-06   -9.914898174955824e-08   3.2427278859776545e-06
-1.9983422414842744e-06   3.7631373912114696e-07   2.0909781909890404e-06
-1.9983422414842744e-06   3.7631373912114696e-07   2.0909781909890404e-06
-1.9983422414842744e-06   3.7631373912114696e-07   2.0909781909890404e-06
-1.9983422414842744e-06   3.7631373912114696e-07   2.0909781909890404e-06
-2.5182254789640236e-06   5.903618378515305e-07   1.7893723721884287e-06
-2.5182254789640236e-06   5.903618378515305e-07   1.7893723721884287e-06
-2.5182254789640236e-06   5.903618378515305e-07   1.7893723721884287e-06
-2.5182254789640236e-06   5.903618378515305e-07   1.7893723721884287e-06
-1.6462121706905804e-06   -9.914898174955824e-08   2.829021394216947e-06
-1.6462121706905804e-06   -9.914898174955824e-08   2.829021394216947e-06
-1.6462121706905804e-06   -9.914898174955824e-08   2.829021394216947e-06
-1.6462121706905804e-06   -9.914898174955824e-08   2.829021394216947e-06
-1.7258756059071174e-06   4.99953749108278e-07   1.768138036579265e-06
-1.7258756059071174e-06   4.99953749108278e-07   1.768138036579265e-06
-1.7258756059071174e-06   4.99953749108278e-07   1.768138036579265e-06
-1.7258756059071174e-06   4.99953749108278e-07   1.768138036579265e-06
-2.503244489409891e-06   -1.3873249334620192e-07   3.4469645878897536e-06
-2.503244489409891e-06   -1.3873249334620192e-07   3.4469645878897536e-06
-2.503244489409891e-06   -1.3873249334620192e-07   3.4469645878897536e-06
-2.503244489409891e-06   -1.3873249334620192e-07   3.4469645878897536e-06
-2.043496942835427e-06   3.092580704718798e-07   2.41192433864145e-06
-2.043496942835427e-06   3.092580704718798e-07   2.41192433864145e-06
-2.043496942835427e-06   3.092580704718798e-07   2.41192433864145e-06
-2.043496942835427e-06   3.092580704718798e-07   2.41192433864145e-06
-2.503244489409891e-06   4.99953749108278e-07   2.151349782051942e-06
-2.503244489409891e-06   4.99953749108278e-07   2.151349782051942e-06
-2.503244489409891e-06   4.99953749108278e-07   2.151349782051942e-06
-2.503244489409891e-06   4.99953749108278e-07   2.151349782051942e-06
-1.7258756059070903e-06   -1.387324933461748e-07   3.063752842417185e-06
-1.7258756059070903e-06   -1.387324933461748e-07   3.063752842417185e-06
-1.7258756059070903e-06   -1.387324933461748e-07   3.063752842417185e-06
-1.7258756059070903e-06   -1.387324933461748e-07   3.063752842417185e-06
-1.9055735686855375e-06   3.146611824998203e-07   2.470685590209897e-06
-1.9055735686855375e-06   3.146611824998203e-07   2.470685590209897e-06
-1.9055735686855375e-06   3.146611824998203e-07   2.470685590209897e-06
-1.9055735686855375e-06   3.146611824998203e-07   2.470685590209897e-06
-2.4724498722926294e-06   -1.8964230009935906e-07   3.718061519114612e-06
-2.4724498722926294e-06   -1.8964230009935906e-07   3.718061519114612e-06
-2.4724498722926294e-06   -1.8964230009935906e-07   3.718061519114612e-06
-2.4724498722926294e-06   -1.8964230009935906e-07   3.718061519114612e-06
-2.0564307602716046e-06   2.623698926687188e-07   2.753489016752038e-06
-2.0564307602716046e-06   2.623698926687188e-07   2.753489016752038e-06
-2.0564307602716046e-06   2.623698926687188e-07   2.753489016752038e-06
-2.0564307602716046e-06   2.623698926687188e-07   2.753489016752038e-06
-2.2904072262800452e-05   1.759579362820517e-06   1.0227972362696636e-05
-2.2904072262800452e-05   1.759579362820517e-06   1.0227972362696636e-05
-2.2904072262800452e-05   1.759579362820517e-06   1.0227972362696636e-05
-2.2904072262800452e-05   1.759579362820517e-06   1.0227972362696636e-05
-5.336934138921043e-06   -1.1698367653934134e-05   3.143176769244288e-05
-5.336934138921043e-06   -1.1698367653934134e-05   3.143176769244288e-05
-5.336934138921043e-06   -1.1698367653934134e-05   3.143176769244288e-05
-5.336934138921043e-06   -1.1698367653934134e-05   3.143176769244288e-05
-6.2967423617328385e-06   6.813363294071032e-07   5.572936684422192e-06
-6.2967423617328385e-06   6.813363294071032e-07   5.572936684422192e-06
-6.2967423617328385e-06   6.813363294071032e-07   5.572936684422192e-06
-6.2967423617328385e-06   6.813363294071032e-07   5.572936684422192e-06
-2.088950987520332e-05   -9.169008707129813e-06   3.580442289546177e-05
-2.088950987520332e-05   -9.169008707129813e-06   3.580442289546177e-05
-2.088950987520332e-05   -9.169008707129813e-06   3.580442289546177e-05
-2.088950987520332e-05   -9.169008707129813e-06   3.580442289546177e-05
-1.3915451869759641e-05   -4.5613925594120865e-06   2.1416423197758337e-05
-1.3915451869759641e-05   -4.5613925594120865e-06   2.1416423197758337e-05
-1.3915451869759641e-05   -4.5613925594120865e-06   2.1416423197758337e-05
-1.3915451869759641e-05   -4.5613925594120865e-06   2.1416423197758337e-05
-2.0889509875203283e-05   6.813363294071032e-07   1.1483143706344349e-05
-2.0889509875203283e-05   6.813363294071032e-07   1.1483143706344349e-05
-2.0889509875203283e-05   6.813363294071032e-07   1.1483143706344349e-05
-2.0889509875203283e-05   6.813363294071032e-07   1.1483143706344349e-05
-6.296742361732852e-06   -9.169008707129813e-06   2.989421587353961e-05
-6.296742361732852e-06   -9.169008707129813e-06   2.989421587353961e-05
-6.296742361732852e-06   -9.169008707129813e-06   2.989421587353961e-05
-6.296742361732852e-06   -9.169008707129813e-06   2.989421587353961e-05
-6.4553914356326544e-06   4.777376978114224e-07   6.126929123998112e-06
-6.4553914356326544e-06   4.777376978114224e-07   6.126929123998112e-06
-6.4553914356326544e-06   4.777376978114224e-07   6.126929123998112e-06
-6.4553914356326544e-06   4.777376978114224e-07   6.126929123998112e-06
-1.9713417059535957e-05   -7.960423215142696e-06   3.328653504494271e-05
-1.9713417059535957e-05   -7.960423215142696e-06   3.328653504494271e-05
-1.9713417059535957e-05   -7.960423215142696e-06   3.328653504494271e-05
-1.9713417059535957e-05   -7.960423215142696e-06   3.328653504494271e-05
-1.35120409336844e-05   -4.3295576987169385e-06   2.0772388858668007e-05
-1.35120409336844e-05   -4.3295576987169385e-06   2.0772388858668007e-05
-1.35120409336844e-05   -4.3295576987169385e-06   2.0772388858668007e-05
-1.35120409336844e-05   -4.3295576987169385e-06   2.0772388858668007e-05
-1.9713417059535923e-05   4.777376978114224e-07   1.118982567177057e-05
-1.9713417059535923e-05   4.777376978114224e-07   1.118982567177057e-05
-1.9713417059535923e-05   4.777376978114224e-07   1.118982567177057e-05
-1.9713417059535923e-05   4.777376978114224e-07   1.118982567177057e-05
-6.455391435632665e-06   -7.960423215142696e-06   2.822363849717024e-05
-6.455391435632665e-06   -7.960423215142696e-06   2.822363849717024e-05
-6.455391435632665e-06   -7.960423215142696e-06   2.822363849717024e-05
-6.455391435632665e-06   -7.960423215142696e-06   2.822363849717024e-05
-7.104358294116878e-06   -3.946948912801748e-07   7.65713900863369e-06
-7.104358294116878e-06   -3.946948912801748e-07   7.65713900863369e-06
-7.104358294116878e-06   -3.946948912801748e-07   7.65713900863369e-06
-7.104358294116878e-06   -3.946948912801748e-07   7.65713900863369e-06
-1.820041115727702e-05   -6.348888398122182e-06   2.9723076551339086e-05
-1.820041115727702e-05   -6.348888398122182e-06   2.9723076551339086e-05
-1.820041115727702e-05   -6.348888398122182e-06   2.9723076551339086e-05
-1.820041115727702e-05   -6.348888398122182e-06   2.9723076551339086e-05
-1.301368113121157e-05   -4.0001801093896445e-06   1.9669301534657162e-05
-1.301368113121157e-05   -4.0001801093896445e-06   1.9669301534657162e-05
-1.301368113121157e-05   -4.0001801093896445e-06   1.9669301534657162e-05
-1.301368113121157e-05   -4.0001801093896445e-06   1.9669301534657162e-05
-5.336934138921033e-06   -2.0881874145581812e-06   5.886382454919681e-06
-5.336934138921033e-06   -2.0881874145581812e-06   5.886382454919681e-06
-5.336934138921033e-06   -2.0881874145581812e-06   5.886382454919681e-06
-5.336934138921033e-06   -2.0881874145581812e-06   5.886382454919681e-06
-1.8451589079049216e-06   -3.7663114844904198e-06   1.0699133397987244e-05
-1.8451589079049216e-06   -3.7663114844904198e-06   1.0699133397987244e-05
-1.8451589079049216e-06   -3.7663114844904198e-06   1.0699133397987244e-05
-1.8451589079049216e-06   -3.7663114844904198e-06   1.0699133397987244e-05
-2.0803649373053035e-06   -1.720157002670417e-06   5.167227387911194e-06
-2.0803649373053035e-06   -1.720157002670417e-06   5.167227387911194e-06
-2.0803649373053035e-06   -1.720157002670417e-06   5.167227387911194e-06
-2.0803649373053035e-06   -1.720157002670417e-06   5.167227387911194e-06
-6.296742361732852e-06   -4.9350426801105065e-06   1.4123454501754456e-05
-6.296742361732852e-06   -4.9350426801105065e-06   1.4123454501754456e-05
-6.296742361732852e-06   -4.9350426801105065e-06   1.4123454501754456e-05
-6.296742361732852e-06   -4.9350426801105065e-06   1.4123454501754456e-05
-3.686680953303024e-06   -2.564491944482937e-06   8.351021712994821e-06
-3.686680953303024e-06   -2.564491944482937e-06   8.351021712994821e-06
-3.686680953303024e-06   -2.564491944482937e-06   8.351021712994821e-06
-3.686680953303024e-06   -2.564491944482937e-06   8.351021712994821e-06
-6.296742361732835e-06   -1.720157002670417e-06   7.0961587943751655e-06
-6.296742361732835e-06   -1.720157002670417e-06   7.0961587943751655e-06
-6.296742361732835e-06   -1.720157002670417e-06   7.0961587943751655e-06
-6.296742361732835e-06   -1.720157002670417e-06   7.0961587943751655e-06
-2.0803649373053035e-06   -4.9350426801105065e-06   1.2194523095290413e-05
-2.0803649373053035e-06   -4.9350426801105065e-06   1.2194523095290413e-05
-2.0803649373053035e-06   -4.9350426801105065e-06   1.2194523095290413e-05
-2.0803649373053035e-06   -4.9350426801105065e-06   1.2194523095290413e-05
-2.2833471770059396e-06   -1.7557130120765584e-06   5.81240803318789e-06
-2.2833471770059396e-06   -1.7557130120765584e-06   5.81240803318789e-06
-2.2833471770059396e-06   -1.7557130120765584e-06   5.81240803318789e-06
-2.2833471770059396e-06   -1.7557130120765584e-06   5.81240803318789e-06
-6.455391435632665e-06   -4.545850053908629e-06   1.443989735599828e-05
-6.455391435632665e-06   -4.545850053908629e-06   1.443989735599828e-05
-6.455391435632665e-06   -4.545850053908629e-06   1.443989735599828e-05
-6.455391435632665e-06   -4.545850053908629e-06   1.443989735599828e-05
-4.1787333403350055e-06   -3.1169257223472773e-06   9.788112598232111e-06
-4.1787333403350055e-06   -3.1169257223472773e-06   9.788112598232111e-06
-4.1787333403350055e-06   -3.1169257223472773e-06   9.788112598232111e-06
-4.1787333403350055e-06   -3.1169257223472773e-06   9.788112598232111e-06
-6.4553914356326544e-06   -1.7557130120765584e-06   7.4864902582871216e-06
-6.4553914356326544e-06   -1.7557130120765584e-06   7.4864902582871216e-06
-6.4553914356326544e-06   -1.7557130120765584e-06   7.4864902582871216e-06
-6.4553914356326544e-06   -1.7557130120765584e-06   7.4864902582871216e-06
-2.283347177005953e-06   -4.545850053908629e-06   1.2765815130899049e-05
-2.283347177005953e-06   -4.545850053908629e-06   1.2765815130899049e-05
-2.283347177005953e-06   -4.545850053908629e-06   1.2765815130899049e-05
-2.283347177005953e-06   -4.545850053908629e-06   1.2765815130899049e-05
-2.6167331771585826e-06   -1.761995500390264e-06   6.37514357701282e-06
-2.6167331771585826e-06   -1.761995500390264e-06   6.37514357701282e-06
-2.6167331771585826e-06   -1.761995500390264e-06   6.37514357701282e-06
-2.6167331771585826e-06   -1.761995500390264e-06   6.37514357701282e-06
-7.1043582941168844e-06   -4.296935275395965e-06   1.5375482636946726e-05
-7.1043582941168844e-06   -4.296935275395965e-06   1.5375482636946726e-05
-7.1043582941168844e-06   -4.296935275395965e-06   1.5375482636946726e-05
-7.1043582941168844e-06   -4.296935275395965e-06   1.5375482636946726e-05
-4.47703357105272e-06   -2.8489451999144687e-06   1.0127814053217569e-05
-4.47703357105272e-06   -2.8489451999144687e-06   1.0127814053217569e-05
-4.47703357105272e-06   -2.8489451999144687e-06   1.0127814053217569e-05
-4.47703357105272e-06   -2.8489451999144687e-06   1.0127814053217569e-05
-1.845158907904908e-06   -1.6324130826174562e-06   3.231904816396934e-06
-1.845158907904908e-06   -1.6324130826174562e-06   3.231904816396934e-06
-1.845158907904908e-06   -1.6324130826174562e-06   3.231904816396934e-06
-1.845158907904908e-06   -1.6324130826174562e-06   3.231904816396934e-06
-1.0380701473953108e-06   -1.1313193729031066e-06   4.877708976408208e-06
-1.0380701473953108e-06   -1.1313193729031066e-06   4.877708976408208e-06
-1.0380701473953108e-06   -1.1313193729031066e-06   4.877708976408208e-06
-1.0380701473953108e-06   -1.1313193729031066e-06   4.877708976408208e-06
-1.007741618191336e-06   -1.6032679439360322e-06   3.63219108031205e-06
-1.007741618191336e-06   -1.6032679439360322e-06   3.63219108031205e-06
-1.007741618191336e-06   -1.6032679439360322e-06   3.63219108031205e-06
-1.007741618191336e-06   -1.6032679439360322e-06   3.63219108031205e-06
-2.0803649373053035e-06   -1.4548796745189525e-06   5.330863650518334e-06
-2.0803649373053035e-06   -1.4548796745189525e-06   5.330863650518334e-06
-2.0803649373053035e-06   -1.4548796745189525e-06   5.330863650518334e-06
-2.0803649373053035e-06   -1.4548796745189525e-06   5.330863650518334e-06
-1.3974215000437848e-06   -1.3649040794707338e-06   4.1386392313868105e-06
-1.3974215000437848e-06   -1.3649040794707338e-06   4.1386392313868105e-06
-1.3974215000437848e-06   -1.3649040794707338e-06   4.1386392313868105e-06
-1.3974215000437848e-06   -1.3649040794707338e-06   4.1386392313868105e-06
-2.08036493730529e-06   -1.6032679439360593e-06   3.543158118661803e-06
-2.08036493730529e-06   -1.6032679439360593e-06   3.543158118661803e-06
-2.08036493730529e-06   -1.6032679439360593e-06   3.543158118661803e-06
-2.08036493730529e-06   -1.6032679439360593e-06   3.543158118661803e-06
-1.007741618191336e-06   -1.4548796745189525e-06   5.419896612168595e-06
-1.007741618191336e-06   -1.4548796745189525e-06   5.419896612168595e-06
-1.007741618191336e-06   -1.4548796745189525e-06   5.419896612168595e-06
-1.007741618191336e-06   -1.4548796745189525e-06   5.419896612168595e-06
-1.019775738696869e-06   -1.6502279745526872e-06   3.890260694885104e-06
-1.019775738696869e-06   -1.6502279745526872e-06   3.890260694885104e-06
-1.019775738696869e-06   -1.6502279745526872e-06   3.890260694885104e-06
-1.019775738696869e-06   -1.6502279745526872e-06   3.890260694885104e-06
-2.283347177005953e-06   -1.837069268941104e-06   6.108317868699925e-06
-2.283347177005953e-06   -1.837069268941104e-06   6.108317868699925e-06
-2.283347177005953e-06   -1.837069268941104e-06   6.108317868699925e-06
-2.283347177005953e-06   -1.837069268941104e-06   6.108317868699925e-06
-1.4945508966928228e-06   -1.4917164826923384e-06   4.586445729762073e-06
-1.4945508966928228e-06   -1.4917164826923384e-06   4.586445729762073e-06
-1.4945508966928228e-06   -1.4917164826923384e-06   4.586445729762073e-06
-1.4945508966928228e-06   -1.4917164826923384e-06   4.586445729762073e-06
-2.2833471770059396e-06   -1.6502279745526872e-06   4.002365471518154e-06
-2.2833471770059396e-06   -1.6502279745526872e-06   4.002365471518154e-06
-2.2833471770059396e-06   -1.6502279745526872e-06   4.002365471518154e-06
-2.2833471770059396e-06   -1.6502279745526872e-06   4.002365471518154e-06
-1.019775738696869e-06   -1.837069268941104e-06   5.996213092066861e-06
-1.019775738696869e-06   -1.837069268941104e-06   5.996213092066861e-06
-1.019775738696869e-06   -1.837069268941104e-06   5.996213092066861e-06
-1.019775738696869e-06   -1.837069268941104e-06   5.996213092066861e-06
-1.0539376148298302e-06   -1.7134929733855309e-06   4.280430885573837e-06
-1.0539376148298302e-06   -1.7134929733855309e-06   4.280430885573837e-06
-1.0539376148298302e-06   -1.7134929733855309e-06   4.280430885573837e-06
-1.0539376148298302e-06   -1.7134929733855309e-06   4.280430885573837e-06
-2.616733177158569e-06   -2.1987322365789795e-06   7.176233714037761e-06
-2.616733177158569e-06   -2.1987322365789795e-06   7.176233714037761e-06
-2.616733177158569e-06   -2.1987322365789795e-06   7.176233714037761e-06
-2.616733177158569e-06   -2.1987322365789795e-06   7.176233714037761e-06
-1.6076716321309465e-06   -1.6195025283308775e-06   5.14692664737619e-06
-1.6076716321309465e-06   -1.6195025283308775e-06   5.14692664737619e-06
-1.6076716321309465e-06   -1.6195025283308775e-06   5.14692664737619e-06
-1.6076716321309465e-06   -1.6195025283308775e-06   5.14692664737619e-06
-1.0380701473953108e-06   -6.736009872208707e-07   1.0079473375526274e-06
-1.0380701473953108e-06   -6.736009872208707e-07   1.0079473375526274e-06
-1.0380701473953108e-06   -6.736009872208707e-07   1.0079473375526274e-06
-1.0380701473953108e-06   -6.736009872208707e-07   1.0079473375526274e-06
-7.904872826177366e-07   1.0437353025616872e-07   1.887370156001476e-06
-7.904872826177366e-07   1.0437353025616872e-07   1.887370156001476e-06
-7.904872826177366e-07   1.0437353025616872e-07   1.887370156001476e-06
-7.904872826177366e-07   1.0437353025616872e-07   1.887370156001476e-06
-6.482811593934673e-07   -7.849883522976662e-07   1.5590895077452266e-06
-6.482811593934673e-07   -7.849883522976662e-07   1.5590895077452266e-06
-6.482811593934673e-07   -7.849883522976662e-07   1.5590895077452266e-06
-6.482811593934673e-07   -7.849883522976662e-07   1.5590895077452266e-06
-1.007741618191336e-06   -1.8646529833039785e-08   1.698385178929506e-06
-1.007741618191336e-06   -1.8646529833039785e-08   1.698385178929506e-06
-1.007741618191336e-06   -1.8646529833039785e-08   1.698385178929506e-06
-1.007741618191336e-06   -1.8646529833039785e-08   1.698385178929506e-06
-8.166347788018561e-07   -3.4373417957810103e-07   1.57492636979398e-06
-8.166347788018561e-07   -3.4373417957810103e-07   1.57492636979398e-06
-8.166347788018561e-07   -3.4373417957810103e-07   1.57492636979398e-06
-8.166347788018561e-07   -3.4373417957810103e-07   1.57492636979398e-06
-1.007741618191336e-06   -7.849883522976662e-07   1.0992844142664819e-06
-1.007741618191336e-06   -7.849883522976662e-07   1.0992844142664819e-06
-1.007741618191336e-06   -7.849883522976662e-07   1.0992844142664819e-06
-1.007741618191336e-06   -7.849883522976662e-07   1.0992844142664819e-06
-6.482811593934673e-07   -1.8646529833039785e-08   2.1581902724082777e-06
-6.482811593934673e-07   -1.8646529833039785e-08   2.1581902724082777e-06
-6.482811593934673e-07   -1.8646529833039785e-08   2.1581902724082777e-06
-6.482811593934673e-07   -1.8646529833039785e-08   2.1581902724082777e-06
-5.739722107946945e-07   -8.709518151786587e-07   1.7136557192378886e-06
-5.739722107946945e-07   -8.709518151786587e-07   1.7136557192378886e-06
-5.739722107946945e-07   -8.709518151786587e-07   1.7136557192378886e-06
-5.739722107946945e-07   -8.709518151786587e-07   1.7136557192378886e-06
-1.019775738696869e-06   -2.0536654094437137e-07   2.0573104345340874e-06
-1.019775738696869e-06   -2.0536654094437137e-07   2.0573104345340874e-06
-1.019775738696869e-06   -2.0536654094437137e-07   2.0573104345340874e-06
-1.019775738696869e-06   -2.0536654094437137e-07   2.0573104345340874e-06
-7.482523154274425e-07   -4.3434010477751443e-07   1.7421555340516731e-06
-7.482523154274425e-07   -4.3434010477751443e-07   1.7421555340516731e-06
-7.482523154274425e-07   -4.3434010477751443e-07   1.7421555340516731e-06
-7.482523154274425e-07   -4.3434010477751443e-07   1.7421555340516731e-06
-1.0197757386968555e-06   -8.709518151786587e-07   1.3143045546972382e-06
-1.0197757386968555e-06   -8.709518151786587e-07   1.3143045546972382e-06
-1.0197757386968555e-06   -8.709518151786587e-07   1.3143045546972382e-06
-1.0197757386968555e-06   -8.709518151786587e-07   1.3143045546972382e-06
-5.739722107946945e-07   -2.0536654094437137e-07   2.45666159907467e-06
-5.739722107946945e-07   -2.0536654094437137e-07   2.45666159907467e-06
-5.739722107946945e-07   -2.0536654094437137e-07   2.45666159907467e-06
-5.739722107946945e-07   -2.0536654094437137e-07   2.45666159907467e-06
-4.6052827615356766e-07   -9.828094005118768e-07   1.8886399049016563e-06
-4.6052827615356766e-07   -9.828094005118768e-07   1.8886399049016563e-06
-4.6052827615356766e-07   -9.828094005118768e-07   1.8886399049016563e-06
-4.6052827615356766e-07   -9.828094005118768e-07   1.8886399049016563e-06
-1.0539376148298302e-06   -5.784752949560808e-07   2.6350550060285586e-06
-1.0539376148298302e-06   -5.784752949560808e-07   2.6350550060285586e-06
-1.0539376148298302e-06   -5.784752949560808e-07   2.6350550060285586e-06
-1.0539376148298302e-06   -5.784752949560808e-07   2.6350550060285586e-06
-6.967118347835495e-07   -5.689349622349103e-07   2.033954506318927e-06
-6.967118347835495e-07   -5.689349622349103e-07   2.033954506318927e-06
-6.967118347835495e-07   -5.689349622349103e-07   2.033954506318927e-06
-6.967118347835495e-07   -5.689349622349103e-07   2.033954506318927e-06
-7.904872826177366e-07   -6.928266972939536e-08   -1.240674424669684e-06
-7.904872826177366e-07   -6.928266972939536e-08   -1.240674424669684e-06
-7.904872826177366e-07   -6.928266972939536e-08   -1.240674424669684e-06
-7.904872826177366e-07   -6.928266972939536e-08   -1.240674424669684e-06
-1.6777485416008325e-07   1.0484971734391578e-07   -9.834094499627322e-08
-1.6777485416008325e-07   1.0484971734391578e-07   -9.834094499627322e-08
-1.6777485416008325e-07   1.0484971734391578e-07   -9.834094499627322e-08
-1.6777485416008325e-07   1.0484971734391578e-07   -9.834094499627322e-08
-2.8895616848188333e-08   -9.914898174955824e-08   -9.581121806307921e-07
-2.8895616848188333e-08   -9.914898174955824e-08   -9.581121806307921e-07
-2.8895616848188333e-08   -9.914898174955824e-08   -9.581121806307921e-07
-2.8895616848188333e-08   -9.914898174955824e-08   -9.581121806307921e-07
-6.482811593934673e-07   1.780986729677668e-07   -9.215153588582091e-08
-6.482811593934673e-07   1.780986729677668e-07   -9.215153588582091e-08
-6.482811593934673e-07   1.780986729677668e-07   -9.215153588582091e-08
-6.482811593934673e-07   1.780986729677668e-07   -9.215153588582091e-08
-3.735937176898034e-07   5.0981233061831734e-08   -4.7369347478179707e-07
-3.735937176898034e-07   5.0981233061831734e-08   -4.7369347478179707e-07
-3.735937176898034e-07   5.0981233061831734e-08   -4.7369347478179707e-07
-3.735937176898034e-07   5.0981233061831734e-08   -4.7369347478179707e-07
-6.482811593934673e-07   -9.914898174955824e-08   -1.1244607734613084e-06
-6.482811593934673e-07   -9.914898174955824e-08   -1.1244607734613084e-06
-6.482811593934673e-07   -9.914898174955824e-08   -1.1244607734613084e-06
-6.482811593934673e-07   -9.914898174955824e-08   -1.1244607734613084e-06
-2.8895616848188333e-08   1.780986729677668e-07   7.419705694457343e-08
-2.8895616848188333e-08   1.780986729677668e-07   7.419705694457343e-08
-2.8895616848188333e-08   1.780986729677668e-07   7.419705694457343e-08
-2.8895616848188333e-08   1.780986729677668e-07   7.419705694457343e-08
3.995232338913752e-08   -1.387324933461748e-07   -8.385691021210273e-07
3.995232338913752e-08   -1.387324933461748e-07   -8.385691021210273e-07
3.995232338913752e-08   -1.387324933461748e-07   -8.385691021210273e-07
3.995232338913752e-08   -1.387324933461748e-07   -8.385691021210273e-07
-5.739722107946945e-07   1.4332778334904582e-07   1.5402288834913316e-08
-5.739722107946945e-07   1.4332778334904582e-07   1.5402288834913316e-08
-5.739722107946945e-07   1.4332778334904582e-07   1.5402288834913316e-08
-5.739722107946945e-07   1.4332778334904582e-07   1.5402288834913316e-08
-2.729330307873562e-07   3.254846852808371e-08   -4.1986208895126173e-07
-2.729330307873562e-07   3.254846852808371e-08   -4.1986208895126173e-07
-2.729330307873562e-07   3.254846852808371e-08   -4.1986208895126173e-07
-2.729330307873562e-07   3.254846852808371e-08   -4.1986208895126173e-07
-5.739722107946945e-07   -1.387324933461748e-07   -1.0078052681381671e-06
-5.739722107946945e-07   -1.387324933461748e-07   -1.0078052681381671e-06
-5.739722107946945e-07   -1.387324933461748e-07   -1.0078052681381671e-06
-5.739722107946945e-07   -1.387324933461748e-07   -1.0078052681381671e-06
3.995232338913752e-08   1.4332778334904582e-07   1.8463845485205315e-07
3.995232338913752e-08   1.4332778334904582e-07   1.8463845485205315e-07
3.995232338913752e-08   1.4332778334904582e-07   1.8463845485205315e-07
3.995232338913752e-08   1.4332778334904582e-07   1.8463845485205315e-07
1.2305392006896993e-07   -1.8964230009935906e-07   -6.581686885084263e-07
1.2305392006896993e-07   -1.8964230009935906e-07   -6.581686885084263e-07
1.2305392006896993e-07   -1.8964230009935906e-07   -6.581686885084263e-07
1.2305392006896993e-07   -1.8964230009935906e-07   -6.581686885084263e-07
-4.6052827615356766e-07   1.0537943325115725e-07   1.374552651854568e-07
-4.6052827615356766e-07   1.0537943325115725e-07   1.374552651854568e-07
-4.6052827615356766e-07   1.0537943325115725e-07   1.374552651854568e-07
-4.6052827615356766e-07   1.0537943325115725e-07   1.374552651854568e-07
-1.8272716653459345e-07   8.476478445692236e-09   -2.674048112962218e-07
-1.8272716653459345e-07   8.476478445692236e-09   -2.674048112962218e-07
-1.8272716653459345e-07   8.476478445692236e-09   -2.674048112962218e-07
-1.8272716653459345e-07   8.476478445692236e-09   -2.674048112962218e-07
              </DataArray>   
             <DataArray type="Float64" NumberOfComponents="3" Name="Stress" format="ascii">   
-1.1963337128571487   -0.2990834282142872   -0.2990834282142872
-1.1963337128571487   -0.2990834282142872   -0.2990834282142872
-1.1963337128571487   -0.2990834282142872   -0.2990834282142872
-1.1963337128571487   -0.2990834282142872   -0.2990834282142872
-0.6920172982610324   -0.02253634626853232   -0.01411448459987593
-0.6920172982610324   -0.02253634626853232   -0.01411448459987593
-0.6920172982610324   -0.02253634626853232   -0.01411448459987593
-0.6920172982610324   -0.02253634626853232   -0.01411448459987593
-0.7453834114909577   -0.18634585287273941   -0.18634585287273941
-0.7453834114909577   -0.18634585287273941   -0.18634585287273941
-0.7453834114909577   -0.18634585287273941   -0.18634585287273941
-0.7453834114909577   -0.18634585287273941   -0.18634585287273941
-1.1527833821248232   -0.09515011638838083   -0.03653959118646975
-1.1527833821248232   -0.09515011638838083   -0.03653959118646975
-1.1527833821248232   -0.09515011638838083   -0.03653959118646975
-1.1527833821248232   -0.09515011638838083   -0.03653959118646975
-0.9039760348708322   -0.14848710255689987   -0.0025295420140296117
-0.9039760348708322   -0.14848710255689987   -0.0025295420140296117
-0.9039760348708322   -0.14848710255689987   -0.0025295420140296117
-0.9039760348708322   -0.14848710255689987   -0.0025295420140296117
-1.251606045122061   -0.31290151128051524   -0.31290151128051524
-1.251606045122061   -0.31290151128051524   -0.31290151128051524
-1.251606045122061   -0.31290151128051524   -0.31290151128051524
-1.251606045122061   -0.31290151128051524   -0.31290151128051524
-0.670046242505513   0.007920048007603542   -0.003925908825859012
-0.670046242505513   0.007920048007603542   -0.003925908825859012
-0.670046242505513   0.007920048007603542   -0.003925908825859012
-0.670046242505513   0.007920048007603542   -0.003925908825859012
-0.747123680936605   -0.18678092023415124   -0.18678092023415124
-0.747123680936605   -0.18678092023415124   -0.18678092023415124
-0.747123680936605   -0.18678092023415124   -0.18678092023415124
-0.747123680936605   -0.18678092023415124   -0.18678092023415124
-1.1911198484296148   -0.09594912981840417   -0.05349294967308212
-1.1911198484296148   -0.09594912981840417   -0.05349294967308212
-1.1911198484296148   -0.09594912981840417   -0.05349294967308212
-1.1911198484296148   -0.09594912981840417   -0.05349294967308212
-0.9373040542630121   -0.13967231090063345   -0.04970607678243654
-0.9373040542630121   -0.13967231090063345   -0.04970607678243654
-0.9373040542630121   -0.13967231090063345   -0.04970607678243654
-0.9373040542630121   -0.13967231090063345   -0.04970607678243654
-1.290257147257022   -0.3225642868142555   -0.3225642868142555
-1.290257147257022   -0.3225642868142555   -0.3225642868142555
-1.290257147257022   -0.3225642868142555   -0.3225642868142555
-1.290257147257022   -0.3225642868142555   -0.3225642868142555
-0.667761307189477   0.020059311681422914   0.0031907165859142786
-0.667761307189477   0.020059311681422914   0.0031907165859142786
-0.667761307189477   0.020059311681422914   0.0031907165859142786
-0.667761307189477   0.020059311681422914   0.0031907165859142786
-0.7463230773457249   -0.18658076933643122   -0.18658076933643122
-0.7463230773457249   -0.18658076933643122   -0.18658076933643122
-0.7463230773457249   -0.18658076933643122   -0.18658076933643122
-0.7463230773457249   -0.18658076933643122   -0.18658076933643122
-1.2597296288268116   -0.08389645223401115   -0.03228557340107162
-1.2597296288268116   -0.08389645223401115   -0.03228557340107162
-1.2597296288268116   -0.08389645223401115   -0.03228557340107162
-1.2597296288268116   -0.08389645223401115   -0.03228557340107162
-0.9618910785040279   -0.1373883354741295   -0.0897615516898373
-0.9618910785040279   -0.1373883354741295   -0.0897615516898373
-0.9618910785040279   -0.1373883354741295   -0.0897615516898373
-0.9618910785040279   -0.1373883354741295   -0.0897615516898373
-0.7607634800970577   -0.19019087002426444   -0.19019087002426444
-0.7607634800970577   -0.19019087002426444   -0.19019087002426444
-0.7607634800970577   -0.19019087002426444   -0.19019087002426444
-0.7607634800970577   -0.19019087002426444   -0.19019087002426444
-0.3178913241291115   -0.021554447500753436   -0.006968054628635064
-0.3178913241291115   -0.021554447500753436   -0.006968054628635064
-0.3178913241291115   -0.021554447500753436   -0.006968054628635064
-0.3178913241291115   -0.021554447500753436   -0.006968054628635064
-0.33326607822872256   -0.08331651955718064   -0.08331651955718064
-0.33326607822872256   -0.08331651955718064   -0.08331651955718064
-0.33326607822872256   -0.08331651955718064   -0.08331651955718064
-0.33326607822872256   -0.08331651955718064   -0.08331651955718064
-0.6923826253482719   -0.08167291189036066   -0.026014863141689187
-0.6923826253482719   -0.08167291189036066   -0.026014863141689187
-0.6923826253482719   -0.08167291189036066   -0.026014863141689187
-0.6923826253482719   -0.08167291189036066   -0.026014863141689187
-0.5109117215594868   -0.09692372004393365   0.003931618479500931
-0.5109117215594868   -0.09692372004393365   0.003931618479500931
-0.5109117215594868   -0.09692372004393365   0.003931618479500931
-0.5109117215594868   -0.09692372004393365   0.003931618479500931
-0.745383411490957   -0.18634585287273925   -0.18634585287273925
-0.745383411490957   -0.18634585287273925   -0.18634585287273925
-0.745383411490957   -0.18634585287273925   -0.18634585287273925
-0.745383411490957   -0.18634585287273925   -0.18634585287273925
-0.29959190102623173   0.0020298124850031685   -0.0002919655869101784
-0.29959190102623173   0.0020298124850031685   -0.0002919655869101784
-0.29959190102623173   0.0020298124850031685   -0.0002919655869101784
-0.29959190102623173   0.0020298124850031685   -0.0002919655869101784
-0.3254753981868352   -0.0813688495467088   -0.0813688495467088
-0.3254753981868352   -0.0813688495467088   -0.0813688495467088
-0.3254753981868352   -0.0813688495467088   -0.0813688495467088
-0.3254753981868352   -0.0813688495467088   -0.0813688495467088
-0.6902906364170637   -0.06653151721742182   -0.022865100653174222
-0.6902906364170637   -0.06653151721742182   -0.022865100653174222
-0.6902906364170637   -0.06653151721742182   -0.022865100653174222
-0.6902906364170637   -0.06653151721742182   -0.022865100653174222
-0.5034479876228773   -0.08152402460218075   -0.02628359173717735
-0.5034479876228773   -0.08152402460218075   -0.02628359173717735
-0.5034479876228773   -0.08152402460218075   -0.02628359173717735
-0.5034479876228773   -0.08152402460218075   -0.02628359173717735
-0.747123680936605   -0.18678092023415124   -0.18678092023415124
-0.747123680936605   -0.18678092023415124   -0.18678092023415124
-0.747123680936605   -0.18678092023415124   -0.18678092023415124
-0.747123680936605   -0.18678092023415124   -0.18678092023415124
-0.28736195692473204   0.020160950212582476   0.007668557004515561
-0.28736195692473204   0.020160950212582476   0.007668557004515561
-0.28736195692473204   0.020160950212582476   0.007668557004515561
-0.28736195692473204   0.020160950212582476   0.007668557004515561
-0.3183215992386145   -0.07958039980965363   -0.07958039980965363
-0.3183215992386145   -0.07958039980965363   -0.07958039980965363
-0.3183215992386145   -0.07958039980965363   -0.07958039980965363
-0.3183215992386145   -0.07958039980965363   -0.07958039980965363
-0.6848344209475656   -0.05123540681673827   -0.01448284986533599
-0.6848344209475656   -0.05123540681673827   -0.01448284986533599
-0.6848344209475656   -0.05123540681673827   -0.01448284986533599
-0.6848344209475656   -0.05123540681673827   -0.01448284986533599
-0.5055601333706811   -0.07204357052455967   -0.05850521593460238
-0.5055601333706811   -0.07204357052455967   -0.05850521593460238
-0.5055601333706811   -0.07204357052455967   -0.05850521593460238
-0.5055601333706811   -0.07204357052455967   -0.05850521593460238
-0.3468742485591493   -0.08671856213978732   -0.08671856213978732
-0.3468742485591493   -0.08671856213978732   -0.08671856213978732
-0.3468742485591493   -0.08671856213978732   -0.08671856213978732
-0.3468742485591493   -0.08671856213978732   -0.08671856213978732
0.04003198544844961   0.0024274575093087445   0.0003441089203847275
0.04003198544844961   0.0024274575093087445   0.0003441089203847275
0.04003198544844961   0.0024274575093087445   0.0003441089203847275
0.04003198544844961   0.0024274575093087445   0.0003441089203847275
0.05271788764072673   0.013179471910181682   0.013179471910181682
0.05271788764072673   0.013179471910181682   0.013179471910181682
0.05271788764072673   0.013179471910181682   0.013179471910181682
0.05271788764072673   0.013179471910181682   0.013179471910181682
-0.3132795650648169   -0.054138049982675227   -0.012562423312160512
-0.3132795650648169   -0.054138049982675227   -0.012562423312160512
-0.3132795650648169   -0.054138049982675227   -0.012562423312160512
-0.3132795650648169   -0.054138049982675227   -0.012562423312160512
-0.13468330707426435   -0.034142371485668226   0.022577648180794566
-0.13468330707426435   -0.034142371485668226   0.022577648180794566
-0.13468330707426435   -0.034142371485668226   0.022577648180794566
-0.13468330707426435   -0.034142371485668226   0.022577648180794566
-0.33326607822872256   -0.08331651955718064   -0.08331651955718064
-0.33326607822872256   -0.08331651955718064   -0.08331651955718064
-0.33326607822872256   -0.08331651955718064   -0.08331651955718064
-0.33326607822872256   -0.08331651955718064   -0.08331651955718064
0.05371119254407494   0.02336473322413006   0.007960735112974003
0.05371119254407494   0.02336473322413006   0.007960735112974003
0.05371119254407494   0.02336473322413006   0.007960735112974003
0.05371119254407494   0.02336473322413006   0.007960735112974003
0.059753700168154796   0.014938425042038699   0.014938425042038699
0.059753700168154796   0.014938425042038699   0.014938425042038699
0.059753700168154796   0.014938425042038699   0.014938425042038699
0.059753700168154796   0.014938425042038699   0.014938425042038699
-0.3018777342116403   -0.036328570413713   -0.008420808803735233
-0.3018777342116403   -0.036328570413713   -0.008420808803735233
-0.3018777342116403   -0.036328570413713   -0.008420808803735233
-0.3018777342116403   -0.036328570413713   -0.008420808803735233
-0.1288563066734852   -0.021052025350192828   -0.007826657380956885
-0.1288563066734852   -0.021052025350192828   -0.007826657380956885
-0.1288563066734852   -0.021052025350192828   -0.007826657380956885
-0.1288563066734852   -0.021052025350192828   -0.007826657380956885
-0.3254753981868352   -0.0813688495467088   -0.0813688495467088
-0.3254753981868352   -0.0813688495467088   -0.0813688495467088
-0.3254753981868352   -0.0813688495467088   -0.0813688495467088
-0.3254753981868352   -0.0813688495467088   -0.0813688495467088
0.06474126779495308   0.0413686078266385   0.01344608039142985
0.06474126779495308   0.0413686078266385   0.01344608039142985
0.06474126779495308   0.0413686078266385   0.01344608039142985
0.06474126779495308   0.0413686078266385   0.01344608039142985
0.0691003033222279   0.017275075830556975   0.017275075830556975
0.0691003033222279   0.017275075830556975   0.017275075830556975
0.0691003033222279   0.017275075830556975   0.017275075830556975
0.0691003033222279   0.017275075830556975   0.017275075830556975
-0.28947498922530424   -0.015117925045536704   0.0001901754927771393
-0.28947498922530424   -0.015117925045536704   0.0001901754927771393
-0.28947498922530424   -0.015117925045536704   0.0001901754927771393
-0.28947498922530424   -0.015117925045536704   0.0001901754927771393
-0.1246469811308213   -0.008431984649369978   -0.03795895755937144
-0.1246469811308213   -0.008431984649369978   -0.03795895755937144
-0.1246469811308213   -0.008431984649369978   -0.03795895755937144
-0.1246469811308213   -0.008431984649369978   -0.03795895755937144
0.043864080180567755   0.010966020045141939   0.010966020045141939
0.043864080180567755   0.010966020045141939   0.010966020045141939
0.043864080180567755   0.010966020045141939   0.010966020045141939
0.043864080180567755   0.010966020045141939   0.010966020045141939
0.43212642728909534   0.03969444161693482   0.013531573136662554
0.43212642728909534   0.03969444161693482   0.013531573136662554
0.43212642728909534   0.03969444161693482   0.013531573136662554
0.43212642728909534   0.03969444161693482   0.013531573136662554
0.46959259759254   0.117398149398135   0.117398149398135
0.46959259759254   0.117398149398135   0.117398149398135
0.46959259759254   0.117398149398135   0.117398149398135
0.46959259759254   0.117398149398135   0.117398149398135
0.04012759288587979   -0.030391890716567616   -0.0062006392373045085
0.04012759288587979   -0.030391890716567616   -0.0062006392373045085
0.04012759288587979   -0.030391890716567616   -0.0062006392373045085
0.04012759288587979   -0.030391890716567616   -0.0062006392373045085
0.24611344041221933   0.03066218645739838   0.04462749061420579
0.24611344041221933   0.03066218645739838   0.04462749061420579
0.24611344041221933   0.03066218645739838   0.04462749061420579
0.24611344041221933   0.03066218645739838   0.04462749061420579
0.05271788764072691   0.013179471910181727   0.013179471910181727
0.05271788764072691   0.013179471910181727   0.013179471910181727
0.05271788764072691   0.013179471910181727   0.013179471910181727
0.05271788764072691   0.013179471910181727   0.013179471910181727
0.43768699469221634   0.05451147862590907   0.020756805668742398
0.43768699469221634   0.05451147862590907   0.020756805668742398
0.43768699469221634   0.05451147862590907   0.020756805668742398
0.43768699469221634   0.05451147862590907   0.020756805668742398
0.46796695085603685   0.11699173771400921   0.11699173771400921
0.46796695085603685   0.11699173771400921   0.11699173771400921
0.46796695085603685   0.11699173771400921   0.11699173771400921
0.46796695085603685   0.11699173771400921   0.11699173771400921
0.0512255004540247   -0.012962332113926268   0.00019818362735268824
0.0512255004540247   -0.012962332113926268   0.00019818362735268824
0.0512255004540247   -0.012962332113926268   0.00019818362735268824
0.0512255004540247   -0.012962332113926268   0.00019818362735268824
0.24468982750606486   0.04038789569414052   0.011520355218465358
0.24468982750606486   0.04038789569414052   0.011520355218465358
0.24468982750606486   0.04038789569414052   0.011520355218465358
0.24468982750606486   0.04038789569414052   0.011520355218465358
0.05975370016815485   0.014938425042038713   0.014938425042038713
0.05975370016815485   0.014938425042038713   0.014938425042038713
0.05975370016815485   0.014938425042038713   0.014938425042038713
0.05975370016815485   0.014938425042038713   0.014938425042038713
0.44031125688854134   0.06996348630467894   0.025741519285862012
0.44031125688854134   0.06996348630467894   0.025741519285862012
0.44031125688854134   0.06996348630467894   0.025741519285862012
0.44031125688854134   0.06996348630467894   0.025741519285862012
0.47740052516224646   0.11935013129056161   0.11935013129056161
0.47740052516224646   0.11935013129056161   0.11935013129056161
0.47740052516224646   0.11935013129056161   0.11935013129056161
0.47740052516224646   0.11935013129056161   0.11935013129056161
0.065676688395163   0.010060528399703863   0.007371548626084998
0.065676688395163   0.010060528399703863   0.007371548626084998
0.065676688395163   0.010060528399703863   0.007371548626084998
0.065676688395163   0.010060528399703863   0.007371548626084998
0.24886166694688971   0.05488639452441825   -0.0191750667833717
0.24886166694688971   0.05488639452441825   -0.0191750667833717
0.24886166694688971   0.05488639452441825   -0.0191750667833717
0.24886166694688971   0.05488639452441825   -0.0191750667833717
0.46831247148708427   0.11707811787177107   0.11707811787177107
0.46831247148708427   0.11707811787177107   0.11707811787177107
0.46831247148708427   0.11707811787177107   0.11707811787177107
0.46831247148708427   0.11707811787177107   0.11707811787177107
0.9737455867255068   0.07434820523238517   0.02596466904842911
0.9737455867255068   0.07434820523238517   0.02596466904842911
0.9737455867255068   0.07434820523238517   0.02596466904842911
0.9737455867255068   0.07434820523238517   0.02596466904842911
0.9957614043252916   0.2489403510813229   0.2489403510813229
0.9957614043252916   0.2489403510813229   0.2489403510813229
0.9957614043252916   0.2489403510813229   0.2489403510813229
0.9957614043252916   0.2489403510813229   0.2489403510813229
0.41751473385226107   -0.02355280502586106   -0.0020402148792635667
0.41751473385226107   -0.02355280502586106   -0.0020402148792635667
0.41751473385226107   -0.02355280502586106   -0.0020402148792635667
0.41751473385226107   -0.02355280502586106   -0.0020402148792635667
0.6941506940156388   0.09838026148265738   0.0782069880176908
0.6941506940156388   0.09838026148265738   0.0782069880176908
0.6941506940156388   0.09838026148265738   0.0782069880176908
0.6941506940156388   0.09838026148265738   0.0782069880176908
0.46959259759253963   0.11739814939813491   0.11739814939813491
0.46959259759253963   0.11739814939813491   0.11739814939813491
0.46959259759253963   0.11739814939813491   0.11739814939813491
0.46959259759253963   0.11739814939813491   0.11739814939813491
0.9229668090993317   0.08727266517164906   0.04663506086121435
0.9229668090993317   0.08727266517164906   0.04663506086121435
0.9229668090993317   0.08727266517164906   0.04663506086121435
0.9229668090993317   0.08727266517164906   0.04663506086121435
0.9664749861312703   0.24161874653281756   0.24161874653281756
0.9664749861312703   0.24161874653281756   0.24161874653281756
0.9664749861312703   0.24161874653281756   0.24161874653281756
0.9664749861312703   0.24161874653281756   0.24161874653281756
0.4193393283495167   -0.012783011483002385   0.003628374378420101
0.4193393283495167   -0.012783011483002385   0.003628374378420101
0.4193393283495167   -0.012783011483002385   0.003628374378420101
0.4193393283495167   -0.012783011483002385   0.003628374378420101
0.6739940430013195   0.10134055231995848   0.03747759930806776
0.6739940430013195   0.10134055231995848   0.03747759930806776
0.6739940430013195   0.10134055231995848   0.03747759930806776
0.6739940430013195   0.10134055231995848   0.03747759930806776
0.46796695085603685   0.11699173771400921   0.11699173771400921
0.46796695085603685   0.11699173771400921   0.11699173771400921
0.46796695085603685   0.11699173771400921   0.11699173771400921
0.46796695085603685   0.11699173771400921   0.11699173771400921
0.8936750832998255   0.087671717010884   0.031566261897541366
0.8936750832998255   0.087671717010884   0.031566261897541366
0.8936750832998255   0.087671717010884   0.031566261897541366
0.8936750832998255   0.087671717010884   0.031566261897541366
0.9226062692762947   0.23065156731907369   0.23065156731907369
0.9226062692762947   0.23065156731907369   0.23065156731907369
0.9226062692762947   0.23065156731907369   0.23065156731907369
0.9226062692762947   0.23065156731907369   0.23065156731907369
0.43524861914838525   0.014337031695768526   0.013603700816048607
0.43524861914838525   0.014337031695768526   0.013603700816048607
0.43524861914838525   0.014337031695768526   0.013603700816048607
0.43524861914838525   0.014337031695768526   0.013603700816048607
0.6457745179737248   0.11002280443098014   -0.009939959860105962
0.6457745179737248   0.11002280443098014   -0.009939959860105962
0.6457745179737248   0.11002280443098014   -0.009939959860105962
0.6457745179737248   0.11002280443098014   -0.009939959860105962
-0.9421968368676065   -0.06752896754306503   0.011101947634036366
-0.9421968368676065   -0.06752896754306503   0.011101947634036366
-0.9421968368676065   -0.06752896754306503   0.011101947634036366
-0.9421968368676065   -0.06752896754306503   0.011101947634036366
-0.6002102244006557   -0.014315733736551942   -0.0040552285134949455
-0.6002102244006557   -0.014315733736551942   -0.0040552285134949455
-0.6002102244006557   -0.014315733736551942   -0.0040552285134949455
-0.6002102244006557   -0.014315733736551942   -0.0040552285134949455
-0.6038818437016137   0.024523004840310086   0.012924476533776201
-0.6038818437016137   0.024523004840310086   0.012924476533776201
-0.6038818437016137   0.024523004840310086   0.012924476533776201
-0.6038818437016137   0.024523004840310086   0.012924476533776201
-0.95602518031631   -0.06546319942616322   -0.011539312502846281
-0.95602518031631   -0.06546319942616322   -0.011539312502846281
-0.95602518031631   -0.06546319942616322   -0.011539312502846281
-0.95602518031631   -0.06546319942616322   -0.011539312502846281
-0.7451083697568577   -0.025594837207983778   -0.00320798138049648
-0.7451083697568577   -0.025594837207983778   -0.00320798138049648
-0.7451083697568577   -0.025594837207983778   -0.00320798138049648
-0.7451083697568577   -0.025594837207983778   -0.00320798138049648
-0.9488509409643426   -0.04606831079402124   0.004936995624848527
-0.9488509409643426   -0.04606831079402124   0.004936995624848527
-0.9488509409643426   -0.04606831079402124   0.004936995624848527
-0.9488509409643426   -0.04606831079402124   0.004936995624848527
-0.6120354069510235   0.0041487923107276226   -0.007469127183680341
-0.6120354069510235   0.0041487923107276226   -0.007469127183680341
-0.6120354069510235   0.0041487923107276226   -0.007469127183680341
-0.6120354069510235   0.0041487923107276226   -0.007469127183680341
-0.604363890065488   0.03502704395954423   0.014631960852533828
-0.604363890065488   0.03502704395954423   0.014631960852533828
-0.604363890065488   0.03502704395954423   0.014631960852533828
-0.604363890065488   0.03502704395954423   0.014631960852533828
-0.9614868064605303   -0.057573407306140495   -0.015209219999670169
-0.9614868064605303   -0.057573407306140495   -0.015209219999670169
-0.9614868064605303   -0.057573407306140495   -0.015209219999670169
-0.9614868064605303   -0.057573407306140495   -0.015209219999670169
-0.7657348577341275   -0.01703803772984175   -0.007384702095714957
-0.7657348577341275   -0.01703803772984175   -0.007384702095714957
-0.7657348577341275   -0.01703803772984175   -0.007384702095714957
-0.7657348577341275   -0.01703803772984175   -0.007384702095714957
-0.9439744587178441   -0.027388033049926097   0.04216714445753839
-0.9439744587178441   -0.027388033049926097   0.04216714445753839
-0.9439744587178441   -0.027388033049926097   0.04216714445753839
-0.9439744587178441   -0.027388033049926097   0.04216714445753839
-0.6146415065690706   0.012076400942432952   -0.013805478648262835
-0.6146415065690706   0.012076400942432952   -0.013805478648262835
-0.6146415065690706   0.012076400942432952   -0.013805478648262835
-0.6146415065690706   0.012076400942432952   -0.013805478648262835
-0.5931035364743542   0.06115412770335957   0.02634123393332581
-0.5931035364743542   0.06115412770335957   0.02634123393332581
-0.5931035364743542   0.06115412770335957   0.02634123393332581
-0.5931035364743542   0.06115412770335957   0.02634123393332581
-0.9344157146080238   -0.04624739772926109   -0.024764807682055807
-0.9344157146080238   -0.04624739772926109   -0.024764807682055807
-0.9344157146080238   -0.04624739772926109   -0.024764807682055807
-0.9344157146080238   -0.04624739772926109   -0.024764807682055807
-0.7360789567175088   0.007087502525393724   0.016394102389041453
-0.7360789567175088   0.007087502525393724   0.016394102389041453
-0.7360789567175088   0.007087502525393724   0.016394102389041453
-0.7360789567175088   0.007087502525393724   0.016394102389041453
-0.6149806820127091   -0.08168613184484053   -0.010537118465473007
-0.6149806820127091   -0.08168613184484053   -0.010537118465473007
-0.6149806820127091   -0.08168613184484053   -0.010537118465473007
-0.6149806820127091   -0.08168613184484053   -0.010537118465473007
-0.2839345363060861   -0.006619128081195427   0.0029403786317944245
-0.2839345363060861   -0.006619128081195427   0.0029403786317944245
-0.2839345363060861   -0.006619128081195427   0.0029403786317944245
-0.2839345363060861   -0.006619128081195427   0.0029403786317944245
-0.28783099988846766   0.005324339347777804   0.004419767589199864
-0.28783099988846766   0.005324339347777804   0.004419767589199864
-0.28783099988846766   0.005324339347777804   0.004419767589199864
-0.28783099988846766   0.005324339347777804   0.004419767589199864
-0.6270216520069144   -0.05974766072081758   -0.018503899431599802
-0.6270216520069144   -0.05974766072081758   -0.018503899431599802
-0.6270216520069144   -0.05974766072081758   -0.018503899431599802
-0.6270216520069144   -0.05974766072081758   -0.018503899431599802
-0.45345228726792297   -0.036964591263291144   -0.010520440889780536
-0.45345228726792297   -0.036964591263291144   -0.010520440889780536
-0.45345228726792297   -0.036964591263291144   -0.010520440889780536
-0.45345228726792297   -0.036964591263291144   -0.010520440889780536
-0.6263831788956576   -0.06523490740893954   -0.009824287187196853
-0.6263831788956576   -0.06523490740893954   -0.009824287187196853
-0.6263831788956576   -0.06523490740893954   -0.009824287187196853
-0.6263831788956576   -0.06523490740893954   -0.009824287187196853
-0.28735720572682966   0.011923853308794363   0.00018922443637524322
-0.28735720572682966   0.011923853308794363   0.00018922443637524322
-0.28735720572682966   0.011923853308794363   0.00018922443637524322
-0.28735720572682966   0.011923853308794363   0.00018922443637524322
-0.28653385720905133   0.019974578011167032   0.0059085962817585665
-0.28653385720905133   0.019974578011167032   0.0059085962817585665
-0.28653385720905133   0.019974578011167032   0.0059085962817585665
-0.28653385720905133   0.019974578011167032   0.0059085962817585665
-0.6270345683623385   -0.0436630572867379   -0.02003132938543702
-0.6270345683623385   -0.0436630572867379   -0.02003132938543702
-0.6270345683623385   -0.0436630572867379   -0.02003132938543702
-0.6270345683623385   -0.0436630572867379   -0.02003132938543702
-0.452358409805959   -0.02052119934421498   -0.005010905922362377
-0.452358409805959   -0.02052119934421498   -0.005010905922362377
-0.452358409805959   -0.02052119934421498   -0.005010905922362377
-0.452358409805959   -0.02052119934421498   -0.005010905922362377
-0.6245422272854068   -0.049212792931632374   -0.002019888355883081
-0.6245422272854068   -0.049212792931632374   -0.002019888355883081
-0.6245422272854068   -0.049212792931632374   -0.002019888355883081
-0.6245422272854068   -0.049212792931632374   -0.002019888355883081
-0.28695789426632606   0.0275926176757198   -0.0038296286691629836
-0.28695789426632606   0.0275926176757198   -0.0038296286691629836
-0.28695789426632606   0.0275926176757198   -0.0038296286691629836
-0.28695789426632606   0.0275926176757198   -0.0038296286691629836
-0.28153283621165437   0.034668664921285466   0.011735924088871544
-0.28153283621165437   0.034668664921285466   0.011735924088871544
-0.28153283621165437   0.034668664921285466   0.011735924088871544
-0.28153283621165437   0.034668664921285466   0.011735924088871544
-0.6200823225960115   -0.025074705774555853   -0.022323863197048797
-0.6200823225960115   -0.025074705774555853   -0.022323863197048797
-0.6200823225960115   -0.025074705774555853   -0.022323863197048797
-0.6200823225960115   -0.025074705774555853   -0.022323863197048797
-0.4502371706150598   -0.004956215871152775   0.002249285845814266
-0.4502371706150598   -0.004956215871152775   0.002249285845814266
-0.4502371706150598   -0.004956215871152775   0.002249285845814266
-0.4502371706150598   -0.004956215871152775   0.002249285845814266
-0.29931161314776183   -0.06801909227130565   -0.012545041386475766
-0.29931161314776183   -0.06801909227130565   -0.012545041386475766
-0.29931161314776183   -0.06801909227130565   -0.012545041386475766
-0.29931161314776183   -0.06801909227130565   -0.012545041386475766
0.029840045024690537   0.006770582529760151   0.011658571922238573
0.029840045024690537   0.006770582529760151   0.011658571922238573
0.029840045024690537   0.006770582529760151   0.011658571922238573
0.029840045024690537   0.006770582529760151   0.011658571922238573
0.028643338438227337   0.016953326024647334   0.0009715532214079905
0.028643338438227337   0.016953326024647334   0.0009715532214079905
0.028643338438227337   0.016953326024647334   0.0009715532214079905
0.028643338438227337   0.016953326024647334   0.0009715532214079905
-0.3003791366150132   -0.04497655073499868   -0.008020025960751454
-0.3003791366150132   -0.04497655073499868   -0.008020025960751454
-0.3003791366150132   -0.04497655073499868   -0.008020025960751454
-0.3003791366150132   -0.04497655073499868   -0.008020025960751454
-0.1366142298814449   -0.022635692255890582   -0.004387081125258561
-0.1366142298814449   -0.022635692255890582   -0.004387081125258561
-0.1366142298814449   -0.022635692255890582   -0.004387081125258561
-0.1366142298814449   -0.022635692255890582   -0.004387081125258561
-0.30246346813594366   -0.051788327328790955   -0.011629906971611497
-0.30246346813594366   -0.051788327328790955   -0.011629906971611497
-0.30246346813594366   -0.051788327328790955   -0.011629906971611497
-0.30246346813594366   -0.051788327328790955   -0.011629906971611497
0.03186790335174238   0.024905336011024036   0.009142367802606521
0.03186790335174238   0.024905336011024036   0.009142367802606521
0.03186790335174238   0.024905336011024036   0.009142367802606521
0.03186790335174238   0.024905336011024036   0.009142367802606521
0.031208595687490303   0.03305240744398562   0.0053977505856281855
0.031208595687490303   0.03305240744398562   0.0053977505856281855
0.031208595687490303   0.03305240744398562   0.0053977505856281855
0.031208595687490303   0.03305240744398562   0.0053977505856281855
-0.2991782996113919   -0.027316060597067524   -0.010022977121709777
-0.2991782996113919   -0.027316060597067524   -0.010022977121709777
-0.2991782996113919   -0.027316060597067524   -0.010022977121709777
-0.2991782996113919   -0.027316060597067524   -0.010022977121709777
-0.13426793260136854   -0.00554150416846436   0.001553436054894196
-0.13426793260136854   -0.00554150416846436   0.001553436054894196
-0.13426793260136854   -0.00554150416846436   0.001553436054894196
-0.13426793260136854   -0.00554150416846436   0.001553436054894196
-0.300000575481733   -0.035465883600900985   -0.005984533469581566
-0.300000575481733   -0.035465883600900985   -0.005984533469581566
-0.300000575481733   -0.035465883600900985   -0.005984533469581566
-0.300000575481733   -0.035465883600900985   -0.005984533469581566
0.03325997153396346   0.042431330423951155   0.006275706838028226
0.03325997153396346   0.042431330423951155   0.006275706838028226
0.03325997153396346   0.042431330423951155   0.006275706838028226
0.03325997153396346   0.042431330423951155   0.006275706838028226
0.03216610931649991   0.05094138019828231   0.00884560317006807
0.03216610931649991   0.05094138019828231   0.00884560317006807
0.03216610931649991   0.05094138019828231   0.00884560317006807
0.03216610931649991   0.05094138019828231   0.00884560317006807
-0.2950353900046283   -0.00845377383561996   -0.012654406119091376
-0.2950353900046283   -0.00845377383561996   -0.012654406119091376
-0.2950353900046283   -0.00845377383561996   -0.012654406119091376
-0.2950353900046283   -0.00845377383561996   -0.012654406119091376
-0.1306857971793252   0.012334257726823658   0.008057395475398204
-0.1306857971793252   0.012334257726823658   0.008057395475398204
-0.1306857971793252   0.012334257726823658   0.008057395475398204
-0.1306857971793252   0.012334257726823658   0.008057395475398204
0.013064421777161012   -0.049928388724928455   -0.015520573060720431
0.013064421777161012   -0.049928388724928455   -0.015520573060720431
0.013064421777161012   -0.049928388724928455   -0.015520573060720431
0.013064421777161012   -0.049928388724928455   -0.015520573060720431
0.3540935322122739   0.024302885199871678   0.021472962697302665
0.3540935322122739   0.024302885199871678   0.021472962697302665
0.3540935322122739   0.024302885199871678   0.021472962697302665
0.3540935322122739   0.024302885199871678   0.021472962697302665
0.3538635223270082   0.0328994206075944   -0.0034800120576228676
0.3538635223270082   0.0328994206075944   -0.0034800120576228676
0.3538635223270082   0.0328994206075944   -0.0034800120576228676
0.3538635223270082   0.0328994206075944   -0.0034800120576228676
0.01954503319746521   -0.02984341667383049   0.0022767697160751884
0.01954503319746521   -0.02984341667383049   0.0022767697160751884
0.01954503319746521   -0.02984341667383049   0.0022767697160751884
0.01954503319746521   -0.02984341667383049   0.0022767697160751884
0.18284592981060285   -0.004376796938989361   0.0003125921618231612
0.18284592981060285   -0.004376796938989361   0.0003125921618231612
0.18284592981060285   -0.004376796938989361   0.0003125921618231612
0.18284592981060285   -0.004376796938989361   0.0003125921618231612
0.015444921908087572   -0.03641811478799485   -0.011649088616648453
0.015444921908087572   -0.03641811478799485   -0.011649088616648453
0.015444921908087572   -0.03641811478799485   -0.011649088616648453
0.015444921908087572   -0.03641811478799485   -0.011649088616648453
0.36002684665276424   0.04153733175813672   0.018698698420612236
0.36002684665276424   0.04153733175813672   0.018698698420612236
0.36002684665276424   0.04153733175813672   0.018698698420612236
0.36002684665276424   0.04153733175813672   0.018698698420612236
0.35694608569142916   0.04883688941329658   0.00347370602606247
0.35694608569142916   0.04883688941329658   0.00347370602606247
0.35694608569142916   0.04883688941329658   0.00347370602606247
0.35694608569142916   0.04883688941329658   0.00347370602606247
0.02052621418672931   -0.014045593534658403   -0.0009161559395327729
0.02052621418672931   -0.014045593534658403   -0.0009161559395327729
0.02052621418672931   -0.014045593534658403   -0.0009161559395327729
0.02052621418672931   -0.014045593534658403   -0.0009161559395327729
0.18556620072331526   0.010848062317785331   0.007615401661200696
0.18556620072331526   0.010848062317785331   0.007615401661200696
0.18556620072331526   0.010848062317785331   0.007615401661200696
0.18556620072331526   0.010848062317785331   0.007615401661200696
0.017514247961994432   -0.02145711288114662   -0.00856446771671881
0.017514247961994432   -0.02145711288114662   -0.00856446771671881
0.017514247961994432   -0.02145711288114662   -0.00856446771671881
0.017514247961994432   -0.02145711288114662   -0.00856446771671881
0.3614533644064104   0.0577437212500302   0.017103267764229206
0.3614533644064104   0.0577437212500302   0.017103267764229206
0.3614533644064104   0.0577437212500302   0.017103267764229206
0.3614533644064104   0.0577437212500302   0.017103267764229206
0.35144555731919197   0.06722409258489993   0.0074205006280363296
0.35144555731919197   0.06722409258489993   0.0074205006280363296
0.35144555731919197   0.06722409258489993   0.0074205006280363296
0.35144555731919197   0.06722409258489993   0.0074205006280363296
0.020573097871130687   0.005474883434027376   -0.003652957292523085
0.020573097871130687   0.005474883434027376   -0.003652957292523085
0.020573097871130687   0.005474883434027376   -0.003652957292523085
0.020573097871130687   0.005474883434027376   -0.003652957292523085
0.1885836889338926   0.028244919466269502   0.014389833215454118
0.1885836889338926   0.028244919466269502   0.014389833215454118
0.1885836889338926   0.028244919466269502   0.014389833215454118
0.1885836889338926   0.028244919466269502   0.014389833215454118
0.3259241677678919   -0.0661860060281423   -0.02888496829659342
0.3259241677678919   -0.0661860060281423   -0.02888496829659342
0.3259241677678919   -0.0661860060281423   -0.02888496829659342
0.3259241677678919   -0.0661860060281423   -0.02888496829659342
0.6722820613901194   0.04441929299175566   0.02114605860533991
0.6722820613901194   0.04441929299175566   0.02114605860533991
0.6722820613901194   0.04441929299175566   0.02114605860533991
0.6722820613901194   0.04441929299175566   0.02114605860533991
0.6801892558351827   0.020694681990993294   -0.043477301777914396
0.6801892558351827   0.020694681990993294   -0.043477301777914396
0.6801892558351827   0.020694681990993294   -0.043477301777914396
0.6801892558351827   0.020694681990993294   -0.043477301777914396
0.3478794171794238   -0.013225566532262187   0.01272444934430568
0.3478794171794238   -0.013225566532262187   0.01272444934430568
0.3478794171794238   -0.013225566532262187   0.01272444934430568
0.3478794171794238   -0.013225566532262187   0.01272444934430568
0.48133761664436325   -0.008663955918946642   -0.012233663244015557
0.48133761664436325   -0.008663955918946642   -0.012233663244015557
0.48133761664436325   -0.008663955918946642   -0.012233663244015557
0.48133761664436325   -0.008663955918946642   -0.012233663244015557
0.33544110129242055   -0.04341502323880807   -0.019277673384159984
0.33544110129242055   -0.04341502323880807   -0.019277673384159984
0.33544110129242055   -0.04341502323880807   -0.019277673384159984
0.33544110129242055   -0.04341502323880807   -0.019277673384159984
0.6988548710211604   0.05711143799651458   0.013434018146452904
0.6988548710211604   0.05711143799651458   0.013434018146452904
0.6988548710211604   0.05711143799651458   0.013434018146452904
0.6988548710211604   0.05711143799651458   0.013434018146452904
0.6881143248588936   0.03821699910307115   -0.010146569200589085
0.6881143248588936   0.03821699910307115   -0.010146569200589085
0.6881143248588936   0.03821699910307115   -0.010146569200589085
0.6881143248588936   0.03821699910307115   -0.010146569200589085
0.3467545773373916   -0.00531977044728732   0.006672824116452904
0.3467545773373916   -0.00531977044728732   0.006672824116452904
0.3467545773373916   -0.00531977044728732   0.006672824116452904
0.3467545773373916   -0.00531977044728732   0.006672824116452904
0.5070066107975947   0.012690021266904272   0.008380069761956693
0.5070066107975947   0.012690021266904272   0.008380069761956693
0.5070066107975947   0.012690021266904272   0.008380069761956693
0.5070066107975947   0.012690021266904272   0.008380069761956693
0.3367349680646835   -0.033148797462105944   -0.015596195232266442
0.3367349680646835   -0.033148797462105944   -0.015596195232266442
0.3367349680646835   -0.033148797462105944   -0.015596195232266442
0.3367349680646835   -0.033148797462105944   -0.015596195232266442
0.6973374724229209   0.06524956440920976   0.008936603313409015
0.6973374724229209   0.06524956440920976   0.008936603313409015
0.6973374724229209   0.06524956440920976   0.008936603313409015
0.6973374724229209   0.06524956440920976   0.008936603313409015
0.687452729324812   0.05897354490407966   -0.015417843318822476
0.687452729324812   0.05897354490407966   -0.015417843318822476
0.687452729324812   0.05897354490407966   -0.015417843318822476
0.687452729324812   0.05897354490407966   -0.015417843318822476
0.3398364358528477   0.012806540064748476   0.003792445816460318
0.3398364358528477   0.012806540064748476   0.003792445816460318
0.3398364358528477   0.012806540064748476   0.003792445816460318
0.3398364358528477   0.012806540064748476   0.003792445816460318
0.49438188399661415   0.022410164162234486   0.006365521905202096
0.49438188399661415   0.022410164162234486   0.006365521905202096
0.49438188399661415   0.022410164162234486   0.006365521905202096
0.49438188399661415   0.022410164162234486   0.006365521905202096
-0.7378155600587176   -0.0333194842486291   0.03853135458417921
-0.7378155600587176   -0.0333194842486291   0.03853135458417921
-0.7378155600587176   -0.0333194842486291   0.03853135458417921
-0.7378155600587176   -0.0333194842486291   0.03853135458417921
-0.4908460740054262   -0.01900314907899145   -0.010025700448374999
-0.4908460740054262   -0.01900314907899145   -0.010025700448374999
-0.4908460740054262   -0.01900314907899145   -0.010025700448374999
-0.4908460740054262   -0.01900314907899145   -0.010025700448374999
-0.4728420920041809   0.03993498924943123   0.03226854256299686
-0.4728420920041809   0.03993498924943123   0.03226854256299686
-0.4728420920041809   0.03993498924943123   0.03226854256299686
-0.4728420920041809   0.03993498924943123   0.03226854256299686
-0.7411048309131043   -0.05303540044327133   -0.015675541508501974
-0.7411048309131043   -0.05303540044327133   -0.015675541508501974
-0.7411048309131043   -0.05303540044327133   -0.015675541508501974
-0.7411048309131043   -0.05303540044327133   -0.015675541508501974
-0.5859138716907686   -0.009052159497373535   -0.001328112232314195
-0.5859138716907686   -0.009052159497373535   -0.001328112232314195
-0.5859138716907686   -0.009052159497373535   -0.001328112232314195
-0.5859138716907686   -0.009052159497373535   -0.001328112232314195
-0.7202216800554629   -0.007378062005114899   0.04308287434154826
-0.7202216800554629   -0.007378062005114899   0.04308287434154826
-0.7202216800554629   -0.007378062005114899   0.04308287434154826
-0.7202216800554629   -0.007378062005114899   0.04308287434154826
-0.4904416363481042   -0.0024387426750071967   -0.013355447232181374
-0.4904416363481042   -0.0024387426750071967   -0.013355447232181374
-0.4904416363481042   -0.0024387426750071967   -0.013355447232181374
-0.4904416363481042   -0.0024387426750071967   -0.013355447232181374
-0.47079080415088953   0.04958087931100186   0.029866210776400733
-0.47079080415088953   0.04958087931100186   0.029866210776400733
-0.47079080415088953   0.04958087931100186   0.029866210776400733
-0.47079080415088953   0.04958087931100186   0.029866210776400733
-0.729355597785353   -0.0442782086835975   -0.021423215442801624
-0.729355597785353   -0.0442782086835975   -0.021423215442801624
-0.729355597785353   -0.0442782086835975   -0.021423215442801624
-0.729355597785353   -0.0442782086835975   -0.021423215442801624
-0.5869367178087094   0.0022773557679734435   0.006643713321859333
-0.5869367178087094   0.0022773557679734435   0.006643713321859333
-0.5869367178087094   0.0022773557679734435   0.006643713321859333
-0.5869367178087094   0.0022773557679734435   0.006643713321859333
-0.7099243441858311   0.0017265816024795988   0.029728262268730855
-0.7099243441858311   0.0017265816024795988   0.029728262268730855
-0.7099243441858311   0.0017265816024795988   0.029728262268730855
-0.7099243441858311   0.0017265816024795988   0.029728262268730855
-0.4891414134555942   0.004656733319743825   -0.01696268975585764
-0.4891414134555942   0.004656733319743825   -0.01696268975585764
-0.4891414134555942   0.004656733319743825   -0.01696268975585764
-0.4891414134555942   0.004656733319743825   -0.01696268975585764
-0.471135313457385   0.056101812494161823   0.023700842284419953
-0.471135313457385   0.056101812494161823   0.023700842284419953
-0.471135313457385   0.056101812494161823   0.023700842284419953
-0.471135313457385   0.056101812494161823   0.023700842284419953
-0.7141782649857714   -0.03490404180797002   -0.027284645878372704
-0.7141782649857714   -0.03490404180797002   -0.027284645878372704
-0.7141782649857714   -0.03490404180797002   -0.027284645878372704
-0.7141782649857714   -0.03490404180797002   -0.027284645878372704
-0.5698779220490291   0.012455916045611304   0.014036344259996301
-0.5698779220490291   0.012455916045611304   0.014036344259996301
-0.5698779220490291   0.012455916045611304   0.014036344259996301
-0.5698779220490291   0.012455916045611304   0.014036344259996301
-0.4921476527311673   -0.04663097976982109   0.011094236613749127
-0.4921476527311673   -0.04663097976982109   0.011094236613749127
-0.4921476527311673   -0.04663097976982109   0.011094236613749127
-0.4921476527311673   -0.04663097976982109   0.011094236613749127
-0.2493312891137844   -0.009215363878482194   0.00043956872580678055
-0.2493312891137844   -0.009215363878482194   0.00043956872580678055
-0.2493312891137844   -0.009215363878482194   0.00043956872580678055
-0.2493312891137844   -0.009215363878482194   0.00043956872580678055
-0.2421078915611412   0.024439351972980777   0.017517403591618838
-0.2421078915611412   0.024439351972980777   0.017517403591618838
-0.2421078915611412   0.024439351972980777   0.017517403591618838
-0.2421078915611412   0.024439351972980777   0.017517403591618838
-0.4999274563179262   -0.04598495221768828   -0.017238337538614364
-0.4999274563179262   -0.04598495221768828   -0.017238337538614364
-0.4999274563179262   -0.04598495221768828   -0.017238337538614364
-0.4999274563179262   -0.04598495221768828   -0.017238337538614364
-0.3695892864255966   -0.018139510722127883   -0.007606966265871873
-0.3695892864255966   -0.018139510722127883   -0.007606966265871873
-0.3695892864255966   -0.018139510722127883   -0.007606966265871873
-0.3695892864255966   -0.018139510722127883   -0.007606966265871873
-0.4904626522653889   -0.026595778987429625   0.010696509493814566
-0.4904626522653889   -0.026595778987429625   0.010696509493814566
-0.4904626522653889   -0.026595778987429625   0.010696509493814566
-0.4904626522653889   -0.026595778987429625   0.010696509493814566
-0.24966398339353696   0.00695889096286418   -0.0027825945602412867
-0.24966398339353696   0.00695889096286418   -0.0027825945602412867
-0.24966398339353696   0.00695889096286418   -0.0027825945602412867
-0.24966398339353696   0.00695889096286418   -0.0027825945602412867
-0.24123265459340235   0.0405306918170803   0.015135502364717706
-0.24123265459340235   0.0405306918170803   0.015135502364717706
-0.24123265459340235   0.0405306918170803   0.015135502364717706
-0.24123265459340235   0.0405306918170803   0.015135502364717706
-0.4969508010168752   -0.030986135509659812   -0.0203667587328659
-0.4969508010168752   -0.030986135509659812   -0.0203667587328659
-0.4969508010168752   -0.030986135509659812   -0.0203667587328659
-0.4969508010168752   -0.030986135509659812   -0.0203667587328659
-0.36543602921680846   -0.001895435754784236   -9.181783438947863e-05
-0.36543602921680846   -0.001895435754784236   -9.181783438947863e-05
-0.36543602921680846   -0.001895435754784236   -9.181783438947863e-05
-0.36543602921680846   -0.001895435754784236   -9.181783438947863e-05
-0.48729533998155516   -0.010270052955565726   0.007194463889640412
-0.48729533998155516   -0.010270052955565726   0.007194463889640412
-0.48729533998155516   -0.010270052955565726   0.007194463889640412
-0.48729533998155516   -0.010270052955565726   0.007194463889640412
-0.24933464945966352   0.021368075432045823   -0.006211855581549408
-0.24933464945966352   0.021368075432045823   -0.006211855581549408
-0.24933464945966352   0.021368075432045823   -0.006211855581549408
-0.24933464945966352   0.021368075432045823   -0.006211855581549408
-0.24105549810993684   0.057460309549441486   0.0113243889368593
-0.24105549810993684   0.057460309549441486   0.0113243889368593
-0.24105549810993684   0.057460309549441486   0.0113243889368593
-0.24105549810993684   0.057460309549441486   0.0113243889368593
-0.494431883598557   -0.0147733878990675   -0.021906808028212658
-0.494431883598557   -0.0147733878990675   -0.021906808028212658
-0.494431883598557   -0.0147733878990675   -0.021906808028212658
-0.494431883598557   -0.0147733878990675   -0.021906808028212658
-0.3655439457737863   0.013038472364285805   0.0056696195823365755
-0.3655439457737863   0.013038472364285805   0.0056696195823365755
-0.3655439457737863   0.013038472364285805   0.0056696195823365755
-0.3655439457737863   0.013038472364285805   0.0056696195823365755
-0.2585507082453808   -0.05351155055902804   -0.0013613402516310328
-0.2585507082453808   -0.05351155055902804   -0.0013613402516310328
-0.2585507082453808   -0.05351155055902804   -0.0013613402516310328
-0.2585507082453808   -0.05351155055902804   -0.0013613402516310328
-0.009995137711171335   0.0023844033119896435   0.011032454676745003
-0.009995137711171335   0.0023844033119896435   0.011032454676745003
-0.009995137711171335   0.0023844033119896435   0.011032454676745003
-0.009995137711171335   0.0023844033119896435   0.011032454676745003
-0.010837094568776798   0.015593404547830345   0.005287708407159145
-0.010837094568776798   0.015593404547830345   0.005287708407159145
-0.010837094568776798   0.015593404547830345   0.005287708407159145
-0.010837094568776798   0.015593404547830345   0.005287708407159145
-0.2586178760775895   -0.03418207593865352   -0.006411091078988508
-0.2586178760775895   -0.03418207593865352   -0.006411091078988508
-0.2586178760775895   -0.03418207593865352   -0.006411091078988508
-0.2586178760775895   -0.03418207593865352   -0.006411091078988508
-0.13491890643728105   -0.01685356601592621   -0.0042829898907754925
-0.13491890643728105   -0.01685356601592621   -0.0042829898907754925
-0.13491890643728105   -0.01685356601592621   -0.0042829898907754925
-0.13491890643728105   -0.01685356601592621   -0.0042829898907754925
-0.25833827611002996   -0.03566950573151717   -0.003525661448327129
-0.25833827611002996   -0.03566950573151717   -0.003525661448327129
-0.25833827611002996   -0.03566950573151717   -0.003525661448327129
-0.25833827611002996   -0.03566950573151717   -0.003525661448327129
-0.009695820923530715   0.018501707953500583   0.008085773227719396
-0.009695820923530715   0.018501707953500583   0.008085773227719396
-0.009695820923530715   0.018501707953500583   0.008085773227719396
-0.009695820923530715   0.018501707953500583   0.008085773227719396
-0.009548052491913095   0.033114798059900294   0.002501069043650485
-0.009548052491913095   0.033114798059900294   0.002501069043650485
-0.009548052491913095   0.033114798059900294   0.002501069043650485
-0.009548052491913095   0.033114798059900294   0.002501069043650485
-0.2578560077811057   -0.018031495105323633   -0.009419076651392586
-0.2578560077811057   -0.018031495105323633   -0.009419076651392586
-0.2578560077811057   -0.018031495105323633   -0.009419076651392586
-0.2578560077811057   -0.018031495105323633   -0.009419076651392586
-0.13350402944442502   -0.0006674798106020251   0.0017947752519099523
-0.13350402944442502   -0.0006674798106020251   0.0017947752519099523
-0.13350402944442502   -0.0006674798106020251   0.0017947752519099523
-0.13350402944442502   -0.0006674798106020251   0.0017947752519099523
-0.25747109786681627   -0.0183960243840536   -0.007129997801215794
-0.25747109786681627   -0.0183960243840536   -0.007129997801215794
-0.25747109786681627   -0.0183960243840536   -0.007129997801215794
-0.25747109786681627   -0.0183960243840536   -0.007129997801215794
-0.008760600522444395   0.03465168922238834   0.004901437728506057
-0.008760600522444395   0.03465168922238834   0.004901437728506057
-0.008760600522444395   0.03465168922238834   0.004901437728506057
-0.008760600522444395   0.03465168922238834   0.004901437728506057
-0.009187259039960025   0.0511528463633569   -0.0004694360888753222
-0.009187259039960025   0.0511528463633569   -0.0004694360888753222
-0.009187259039960025   0.0511528463633569   -0.0004694360888753222
-0.009187259039960025   0.0511528463633569   -0.0004694360888753222
-0.25762831213209425   -0.00161264035170193   -0.0124667312727851
-0.25762831213209425   -0.00161264035170193   -0.0124667312727851
-0.25762831213209425   -0.00161264035170193   -0.0124667312727851
-0.25762831213209425   -0.00161264035170193   -0.0124667312727851
-0.1323805018723841   0.015534594249145682   0.007370146969032296
-0.1323805018723841   0.015534594249145682   0.007370146969032296
-0.1323805018723841   0.015534594249145682   0.007370146969032296
-0.1323805018723841   0.015534594249145682   0.007370146969032296
-0.02699666794621349   -0.05877325500715127   -0.012817538179324708
-0.02699666794621349   -0.05877325500715127   -0.012817538179324708
-0.02699666794621349   -0.05877325500715127   -0.012817538179324708
-0.02699666794621349   -0.05877325500715127   -0.012817538179324708
0.22825017034714   0.01593009036815008   0.020989523032417766
0.22825017034714   0.01593009036815008   0.020989523032417766
0.22825017034714   0.01593009036815008   0.020989523032417766
0.22825017034714   0.01593009036815008   0.020989523032417766
0.22075185859726418   0.008261879843520364   -0.008403573096969538
0.22075185859726418   0.008261879843520364   -0.008403573096969538
0.22075185859726418   0.008261879843520364   -0.008403573096969538
0.22075185859726418   0.008261879843520364   -0.008403573096969538
-0.01836694764969088   -0.021374470396853345   0.004606317947272496
-0.01836694764969088   -0.021374470396853345   0.004606317947272496
-0.01836694764969088   -0.021374470396853345   0.004606317947272496
-0.01836694764969088   -0.021374470396853345   0.004606317947272496
0.09946964446632456   -0.013764462903394517   -0.0024435753881135655
0.09946964446632456   -0.013764462903394517   -0.0024435753881135655
0.09946964446632456   -0.013764462903394517   -0.0024435753881135655
0.09946964446632456   -0.013764462903394517   -0.0024435753881135655
-0.02679814610155121   -0.042793529515521095   -0.016130615193361415
-0.02679814610155121   -0.042793529515521095   -0.016130615193361415
-0.02679814610155121   -0.042793529515521095   -0.016130615193361415
-0.02679814610155121   -0.042793529515521095   -0.016130615193361415
0.23079990536933082   0.031297787282393755   0.018800753324490143
0.23079990536933082   0.031297787282393755   0.018800753324490143
0.23079990536933082   0.031297787282393755   0.018800753324490143
0.23079990536933082   0.031297787282393755   0.018800753324490143
0.22450407751105456   0.02457348538150227   -0.011798624683056588
0.22450407751105456   0.02457348538150227   -0.011798624683056588
0.22450407751105456   0.02457348538150227   -0.011798624683056588
0.22450407751105456   0.02457348538150227   -0.011798624683056588
-0.017773382686826045   -0.006900585962811618   0.0013898020917978897
-0.017773382686826045   -0.006900585962811618   0.0013898020917978897
-0.017773382686826045   -0.006900585962811618   0.0013898020917978897
-0.017773382686826045   -0.006900585962811618   0.0013898020917978897
0.10049430704677312   0.0009045501072727606   0.0036054867064814816
0.10049430704677312   0.0009045501072727606   0.0036054867064814816
0.10049430704677312   0.0009045501072727606   0.0036054867064814816
0.10049430704677312   0.0009045501072727606   0.0036054867064814816
-0.025976406218929243   -0.02705672227849128   -0.01946917925303861
-0.025976406218929243   -0.02705672227849128   -0.01946917925303861
-0.025976406218929243   -0.02705672227849128   -0.01946917925303861
-0.025976406218929243   -0.02705672227849128   -0.01946917925303861
0.2344699468728785   0.04649246752690167   0.016111739980663637
0.2344699468728785   0.04649246752690167   0.016111739980663637
0.2344699468728785   0.04649246752690167   0.016111739980663637
0.2344699468728785   0.04649246752690167   0.016111739980663637
0.22686584717637842   0.04499107163252593   -0.012364765605278043
0.22686584717637842   0.04499107163252593   -0.012364765605278043
0.22686584717637842   0.04499107163252593   -0.012364765605278043
0.22686584717637842   0.04499107163252593   -0.012364765605278043
-0.017692392485077944   0.009977501297825238   -0.001819758248933081
-0.017692392485077944   0.009977501297825238   -0.001819758248933081
-0.017692392485077944   0.009977501297825238   -0.001819758248933081
-0.017692392485077944   0.009977501297825238   -0.001819758248933081
0.10414392437725724   0.01722217102011111   0.010772056848643699
0.10414392437725724   0.01722217102011111   0.010772056848643699
0.10414392437725724   0.01722217102011111   0.010772056848643699
0.10414392437725724   0.01722217102011111   0.010772056848643699
0.20416453857656705   -0.058445943652068164   -0.025062601800226864
0.20416453857656705   -0.058445943652068164   -0.025062601800226864
0.20416453857656705   -0.058445943652068164   -0.025062601800226864
0.20416453857656705   -0.058445943652068164   -0.025062601800226864
0.4502698488247757   0.03347437466825806   0.02351134212490117
0.4502698488247757   0.03347437466825806   0.02351134212490117
0.4502698488247757   0.03347437466825806   0.02351134212490117
0.4502698488247757   0.03347437466825806   0.02351134212490117
0.4467982174289001   -0.0026600105294572463   -0.03336657089114597
0.4467982174289001   -0.0026600105294572463   -0.03336657089114597
0.4467982174289001   -0.0026600105294572463   -0.03336657089114597
0.4467982174289001   -0.0026600105294572463   -0.03336657089114597
0.22301787115076274   -0.00464056300455571   0.01582893251860115
0.22301787115076274   -0.00464056300455571   0.01582893251860115
0.22301787115076274   -0.00464056300455571   0.01582893251860115
0.22301787115076274   -0.00464056300455571   0.01582893251860115
0.3149834804584653   -0.01153544173560933   -0.010435732587670617
0.3149834804584653   -0.01153544173560933   -0.010435732587670617
0.3149834804584653   -0.01153544173560933   -0.010435732587670617
0.3149834804584653   -0.01153544173560933   -0.010435732587670617
0.20448897552589954   -0.050616472044901814   -0.03083963656536822
0.20448897552589954   -0.050616472044901814   -0.03083963656536822
0.20448897552589954   -0.050616472044901814   -0.03083963656536822
0.20448897552589954   -0.050616472044901814   -0.03083963656536822
0.46665450633372263   0.04464329179084832   0.018611571312661383
0.46665450633372263   0.04464329179084832   0.018611571312661383
0.46665450633372263   0.04464329179084832   0.018611571312661383
0.46665450633372263   0.04464329179084832   0.018611571312661383
0.4580631971239146   0.006643820666944689   -0.044817840098910065
0.4580631971239146   0.006643820666944689   -0.044817840098910065
0.4580631971239146   0.006643820666944689   -0.044817840098910065
0.4580631971239146   0.006643820666944689   -0.044817840098910065
0.22480838865969588   0.002461269929642629   0.01183514651201293
0.22480838865969588   0.002461269929642629   0.01183514651201293
0.22480838865969588   0.002461269929642629   0.01183514651201293
0.22480838865969588   0.002461269929642629   0.01183514651201293
0.32950108871368006   -0.0014523619670605975   -0.0031262870789907707
0.32950108871368006   -0.0014523619670605975   -0.0031262870789907707
0.32950108871368006   -0.0014523619670605975   -0.0031262870789907707
0.32950108871368006   -0.0014523619670605975   -0.0031262870789907707
0.2069597281612072   -0.04133556859664403   -0.03361131745414628
0.2069597281612072   -0.04133556859664403   -0.03361131745414628
0.2069597281612072   -0.04133556859664403   -0.03361131745414628
0.2069597281612072   -0.04133556859664403   -0.03361131745414628
0.47884840272432205   0.053377204295149715   0.012374804274926059
0.47884840272432205   0.053377204295149715   0.012374804274926059
0.47884840272432205   0.053377204295149715   0.012374804274926059
0.47884840272432205   0.053377204295149715   0.012374804274926059
0.4759335245711337   0.030821509184745396   -0.04222979730184112
0.4759335245711337   0.030821509184745396   -0.04222979730184112
0.4759335245711337   0.030821509184745396   -0.04222979730184112
0.4759335245711337   0.030821509184745396   -0.04222979730184112
0.22568676600904208   0.01806190824004486   0.008668991950525175
0.22568676600904208   0.01806190824004486   0.008668991950525175
0.22568676600904208   0.01806190824004486   0.008668991950525175
0.22568676600904208   0.01806190824004486   0.008668991950525175
0.33220827525061   0.010039761254054813   0.0049993560560730385
0.33220827525061   0.010039761254054813   0.0049993560560730385
0.33220827525061   0.010039761254054813   0.0049993560560730385
0.33220827525061   0.010039761254054813   0.0049993560560730385
-0.5250681718466809   -0.016890265082166664   0.034760817377003636
-0.5250681718466809   -0.016890265082166664   0.034760817377003636
-0.5250681718466809   -0.016890265082166664   0.034760817377003636
-0.5250681718466809   -0.016890265082166664   0.034760817377003636
-0.36844291811815083   -0.024886425501032525   -0.0130634804375967
-0.36844291811815083   -0.024886425501032525   -0.0130634804375967
-0.36844291811815083   -0.024886425501032525   -0.0130634804375967
-0.36844291811815083   -0.024886425501032525   -0.0130634804375967
-0.34661716809315546   0.034918106804577395   0.0296043319107929
-0.34661716809315546   0.034918106804577395   0.0296043319107929
-0.34661716809315546   0.034918106804577395   0.0296043319107929
-0.34661716809315546   0.034918106804577395   0.0296043319107929
-0.5250966991230209   -0.04328395879829189   -0.019122622673063826
-0.5250966991230209   -0.04328395879829189   -0.019122622673063826
-0.5250966991230209   -0.04328395879829189   -0.019122622673063826
-0.5250966991230209   -0.04328395879829189   -0.019122622673063826
-0.42328581940409166   -0.0066838893808225525   -0.001153642117547326
-0.42328581940409166   -0.0066838893808225525   -0.001153642117547326
-0.42328581940409166   -0.0066838893808225525   -0.001153642117547326
-0.42328581940409166   -0.0066838893808225525   -0.001153642117547326
-0.5052325865063779   0.003880794218455122   0.03303318739340391
-0.5052325865063779   0.003880794218455122   0.03303318739340391
-0.5052325865063779   0.003880794218455122   0.03303318739340391
-0.5052325865063779   0.003880794218455122   0.03303318739340391
-0.3648600356272902   -0.010625401129659484   -0.016066497825640135
-0.3648600356272902   -0.010625401129659484   -0.016066497825640135
-0.3648600356272902   -0.010625401129659484   -0.016066497825640135
-0.3648600356272902   -0.010625401129659484   -0.016066497825640135
-0.34334287419943627   0.04220769777985174   0.024993593288524008
-0.34334287419943627   0.04220769777985174   0.024993593288524008
-0.34334287419943627   0.04220769777985174   0.024993593288524008
-0.34334287419943627   0.04220769777985174   0.024993593288524008
-0.512531424005866   -0.03515257982212351   -0.02414026259182019
-0.512531424005866   -0.03515257982212351   -0.02414026259182019
-0.512531424005866   -0.03515257982212351   -0.02414026259182019
-0.512531424005866   -0.03515257982212351   -0.02414026259182019
-0.42022851690959995   0.002916871639297297   0.004296211733890498
-0.42022851690959995   0.002916871639297297   0.004296211733890498
-0.42022851690959995   0.002916871639297297   0.004296211733890498
-0.42022851690959995   0.002916871639297297   0.004296211733890498
-0.49285612573608323   0.01260254883484295   0.026481100100127126
-0.49285612573608323   0.01260254883484295   0.026481100100127126
-0.49285612573608323   0.01260254883484295   0.026481100100127126
-0.49285612573608323   0.01260254883484295   0.026481100100127126
-0.3615572193303054   -0.004086477738200714   -0.019783956847766928
-0.3615572193303054   -0.004086477738200714   -0.019783956847766928
-0.3615572193303054   -0.004086477738200714   -0.019783956847766928
-0.3615572193303054   -0.004086477738200714   -0.019783956847766928
-0.34153446523434916   0.049382414544663994   0.021503836133375212
-0.34153446523434916   0.049382414544663994   0.021503836133375212
-0.34153446523434916   0.049382414544663994   0.021503836133375212
-0.34153446523434916   0.049382414544663994   0.021503836133375212
-0.4957412428906476   -0.024367936177821806   -0.028882113639511618
-0.4957412428906476   -0.024367936177821806   -0.028882113639511618
-0.4957412428906476   -0.024367936177821806   -0.028882113639511618
-0.4957412428906476   -0.024367936177821806   -0.028882113639511618
-0.4043893344790338   0.01194530150316725   0.011899449842822932
-0.4043893344790338   0.01194530150316725   0.011899449842822932
-0.4043893344790338   0.01194530150316725   0.011899449842822932
-0.4043893344790338   0.01194530150316725   0.011899449842822932
-0.36414017315390984   -0.029626908879295942   0.013190727761867358
-0.36414017315390984   -0.029626908879295942   0.013190727761867358
-0.36414017315390984   -0.029626908879295942   0.013190727761867358
-0.36414017315390984   -0.029626908879295942   0.013190727761867358
-0.212133134704935   -0.016119256410233155   -0.0021125275845477647
-0.212133134704935   -0.016119256410233155   -0.0021125275845477647
-0.212133134704935   -0.016119256410233155   -0.0021125275845477647
-0.212133134704935   -0.016119256410233155   -0.0021125275845477647
-0.20133053736016573   0.020373601512533444   0.015957512154733833
-0.20133053736016573   0.020373601512533444   0.015957512154733833
-0.20133053736016573   0.020373601512533444   0.015957512154733833
-0.20133053736016573   0.020373601512533444   0.015957512154733833
-0.369666535165534   -0.03532789824971262   -0.01539649839680935
-0.369666535165534   -0.03532789824971262   -0.01539649839680935
-0.369666535165534   -0.03532789824971262   -0.01539649839680935
-0.369666535165534   -0.03532789824971262   -0.01539649839680935
-0.2856937218264407   -0.013864173123178766   -0.0059275594337200865
-0.2856937218264407   -0.013864173123178766   -0.0059275594337200865
-0.2856937218264407   -0.013864173123178766   -0.0059275594337200865
-0.2856937218264407   -0.013864173123178766   -0.0059275594337200865
-0.35983827450523775   -0.012363389180363601   0.010780295835320645
-0.35983827450523775   -0.012363389180363601   0.010780295835320645
-0.35983827450523775   -0.012363389180363601   0.010780295835320645
-0.35983827450523775   -0.012363389180363601   0.010780295835320645
-0.20989652417916027   -0.0013286337155155245   -0.0051701867121898525
-0.20989652417916027   -0.0013286337155155245   -0.0051701867121898525
-0.20989652417916027   -0.0013286337155155245   -0.0051701867121898525
-0.20989652417916027   -0.0013286337155155245   -0.0051701867121898525
-0.198773657216327   0.03533685780577977   0.013071064043783817
-0.198773657216327   0.03533685780577977   0.013071064043783817
-0.198773657216327   0.03533685780577977   0.013071064043783817
-0.198773657216327   0.03533685780577977   0.013071064043783817
-0.3646605697446012   -0.02123805186189877   -0.018149134795550394
-0.3646605697446012   -0.02123805186189877   -0.018149134795550394
-0.3646605697446012   -0.02123805186189877   -0.018149134795550394
-0.3646605697446012   -0.02123805186189877   -0.018149134795550394
-0.28020067110349745   0.0008059501480242662   0.00037716827945215303
-0.28020067110349745   0.0008059501480242662   0.00037716827945215303
-0.28020067110349745   0.0008059501480242662   0.00037716827945215303
-0.28020067110349745   0.0008059501480242662   0.00037716827945215303
-0.3540891408169014   0.0036279498942651256   0.009842008086784988
-0.3540891408169014   0.0036279498942651256   0.009842008086784988
-0.3540891408169014   0.0036279498942651256   0.009842008086784988
-0.3540891408169014   0.0036279498942651256   0.009842008086784988
-0.20777767536867767   0.012038266824965484   -0.008650435737152726
-0.20777767536867767   0.012038266824965484   -0.008650435737152726
-0.20777767536867767   0.012038266824965484   -0.008650435737152726
-0.20777767536867767   0.012038266824965484   -0.008650435737152726
-0.19630208677648994   0.05131056400492049   0.010383154669660239
-0.19630208677648994   0.05131056400492049   0.010383154669660239
-0.19630208677648994   0.05131056400492049   0.010383154669660239
-0.19630208677648994   0.05131056400492049   0.010383154669660239
-0.3609253265469652   -0.006023144284650284   -0.020044911600388814
-0.3609253265469652   -0.006023144284650284   -0.020044911600388814
-0.3609253265469652   -0.006023144284650284   -0.020044911600388814
-0.3609253265469652   -0.006023144284650284   -0.020044911600388814
-0.2780574959882626   0.014649959091541917   0.006395944486832183
-0.2780574959882626   0.014649959091541917   0.006395944486832183
-0.2780574959882626   0.014649959091541917   0.006395944486832183
-0.2780574959882626   0.014649959091541917   0.006395944486832183
-0.216561464550216   -0.041008366362837646   0.0006349331416493783
-0.216561464550216   -0.041008366362837646   0.0006349331416493783
-0.216561464550216   -0.041008366362837646   0.0006349331416493783
-0.216561464550216   -0.041008366362837646   0.0006349331416493783
-0.05734242403148241   -0.005012648725205289   0.00880755081171138
-0.05734242403148241   -0.005012648725205289   0.00880755081171138
-0.05734242403148241   -0.005012648725205289   0.00880755081171138
-0.05734242403148241   -0.005012648725205289   0.00880755081171138
-0.055979812340884824   0.008228627960589574   0.003004364680522291
-0.055979812340884824   0.008228627960589574   0.003004364680522291
-0.055979812340884824   0.008228627960589574   0.003004364680522291
-0.055979812340884824   0.008228627960589574   0.003004364680522291
-0.21419057621742357   -0.023890763345021257   -0.004078317274003099
-0.21419057621742357   -0.023890763345021257   -0.004078317274003099
-0.21419057621742357   -0.023890763345021257   -0.004078317274003099
-0.21419057621742357   -0.023890763345021257   -0.004078317274003099
-0.13625528928909572   -0.014755011692198608   -0.0042248664933113855
-0.13625528928909572   -0.014755011692198608   -0.0042248664933113855
-0.13625528928909572   -0.014755011692198608   -0.0042248664933113855
-0.13625528928909572   -0.014755011692198608   -0.0042248664933113855
-0.21383469415442205   -0.024317629499188084   -0.001872040804828762
-0.21383469415442205   -0.024317629499188084   -0.001872040804828762
-0.21383469415442205   -0.024317629499188084   -0.001872040804828762
-0.21383469415442205   -0.024317629499188084   -0.001872040804828762
-0.05507004266619997   0.009921145852442751   0.005860695162093366
-0.05507004266619997   0.009921145852442751   0.005860695162093366
-0.05507004266619997   0.009921145852442751   0.005860695162093366
-0.05507004266619997   0.009921145852442751   0.005860695162093366
-0.0528896511947611   0.02499471318622673   0.0007456082200185486
-0.0528896511947611   0.02499471318622673   0.0007456082200185486
-0.0528896511947611   0.02499471318622673   0.0007456082200185486
-0.0528896511947611   0.02499471318622673   0.0007456082200185486
-0.21162936921091446   -0.008849674289946687   -0.007020963833426923
-0.21162936921091446   -0.008849674289946687   -0.007020963833426923
-0.21162936921091446   -0.008849674289946687   -0.007020963833426923
-0.21162936921091446   -0.008849674289946687   -0.007020963833426923
-0.13295318169251255   0.00029580513234974196   0.0017238915187503551
-0.13295318169251255   0.00029580513234974196   0.0017238915187503551
-0.13295318169251255   0.00029580513234974196   0.0017238915187503551
-0.13295318169251255   0.00029580513234974196   0.0017238915187503551
-0.21083777370550266   -0.0076054708993235146   -0.004307189696991107
-0.21083777370550266   -0.0076054708993235146   -0.004307189696991107
-0.21083777370550266   -0.0076054708993235146   -0.004307189696991107
-0.21083777370550266   -0.0076054708993235146   -0.004307189696991107
-0.05251248482774084   0.0249192716680357   0.002706881573311389
-0.05251248482774084   0.0249192716680357   0.002706881573311389
-0.05251248482774084   0.0249192716680357   0.002706881573311389
-0.05251248482774084   0.0249192716680357   0.002706881573311389
-0.05011270896065324   0.0420041272671048   -0.0018984963501924215
-0.05011270896065324   0.0420041272671048   -0.0018984963501924215
-0.05011270896065324   0.0420041272671048   -0.0018984963501924215
-0.05011270896065324   0.0420041272671048   -0.0018984963501924215
-0.20938994808095432   0.006362463164048808   -0.010108051011791394
-0.20938994808095432   0.006362463164048808   -0.010108051011791394
-0.20938994808095432   0.006362463164048808   -0.010108051011791394
-0.20938994808095432   0.006362463164048808   -0.010108051011791394
-0.12993931840175646   0.015419097147204009   0.0074550939502503345
-0.12993931840175646   0.015419097147204009   0.0074550939502503345
-0.12993931840175646   0.015419097147204009   0.0074550939502503345
-0.12993931840175646   0.015419097147204009   0.0074550939502503345
-0.07049135126286506   -0.05033838781201336   -0.011611346258394342
-0.07049135126286506   -0.05033838781201336   -0.011611346258394342
-0.07049135126286506   -0.05033838781201336   -0.011611346258394342
-0.07049135126286506   -0.05033838781201336   -0.011611346258394342
0.09518592875795463   0.0074223148291862225   0.01908693109668327
0.09518592875795463   0.0074223148291862225   0.01908693109668327
0.09518592875795463   0.0074223148291862225   0.01908693109668327
0.09518592875795463   0.0074223148291862225   0.01908693109668327
0.08829729782944941   -0.0031253112494061056   -0.010812131794631596
0.08829729782944941   -0.0031253112494061056   -0.010812131794631596
0.08829729782944941   -0.0031253112494061056   -0.010812131794631596
0.08829729782944941   -0.0031253112494061056   -0.010812131794631596
-0.0591203033905481   -0.011603306076786528   0.007133843469581993
-0.0591203033905481   -0.011603306076786528   0.007133843469581993
-0.0591203033905481   -0.011603306076786528   0.007133843469581993
-0.0591203033905481   -0.011603306076786528   0.007133843469581993
0.012871500729010051   -0.014008842027103086   -0.0030160436565327613
0.012871500729010051   -0.014008842027103086   -0.0030160436565327613
0.012871500729010051   -0.014008842027103086   -0.0030160436565327613
0.012871500729010051   -0.014008842027103086   -0.0030160436565327613
-0.068112053364187   -0.03510866468690573   -0.014319547788493318
-0.068112053364187   -0.03510866468690573   -0.014319547788493318
-0.068112053364187   -0.03510866468690573   -0.014319547788493318
-0.068112053364187   -0.03510866468690573   -0.014319547788493318
0.09879426789326269   0.021885267450888576   0.016662139824139062
0.09879426789326269   0.021885267450888576   0.016662139824139062
0.09879426789326269   0.021885267450888576   0.016662139824139062
0.09879426789326269   0.021885267450888576   0.016662139824139062
0.09406355880291249   0.01273711169554301   -0.012258651106163672
0.09406355880291249   0.01273711169554301   -0.012258651106163672
0.09406355880291249   0.01273711169554301   -0.012258651106163672
0.09406355880291249   0.01273711169554301   -0.012258651106163672
-0.05689189823397976   0.001847492776752984   0.0038815934333994526
-0.05689189823397976   0.001847492776752984   0.0038815934333994526
-0.05689189823397976   0.001847492776752984   0.0038815934333994526
-0.05689189823397976   0.001847492776752984   0.0038815934333994526
0.015949163250783004   -0.0003396223193743485   0.003042728951680362
0.015949163250783004   -0.0003396223193743485   0.003042728951680362
0.015949163250783004   -0.0003396223193743485   0.003042728951680362
0.015949163250783004   -0.0003396223193743485   0.003042728951680362
-0.0655698643775915   -0.020224993017421308   -0.0174357514904851
-0.0655698643775915   -0.020224993017421308   -0.0174357514904851
-0.0655698643775915   -0.020224993017421308   -0.0174357514904851
-0.0655698643775915   -0.020224993017421308   -0.0174357514904851
0.1040476113640162   0.03611568390720958   0.014283039487686448
0.1040476113640162   0.03611568390720958   0.014283039487686448
0.1040476113640162   0.03611568390720958   0.014283039487686448
0.1040476113640162   0.03611568390720958   0.014283039487686448
0.09871359135918494   0.030786504990598075   -0.014180723629335607
0.09871359135918494   0.030786504990598075   -0.014180723629335607
0.09871359135918494   0.030786504990598075   -0.014180723629335607
0.09871359135918494   0.030786504990598075   -0.014180723629335607
-0.05451202293300006   0.01732161786377119   0.0007874431914066437
-0.05451202293300006   0.01732161786377119   0.0007874431914066437
-0.05451202293300006   0.01732161786377119   0.0007874431914066437
-0.05451202293300006   0.01732161786377119   0.0007874431914066437
0.020668082193689836   0.014488113216053302   0.009303015398831518
0.020668082193689836   0.014488113216053302   0.009303015398831518
0.020668082193689836   0.014488113216053302   0.009303015398831518
0.020668082193689836   0.014488113216053302   0.009303015398831518
0.07511331268300128   -0.05085830656238028   -0.022995527886516057
0.07511331268300128   -0.05085830656238028   -0.022995527886516057
0.07511331268300128   -0.05085830656238028   -0.022995527886516057
0.07511331268300128   -0.05085830656238028   -0.022995527886516057
0.23005715267848545   0.02281410309621016   0.024857175547435967
0.23005715267848545   0.02281410309621016   0.024857175547435967
0.23005715267848545   0.02281410309621016   0.024857175547435967
0.23005715267848545   0.02281410309621016   0.024857175547435967
0.2276782301419845   -0.01293192606155559   -0.030288241757619995
0.2276782301419845   -0.01293192606155559   -0.030288241757619995
0.2276782301419845   -0.01293192606155559   -0.030288241757619995
0.2276782301419845   -0.01293192606155559   -0.030288241757619995
0.09567059510868203   0.004358034959278199   0.018571008392847144
0.09567059510868203   0.004358034959278199   0.018571008392847144
0.09567059510868203   0.004358034959278199   0.018571008392847144
0.09567059510868203   0.004358034959278199   0.018571008392847144
0.14892422685988152   -0.010653392206175241   -0.007997651521280172
0.14892422685988152   -0.010653392206175241   -0.007997651521280172
0.14892422685988152   -0.010653392206175241   -0.007997651521280172
0.14892422685988152   -0.010653392206175241   -0.007997651521280172
0.07730845466909578   -0.04227047047814211   -0.026611188367663845
0.07730845466909578   -0.04227047047814211   -0.026611188367663845
0.07730845466909578   -0.04227047047814211   -0.026611188367663845
0.07730845466909578   -0.04227047047814211   -0.026611188367663845
0.24757493800273944   0.03523114679703403   0.021032224687568848
0.24757493800273944   0.03523114679703403   0.021032224687568848
0.24757493800273944   0.03523114679703403   0.021032224687568848
0.24757493800273944   0.03523114679703403   0.021032224687568848
0.24043221468557988   -0.004055524211052708   -0.036372650217347764
0.24043221468557988   -0.004055524211052708   -0.036372650217347764
0.24043221468557988   -0.004055524211052708   -0.036372650217347764
0.24043221468557988   -0.004055524211052708   -0.036372650217347764
0.09904195548946274   0.010863183474106053   0.014507260548022568
0.09904195548946274   0.010863183474106053   0.014507260548022568
0.09904195548946274   0.010863183474106053   0.014507260548022568
0.09904195548946274   0.010863183474106053   0.014507260548022568
0.16172953342231283   -0.0016814395052135236   -0.0008799783104967238
0.16172953342231283   -0.0016814395052135236   -0.0008799783104967238
0.16172953342231283   -0.0016814395052135236   -0.0008799783104967238
0.16172953342231283   -0.0016814395052135236   -0.0008799783104967238
0.0808120240933762   -0.03488406239807088   -0.030895150560231142
0.0808120240933762   -0.03488406239807088   -0.030895150560231142
0.0808120240933762   -0.03488406239807088   -0.030895150560231142
0.0808120240933762   -0.03488406239807088   -0.030895150560231142
0.2602653539939502   0.043294929573408615   0.015442592540047964
0.2602653539939502   0.043294929573408615   0.015442592540047964
0.2602653539939502   0.043294929573408615   0.015442592540047964
0.2602653539939502   0.043294929573408615   0.015442592540047964
0.26006023326803246   0.015407447090275812   -0.038976781057306634
0.26006023326803246   0.015407447090275812   -0.038976781057306634
0.26006023326803246   0.015407447090275812   -0.038976781057306634
0.26006023326803246   0.015407447090275812   -0.038976781057306634
0.10248935268365418   0.02394694751119636   0.011537640472411398
0.10248935268365418   0.02394694751119636   0.011537640472411398
0.10248935268365418   0.02394694751119636   0.011537640472411398
0.10248935268365418   0.02394694751119636   0.011537640472411398
0.16824193078540398   0.008170318554768487   0.005278627016231917
0.16824193078540398   0.008170318554768487   0.005278627016231917
0.16824193078540398   0.008170318554768487   0.005278627016231917
0.16824193078540398   0.008170318554768487   0.005278627016231917
-0.3127244600937052   -0.004925327531388052   0.03102355138618008
-0.3127244600937052   -0.004925327531388052   0.03102355138618008
-0.3127244600937052   -0.004925327531388052   0.03102355138618008
-0.3127244600937052   -0.004925327531388052   0.03102355138618008
-0.24530420385154741   -0.03136497445494199   -0.015242445617752412
-0.24530420385154741   -0.03136497445494199   -0.015242445617752412
-0.24530420385154741   -0.03136497445494199   -0.015242445617752412
-0.24530420385154741   -0.03136497445494199   -0.015242445617752412
-0.22198776730047537   0.026461790693811695   0.026497192964908566
-0.22198776730047537   0.026461790693811695   0.026497192964908566
-0.22198776730047537   0.026461790693811695   0.026497192964908566
-0.22198776730047537   0.026461790693811695   0.026497192964908566
-0.31147163102431974   -0.03398132341532447   -0.020789370101067947
-0.31147163102431974   -0.03398132341532447   -0.020789370101067947
-0.31147163102431974   -0.03398132341532447   -0.020789370101067947
-0.31147163102431974   -0.03398132341532447   -0.020789370101067947
-0.26249279574079687   -0.007154388153991803   -0.0040796521836273004
-0.26249279574079687   -0.007154388153991803   -0.0040796521836273004
-0.26249279574079687   -0.007154388153991803   -0.0040796521836273004
-0.26249279574079687   -0.007154388153991803   -0.0040796521836273004
-0.29197597931929514   0.013088518915676806   0.02961904609305386
-0.29197597931929514   0.013088518915676806   0.02961904609305386
-0.29197597931929514   0.013088518915676806   0.02961904609305386
-0.29197597931929514   0.013088518915676806   0.02961904609305386
-0.24011644945295954   -0.019241082084648857   -0.018443345019050074
-0.24011644945295954   -0.019241082084648857   -0.018443345019050074
-0.24011644945295954   -0.019241082084648857   -0.018443345019050074
-0.24011644945295954   -0.019241082084648857   -0.018443345019050074
-0.2165539837513677   0.03334887427316216   0.02238956763010985
-0.2165539837513677   0.03334887427316216   0.02238956763010985
-0.2165539837513677   0.03334887427316216   0.02238956763010985
-0.2165539837513677   0.03334887427316216   0.02238956763010985
-0.297099968774055   -0.02617375131422594   -0.025938130056460583
-0.297099968774055   -0.02617375131422594   -0.025938130056460583
-0.297099968774055   -0.02617375131422594   -0.025938130056460583
-0.297099968774055   -0.02617375131422594   -0.025938130056460583
-0.2549778587370769   0.0018443741064197508   0.0016836328637735275
-0.2549778587370769   0.0018443741064197508   0.0016836328637735275
-0.2549778587370769   0.0018443741064197508   0.0016836328637735275
-0.2549778587370769   0.0018443741064197508   0.0016836328637735275
-0.2776080250911315   0.021441433239977693   0.02390640380395131
-0.2776080250911315   0.021441433239977693   0.02390640380395131
-0.2776080250911315   0.021441433239977693   0.02390640380395131
-0.2776080250911315   0.021441433239977693   0.02390640380395131
-0.23475670181281247   -0.012977084659562453   -0.022298063744385692
-0.23475670181281247   -0.012977084659562453   -0.022298063744385692
-0.23475670181281247   -0.012977084659562453   -0.022298063744385692
-0.23475670181281247   -0.012977084659562453   -0.022298063744385692
-0.21217508309643213   0.04198299135234572   0.01930636421711815
-0.21217508309643213   0.04198299135234572   0.01930636421711815
-0.21217508309643213   0.04198299135234572   0.01930636421711815
-0.21217508309643213   0.04198299135234572   0.01930636421711815
-0.2778024840892436   -0.013662848290589849   -0.03000319642279597
-0.2778024840892436   -0.013662848290589849   -0.03000319642279597
-0.2778024840892436   -0.013662848290589849   -0.03000319642279597
-0.2778024840892436   -0.013662848290589849   -0.03000319642279597
-0.2398648793264776   0.01074960040864599   0.008807880125001805
-0.2398648793264776   0.01074960040864599   0.008807880125001805
-0.2398648793264776   0.01074960040864599   0.008807880125001805
-0.2398648793264776   0.01074960040864599   0.008807880125001805
-0.23655517083725863   -0.017628007600032   0.014765752598781639
-0.23655517083725863   -0.017628007600032   0.014765752598781639
-0.23655517083725863   -0.017628007600032   0.014765752598781639
-0.23655517083725863   -0.017628007600032   0.014765752598781639
-0.17489208321124264   -0.023763837072126964   -0.004505098639360434
-0.17489208321124264   -0.023763837072126964   -0.004505098639360434
-0.17489208321124264   -0.023763837072126964   -0.004505098639360434
-0.17489208321124264   -0.023763837072126964   -0.004505098639360434
-0.1619455852930041   0.012005581375136132   0.013549949854912275
-0.1619455852930041   0.012005581375136132   0.013549949854912275
-0.1619455852930041   0.012005581375136132   0.013549949854912275
-0.1619455852930041   0.012005581375136132   0.013549949854912275
-0.24017892633528362   -0.025043680243173362   -0.012953131272145925
-0.24017892633528362   -0.025043680243173362   -0.012953131272145925
-0.24017892633528362   -0.025043680243173362   -0.012953131272145925
-0.24017892633528362   -0.025043680243173362   -0.012953131272145925
-0.2028613356887216   -0.012515386750448783   -0.005536971033319658
-0.2028613356887216   -0.012515386750448783   -0.005536971033319658
-0.2028613356887216   -0.012515386750448783   -0.005536971033319658
-0.2028613356887216   -0.012515386750448783   -0.005536971033319658
-0.23044526615010333   -0.0018917057376253987   0.012563195148203862
-0.23044526615010333   -0.0018917057376253987   0.012563195148203862
-0.23044526615010333   -0.0018917057376253987   0.012563195148203862
-0.23044526615010333   -0.0018917057376253987   0.012563195148203862
-0.1705771361286191   -0.01004428378084718   -0.0075579391671795355
-0.1705771361286191   -0.01004428378084718   -0.0075579391671795355
-0.1705771361286191   -0.01004428378084718   -0.0075579391671795355
-0.1705771361286191   -0.01004428378084718   -0.0075579391671795355
-0.15726805134023175   0.02603596426856771   0.010828427452412498
-0.15726805134023175   0.02603596426856771   0.010828427452412498
-0.15726805134023175   0.02603596426856771   0.010828427452412498
-0.15726805134023175   0.02603596426856771   0.010828427452412498
-0.23312261872952297   -0.01159030877505645   -0.015514424212444278
-0.23312261872952297   -0.01159030877505645   -0.015514424212444278
-0.23312261872952297   -0.01159030877505645   -0.015514424212444278
-0.23312261872952297   -0.01159030877505645   -0.015514424212444278
-0.19606122361848136   0.000976611097763945   0.000505247779587225
-0.19606122361848136   0.000976611097763945   0.000505247779587225
-0.19606122361848136   0.000976611097763945   0.000505247779587225
-0.19606122361848136   0.000976611097763945   0.000505247779587225
-0.22281611581000632   0.013038518505121735   0.011389263104957172
-0.22281611581000632   0.013038518505121735   0.011389263104957172
-0.22281611581000632   0.013038518505121735   0.011389263104957172
-0.22281611581000632   0.013038518505121735   0.011389263104957172
-0.1663024170666811   0.002679274181454784   -0.010986711092722357
-0.1663024170666811   0.002679274181454784   -0.010986711092722357
-0.1663024170666811   0.002679274181454784   -0.010986711092722357
-0.1663024170666811   0.002679274181454784   -0.010986711092722357
-0.15260404833112254   0.04129731347882032   0.008236099001129264
-0.15260404833112254   0.04129731347882032   0.008236099001129264
-0.15260404833112254   0.04129731347882032   0.008236099001129264
-0.15260404833112254   0.04129731347882032   0.008236099001129264
-0.22732349701240498   0.0031360765349944322   -0.017588790545392814
-0.22732349701240498   0.0031360765349944322   -0.017588790545392814
-0.22732349701240498   0.0031360765349944322   -0.017588790545392814
-0.22732349701240498   0.0031360765349944322   -0.017588790545392814
-0.19115518655142688   0.014241738207444232   0.006429327562454129
-0.19115518655142688   0.014241738207444232   0.006429327562454129
-0.19115518655142688   0.014241738207444232   0.006429327562454129
-0.19115518655142688   0.014241738207444232   0.006429327562454129
-0.1746446965884843   -0.029700844932073076   0.002668842334374387
-0.1746446965884843   -0.029700844932073076   0.002668842334374387
-0.1746446965884843   -0.029700844932073076   0.002668842334374387
-0.1746446965884843   -0.029700844932073076   0.002668842334374387
-0.10533829411088719   -0.012711724533988432   0.006378552043659462
-0.10533829411088719   -0.012711724533988432   0.006378552043659462
-0.10533829411088719   -0.012711724533988432   0.006378552043659462
-0.10533829411088719   -0.012711724533988432   0.006378552043659462
-0.10188477885142004   -0.00045168593590307754   0.0008112724055842936
-0.10188477885142004   -0.00045168593590307754   0.0008112724055842936
-0.10188477885142004   -0.00045168593590307754   0.0008112724055842936
-0.10188477885142004   -0.00045168593590307754   0.0008112724055842936
-0.1700466560204359   -0.013472147183614138   -0.001477675223496522
-0.1700466560204359   -0.013472147183614138   -0.001477675223496522
-0.1700466560204359   -0.013472147183614138   -0.001477675223496522
-0.1700466560204359   -0.013472147183614138   -0.001477675223496522
-0.13820065761780229   -0.01342118203989448   -0.004043468609400259
-0.13820065761780229   -0.01342118203989448   -0.004043468609400259
-0.13820065761780229   -0.01342118203989448   -0.004043468609400259
-0.13820065761780229   -0.01342118203989448   -0.004043468609400259
-0.16983025164890114   -0.014147162572003269   0.0002793620225644243
-0.16983025164890114   -0.014147162572003269   0.0002793620225644243
-0.16983025164890114   -0.014147162572003269   0.0002793620225644243
-0.16983025164890114   -0.014147162572003269   0.0002793620225644243
-0.1010042124397555   0.0013203002356863038   0.0034421182923176172
-0.1010042124397555   0.0013203002356863038   0.0034421182923176172
-0.1010042124397555   0.0013203002356863038   0.0034421182923176172
-0.1010042124397555   0.0013203002356863038   0.0034421182923176172
-0.09679352249566578   0.015237543567637811   -0.0014207212607607843
-0.09679352249566578   0.015237543567637811   -0.0014207212607607843
-0.09679352249566578   0.015237543567637811   -0.0014207212607607843
-0.09679352249566578   0.015237543567637811   -0.0014207212607607843
-0.16535925778194402   0.0007615552117441679   -0.004353195699326245
-0.16535925778194402   0.0007615552117441679   -0.004353195699326245
-0.16535925778194402   0.0007615552117441679   -0.004353195699326245
-0.16535925778194402   0.0007615552117441679   -0.004353195699326245
-0.13282468408513798   0.0006679082290619517   0.001824091560680776
-0.13282468408513798   0.0006679082290619517   0.001824091560680776
-0.13282468408513798   0.0006679082290619517   0.001824091560680776
-0.13282468408513798   0.0006679082290619517   0.001824091560680776
-0.16477385567977715   0.001493912656346845   -0.002158542633096547
-0.16477385567977715   0.001493912656346845   -0.002158542633096547
-0.16477385567977715   0.001493912656346845   -0.002158542633096547
-0.16477385567977715   0.001493912656346845   -0.002158542633096547
-0.09638626660781714   0.015497844113049157   0.00035525763307183746
-0.09638626660781714   0.015497844113049157   0.00035525763307183746
-0.09638626660781714   0.015497844113049157   0.00035525763307183746
-0.09638626660781714   0.015497844113049157   0.00035525763307183746
-0.09198311167784794   0.031074188563506737   -0.0039562604176158235
-0.09198311167784794   0.031074188563506737   -0.0039562604176158235
-0.09198311167784794   0.031074188563506737   -0.0039562604176158235
-0.09198311167784794   0.031074188563506737   -0.0039562604176158235
-0.1609773286020188   0.015103799467959138   -0.007436788342489028
-0.1609773286020188   0.015103799467959138   -0.007436788342489028
-0.1609773286020188   0.015103799467959138   -0.007436788342489028
-0.1609773286020188   0.015103799467959138   -0.007436788342489028
-0.12774615037919088   0.014808110568574763   0.007454623151801162
-0.12774615037919088   0.014808110568574763   0.007454623151801162
-0.12774615037919088   0.014808110568574763   0.007454623151801162
-0.12774615037919088   0.014808110568574763   0.007454623151801162
-0.11401120284166019   -0.04014503411576048   -0.009552682028435403
-0.11401120284166019   -0.04014503411576048   -0.009552682028435403
-0.11401120284166019   -0.04014503411576048   -0.009552682028435403
-0.11401120284166019   -0.04014503411576048   -0.009552682028435403
-0.03797694268978486   -0.0009824371376759237   0.01670506852698118
-0.03797694268978486   -0.0009824371376759237   0.01670506852698118
-0.03797694268978486   -0.0009824371376759237   0.01670506852698118
-0.03797694268978486   -0.0009824371376759237   0.01670506852698118
-0.042858743746758875   -0.01226985012079467   -0.01246043639425561
-0.042858743746758875   -0.01226985012079467   -0.01246043639425561
-0.042858743746758875   -0.01226985012079467   -0.01246043639425561
-0.042858743746758875   -0.01226985012079467   -0.01246043639425561
-0.10033803742539951   -0.0015230455731430718   0.00961633917292607
-0.10033803742539951   -0.0015230455731430718   0.00961633917292607
-0.10033803742539951   -0.0015230455731430718   0.00961633917292607
-0.10033803742539951   -0.0015230455731430718   0.00961633917292607
-0.07375575542251503   -0.013134862446367265   -0.0029212670942856222
-0.07375575542251503   -0.013134862446367265   -0.0029212670942856222
-0.07375575542251503   -0.013134862446367265   -0.0029212670942856222
-0.07375575542251503   -0.013134862446367265   -0.0029212670942856222
-0.10948397893032513   -0.02552507721968834   -0.012111336705157696
-0.10948397893032513   -0.02552507721968834   -0.012111336705157696
-0.10948397893032513   -0.02552507721968834   -0.012111336705157696
-0.10948397893032513   -0.02552507721968834   -0.012111336705157696
-0.03248526076400061   0.012959723003583085   0.014177405395157952
-0.03248526076400061   0.012959723003583085   0.014177405395157952
-0.03248526076400061   0.012959723003583085   0.014177405395157952
-0.03248526076400061   0.012959723003583085   0.014177405395157952
-0.03536163960790819   0.00257084039795092   -0.014031927086682454
-0.03536163960790819   0.00257084039795092   -0.014031927086682454
-0.03536163960790819   0.00257084039795092   -0.014031927086682454
-0.03536163960790819   0.00257084039795092   -0.014031927086682454
-0.09602087220435943   0.01125445622595788   0.00642561753745096
-0.09602087220435943   0.01125445622595788   0.00642561753745096
-0.09602087220435943   0.01125445622595788   0.00642561753745096
-0.09602087220435943   0.01125445622595788   0.00642561753745096
-0.06801404509538227   5.346854481842744e-06   0.0030646914914090415
-0.06801404509538227   5.346854481842744e-06   0.0030646914914090415
-0.06801404509538227   5.346854481842744e-06   0.0030646914914090415
-0.06801404509538227   5.346854481842744e-06   0.0030646914914090415
-0.10487568607945617   -0.011536985501197864   -0.01505701011087839
-0.10487568607945617   -0.011536985501197864   -0.01505701011087839
-0.10487568607945617   -0.011536985501197864   -0.01505701011087839
-0.10487568607945617   -0.011536985501197864   -0.01505701011087839
-0.025363569152730088   0.02650553870518779   0.012023726881971184
-0.025363569152730088   0.02650553870518779   0.012023726881971184
-0.025363569152730088   0.02650553870518779   0.012023726881971184
-0.025363569152730088   0.02650553870518779   0.012023726881971184
-0.029024518634110923   0.01911533898603282   -0.01573145549617433
-0.029024518634110923   0.01911533898603282   -0.01573145549617433
-0.029024518634110923   0.01911533898603282   -0.01573145549617433
-0.029024518634110923   0.01911533898603282   -0.01573145549617433
-0.09160061902023686   0.02568131092164002   0.0033490805123062607
-0.09160061902023686   0.02568131092164002   0.0033490805123062607
-0.09160061902023686   0.02568131092164002   0.0033490805123062607
-0.09160061902023686   0.02568131092164002   0.0033490805123062607
-0.06209632251246092   0.013662175981833467   0.009037463677609527
-0.06209632251246092   0.013662175981833467   0.009037463677609527
-0.06209632251246092   0.013662175981833467   0.009037463677609527
-0.06209632251246092   0.013662175981833467   0.009037463677609527
-0.05391371001119497   -0.04311978799563532   -0.020841417222110956
-0.05391371001119497   -0.04311978799563532   -0.020841417222110956
-0.05391371001119497   -0.04311978799563532   -0.020841417222110956
-0.05391371001119497   -0.04311978799563532   -0.020841417222110956
0.012016975722128771   0.012336525695529618   0.025608199057258828
0.012016975722128771   0.012336525695529618   0.025608199057258828
0.012016975722128771   0.012336525695529618   0.025608199057258828
0.012016975722128771   0.012336525695529618   0.025608199057258828
0.01202288905658783   -0.021612716134321582   -0.02763504102304991
0.01202288905658783   -0.021612716134321582   -0.02763504102304991
0.01202288905658783   -0.021612716134321582   -0.02763504102304991
0.01202288905658783   -0.021612716134321582   -0.02763504102304991
-0.031043465401498046   0.013381544832566773   0.020964560378687085
-0.031043465401498046   0.013381544832566773   0.020964560378687085
-0.031043465401498046   0.013381544832566773   0.020964560378687085
-0.031043465401498046   0.013381544832566773   0.020964560378687085
-0.01558568094538863   -0.009289195755098057   -0.004769607329712808
-0.01558568094538863   -0.009289195755098057   -0.004769607329712808
-0.01558568094538863   -0.009289195755098057   -0.004769607329712808
-0.01558568094538863   -0.009289195755098057   -0.004769607329712808
-0.04933744410019831   -0.03315211018126399   -0.023971678100983457
-0.04933744410019831   -0.03315211018126399   -0.023971678100983457
-0.04933744410019831   -0.03315211018126399   -0.023971678100983457
-0.04933744410019831   -0.03315211018126399   -0.023971678100983457
0.03162720293621974   0.026231274060443704   0.02254253818034629
0.03162720293621974   0.026231274060443704   0.02254253818034629
0.03162720293621974   0.026231274060443704   0.02254253818034629
0.03162720293621974   0.026231274060443704   0.02254253818034629
0.026460498811602836   -0.013127019242795345   -0.03286229635862453
0.026460498811602836   -0.013127019242795345   -0.03286229635862453
0.026460498811602836   -0.013127019242795345   -0.03286229635862453
0.026460498811602836   -0.013127019242795345   -0.03286229635862453
-0.025795082216666   0.019540169802975148   0.016831530464503287
-0.025795082216666   0.019540169802975148   0.016831530464503287
-0.025795082216666   0.019540169802975148   0.016831530464503287
-0.025795082216666   0.019540169802975148   0.016831530464503287
-0.003799049903666061   -0.0005394654534479017   0.001696268264637949
-0.003799049903666061   -0.0005394654534479017   0.001696268264637949
-0.003799049903666061   -0.0005394654534479017   0.001696268264637949
-0.003799049903666061   -0.0005394654534479017   0.001696268264637949
-0.04385388010572146   -0.026168244658412394   -0.02775404451938548
-0.04385388010572146   -0.026168244658412394   -0.02775404451938548
-0.04385388010572146   -0.026168244658412394   -0.02775404451938548
-0.04385388010572146   -0.026168244658412394   -0.02775404451938548
0.04583422115124463   0.03389631966917869   0.016982976427610392
0.04583422115124463   0.03389631966917869   0.016982976427610392
0.04583422115124463   0.03389631966917869   0.016982976427610392
0.04583422115124463   0.03389631966917869   0.016982976427610392
0.046771041250564076   0.003450735359825345   -0.0352251088513459
0.046771041250564076   0.003450735359825345   -0.0352251088513459
0.046771041250564076   0.003450735359825345   -0.0352251088513459
0.046771041250564076   0.003450735359825345   -0.0352251088513459
-0.020898494049519087   0.030331976876034873   0.0136820295367828
-0.020898494049519087   0.030331976876034873   0.0136820295367828
-0.020898494049519087   0.030331976876034873   0.0136820295367828
-0.020898494049519087   0.030331976876034873   0.0136820295367828
0.006958347877400181   0.008619169630917571   0.00804633884878009
0.006958347877400181   0.008619169630917571   0.00804633884878009
0.006958347877400181   0.008619169630917571   0.00804633884878009
0.006958347877400181   0.008619169630917571   0.00804633884878009
-0.10144218169893303   0.006310912488068993   0.029274966944688088
-0.10144218169893303   0.006310912488068993   0.029274966944688088
-0.10144218169893303   0.006310912488068993   0.029274966944688088
-0.10144218169893303   0.006310912488068993   0.029274966944688088
-0.12317662982693915   -0.038033260110090256   -0.017132312740990523
-0.12317662982693915   -0.038033260110090256   -0.017132312740990523
-0.12317662982693915   -0.038033260110090256   -0.017132312740990523
-0.12317662982693915   -0.038033260110090256   -0.017132312740990523
-0.09834395591479111   0.017590213957201915   0.023940641652027632
-0.09834395591479111   0.017590213957201915   0.023940641652027632
-0.09834395591479111   0.017590213957201915   0.023940641652027632
-0.09834395591479111   0.017590213957201915   0.023940641652027632
-0.09858089212740573   -0.024669739411396323   -0.022133021157099926
-0.09858089212740573   -0.024669739411396323   -0.022133021157099926
-0.09858089212740573   -0.024669739411396323   -0.022133021157099926
-0.09858089212740573   -0.024669739411396323   -0.022133021157099926
-0.10280439983650512   -0.007893226298603322   -0.008125653357381121
-0.10280439983650512   -0.007893226298603322   -0.008125653357381121
-0.10280439983650512   -0.007893226298603322   -0.008125653357381121
-0.10280439983650512   -0.007893226298603322   -0.008125653357381121
-0.07935940813440912   0.02204993921847448   0.02725472017800848
-0.07935940813440912   0.02204993921847448   0.02725472017800848
-0.07935940813440912   0.02204993921847448   0.02725472017800848
-0.07935940813440912   0.02204993921847448   0.02725472017800848
-0.11634297477945665   -0.027906999544338465   -0.020557239169759725
-0.11634297477945665   -0.027906999544338465   -0.020557239169759725
-0.11634297477945665   -0.027906999544338465   -0.020557239169759725
-0.11634297477945665   -0.027906999544338465   -0.020557239169759725
-0.09081039384243275   0.02429688144519382   0.02012545880902363
-0.09081039384243275   0.02429688144519382   0.02012545880902363
-0.09081039384243275   0.02429688144519382   0.02012545880902363
-0.09081039384243275   0.02429688144519382   0.02012545880902363
-0.08222332123763118   -0.017090331468116594   -0.02752668460811876
-0.08222332123763118   -0.017090331468116594   -0.02752668460811876
-0.08222332123763118   -0.017090331468116594   -0.02752668460811876
-0.08222332123763118   -0.017090331468116594   -0.02752668460811876
-0.0907415494064272   0.0006572232010042499   -0.001802556140449555
-0.0907415494064272   0.0006572232010042499   -0.001802556140449555
-0.0907415494064272   0.0006572232010042499   -0.001802556140449555
-0.0907415494064272   0.0006572232010042499   -0.001802556140449555
-0.06290998155124632   0.030201507177302817   0.021748175178382206
-0.06290998155124632   0.030201507177302817   0.021748175178382206
-0.06290998155124632   0.030201507177302817   0.021748175178382206
-0.06290998155124632   0.030201507177302817   0.021748175178382206
-0.1089765072260586   -0.021847730897467246   -0.024560495766444593
-0.1089765072260586   -0.021847730897467246   -0.024560495766444593
-0.1089765072260586   -0.021847730897467246   -0.024560495766444593
-0.1089765072260586   -0.021847730897467246   -0.024560495766444593
-0.08393651855646653   0.03458673132112911   0.017378736103021812
-0.08393651855646653   0.03458673132112911   0.017378736103021812
-0.08393651855646653   0.03458673132112911   0.017378736103021812
-0.08393651855646653   0.03458673132112911   0.017378736103021812
-0.06037988709076994   -0.002687469916801178   -0.030995899227383997
-0.06037988709076994   -0.002687469916801178   -0.030995899227383997
-0.06037988709076994   -0.002687469916801178   -0.030995899227383997
-0.06037988709076994   -0.002687469916801178   -0.030995899227383997
-0.07629211457622563   0.009622389764401742   0.004945371483234797
-0.07629211457622563   0.009622389764401742   0.004945371483234797
-0.07629211457622563   0.009622389764401742   0.004945371483234797
-0.07629211457622563   0.009622389764401742   0.004945371483234797
-0.11010196435704246   -0.006552702228111922   0.016760456726514595
-0.11010196435704246   -0.006552702228111922   0.016760456726514595
-0.11010196435704246   -0.006552702228111922   0.016760456726514595
-0.11010196435704246   -0.006552702228111922   0.016760456726514595
-0.13840304574708406   -0.031034994423833808   -0.006689865588696821
-0.13840304574708406   -0.031034994423833808   -0.006689865588696821
-0.13840304574708406   -0.031034994423833808   -0.006689865588696821
-0.13840304574708406   -0.031034994423833808   -0.006689865588696821
-0.12362760719288163   0.003080544411960543   0.01111667286112927
-0.12362760719288163   0.003080544411960543   0.01111667286112927
-0.12362760719288163   0.003080544411960543   0.01111667286112927
-0.12362760719288163   0.003080544411960543   0.01111667286112927
-0.1115450099319105   -0.014395898113667184   -0.010078516362700175
-0.1115450099319105   -0.014395898113667184   -0.010078516362700175
-0.1115450099319105   -0.014395898113667184   -0.010078516362700175
-0.1115450099319105   -0.014395898113667184   -0.010078516362700175
-0.12103361009456597   -0.011273191770675005   -0.005658773534670625
-0.12103361009456597   -0.011273191770675005   -0.005658773534670625
-0.12103361009456597   -0.011273191770675005   -0.005658773534670625
-0.12103361009456597   -0.011273191770675005   -0.005658773534670625
-0.10210822654993447   0.00808582204585524   0.01462368038765557
-0.10210822654993447   0.00808582204585524   0.01462368038765557
-0.10210822654993447   0.00808582204585524   0.01462368038765557
-0.10210822654993447   0.00808582204585524   0.01462368038765557
-0.1321048601996906   -0.01844164537239545   -0.009747402388561418
-0.1321048601996906   -0.01844164537239545   -0.009747402388561418
-0.1321048601996906   -0.01844164537239545   -0.009747402388561418
-0.1321048601996906   -0.01844164537239545   -0.009747402388561418
-0.11691125900431336   0.016449652724211478   0.00847402355869335
-0.11691125900431336   0.016449652724211478   0.00847402355869335
-0.11691125900431336   0.016449652724211478   0.00847402355869335
-0.11691125900431336   0.016449652724211478   0.00847402355869335
-0.10250785953102325   -0.0015468099812715845   -0.012518178207459669
-0.10250785953102325   -0.0015468099812715845   -0.012518178207459669
-0.10250785953102325   -0.0015468099812715845   -0.012518178207459669
-0.10250785953102325   -0.0015468099812715845   -0.012518178207459669
-0.11298416734196173   0.0011696885674171084   0.0001668457587680177
-0.11298416734196173   0.0011696885674171084   0.0001668457587680177
-0.11298416734196173   0.0011696885674171084   0.0001668457587680177
-0.11298416734196173   0.0011696885674171084   0.0001668457587680177
-0.09260934839157782   0.02225061969726527   0.013176947811226785
-0.09260934839157782   0.02225061969726527   0.013176947811226785
-0.09260934839157782   0.02225061969726527   0.013176947811226785
-0.09260934839157782   0.02225061969726527   0.013176947811226785
-0.12578629053484114   -0.006324297345408687   -0.01312718402432729
-0.12578629053484114   -0.006324297345408687   -0.01312718402432729
-0.12578629053484114   -0.006324297345408687   -0.01312718402432729
-0.12578629053484114   -0.006324297345408687   -0.01312718402432729
-0.11015931082437161   0.03127904473496811   0.005961864266442208
-0.11015931082437161   0.03127904473496811   0.005961864266442208
-0.11015931082437161   0.03127904473496811   0.005961864266442208
-0.11015931082437161   0.03127904473496811   0.005961864266442208
-0.09473898178982645   0.012747163130880028   -0.014794011873528707
-0.09473898178982645   0.012747163130880028   -0.014794011873528707
-0.09473898178982645   0.012747163130880028   -0.014794011873528707
-0.09473898178982645   0.012747163130880028   -0.014794011873528707
-0.105370651331454   0.014055869903560034   0.006109048524147722
-0.105370651331454   0.014055869903560034   0.006109048524147722
-0.105370651331454   0.014055869903560034   0.006109048524147722
-0.105370651331454   0.014055869903560034   0.006109048524147722
-0.13364610713376127   -0.018697525780400487   0.004757358834480941
-0.13364610713376127   -0.018697525780400487   0.004757358834480941
-0.13364610713376127   -0.018697525780400487   0.004757358834480941
-0.13364610713376127   -0.018697525780400487   0.004757358834480941
-0.15349303761532374   -0.019788193752423626   0.004024586407030075
-0.15349303761532374   -0.019788193752423626   0.004024586407030075
-0.15349303761532374   -0.019788193752423626   0.004024586407030075
-0.15349303761532374   -0.019788193752423626   0.004024586407030075
-0.1481454403908624   -0.00908799528552887   -0.0014581313626436708
-0.1481454403908624   -0.00908799528552887   -0.0014581313626436708
-0.1481454403908624   -0.00908799528552887   -0.0014581313626436708
-0.1481454403908624   -0.00908799528552887   -0.0014581313626436708
-0.12671698742506207   -0.0025866907069071465   0.0013370068190929098
-0.12671698742506207   -0.0025866907069071465   0.0013370068190929098
-0.12671698742506207   -0.0025866907069071465   0.0013370068190929098
-0.12671698742506207   -0.0025866907069071465   0.0013370068190929098
-0.14071162218004526   -0.011830300216583298   -0.003774329109001132
-0.14071162218004526   -0.011830300216583298   -0.003774329109001132
-0.14071162218004526   -0.011830300216583298   -0.003774329109001132
-0.14071162218004526   -0.011830300216583298   -0.003774329109001132
-0.12679698297503014   -0.004047174881136047   0.002397513243480488
-0.12679698297503014   -0.004047174881136047   0.002397513243480488
-0.12679698297503014   -0.004047174881136047   0.002397513243480488
-0.12679698297503014   -0.004047174881136047   0.002397513243480488
-0.1471583392646616   -0.006720405535065886   0.0011097845178987542
-0.1471583392646616   -0.006720405535065886   0.0011097845178987542
-0.1471583392646616   -0.006720405535065886   0.0011097845178987542
-0.1471583392646616   -0.006720405535065886   0.0011097845178987542
-0.14107952084903486   0.005750771927975108   -0.003686849051080682
-0.14107952084903486   0.005750771927975108   -0.003686849051080682
-0.14107952084903486   0.005750771927975108   -0.003686849051080682
-0.14107952084903486   0.005750771927975108   -0.003686849051080682
-0.12002296236529915   0.010839877687649692   -0.0014747182096739118
-0.12002296236529915   0.010839877687649692   -0.0014747182096739118
-0.12002296236529915   0.010839877687649692   -0.0014747182096739118
-0.12002296236529915   0.010839877687649692   -0.0014747182096739118
-0.13332296816955327   0.001418877666131621   0.001986027306858866
-0.13332296816955327   0.001418877666131621   0.001986027306858866
-0.13332296816955327   0.001418877666131621   0.001986027306858866
-0.13332296816955327   0.001418877666131621   0.001986027306858866
-0.11976167045868183   0.010738363015394957   -6.674400433446907e-05
-0.11976167045868183   0.010738363015394957   -6.674400433446907e-05
-0.11976167045868183   0.010738363015394957   -6.674400433446907e-05
-0.11976167045868183   0.010738363015394957   -6.674400433446907e-05
-0.1405479619561047   0.0066451373997770055   -0.0019234200582318017
-0.1405479619561047   0.0066451373997770055   -0.0019234200582318017
-0.1405479619561047   0.0066451373997770055   -0.0019234200582318017
-0.1405479619561047   0.0066451373997770055   -0.0019234200582318017
-0.13431257731412105   0.02068561742487325   -0.006192449845823929
-0.13431257731412105   0.02068561742487325   -0.006192449845823929
-0.13431257731412105   0.02068561742487325   -0.006192449845823929
-0.13431257731412105   0.02068561742487325   -0.006192449845823929
-0.11365765666904401   0.024321481300111865   -0.004572301522063565
-0.11365765666904401   0.024321481300111865   -0.004572301522063565
-0.11365765666904401   0.024321481300111865   -0.004572301522063565
-0.11365765666904401   0.024321481300111865   -0.004572301522063565
-0.12628458393832875   0.014693728443586192   0.007475805747779384
-0.12628458393832875   0.014693728443586192   0.007475805747779384
-0.12628458393832875   0.014693728443586192   0.007475805747779384
-0.12628458393832875   0.014693728443586192   0.007475805747779384
-0.15780576975484917   -0.029795558220573483   -0.0075317098224499494
-0.15780576975484917   -0.029795558220573483   -0.0075317098224499494
-0.15780576975484917   -0.029795558220573483   -0.0075317098224499494
-0.15780576975484917   -0.029795558220573483   -0.0075317098224499494
-0.1699753608826509   -0.00876578668261168   0.014243093251555544
-0.1699753608826509   -0.00876578668261168   0.014243093251555544
-0.1699753608826509   -0.00876578668261168   0.014243093251555544
-0.1699753608826509   -0.00876578668261168   0.014243093251555544
-0.17283348999339918   -0.020790994398509916   -0.01422795238590848
-0.17283348999339918   -0.020790994398509916   -0.01422795238590848
-0.17283348999339918   -0.020790994398509916   -0.01422795238590848
-0.17283348999339918   -0.020790994398509916   -0.01422795238590848
-0.14184387361732043   0.008874707718684843   0.012086999500852427
-0.14184387361732043   0.008874707718684843   0.012086999500852427
-0.14184387361732043   0.008874707718684843   0.012086999500852427
-0.14184387361732043   0.008874707718684843   0.012086999500852427
-0.15992944655768088   -0.01181507344791682   -0.002379882594168838
-0.15992944655768088   -0.01181507344791682   -0.002379882594168838
-0.15992944655768088   -0.01181507344791682   -0.002379882594168838
-0.15992944655768088   -0.01181507344791682   -0.002379882594168838
-0.15115129595400767   -0.015603371671858306   -0.009972032792041927
-0.15115129595400767   -0.015603371671858306   -0.009972032792041927
-0.15115129595400767   -0.015603371671858306   -0.009972032792041927
-0.15115129595400767   -0.015603371671858306   -0.009972032792041927
-0.16257538632818436   0.004637766320558033   0.01163380522109764
-0.16257538632818436   0.004637766320558033   0.01163380522109764
-0.16257538632818436   0.004637766320558033   0.01163380522109764
-0.16257538632818436   0.004637766320558033   0.01163380522109764
-0.16351797674333057   -0.0067232340308452515   -0.015965729207593517
-0.16351797674333057   -0.0067232340308452515   -0.015965729207593517
-0.16351797674333057   -0.0067232340308452515   -0.015965729207593517
-0.16351797674333057   -0.0067232340308452515   -0.015965729207593517
-0.13550013712251366   0.02097944621346476   0.008981395296034278
-0.13550013712251366   0.02097944621346476   0.008981395296034278
-0.13550013712251366   0.02097944621346476   0.008981395296034278
-0.13550013712251366   0.02097944621346476   0.008981395296034278
-0.1514954945184776   0.000957255605008582   0.0035726000156073474
-0.1514954945184776   0.000957255605008582   0.0035726000156073474
-0.1514954945184776   0.000957255605008582   0.0035726000156073474
-0.1514954945184776   0.000957255605008582   0.0035726000156073474
-0.14451743677952428   -0.002295926293063716   -0.012829730482492162
-0.14451743677952428   -0.002295926293063716   -0.012829730482492162
-0.14451743677952428   -0.002295926293063716   -0.012829730482492162
-0.14451743677952428   -0.002295926293063716   -0.012829730482492162
-0.15354003477186504   0.017512780790137995   0.009687965828751819
-0.15354003477186504   0.017512780790137995   0.009687965828751819
-0.15354003477186504   0.017512780790137995   0.009687965828751819
-0.15354003477186504   0.017512780790137995   0.009687965828751819
-0.15537429895495453   0.008750889029511932   -0.017529349013608878
-0.15537429895495453   0.008750889029511932   -0.017529349013608878
-0.15537429895495453   0.008750889029511932   -0.017529349013608878
-0.15537429895495453   0.008750889029511932   -0.017529349013608878
-0.12913953041869852   0.03444096940572308   0.005917432650438845
-0.12913953041869852   0.03444096940572308   0.005917432650438845
-0.12913953041869852   0.03444096940572308   0.005917432650438845
-0.12913953041869852   0.03444096940572308   0.005917432650438845
-0.14438424155902818   0.013595392322911425   0.009251634117096376
-0.14438424155902818   0.013595392322911425   0.009251634117096376
-0.14438424155902818   0.013595392322911425   0.009251634117096376
-0.14438424155902818   0.013595392322911425   0.009251634117096376
-0.1819374593204528   -0.03536886520704365   -0.01896432041302595
-0.1819374593204528   -0.03536886520704365   -0.01896432041302595
-0.1819374593204528   -0.03536886520704365   -0.01896432041302595
-0.1819374593204528   -0.03536886520704365   -0.01896432041302595
-0.20298732099361816   0.0023177475946318388   0.025790628444032473
-0.20298732099361816   0.0023177475946318388   0.025790628444032473
-0.20298732099361816   0.0023177475946318388   0.025790628444032473
-0.20298732099361816   0.0023177475946318388   0.025790628444032473
-0.20052158893070104   -0.029771203907806097   -0.02532105979397428
-0.20052158893070104   -0.029771203907806097   -0.02532105979397428
-0.20052158893070104   -0.029771203907806097   -0.02532105979397428
-0.20052158893070104   -0.029771203907806097   -0.02532105979397428
-0.15673729145290294   0.022348484536694656   0.0231135613813662
-0.15673729145290294   0.022348484536694656   0.0231135613813662
-0.15673729145290294   0.022348484536694656   0.0231135613813662
-0.15673729145290294   0.022348484536694656   0.0231135613813662
-0.17807305647290841   -0.007734102928718463   -0.0010383210071757236
-0.17807305647290841   -0.007734102928718463   -0.0010383210071757236
-0.17807305647290841   -0.007734102928718463   -0.0010383210071757236
-0.17807305647290841   -0.007734102928718463   -0.0010383210071757236
-0.17495526771158015   -0.02393274565021039   -0.021695089725116648
-0.17495526771158015   -0.02393274565021039   -0.021695089725116648
-0.17495526771158015   -0.02393274565021039   -0.021695089725116648
-0.17495526771158015   -0.02393274565021039   -0.021695089725116648
-0.18129953794412887   0.017514101006995846   0.023503890224082724
-0.18129953794412887   0.017514101006995846   0.023503890224082724
-0.18129953794412887   0.017514101006995846   0.023503890224082724
-0.18129953794412887   0.017514101006995846   0.023503890224082724
-0.18431923849158774   -0.02157246721705276   -0.0302074983607145
-0.18431923849158774   -0.02157246721705276   -0.0302074983607145
-0.18431923849158774   -0.02157246721705276   -0.0302074983607145
-0.18431923849158774   -0.02157246721705276   -0.0302074983607145
-0.14956885255414978   0.02812424916306039   0.018932408544404845
-0.14956885255414978   0.02812424916306039   0.018932408544404845
-0.14956885255414978   0.02812424916306039   0.018932408544404845
-0.14956885255414978   0.02812424916306039   0.018932408544404845
-0.16722684816254563   0.0008522052850563622   0.004655516807859597
-0.16722684816254563   0.0008522052850563622   0.004655516807859597
-0.16722684816254563   0.0008522052850563622   0.004655516807859597
-0.16722684816254563   0.0008522052850563622   0.004655516807859597
-0.16744236757157843   -0.017181480697370004   -0.025129436682310043
-0.16744236757157843   -0.017181480697370004   -0.025129436682310043
-0.16744236757157843   -0.017181480697370004   -0.025129436682310043
-0.16744236757157843   -0.017181480697370004   -0.025129436682310043
-0.16539185709677204   0.02478712902076436   0.018069812375546945
-0.16539185709677204   0.02478712902076436   0.018069812375546945
-0.16539185709677204   0.02478712902076436   0.018069812375546945
-0.16539185709677204   0.02478712902076436   0.018069812375546945
-0.16296810337708545   -0.007426772270013787   -0.03304210686589412
-0.16296810337708545   -0.007426772270013787   -0.03304210686589412
-0.16296810337708545   -0.007426772270013787   -0.03304210686589412
-0.16296810337708545   -0.007426772270013787   -0.03304210686589412
-0.14316602555013522   0.03666891293743969   0.015593994102558125
-0.14316602555013522   0.03666891293743969   0.015593994102558125
-0.14316602555013522   0.03666891293743969   0.015593994102558125
-0.14316602555013522   0.03666891293743969   0.015593994102558125
-0.1521450444449206   0.009399247089834278   0.011278245391636178
-0.1521450444449206   0.009399247089834278   0.011278245391636178
-0.1521450444449206   0.009399247089834278   0.011278245391636178
-0.1521450444449206   0.009399247089834278   0.011278245391636178
0.11042156726808812   0.017742839143717708   0.028149986433022033
0.11042156726808812   0.017742839143717708   0.028149986433022033
0.11042156726808812   0.017742839143717708   0.028149986433022033
0.11042156726808812   0.017742839143717708   0.028149986433022033
-0.0019445360598142752   -0.045126364690373115   -0.01849484377450146
-0.0019445360598142752   -0.045126364690373115   -0.01849484377450146
-0.0019445360598142752   -0.045126364690373115   -0.01849484377450146
-0.0019445360598142752   -0.045126364690373115   -0.01849484377450146
0.024363563252966906   0.008689824453645767   0.021720342787737896
0.024363563252966906   0.008689824453645767   0.021720342787737896
0.024363563252966906   0.008689824453645767   0.021720342787737896
0.024363563252966906   0.008689824453645767   0.021720342787737896
0.11487635814566408   -0.01544179385659699   -0.023199457301882498
0.11487635814566408   -0.01544179385659699   -0.023199457301882498
0.11487635814566408   -0.01544179385659699   -0.023199457301882498
0.11487635814566408   -0.01544179385659699   -0.023199457301882498
0.056421954747395926   -0.008627316128179807   -0.01348075867795091
0.056421954747395926   -0.008627316128179807   -0.01348075867795091
0.056421954747395926   -0.008627316128179807   -0.01348075867795091
0.056421954747395926   -0.008627316128179807   -0.01348075867795091
0.13395208963554875   0.031342452025669446   0.025394954265274435
0.13395208963554875   0.031342452025669446   0.025394954265274435
0.13395208963554875   0.031342452025669446   0.025394954265274435
0.13395208963554875   0.031342452025669446   0.025394954265274435
0.006479372551110628   -0.036902880640592266   -0.02210790562730544
0.006479372551110628   -0.036902880640592266   -0.02210790562730544
0.006479372551110628   -0.036902880640592266   -0.02210790562730544
0.006479372551110628   -0.036902880640592266   -0.02210790562730544
0.03381754488985579   0.015244199597498585   0.018105104592470174
0.03381754488985579   0.015244199597498585   0.018105104592470174
0.03381754488985579   0.015244199597498585   0.018105104592470174
0.03381754488985579   0.015244199597498585   0.018105104592470174
0.13318261084683633   -0.008042410041812414   -0.028968784785360108
0.13318261084683633   -0.008042410041812414   -0.028968784785360108
0.13318261084683633   -0.008042410041812414   -0.028968784785360108
0.13318261084683633   -0.008042410041812414   -0.028968784785360108
0.07296359577845964   -0.0004777140899723288   -0.006397736645645552
0.07296359577845964   -0.0004777140899723288   -0.006397736645645552
0.07296359577845964   -0.0004777140899723288   -0.006397736645645552
0.07296359577845964   -0.0004777140899723288   -0.006397736645645552
0.15244906697895752   0.03934475021959296   0.019976335613840317
0.15244906697895752   0.03934475021959296   0.019976335613840317
0.15244906697895752   0.03934475021959296   0.019976335613840317
0.15244906697895752   0.03934475021959296   0.019976335613840317
0.015708486307281604   -0.03098556311435694   -0.026210425608543326
0.015708486307281604   -0.03098556311435694   -0.026210425608543326
0.015708486307281604   -0.03098556311435694   -0.026210425608543326
0.015708486307281604   -0.03098556311435694   -0.026210425608543326
0.04298422633742515   0.02731747087444142   0.015664691300633894
0.04298422633742515   0.02731747087444142   0.015664691300633894
0.04298422633742515   0.02731747087444142   0.015664691300633894
0.04298422633742515   0.02731747087444142   0.015664691300633894
0.15750554459235389   0.008506756228677925   -0.03193002385968442
0.15750554459235389   0.008506756228677925   -0.03193002385968442
0.15750554459235389   0.008506756228677925   -0.03193002385968442
0.15750554459235389   0.008506756228677925   -0.03193002385968442
0.08674167456740954   0.00868597689313711   0.0002739328979500968
0.08674167456740954   0.00868597689313711   0.0002739328979500968
0.08674167456740954   0.00868597689313711   0.0002739328979500968
0.08674167456740954   0.00868597689313711   0.0002739328979500968
0.015614465450660767   0.0049510339591291915   0.01922276512837335
0.015614465450660767   0.0049510339591291915   0.01922276512837335
0.015614465450660767   0.0049510339591291915   0.01922276512837335
0.015614465450660767   0.0049510339591291915   0.01922276512837335
-0.1032181979679662   -0.03836557193705825   -0.008494621791592305
-0.1032181979679662   -0.03836557193705825   -0.008494621791592305
-0.1032181979679662   -0.03836557193705825   -0.008494621791592305
-0.1032181979679662   -0.03836557193705825   -0.008494621791592305
-0.08669786194162993   -0.005665761699623833   0.008725017717236001
-0.08669786194162993   -0.005665761699623833   0.008725017717236001
-0.08669786194162993   -0.005665761699623833   0.008725017717236001
-0.08669786194162993   -0.005665761699623833   0.008725017717236001
0.016120429633952115   -0.004124102630013929   -0.006681398223676345
0.016120429633952115   -0.004124102630013929   -0.006681398223676345
0.016120429633952115   -0.004124102630013929   -0.006681398223676345
0.016120429633952115   -0.004124102630013929   -0.006681398223676345
-0.0404121498596968   -0.009819543808490809   -0.006450603495566986
-0.0404121498596968   -0.009819543808490809   -0.006450603495566986
-0.0404121498596968   -0.009819543808490809   -0.006450603495566986
-0.0404121498596968   -0.009819543808490809   -0.006450603495566986
0.025374356127504147   0.01841375391130813   0.017050377702761757
0.025374356127504147   0.01841375391130813   0.017050377702761757
0.025374356127504147   0.01841375391130813   0.017050377702761757
0.025374356127504147   0.01841375391130813   0.017050377702761757
-0.09507879435631322   -0.02733062416207717   -0.0115147818937272
-0.09507879435631322   -0.02733062416207717   -0.0115147818937272
-0.09507879435631322   -0.02733062416207717   -0.0115147818937272
-0.09507879435631322   -0.02733062416207717   -0.0115147818937272
-0.0780878489639998   0.007072597458579379   0.006158848424771706
-0.0780878489639998   0.007072597458579379   0.006158848424771706
-0.0780878489639998   0.007072597458579379   0.006158848424771706
-0.0780878489639998   0.007072597458579379   0.006158848424771706
0.026923679922730114   0.007932039482669554   -0.00905206012832918
0.026923679922730114   0.007932039482669554   -0.00905206012832918
0.026923679922730114   0.007932039482669554   -0.00905206012832918
0.026923679922730114   0.007932039482669554   -0.00905206012832918
-0.031280287849727646   0.0013930035543965776   -0.0008103322790319742
-0.031280287849727646   0.0013930035543965776   -0.0008103322790319742
-0.031280287849727646   0.0013930035543965776   -0.0008103322790319742
-0.031280287849727646   0.0013930035543965776   -0.0008103322790319742
0.03657041267559271   0.03182934060439517   0.015284302514258153
0.03657041267559271   0.03182934060439517   0.015284302514258153
0.03657041267559271   0.03182934060439517   0.015284302514258153
0.03657041267559271   0.03182934060439517   0.015284302514258153
-0.08689218940543496   -0.015982311351721356   -0.014807944972103308
-0.08689218940543496   -0.015982311351721356   -0.014807944972103308
-0.08689218940543496   -0.015982311351721356   -0.014807944972103308
-0.08689218940543496   -0.015982311351721356   -0.014807944972103308
-0.0694218086759752   0.021511994262147484   0.003712970668957323
-0.0694218086759752   0.021511994262147484   0.003712970668957323
-0.0694218086759752   0.021511994262147484   0.003712970668957323
-0.0694218086759752   0.021511994262147484   0.003712970668957323
0.036406031222783894   0.021637492170367076   -0.011546305568498063
0.036406031222783894   0.021637492170367076   -0.011546305568498063
0.036406031222783894   0.021637492170367076   -0.011546305568498063
0.036406031222783894   0.021637492170367076   -0.011546305568498063
-0.02114571119083141   0.013807590748949612   0.0052158066522288065
-0.02114571119083141   0.013807590748949612   0.0052158066522288065
-0.02114571119083141   0.013807590748949612   0.0052158066522288065
-0.02114571119083141   0.013807590748949612   0.0052158066522288065
-0.09391149943172762   -0.007285119672165731   0.006958418624708081
-0.09391149943172762   -0.007285119672165731   0.006958418624708081
-0.09391149943172762   -0.007285119672165731   0.006958418624708081
-0.09391149943172762   -0.007285119672165731   0.006958418624708081
-0.20263066508110303   -0.027457055576618733   0.0017160365944240718
-0.20263066508110303   -0.027457055576618733   0.0017160365944240718
-0.20263066508110303   -0.027457055576618733   0.0017160365944240718
-0.20263066508110303   -0.027457055576618733   0.0017160365944240718
-0.19512990818792686   -0.01729761043197902   -0.003804671043401632
-0.19512990818792686   -0.01729761043197902   -0.003804671043401632
-0.19512990818792686   -0.01729761043197902   -0.003804671043401632
-0.19512990818792686   -0.01729761043197902   -0.003804671043401632
-0.085017513042846   0.007201975775573723   0.004259024735958135
-0.085017513042846   0.007201975775573723   0.004259024735958135
-0.085017513042846   0.007201975775573723   0.004259024735958135
-0.085017513042846   0.007201975775573723   0.004259024735958135
-0.14438161821120066   -0.010302859276866565   -0.003781139401136907
-0.14438161821120066   -0.010302859276866565   -0.003781139401136907
-0.14438161821120066   -0.010302859276866565   -0.003781139401136907
-0.14438161821120066   -0.010302859276866565   -0.003781139401136907
-0.08510768012235187   0.006391502010513989   0.004618663103488404
-0.08510768012235187   0.006391502010513989   0.004618663103488404
-0.08510768012235187   0.006391502010513989   0.004618663103488404
-0.08510768012235187   0.006391502010513989   0.004618663103488404
-0.1942858906264597   -0.015733286184958027   -0.0011489074830868598
-0.1942858906264597   -0.015733286184958027   -0.0011489074830868598
-0.1942858906264597   -0.015733286184958027   -0.0011489074830868598
-0.1942858906264597   -0.015733286184958027   -0.0011489074830868598
-0.18606727036265805   -0.0032704420716925184   -0.005982009009026056
-0.18606727036265805   -0.0032704420716925184   -0.005982009009026056
-0.18606727036265805   -0.0032704420716925184   -0.005982009009026056
-0.18606727036265805   -0.0032704420716925184   -0.005982009009026056
-0.07649450150547239   0.019608318055943763   0.0015898651200453445
-0.07649450150547239   0.019608318055943763   0.0015898651200453445
-0.07649450150547239   0.019608318055943763   0.0015898651200453445
-0.07649450150547239   0.019608318055943763   0.0015898651200453445
-0.13501792194584955   0.0020056195337770644   0.001910226481592503
-0.13501792194584955   0.0020056195337770644   0.001910226481592503
-0.13501792194584955   0.0020056195337770644   0.001910226481592503
-0.13501792194584955   0.0020056195337770644   0.001910226481592503
-0.07625061255786492   0.02031068072823052   0.002106947185795986
-0.07625061255786492   0.02031068072823052   0.002106947185795986
-0.07625061255786492   0.02031068072823052   0.002106947185795986
-0.07625061255786492   0.02031068072823052   0.002106947185795986
-0.18570491930138053   -0.0033665647350945294   -0.004074131039237955
-0.18570491930138053   -0.0033665647350945294   -0.004074131039237955
-0.18570491930138053   -0.0033665647350945294   -0.004074131039237955
-0.18570491930138053   -0.0033665647350945294   -0.004074131039237955
-0.17736826918202664   0.010802622192972684   -0.00845598454477686
-0.17736826918202664   0.010802622192972684   -0.00845598454477686
-0.17736826918202664   0.010802622192972684   -0.00845598454477686
-0.17736826918202664   0.010802622192972684   -0.00845598454477686
-0.06835538896717769   0.032050988407667604   -0.0014939249325742546
-0.06835538896717769   0.032050988407667604   -0.0014939249325742546
-0.06835538896717769   0.032050988407667604   -0.0014939249325742546
-0.06835538896717769   0.032050988407667604   -0.0014939249325742546
-0.1261516534096706   0.014283700453968755   0.007230328388859028
-0.1261516534096706   0.014283700453968755   0.007230328388859028
-0.1261516534096706   0.014283700453968755   0.007230328388859028
-0.1261516534096706   0.014283700453968755   0.007230328388859028
-0.20246342933735312   -0.019244155897126518   -0.005660684366316381
-0.20246342933735312   -0.019244155897126518   -0.005660684366316381
-0.20246342933735312   -0.019244155897126518   -0.005660684366316381
-0.20246342933735312   -0.019244155897126518   -0.005660684366316381
-0.3012948283992736   -0.017194972345530905   0.011718620347672163
-0.3012948283992736   -0.017194972345530905   0.011718620347672163
-0.3012948283992736   -0.017194972345530905   0.011718620347672163
-0.3012948283992736   -0.017194972345530905   0.011718620347672163
-0.3016224311841755   -0.028713579572189674   -0.016075879386665163
-0.3016224311841755   -0.028713579572189674   -0.016075879386665163
-0.3016224311841755   -0.028713579572189674   -0.016075879386665163
-0.3016224311841755   -0.028713579572189674   -0.016075879386665163
-0.18439915174744492   0.01808145862545802   0.014470042101571046
-0.18439915174744492   0.01808145862545802   0.014470042101571046
-0.18439915174744492   0.01808145862545802   0.014470042101571046
-0.18439915174744492   0.01808145862545802   0.014470042101571046
-0.24605013006110193   -0.010586367364279876   -0.0016120976464086296
-0.24605013006110193   -0.010586367364279876   -0.0016120976464086296
-0.24605013006110193   -0.010586367364279876   -0.0016120976464086296
-0.24605013006110193   -0.010586367364279876   -0.0016120976464086296
-0.19359060876432913   -0.0054776634019737536   -0.007928120955416517
-0.19359060876432913   -0.0054776634019737536   -0.007928120955416517
-0.19359060876432913   -0.0054776634019737536   -0.007928120955416517
-0.19359060876432913   -0.0054776634019737536   -0.007928120955416517
-0.29180121455901276   -0.004524697936481234   0.008841322103442559
-0.29180121455901276   -0.004524697936481234   0.008841322103442559
-0.29180121455901276   -0.004524697936481234   0.008841322103442559
-0.29180121455901276   -0.004524697936481234   0.008841322103442559
-0.2902194138767487   -0.01533874886159841   -0.017890303325046514
-0.2902194138767487   -0.01533874886159841   -0.017890303325046514
-0.2902194138767487   -0.01533874886159841   -0.017890303325046514
-0.2902194138767487   -0.01533874886159841   -0.017890303325046514
-0.17603981137757463   0.02936489853418066   0.011519945310517896
-0.17603981137757463   0.02936489853418066   0.011519945310517896
-0.17603981137757463   0.02936489853418066   0.011519945310517896
-0.17603981137757463   0.02936489853418066   0.011519945310517896
-0.23476419439663831   0.0018275409616028068   0.00426143844656519
-0.23476419439663831   0.0018275409616028068   0.00426143844656519
-0.23476419439663831   0.0018275409616028068   0.00426143844656519
-0.23476419439663831   0.0018275409616028068   0.00426143844656519
-0.18492410587618394   0.007159206394878416   -0.010695835043227174
-0.18492410587618394   0.007159206394878416   -0.010695835043227174
-0.18492410587618394   0.007159206394878416   -0.010695835043227174
-0.18492410587618394   0.007159206394878416   -0.010695835043227174
-0.2806284019624756   0.0075736606933674636   0.00715234669135292
-0.2806284019624756   0.0075736606933674636   0.00715234669135292
-0.2806284019624756   0.0075736606933674636   0.00715234669135292
-0.2806284019624756   0.0075736606933674636   0.00715234669135292
-0.28002534878194596   -0.0007729285659089369   -0.01926623884447376
-0.28002534878194596   -0.0007729285659089369   -0.01926623884447376
-0.28002534878194596   -0.0007729285659089369   -0.01926623884447376
-0.28002534878194596   -0.0007729285659089369   -0.01926623884447376
-0.16776926948434992   0.04179610355449356   0.008545532582085784
-0.16776926948434992   0.04179610355449356   0.008545532582085784
-0.16776926948434992   0.04179610355449356   0.008545532582085784
-0.16776926948434992   0.04179610355449356   0.008545532582085784
-0.2263966385746312   0.013375633247648032   0.009516659416370105
-0.2263966385746312   0.013375633247648032   0.009516659416370105
-0.2263966385746312   0.013375633247648032   0.009516659416370105
-0.2263966385746312   0.013375633247648032   0.009516659416370105
-0.30918050642490286   -0.027549969671360523   -0.017354772454644625
-0.30918050642490286   -0.027549969671360523   -0.017354772454644625
-0.30918050642490286   -0.027549969671360523   -0.017354772454644625
-0.30918050642490286   -0.027549969671360523   -0.017354772454644625
-0.41400872929453186   -0.007611566781022955   0.025610820314044845
-0.41400872929453186   -0.007611566781022955   0.025610820314044845
-0.41400872929453186   -0.007611566781022955   0.025610820314044845
-0.41400872929453186   -0.007611566781022955   0.025610820314044845
-0.4085773088178693   -0.03729209889637251   -0.02324933841901862
-0.4085773088178693   -0.03729209889637251   -0.02324933841901862
-0.4085773088178693   -0.03729209889637251   -0.02324933841901862
-0.4085773088178693   -0.03729209889637251   -0.02324933841901862
-0.28148851983718237   0.030634351039095176   0.025245746737015438
-0.28148851983718237   0.030634351039095176   0.025245746737015438
-0.28148851983718237   0.030634351039095176   0.025245746737015438
-0.28148851983718237   0.030634351039095176   0.025245746737015438
-0.3380575020332609   -0.006035492783497021   0.0029155473374057467
-0.3380575020332609   -0.006035492783497021   0.0029155473374057467
-0.3380575020332609   -0.006035492783497021   0.0029155473374057467
-0.3380575020332609   -0.006035492783497021   0.0029155473374057467
-0.29954544383221965   -0.01476396887937819   -0.019640553319696656
-0.29954544383221965   -0.01476396887937819   -0.019640553319696656
-0.29954544383221965   -0.01476396887937819   -0.019640553319696656
-0.29954544383221965   -0.01476396887937819   -0.019640553319696656
-0.38994425185832404   0.008682353986607869   0.0239414934957206
-0.38994425185832404   0.008682353986607869   0.0239414934957206
-0.38994425185832404   0.008682353986607869   0.0239414934957206
-0.38994425185832404   0.008682353986607869   0.0239414934957206
-0.3904130281577328   -0.029370201323483953   -0.02769566828473384
-0.3904130281577328   -0.029370201323483953   -0.02769566828473384
-0.3904130281577328   -0.029370201323483953   -0.02769566828473384
-0.3904130281577328   -0.029370201323483953   -0.02769566828473384
-0.2722389789541274   0.03584534467895281   0.020827777747506427
-0.2722389789541274   0.03584534467895281   0.020827777747506427
-0.2722389789541274   0.03584534467895281   0.020827777747506427
-0.2722389789541274   0.03584534467895281   0.020827777747506427
-0.32793090807002606   0.0022959182407613216   0.0076441876710161664
-0.32793090807002606   0.0022959182407613216   0.0076441876710161664
-0.32793090807002606   0.0022959182407613216   0.0076441876710161664
-0.32793090807002606   0.0022959182407613216   0.0076441876710161664
-0.2897637386576589   -0.008242787487301388   -0.02270788860389484
-0.2897637386576589   -0.008242787487301388   -0.02270788860389484
-0.2897637386576589   -0.008242787487301388   -0.02270788860389484
-0.2897637386576589   -0.008242787487301388   -0.02270788860389484
-0.3721881189687437   0.015418080328227488   0.018640596008496105
-0.3721881189687437   0.015418080328227488   0.018640596008496105
-0.3721881189687437   0.015418080328227488   0.018640596008496105
-0.3721881189687437   0.015418080328227488   0.018640596008496105
-0.3679527396782432   -0.0175908194767401   -0.030917953840248178
-0.3679527396782432   -0.0175908194767401   -0.030917953840248178
-0.3679527396782432   -0.0175908194767401   -0.030917953840248178
-0.3679527396782432   -0.0175908194767401   -0.030917953840248178
-0.2641377194741536   0.042052690065196095   0.017346289063383046
-0.2641377194741536   0.042052690065196095   0.017346289063383046
-0.2641377194741536   0.042052690065196095   0.017346289063383046
-0.2641377194741536   0.042052690065196095   0.017346289063383046
-0.3085195648645439   0.01007015745483951   0.014341573228751112
-0.3085195648645439   0.01007015745483951   0.014341573228751112
-0.3085195648645439   0.01007015745483951   0.014341573228751112
-0.3085195648645439   0.01007015745483951   0.014341573228751112
0.3254368099096093   0.029634449607142684   0.027927881743653918
0.3254368099096093   0.029634449607142684   0.027927881743653918
0.3254368099096093   0.029634449607142684   0.027927881743653918
0.3254368099096093   0.029634449607142684   0.027927881743653918
0.11882719037953902   -0.053486157870353865   -0.018367428965456564
0.11882719037953902   -0.053486157870353865   -0.018367428965456564
0.11882719037953902   -0.053486157870353865   -0.018367428965456564
0.11882719037953902   -0.053486157870353865   -0.018367428965456564
0.14623514685368494   -0.0005175744847517871   0.020062850849322647
0.14623514685368494   -0.0005175744847517871   0.020062850849322647
0.14623514685368494   -0.0005175744847517871   0.020062850849322647
0.14623514685368494   -0.0005175744847517871   0.020062850849322647
0.33105305613010927   -0.006963225636818102   -0.02347099129316544
0.33105305613010927   -0.006963225636818102   -0.02347099129316544
0.33105305613010927   -0.006963225636818102   -0.02347099129316544
0.33105305613010927   -0.006963225636818102   -0.02347099129316544
0.21622273300940698   -0.009537259932545561   -0.020732226587776546
0.21622273300940698   -0.009537259932545561   -0.020732226587776546
0.21622273300940698   -0.009537259932545561   -0.020732226587776546
0.21622273300940698   -0.009537259932545561   -0.020732226587776546
0.3502182219701964   0.04112066068564673   0.024270951584803732
0.3502182219701964   0.04112066068564673   0.024270951584803732
0.3502182219701964   0.04112066068564673   0.024270951584803732
0.3502182219701964   0.04112066068564673   0.024270951584803732
0.12844114421248   -0.04723029760833436   -0.022194439233117473
0.12844114421248   -0.04723029760833436   -0.022194439233117473
0.12844114421248   -0.04723029760833436   -0.022194439233117473
0.12844114421248   -0.04723029760833436   -0.022194439233117473
0.15691976859274617   0.005803050423200687   0.01652135979378026
0.15691976859274617   0.005803050423200687   0.01652135979378026
0.15691976859274617   0.005803050423200687   0.01652135979378026
0.15691976859274617   0.005803050423200687   0.01652135979378026
0.3507167816770253   0.00020991301227794856   -0.02949921552595056
0.3507167816770253   0.00020991301227794856   -0.02949921552595056
0.3507167816770253   0.00020991301227794856   -0.02949921552595056
0.3507167816770253   0.00020991301227794856   -0.02949921552595056
0.2368217251006072   -0.00180744818423096   -0.0125983720618855
0.2368217251006072   -0.00180744818423096   -0.0125983720618855
0.2368217251006072   -0.00180744818423096   -0.0125983720618855
0.2368217251006072   -0.00180744818423096   -0.0125983720618855
0.37007803040029086   0.04886151587206984   0.018655425230581352
0.37007803040029086   0.04886151587206984   0.018655425230581352
0.37007803040029086   0.04886151587206984   0.018655425230581352
0.37007803040029086   0.04886151587206984   0.018655425230581352
0.13900418529509428   -0.041402887010977885   -0.025850619260298715
0.13900418529509428   -0.041402887010977885   -0.025850619260298715
0.13900418529509428   -0.041402887010977885   -0.025850619260298715
0.13900418529509428   -0.041402887010977885   -0.025850619260298715
0.16759265940229945   0.01977384196798984   0.014318290026929604
0.16759265940229945   0.01977384196798984   0.014318290026929604
0.16759265940229945   0.01977384196798984   0.014318290026929604
0.16759265940229945   0.01977384196798984   0.014318290026929604
0.3765720117771036   0.018908767173966806   -0.03179953670529601
0.3765720117771036   0.018908767173966806   -0.03179953670529601
0.3765720117771036   0.018908767173966806   -0.03179953670529601
0.3765720117771036   0.018908767173966806   -0.03179953670529601
0.24936090729887272   0.007629532613365186   -0.005600941696609393
0.24936090729887272   0.007629532613365186   -0.005600941696609393
0.24936090729887272   0.007629532613365186   -0.005600941696609393
0.24936090729887272   0.007629532613365186   -0.005600941696609393
0.14102443316033203   0.016673670050458687   0.022458957017694167
0.14102443316033203   0.016673670050458687   0.022458957017694167
0.14102443316033203   0.016673670050458687   0.022458957017694167
0.14102443316033203   0.016673670050458687   0.022458957017694167
-0.06939352063682631   -0.04993066258325986   -0.009646054242096663
-0.06939352063682631   -0.04993066258325986   -0.009646054242096663
-0.06939352063682631   -0.04993066258325986   -0.009646054242096663
-0.06939352063682631   -0.04993066258325986   -0.009646054242096663
-0.050633848937903764   -0.01479125647842032   0.006737111106147581
-0.050633848937903764   -0.01479125647842032   0.006737111106147581
-0.050633848937903764   -0.01479125647842032   0.006737111106147581
-0.050633848937903764   -0.01479125647842032   0.006737111106147581
0.14192528344693842   0.0008721150906218361   -0.0028761557597817376
0.14192528344693842   0.0008721150906218361   -0.0028761557597817376
0.14192528344693842   0.0008721150906218361   -0.0028761557597817376
0.14192528344693842   0.0008721150906218361   -0.0028761557597817376
0.03887083637196131   -0.010420594123959251   -0.008783415273802985
0.03887083637196131   -0.010420594123959251   -0.008783415273802985
0.03887083637196131   -0.010420594123959251   -0.008783415273802985
0.03887083637196131   -0.010420594123959251   -0.008783415273802985
0.15201923705600134   0.02840423664530148   0.020061490730851454
0.15201923705600134   0.02840423664530148   0.020061490730851454
0.15201923705600134   0.02840423664530148   0.020061490730851454
0.15201923705600134   0.02840423664530148   0.020061490730851454
-0.05989001455854707   -0.0414855900446808   -0.012849383430809455
-0.05989001455854707   -0.0414855900446808   -0.012849383430809455
-0.05989001455854707   -0.0414855900446808   -0.012849383430809455
-0.05989001455854707   -0.0414855900446808   -0.012849383430809455
-0.040689177071199206   -0.002931527720112778   0.004242960851688482
-0.040689177071199206   -0.002931527720112778   0.004242960851688482
-0.040689177071199206   -0.002931527720112778   0.004242960851688482
-0.040689177071199206   -0.002931527720112778   0.004242960851688482
0.15367175183256776   0.01148882050293646   -0.005404494086845568
0.15367175183256776   0.01148882050293646   -0.005404494086845568
0.15367175183256776   0.01148882050293646   -0.005404494086845568
0.15367175183256776   0.01148882050293646   -0.005404494086845568
0.048461832874356084   -0.001062740646837538   -0.0034856268987455835
0.048461832874356084   -0.001062740646837538   -0.0034856268987455835
0.048461832874356084   -0.001062740646837538   -0.0034856268987455835
0.048461832874356084   -0.001062740646837538   -0.0034856268987455835
0.16417284763168363   0.04075853844371644   0.01783126696795176
0.16417284763168363   0.04075853844371644   0.01783126696795176
0.16417284763168363   0.04075853844371644   0.01783126696795176
0.16417284763168363   0.04075853844371644   0.01783126696795176
-0.050352583539603944   -0.03136355633018197   -0.015642042880266015
-0.050352583539603944   -0.03136355633018197   -0.015642042880266015
-0.050352583539603944   -0.03136355633018197   -0.015642042880266015
-0.050352583539603944   -0.03136355633018197   -0.015642042880266015
-0.030861612117530555   0.010845990799130314   0.0017638309156479048
-0.030861612117530555   0.010845990799130314   0.0017638309156479048
-0.030861612117530555   0.010845990799130314   0.0017638309156479048
-0.030861612117530555   0.010845990799130314   0.0017638309156479048
0.16406172328319554   0.024163321383237183   -0.007725869983835451
0.16406172328319554   0.024163321383237183   -0.007725869983835451
0.16406172328319554   0.024163321383237183   -0.007725869983835451
0.16406172328319554   0.024163321383237183   -0.007725869983835451
0.06038933002927542   0.01044517185584928   0.002709295828054967
0.06038933002927542   0.01044517185584928   0.002709295828054967
0.06038933002927542   0.01044517185584928   0.002709295828054967
0.06038933002927542   0.01044517185584928   0.002709295828054967
-0.05482352966024755   0.003679843166812682   0.009593394890725615
-0.05482352966024755   0.003679843166812682   0.009593394890725615
-0.05482352966024755   0.003679843166812682   0.009593394890725615
-0.05482352966024755   0.003679843166812682   0.009593394890725615
-0.25389371985808756   -0.04417328562778968   -0.0013295385934073676
-0.25389371985808756   -0.04417328562778968   -0.0013295385934073676
-0.25389371985808756   -0.04417328562778968   -0.0013295385934073676
-0.25389371985808756   -0.04417328562778968   -0.0013295385934073676
-0.24213952974225067   -0.02626364328749499   -0.005947053879980707
-0.24213952974225067   -0.02626364328749499   -0.005947053879980707
-0.24213952974225067   -0.02626364328749499   -0.005947053879980707
-0.24213952974225067   -0.02626364328749499   -0.005947053879980707
-0.04636302241510175   0.006961507769030276   0.006338479472706086
-0.04636302241510175   0.006961507769030276   0.006338479472706086
-0.04636302241510175   0.006961507769030276   0.006338479472706086
-0.04636302241510175   0.006961507769030276   0.006338479472706086
-0.14956275432988483   -0.013536164158017044   -0.005495032236672875
-0.14956275432988483   -0.013536164158017044   -0.005495032236672875
-0.14956275432988483   -0.013536164158017044   -0.005495032236672875
-0.14956275432988483   -0.013536164158017044   -0.005495032236672875
-0.04438091783524852   0.015932993248418563   0.0072775168925848874
-0.04438091783524852   0.015932993248418563   0.0072775168925848874
-0.04438091783524852   0.015932993248418563   0.0072775168925848874
-0.04438091783524852   0.015932993248418563   0.0072775168925848874
-0.24355083469726957   -0.03466432914204877   -0.004602892800521302
-0.24355083469726957   -0.03466432914204877   -0.004602892800521302
-0.24355083469726957   -0.03466432914204877   -0.004602892800521302
-0.24355083469726957   -0.03466432914204877   -0.004602892800521302
-0.23117171591893773   -0.013251021782996406   -0.008029619661190139
-0.23117171591893773   -0.013251021782996406   -0.008029619661190139
-0.23117171591893773   -0.013251021782996406   -0.008029619661190139
-0.23117171591893773   -0.013251021782996406   -0.008029619661190139
-0.03668784674534278   0.01769159718340855   0.0036264875774492744
-0.03668784674534278   0.01769159718340855   0.0036264875774492744
-0.03668784674534278   0.01769159718340855   0.0036264875774492744
-0.03668784674534278   0.01769159718340855   0.0036264875774492744
-0.13849483941211607   -0.0026536838075657716   -7.751385832664628e-05
-0.13849483941211607   -0.0026536838075657716   -7.751385832664628e-05
-0.13849483941211607   -0.0026536838075657716   -7.751385832664628e-05
-0.13849483941211607   -0.0026536838075657716   -7.751385832664628e-05
-0.034291570632694515   0.02865902022609175   0.0046404450980074
-0.034291570632694515   0.02865902022609175   0.0046404450980074
-0.034291570632694515   0.02865902022609175   0.0046404450980074
-0.034291570632694515   0.02865902022609175   0.0046404450980074
-0.2330401553108409   -0.02369060810493449   -0.00693223029876783
-0.2330401553108409   -0.02369060810493449   -0.00693223029876783
-0.2330401553108409   -0.02369060810493449   -0.00693223029876783
-0.2330401553108409   -0.02369060810493449   -0.00693223029876783
-0.2209577549913752   -0.00027185089239650795   -0.01050575540869729
-0.2209577549913752   -0.00027185089239650795   -0.01050575540869729
-0.2209577549913752   -0.00027185089239650795   -0.01050575540869729
-0.2209577549913752   -0.00027185089239650795   -0.01050575540869729
-0.027468407759641947   0.028640283302048576   0.0009355602021726851
-0.027468407759641947   0.028640283302048576   0.0009355602021726851
-0.027468407759641947   0.028640283302048576   0.0009355602021726851
-0.027468407759641947   0.028640283302048576   0.0009355602021726851
-0.12833687036358166   0.008190258594114746   0.005072974529057535
-0.12833687036358166   0.008190258594114746   0.005072974529057535
-0.12833687036358166   0.008190258594114746   0.005072974529057535
-0.12833687036358166   0.008190258594114746   0.005072974529057535
-0.24742188057351008   -0.009494027007978502   -0.0036496007903292892
-0.24742188057351008   -0.009494027007978502   -0.0036496007903292892
-0.24742188057351008   -0.009494027007978502   -0.0036496007903292892
-0.24742188057351008   -0.009494027007978502   -0.0036496007903292892
-0.4345831639307877   -0.03594545245976793   0.008128158505373942
-0.4345831639307877   -0.03594545245976793   0.008128158505373942
-0.4345831639307877   -0.03594545245976793   0.008128158505373942
-0.4345831639307877   -0.03594545245976793   0.008128158505373942
-0.42906821471670065   -0.03731851549796747   -0.01786076554630074
-0.42906821471670065   -0.03731851549796747   -0.01786076554630074
-0.42906821471670065   -0.03731851549796747   -0.01786076554630074
-0.42906821471670065   -0.03731851549796747   -0.01786076554630074
-0.22914622803132273   0.01691766207471851   0.015838149312447238
-0.22914622803132273   0.01691766207471851   0.015838149312447238
-0.22914622803132273   0.01691766207471851   0.015838149312447238
-0.22914622803132273   0.01691766207471851   0.015838149312447238
-0.3327382985241059   -0.014420518673486385   -0.0019275295793620764
-0.3327382985241059   -0.014420518673486385   -0.0019275295793620764
-0.3327382985241059   -0.014420518673486385   -0.0019275295793620764
-0.3327382985241059   -0.014420518673486385   -0.0019275295793620764
-0.23607426466699835   0.0037296277191588845   -0.005613999510371205
-0.23607426466699835   0.0037296277191588845   -0.005613999510371205
-0.23607426466699835   0.0037296277191588845   -0.005613999510371205
-0.23607426466699835   0.0037296277191588845   -0.005613999510371205
-0.42207817588923113   -0.02406847895061337   0.0038393920436962173
-0.42207817588923113   -0.02406847895061337   0.0038393920436962173
-0.42207817588923113   -0.02406847895061337   0.0038393920436962173
-0.42207817588923113   -0.02406847895061337   0.0038393920436962173
-0.41469703845465195   -0.024621996417725195   -0.019757302371934075
-0.41469703845465195   -0.024621996417725195   -0.019757302371934075
-0.41469703845465195   -0.024621996417725195   -0.019757302371934075
-0.41469703845465195   -0.024621996417725195   -0.019757302371934075
-0.21895462518682954   0.02712966440531709   0.012675147811039688
-0.21895462518682954   0.02712966440531709   0.012675147811039688
-0.21895462518682954   0.02712966440531709   0.012675147811039688
-0.21895462518682954   0.02712966440531709   0.012675147811039688
-0.31807701278389067   -0.002402020091926027   0.0035200312302235623
-0.31807701278389067   -0.002402020091926027   0.0035200312302235623
-0.31807701278389067   -0.002402020091926027   0.0035200312302235623
-0.31807701278389067   -0.002402020091926027   0.0035200312302235623
-0.22545925361243152   0.01552779586897901   -0.008246125780633443
-0.22545925361243152   0.01552779586897901   -0.008246125780633443
-0.22545925361243152   0.01552779586897901   -0.008246125780633443
-0.22545925361243152   0.01552779586897901   -0.008246125780633443
-0.40781474905783993   -0.012642466910177355   0.0026746151045779105
-0.40781474905783993   -0.012642466910177355   0.0026746151045779105
-0.40781474905783993   -0.012642466910177355   0.0026746151045779105
-0.40781474905783993   -0.012642466910177355   0.0026746151045779105
-0.4018507729485043   -0.010886120399645538   -0.020784083724455414
-0.4018507729485043   -0.010886120399645538   -0.020784083724455414
-0.4018507729485043   -0.010886120399645538   -0.020784083724455414
-0.4018507729485043   -0.010886120399645538   -0.020784083724455414
-0.20908434906530565   0.03832697563160796   0.010262447697647708
-0.20908434906530565   0.03832697563160796   0.010262447697647708
-0.20908434906530565   0.03832697563160796   0.010262447697647708
-0.20908434906530565   0.03832697563160796   0.010262447697647708
-0.3082739468323584   0.007848093495864114   0.008210456886265396
-0.3082739468323584   0.007848093495864114   0.008210456886265396
-0.3082739468323584   0.007848093495864114   0.008210456886265396
-0.3082739468323584   0.007848093495864114   0.008210456886265396
-0.436276173624425   -0.020369740161941374   -0.015912602260638866
-0.436276173624425   -0.020369740161941374   -0.015912602260638866
-0.436276173624425   -0.020369740161941374   -0.015912602260638866
-0.436276173624425   -0.020369740161941374   -0.015912602260638866
-0.6225982774309721   -0.02256502267239527   0.027527676964796646
-0.6225982774309721   -0.02256502267239527   0.027527676964796646
-0.6225982774309721   -0.02256502267239527   0.027527676964796646
-0.6225982774309721   -0.02256502267239527   0.027527676964796646
-0.6111424283564417   -0.0445878137922774   -0.02121116890058802
-0.6111424283564417   -0.0445878137922774   -0.02121116890058802
-0.6111424283564417   -0.0445878137922774   -0.02121116890058802
-0.6111424283564417   -0.0445878137922774   -0.02121116890058802
-0.4055117374060028   0.03455964267244693   0.02804346283677371
-0.4055117374060028   0.03455964267244693   0.02804346283677371
-0.4055117374060028   0.03455964267244693   0.02804346283677371
-0.4055117374060028   0.03455964267244693   0.02804346283677371
-0.4958387331702372   -0.00611789118350789   0.005914833963120373
-0.4958387331702372   -0.00611789118350789   0.005914833963120373
-0.4958387331702372   -0.00611789118350789   0.005914833963120373
-0.4958387331702372   -0.00611789118350789   0.005914833963120373
-0.4228166732693662   -0.006220619796886248   -0.01770095401070781
-0.4228166732693662   -0.006220619796886248   -0.01770095401070781
-0.4228166732693662   -0.006220619796886248   -0.01770095401070781
-0.4228166732693662   -0.006220619796886248   -0.01770095401070781
-0.5935248226971019   -0.003494881526968474   0.025783927130795803
-0.5935248226971019   -0.003494881526968474   0.025783927130795803
-0.5935248226971019   -0.003494881526968474   0.025783927130795803
-0.5935248226971019   -0.003494881526968474   0.025783927130795803
-0.5892633140811226   -0.03672587067206208   -0.02500396388057292
-0.5892633140811226   -0.03672587067206208   -0.02500396388057292
-0.5892633140811226   -0.03672587067206208   -0.02500396388057292
-0.5892633140811226   -0.03672587067206208   -0.02500396388057292
-0.39348984412499177   0.039404932226645456   0.02225174063199585
-0.39348984412499177   0.039404932226645456   0.02225174063199585
-0.39348984412499177   0.039404932226645456   0.02225174063199585
-0.39348984412499177   0.039404932226645456   0.02225174063199585
-0.4847966343287271   0.0024746160233126563   0.010404560805542164
-0.4847966343287271   0.0024746160233126563   0.010404560805542164
-0.4847966343287271   0.0024746160233126563   0.010404560805542164
-0.4847966343287271   0.0024746160233126563   0.010404560805542164
-0.40983162081150765   0.00012568220265658792   -0.02017789277659451
-0.40983162081150765   0.00012568220265658792   -0.02017789277659451
-0.40983162081150765   0.00012568220265658792   -0.02017789277659451
-0.40983162081150765   0.00012568220265658792   -0.02017789277659451
-0.5726041595470198   0.002870757199511881   0.01869518091835609
-0.5726041595470198   0.002870757199511881   0.01869518091835609
-0.5726041595470198   0.002870757199511881   0.01869518091835609
-0.5726041595470198   0.002870757199511881   0.01869518091835609
-0.5652733508636159   -0.027349695117289255   -0.02853000545958147
-0.5652733508636159   -0.027349695117289255   -0.02853000545958147
-0.5652733508636159   -0.027349695117289255   -0.02853000545958147
-0.5652733508636159   -0.027349695117289255   -0.02853000545958147
-0.3829611267030282   0.04383682845475333   0.018941198648526406
-0.3829611267030282   0.04383682845475333   0.018941198648526406
-0.3829611267030282   0.04383682845475333   0.018941198648526406
-0.3829611267030282   0.04383682845475333   0.018941198648526406
-0.46048279268345627   0.009587462754960058   0.017261178606577467
-0.46048279268345627   0.009587462754960058   0.017261178606577467
-0.46048279268345627   0.009587462754960058   0.017261178606577467
-0.46048279268345627   0.009587462754960058   0.017261178606577467
0.5428810621029003   0.04068286799287925   0.028423828627332257
0.5428810621029003   0.04068286799287925   0.028423828627332257
0.5428810621029003   0.04068286799287925   0.028423828627332257
0.5428810621029003   0.04068286799287925   0.028423828627332257
0.2389120290354961   -0.0633006303755058   -0.013205869776185125
0.2389120290354961   -0.0633006303755058   -0.013205869776185125
0.2389120290354961   -0.0633006303755058   -0.013205869776185125
0.2389120290354961   -0.0633006303755058   -0.013205869776185125
0.26592240443735454   -0.011401446492399533   0.01946855612169741
0.26592240443735454   -0.011401446492399533   0.01946855612169741
0.26592240443735454   -0.011401446492399533   0.01946855612169741
0.26592240443735454   -0.011401446492399533   0.01946855612169741
0.5486001871605239   -0.00036867453209281364   -0.020598817963563547
0.5486001871605239   -0.00036867453209281364   -0.020598817963563547
0.5486001871605239   -0.00036867453209281364   -0.020598817963563547
0.5486001871605239   -0.00036867453209281364   -0.020598817963563547
0.3757328963487532   -0.011134881076036149   -0.029161033816418054
0.3757328963487532   -0.011134881076036149   -0.029161033816418054
0.3757328963487532   -0.011134881076036149   -0.029161033816418054
0.3757328963487532   -0.011134881076036149   -0.029161033816418054
0.5675029304362784   0.04977516021639018   0.023771063666722134
0.5675029304362784   0.04977516021639018   0.023771063666722134
0.5675029304362784   0.04977516021639018   0.023771063666722134
0.5675029304362784   0.04977516021639018   0.023771063666722134
0.24884074919355503   -0.059724193208927544   -0.01761697338076828
0.24884074919355503   -0.059724193208927544   -0.01761697338076828
0.24884074919355503   -0.059724193208927544   -0.01761697338076828
0.24884074919355503   -0.059724193208927544   -0.01761697338076828
0.2763805233669443   -0.005614162834017292   0.015716663552638798
0.2763805233669443   -0.005614162834017292   0.015716663552638798
0.2763805233669443   -0.005614162834017292   0.015716663552638798
0.2763805233669443   -0.005614162834017292   0.015716663552638798
0.5670322693153792   0.006002368794695179   -0.025670700922655415
0.5670322693153792   0.006002368794695179   -0.025670700922655415
0.5670322693153792   0.006002368794695179   -0.025670700922655415
0.5670322693153792   0.006002368794695179   -0.025670700922655415
0.39898450451332734   -0.004348819564669426   -0.019875541423710782
0.39898450451332734   -0.004348819564669426   -0.019875541423710782
0.39898450451332734   -0.004348819564669426   -0.019875541423710782
0.39898450451332734   -0.004348819564669426   -0.019875541423710782
0.585815125069567   0.05664884510381264   0.017597101539165844
0.585815125069567   0.05664884510381264   0.017597101539165844
0.585815125069567   0.05664884510381264   0.017597101539165844
0.585815125069567   0.05664884510381264   0.017597101539165844
0.25918558641529255   -0.054672720340598745   -0.0211994636990384
0.25918558641529255   -0.054672720340598745   -0.0211994636990384
0.25918558641529255   -0.054672720340598745   -0.0211994636990384
0.25918558641529255   -0.054672720340598745   -0.0211994636990384
0.2858684722759098   0.009883885127499215   0.013779592563559803
0.2858684722759098   0.009883885127499215   0.013779592563559803
0.2858684722759098   0.009883885127499215   0.013779592563559803
0.2858684722759098   0.009883885127499215   0.013779592563559803
0.5897599411153869   0.024665311227459907   -0.02685899941569319
0.5897599411153869   0.024665311227459907   -0.02685899941569319
0.5897599411153869   0.024665311227459907   -0.02685899941569319
0.5897599411153869   0.024665311227459907   -0.02685899941569319
0.40747197111215383   0.0048269080956086785   -0.01348464872732505
0.40747197111215383   0.0048269080956086785   -0.01348464872732505
0.40747197111215383   0.0048269080956086785   -0.01348464872732505
0.40747197111215383   0.0048269080956086785   -0.01348464872732505
0.2642485925523804   0.023968528657955554   0.026207788774773606
0.2642485925523804   0.023968528657955554   0.026207788774773606
0.2642485925523804   0.023968528657955554   0.026207788774773606
0.2642485925523804   0.023968528657955554   0.026207788774773606
-0.03378586919752634   -0.07773825014625542   -0.00755824953935267
-0.03378586919752634   -0.07773825014625542   -0.00755824953935267
-0.03378586919752634   -0.07773825014625542   -0.00755824953935267
-0.03378586919752634   -0.07773825014625542   -0.00755824953935267
-0.01063602835042208   -0.02775687580263196   0.006540201571309762
-0.01063602835042208   -0.02775687580263196   0.006540201571309762
-0.01063602835042208   -0.02775687580263196   0.006540201571309762
-0.01063602835042208   -0.02775687580263196   0.006540201571309762
0.26191008307986186   -0.013373636888295681   0.001379139730130055
0.26191008307986186   -0.013373636888295681   0.001379139730130055
0.26191008307986186   -0.013373636888295681   0.001379139730130055
0.26191008307986186   -0.013373636888295681   0.001379139730130055
0.11716488177073459   -0.021388132040470825   -0.013777453495078995
0.11716488177073459   -0.021388132040470825   -0.013777453495078995
0.11716488177073459   -0.021388132040470825   -0.013777453495078995
0.11716488177073459   -0.021388132040470825   -0.013777453495078995
0.2755171141792288   0.03281153671397511   0.023229121624694184
0.2755171141792288   0.03281153671397511   0.023229121624694184
0.2755171141792288   0.03281153671397511   0.023229121624694184
0.2755171141792288   0.03281153671397511   0.023229121624694184
-0.023271759206768126   -0.07297074916188181   -0.011424579351170625
-0.023271759206768126   -0.07297074916188181   -0.011424579351170625
-0.023271759206768126   -0.07297074916188181   -0.011424579351170625
-0.023271759206768126   -0.07297074916188181   -0.011424579351170625
2.2268430932569777e-05   -0.01736889492168431   0.003956412191685773
2.2268430932569777e-05   -0.01736889492168431   0.003956412191685773
2.2268430932569777e-05   -0.01736889492168431   0.003956412191685773
2.2268430932569777e-05   -0.01736889492168431   0.003956412191685773
0.27285742075503255   -0.0055368432618748895   -0.0019761690790624335
0.27285742075503255   -0.0055368432618748895   -0.0019761690790624335
0.27285742075503255   -0.0055368432618748895   -0.0019761690790624335
0.27285742075503255   -0.0055368432618748895   -0.0019761690790624335
0.12638071784039673   -0.01500027107173391   -0.008908373649961217
0.12638071784039673   -0.01500027107173391   -0.008908373649961217
0.12638071784039673   -0.01500027107173391   -0.008908373649961217
0.12638071784039673   -0.01500027107173391   -0.008908373649961217
0.28719571748042977   0.04342517225590384   0.020753299030144723
0.28719571748042977   0.04342517225590384   0.020753299030144723
0.28719571748042977   0.04342517225590384   0.020753299030144723
0.28719571748042977   0.04342517225590384   0.020753299030144723
-0.013728032219979506   -0.0657429143649805   -0.016421071619578426
-0.013728032219979506   -0.0657429143649805   -0.016421071619578426
-0.013728032219979506   -0.0657429143649805   -0.016421071619578426
-0.013728032219979506   -0.0657429143649805   -0.016421071619578426
0.008395460782068664   -0.005154897573125121   0.0013492977354798755
0.008395460782068664   -0.005154897573125121   0.0013492977354798755
0.008395460782068664   -0.005154897573125121   0.0013492977354798755
0.008395460782068664   -0.005154897573125121   0.0013492977354798755
0.28103444687334866   0.004490415181297801   -0.00499706450304787
0.28103444687334866   0.004490415181297801   -0.00499706450304787
0.28103444687334866   0.004490415181297801   -0.00499706450304787
0.28103444687334866   0.004490415181297801   -0.00499706450304787
0.13778938306824168   -0.005426383610695293   -0.0036534701781099806
0.13778938306824168   -0.005426383610695293   -0.0036534701781099806
0.13778938306824168   -0.005426383610695293   -0.0036534701781099806
0.13778938306824168   -0.005426383610695293   -0.0036534701781099806
-0.012726702382552498   0.006938243719875862   0.013061090669385244
-0.012726702382552498   0.006938243719875862   0.013061090669385244
-0.012726702382552498   0.006938243719875862   0.013061090669385244
-0.012726702382552498   0.006938243719875862   0.013061090669385244
-0.30432834900540795   -0.0972958349784877   -0.006006095498859948
-0.30432834900540795   -0.0972958349784877   -0.006006095498859948
-0.30432834900540795   -0.0972958349784877   -0.006006095498859948
-0.30432834900540795   -0.0972958349784877   -0.006006095498859948
-0.28105090358036305   -0.042530237501066784   -0.006432365712517883
-0.28105090358036305   -0.042530237501066784   -0.006432365712517883
-0.28105090358036305   -0.042530237501066784   -0.006432365712517883
-0.28105090358036305   -0.042530237501066784   -0.006432365712517883
-0.011657571021626718   -0.03228287309368644   0.005958485506341048
-0.011657571021626718   -0.03228287309368644   0.005958485506341048
-0.011657571021626718   -0.03228287309368644   0.005958485506341048
-0.011657571021626718   -0.03228287309368644   0.005958485506341048
-0.1531107744167987   -0.039074933188042345   -0.012274420339333786
-0.1531107744167987   -0.039074933188042345   -0.012274420339333786
-0.1531107744167987   -0.039074933188042345   -0.012274420339333786
-0.1531107744167987   -0.039074933188042345   -0.012274420339333786
-0.0008829500470236206   0.016916308171032256   0.010632409114637847
-0.0008829500470236206   0.016916308171032256   0.010632409114637847
-0.0008829500470236206   0.016916308171032256   0.010632409114637847
-0.0008829500470236206   0.016916308171032256   0.010632409114637847
-0.2911196352741586   -0.09102352948497787   -0.008282732197584278
-0.2911196352741586   -0.09102352948497787   -0.008282732197584278
-0.2911196352741586   -0.09102352948497787   -0.008282732197584278
-0.2911196352741586   -0.09102352948497787   -0.008282732197584278
-0.26782060252238876   -0.031005257911372517   -0.008725032119410083
-0.26782060252238876   -0.031005257911372517   -0.008725032119410083
-0.26782060252238876   -0.031005257911372517   -0.008725032119410083
-0.26782060252238876   -0.031005257911372517   -0.008725032119410083
-0.0017382850046611812   -0.024742929357995193   0.0025276794500278966
-0.0017382850046611812   -0.024742929357995193   0.0025276794500278966
-0.0017382850046611812   -0.024742929357995193   0.0025276794500278966
-0.0017382850046611812   -0.024742929357995193   0.0025276794500278966
-0.14026714590645797   -0.03077221900674872   -0.006774551095553227
-0.14026714590645797   -0.03077221900674872   -0.006774551095553227
-0.14026714590645797   -0.03077221900674872   -0.006774551095553227
-0.14026714590645797   -0.03077221900674872   -0.006774551095553227
0.00995114278289098   0.02795039614960346   0.008281492880190054
0.00995114278289098   0.02795039614960346   0.008281492880190054
0.00995114278289098   0.02795039614960346   0.008281492880190054
0.00995114278289098   0.02795039614960346   0.008281492880190054
-0.27948865839832926   -0.08367721150735905   -0.01439335790312324
-0.27948865839832926   -0.08367721150735905   -0.01439335790312324
-0.27948865839832926   -0.08367721150735905   -0.01439335790312324
-0.27948865839832926   -0.08367721150735905   -0.01439335790312324
-0.258465305261086   -0.02000212080442066   -0.011279562828714089
-0.258465305261086   -0.02000212080442066   -0.011279562828714089
-0.258465305261086   -0.02000212080442066   -0.011279562828714089
-0.258465305261086   -0.02000212080442066   -0.011279562828714089
0.0047596757159960364   -0.01867464834051764   -0.0033098768274907446
0.0047596757159960364   -0.01867464834051764   -0.0033098768274907446
0.0047596757159960364   -0.01867464834051764   -0.0033098768274907446
0.0047596757159960364   -0.01867464834051764   -0.0033098768274907446
-0.13085328329478854   -0.023006139612119933   -0.0033000932533913657
-0.13085328329478854   -0.023006139612119933   -0.0033000932533913657
-0.13085328329478854   -0.023006139612119933   -0.0033000932533913657
-0.13085328329478854   -0.023006139612119933   -0.0033000932533913657
-0.2852895668085199   -0.007778307195811865   -0.00032971229709826896
-0.2852895668085199   -0.007778307195811865   -0.00032971229709826896
-0.2852895668085199   -0.007778307195811865   -0.00032971229709826896
-0.2852895668085199   -0.007778307195811865   -0.00032971229709826896
-0.5763695107520481   -0.10460454109381259   -0.00475987709059577
-0.5763695107520481   -0.10460454109381259   -0.00475987709059577
-0.5763695107520481   -0.10460454109381259   -0.00475987709059577
-0.5763695107520481   -0.10460454109381259   -0.00475987709059577
-0.5515151490549354   -0.054518314164576975   -0.018972810860417584
-0.5515151490549354   -0.054518314164576975   -0.018972810860417584
-0.5515151490549354   -0.054518314164576975   -0.018972810860417584
-0.5515151490549354   -0.054518314164576975   -0.018972810860417584
-0.27547344020146597   -0.03358278298060585   0.012507496661504816
-0.27547344020146597   -0.03358278298060585   0.012507496661504816
-0.27547344020146597   -0.03358278298060585   0.012507496661504816
-0.27547344020146597   -0.03358278298060585   0.012507496661504816
-0.41850234131334874   -0.04711573095606953   -0.008633052464969206
-0.41850234131334874   -0.04711573095606953   -0.008633052464969206
-0.41850234131334874   -0.04711573095606953   -0.008633052464969206
-0.41850234131334874   -0.04711573095606953   -0.008633052464969206
-0.2706705872124297   0.005027463417686409   -0.002088484791606296
-0.2706705872124297   0.005027463417686409   -0.002088484791606296
-0.2706705872124297   0.005027463417686409   -0.002088484791606296
-0.2706705872124297   0.005027463417686409   -0.002088484791606296
-0.5564982889262925   -0.09330884744518685   -0.005097976936588942
-0.5564982889262925   -0.09330884744518685   -0.005097976936588942
-0.5564982889262925   -0.09330884744518685   -0.005097976936588942
-0.5564982889262925   -0.09330884744518685   -0.005097976936588942
-0.5325628656577782   -0.042516440911519474   -0.021947138302194424
-0.5325628656577782   -0.042516440911519474   -0.021947138302194424
-0.5325628656577782   -0.042516440911519474   -0.021947138302194424
-0.5325628656577782   -0.042516440911519474   -0.021947138302194424
-0.2626547519888632   -0.02459665643301844   0.010695619069866689
-0.2626547519888632   -0.02459665643301844   0.010695619069866689
-0.2626547519888632   -0.02459665643301844   0.010695619069866689
-0.2626547519888632   -0.02459665643301844   0.010695619069866689
-0.39895962494717235   -0.03559808646048465   -0.0027454966807944382
-0.39895962494717235   -0.03559808646048465   -0.0027454966807944382
-0.39895962494717235   -0.03559808646048465   -0.0027454966807944382
-0.39895962494717235   -0.03559808646048465   -0.0027454966807944382
-0.25741630438890706   0.01613378260834876   -0.0038425819717244174
-0.25741630438890706   0.01613378260834876   -0.0038425819717244174
-0.25741630438890706   0.01613378260834876   -0.0038425819717244174
-0.25741630438890706   0.01613378260834876   -0.0038425819717244174
-0.5386786277996203   -0.08412419449476997   -0.010918195428149164
-0.5386786277996203   -0.08412419449476997   -0.010918195428149164
-0.5386786277996203   -0.08412419449476997   -0.010918195428149164
-0.5386786277996203   -0.08412419449476997   -0.010918195428149164
-0.5172556039068134   -0.02989247643005867   -0.02266355776919304
-0.5172556039068134   -0.02989247643005867   -0.02266355776919304
-0.5172556039068134   -0.02989247643005867   -0.02266355776919304
-0.5172556039068134   -0.02989247643005867   -0.02266355776919304
-0.25530523489633256   -0.01888341742342739   0.0034020856140624285
-0.25530523489633256   -0.01888341742342739   0.0034020856140624285
-0.25530523489633256   -0.01888341742342739   0.0034020856140624285
-0.25530523489633256   -0.01888341742342739   0.0034020856140624285
-0.38836219637483527   -0.028590262160278018   -0.000803612281681583
-0.38836219637483527   -0.028590262160278018   -0.000803612281681583
-0.38836219637483527   -0.028590262160278018   -0.000803612281681583
-0.38836219637483527   -0.028590262160278018   -0.000803612281681583
-0.5609176470156504   -0.018462876568981018   -0.013642222933438329
-0.5609176470156504   -0.018462876568981018   -0.013642222933438329
-0.5609176470156504   -0.018462876568981018   -0.013642222933438329
-0.5609176470156504   -0.018462876568981018   -0.013642222933438329
-0.8459506947186995   -0.07135700223764797   0.03128801080290823
-0.8459506947186995   -0.07135700223764797   0.03128801080290823
-0.8459506947186995   -0.07135700223764797   0.03128801080290823
-0.8459506947186995   -0.07135700223764797   0.03128801080290823
-0.8177323547327868   -0.057177500158835465   -0.018421633992854347
-0.8177323547327868   -0.057177500158835465   -0.018421633992854347
-0.8177323547327868   -0.057177500158835465   -0.018421633992854347
-0.8177323547327868   -0.057177500158835465   -0.018421633992854347
-0.5279489865090062   0.015412126439893287   0.028927561264753397
-0.5279489865090062   0.015412126439893287   0.028927561264753397
-0.5279489865090062   0.015412126439893287   0.028927561264753397
-0.5279489865090062   0.015412126439893287   0.028927561264753397
-0.657275942947338   -0.022205183827252242   0.0035310482721488713
-0.657275942947338   -0.022205183827252242   0.0035310482721488713
-0.657275942947338   -0.022205183827252242   0.0035310482721488713
-0.657275942947338   -0.022205183827252242   0.0035310482721488713
-0.5400404654449408   -0.00098194741474944   -0.015135759560270245
-0.5400404654449408   -0.00098194741474944   -0.015135759560270245
-0.5400404654449408   -0.00098194741474944   -0.015135759560270245
-0.5400404654449408   -0.00098194741474944   -0.015135759560270245
-0.8036935630654414   -0.038836113572780745   0.03343093775781827
-0.8036935630654414   -0.038836113572780745   0.03343093775781827
-0.8036935630654414   -0.038836113572780745   0.03343093775781827
-0.8036935630654414   -0.038836113572780745   0.03343093775781827
-0.7874134862526316   -0.04821782310443934   -0.021938393895803716
-0.7874134862526316   -0.04821782310443934   -0.021938393895803716
-0.7874134862526316   -0.04821782310443934   -0.021938393895803716
-0.7874134862526316   -0.04821782310443934   -0.021938393895803716
-0.509237621084431   0.024288931276834222   0.027873712376187555
-0.509237621084431   0.024288931276834222   0.027873712376187555
-0.509237621084431   0.024288931276834222   0.027873712376187555
-0.509237621084431   0.024288931276834222   0.027873712376187555
-0.6397210262907431   -0.008952186080716601   0.013197794069315566
-0.6397210262907431   -0.008952186080716601   0.013197794069315566
-0.6397210262907431   -0.008952186080716601   0.013197794069315566
-0.6397210262907431   -0.008952186080716601   0.013197794069315566
-0.5217394411213095   0.006029477828927293   -0.01637593436029259
-0.5217394411213095   0.006029477828927293   -0.01637593436029259
-0.5217394411213095   0.006029477828927293   -0.01637593436029259
-0.5217394411213095   0.006029477828927293   -0.01637593436029259
-0.7744946853866943   -0.029541388827471066   0.02397917615690892
-0.7744946853866943   -0.029541388827471066   0.02397917615690892
-0.7744946853866943   -0.029541388827471066   0.02397917615690892
-0.7744946853866943   -0.029541388827471066   0.02397917615690892
-0.7560213630301553   -0.039870771650012515   -0.02653656554817567
-0.7560213630301553   -0.039870771650012515   -0.02653656554817567
-0.7560213630301553   -0.039870771650012515   -0.02653656554817567
-0.7560213630301553   -0.039870771650012515   -0.02653656554817567
-0.4955018070970422   0.03472578519856993   0.021487164651034257
-0.4955018070970422   0.03472578519856993   0.021487164651034257
-0.4955018070970422   0.03472578519856993   0.021487164651034257
-0.4955018070970422   0.03472578519856993   0.021487164651034257
-0.605774651155589   0.0023343270618896017   0.02299493721717087
-0.605774651155589   0.0023343270618896017   0.02299493721717087
-0.605774651155589   0.0023343270618896017   0.02299493721717087
-0.605774651155589   0.0023343270618896017   0.02299493721717087
0.7386547409271458   0.04456901197635105   0.02639963009144941
0.7386547409271458   0.04456901197635105   0.02639963009144941
0.7386547409271458   0.04456901197635105   0.02639963009144941
0.7386547409271458   0.04456901197635105   0.02639963009144941
0.35138729915990446   -0.06536535233840801   0.005521960885459018
0.35138729915990446   -0.06536535233840801   0.005521960885459018
0.35138729915990446   -0.06536535233840801   0.005521960885459018
0.35138729915990446   -0.06536535233840801   0.005521960885459018
0.37043675708140744   -0.027843496430816406   0.020190502621935023
0.37043675708140744   -0.027843496430816406   0.020190502621935023
0.37043675708140744   -0.027843496430816406   0.020190502621935023
0.37043675708140744   -0.027843496430816406   0.020190502621935023
0.7423398972492711   0.00705739851106349   -0.00619887513539745
0.7423398972492711   0.00705739851106349   -0.00619887513539745
0.7423398972492711   0.00705739851106349   -0.00619887513539745
0.7423398972492711   0.00705739851106349   -0.00619887513539745
0.5188929692679126   -0.013823508438047125   -0.03422542593680873
0.5188929692679126   -0.013823508438047125   -0.03422542593680873
0.5188929692679126   -0.013823508438047125   -0.03422542593680873
0.5188929692679126   -0.013823508438047125   -0.03422542593680873
0.7562294981612211   0.0494485473732022   0.020857980562214364
0.7562294981612211   0.0494485473732022   0.020857980562214364
0.7562294981612211   0.0494485473732022   0.020857980562214364
0.7562294981612211   0.0494485473732022   0.020857980562214364
0.35985428771302275   -0.06692751374938974   0.006362173098584785
0.35985428771302275   -0.06692751374938974   0.006362173098584785
0.35985428771302275   -0.06692751374938974   0.006362173098584785
0.35985428771302275   -0.06692751374938974   0.006362173098584785
0.3775692006644574   -0.02368895170824853   0.015335765213547813
0.3775692006644574   -0.02368895170824853   0.015335765213547813
0.3775692006644574   -0.02368895170824853   0.015335765213547813
0.3775692006644574   -0.02368895170824853   0.015335765213547813
0.7550814590412384   0.011727041622686674   -0.0022015505685791872
0.7550814590412384   0.011727041622686674   -0.0022015505685791872
0.7550814590412384   0.011727041622686674   -0.0022015505685791872
0.7550814590412384   0.011727041622686674   -0.0022015505685791872
0.540029389865678   -0.010876759656725965   -0.023455955282573722
0.540029389865678   -0.010876759656725965   -0.023455955282573722
0.540029389865678   -0.010876759656725965   -0.023455955282573722
0.540029389865678   -0.010876759656725965   -0.023455955282573722
0.7668587357093207   0.05398681428076549   0.014425060113754551
0.7668587357093207   0.05398681428076549   0.014425060113754551
0.7668587357093207   0.05398681428076549   0.014425060113754551
0.7668587357093207   0.05398681428076549   0.014425060113754551
0.3680916989171465   -0.06364894944555577   0.007908254214300366
0.3680916989171465   -0.06364894944555577   0.007908254214300366
0.3680916989171465   -0.06364894944555577   0.007908254214300366
0.3680916989171465   -0.06364894944555577   0.007908254214300366
0.38810501074074333   -0.0074896686640581744   0.014021031501359867
0.38810501074074333   -0.0074896686640581744   0.014021031501359867
0.38810501074074333   -0.0074896686640581744   0.014021031501359867
0.38810501074074333   -0.0074896686640581744   0.014021031501359867
0.7683930642154205   0.022566111987680965   -0.0006948539449185692
0.7683930642154205   0.022566111987680965   -0.0006948539449185692
0.7683930642154205   0.022566111987680965   -0.0006948539449185692
0.7683930642154205   0.022566111987680965   -0.0006948539449185692
0.542412925534609   -0.0048580497733319156   -0.017635911314719917
0.542412925534609   -0.0048580497733319156   -0.017635911314719917
0.542412925534609   -0.0048580497733319156   -0.017635911314719917
0.542412925534609   -0.0048580497733319156   -0.017635911314719917
0.3710073149708087   0.010319478429661202   0.027937209171910792
0.3710073149708087   0.010319478429661202   0.027937209171910792
0.3710073149708087   0.010319478429661202   0.027937209171910792
0.3710073149708087   0.010319478429661202   0.027937209171910792
0.017719061534381235   -0.12913667551269659   0.012896149757568157
0.017719061534381235   -0.12913667551269659   0.012896149757568157
0.017719061534381235   -0.12913667551269659   0.012896149757568157
0.017719061534381235   -0.12913667551269659   0.012896149757568157
0.04239670463371223   -0.055111414033669155   0.012203632449412291
0.04239670463371223   -0.055111414033669155   0.012203632449412291
0.04239670463371223   -0.055111414033669155   0.012203632449412291
0.04239670463371223   -0.055111414033669155   0.012203632449412291
0.36159037121397436   -0.06043380742500347   0.008548884278953901
0.36159037121397436   -0.06043380742500347   0.008548884278953901
0.36159037121397436   -0.06043380742500347   0.008548884278953901
0.36159037121397436   -0.06043380742500347   0.008548884278953901
0.19178417815413246   -0.05733115072824066   -0.021617515765238352
0.19178417815413246   -0.05733115072824066   -0.021617515765238352
0.19178417815413246   -0.05733115072824066   -0.021617515765238352
0.19178417815413246   -0.05733115072824066   -0.021617515765238352
0.3795549048179848   0.014555873740086975   0.02338187113392038
0.3795549048179848   0.014555873740086975   0.02338187113392038
0.3795549048179848   0.014555873740086975   0.02338187113392038
0.3795549048179848   0.014555873740086975   0.02338187113392038
0.029178783411281432   -0.12535448281717387   0.016357095120764026
0.029178783411281432   -0.12535448281717387   0.016357095120764026
0.029178783411281432   -0.12535448281717387   0.016357095120764026
0.029178783411281432   -0.12535448281717387   0.016357095120764026
0.052266036506363314   -0.04750464621981956   0.008776200379868114
0.052266036506363314   -0.04750464621981956   0.008776200379868114
0.052266036506363314   -0.04750464621981956   0.008776200379868114
0.052266036506363314   -0.04750464621981956   0.008776200379868114
0.3700610443236061   -0.05640249614128083   0.010508527942323237
0.3700610443236061   -0.05640249614128083   0.010508527942323237
0.3700610443236061   -0.05640249614128083   0.010508527942323237
0.3700610443236061   -0.05640249614128083   0.010508527942323237
0.2001289040484361   -0.05438221251983491   -0.010814880657853809
0.2001289040484361   -0.05438221251983491   -0.010814880657853809
0.2001289040484361   -0.05438221251983491   -0.010814880657853809
0.2001289040484361   -0.05438221251983491   -0.010814880657853809
0.3875400614840401   0.021745951850318038   0.01975516575289465
0.3875400614840401   0.021745951850318038   0.01975516575289465
0.3875400614840401   0.021745951850318038   0.01975516575289465
0.3875400614840401   0.021745951850318038   0.01975516575289465
0.039348922340678265   -0.12109119121667197   0.017777174548295284
0.039348922340678265   -0.12109119121667197   0.017777174548295284
0.039348922340678265   -0.12109119121667197   0.017777174548295284
0.039348922340678265   -0.12109119121667197   0.017777174548295284
0.06744938011660181   -0.036077694297182515   0.005747454861297435
0.06744938011660181   -0.036077694297182515   0.005747454861297435
0.06744938011660181   -0.036077694297182515   0.005747454861297435
0.06744938011660181   -0.036077694297182515   0.005747454861297435
0.3793037692569902   -0.050296085627367926   0.012821241045906678
0.3793037692569902   -0.050296085627367926   0.012821241045906678
0.3793037692569902   -0.050296085627367926   0.012821241045906678
0.3793037692569902   -0.050296085627367926   0.012821241045906678
0.21495817654678478   -0.047301282303157076   0.0017785852757013325
0.21495817654678478   -0.047301282303157076   0.0017785852757013325
0.21495817654678478   -0.047301282303157076   0.0017785852757013325
0.21495817654678478   -0.047301282303157076   0.0017785852757013325
0.03982952638705564   -0.023667234248809343   0.01797903275705294
0.03982952638705564   -0.023667234248809343   0.01797903275705294
0.03982952638705564   -0.023667234248809343   0.01797903275705294
0.03982952638705564   -0.023667234248809343   0.01797903275705294
-0.3184125541338283   -0.22102028779444405   0.018951205081609114
-0.3184125541338283   -0.22102028779444405   0.018951205081609114
-0.3184125541338283   -0.22102028779444405   0.018951205081609114
-0.3184125541338283   -0.22102028779444405   0.018951205081609114
-0.27954141511550396   -0.08684296599871502   0.0010418650750753846
-0.27954141511550396   -0.08684296599871502   0.0010418650750753846
-0.27954141511550396   -0.08684296599871502   0.0010418650750753846
-0.27954141511550396   -0.08684296599871502   0.0010418650750753846
0.020711211683925812   -0.15888096768600365   0.007545721352815657
0.020711211683925812   -0.15888096768600365   0.007545721352815657
0.020711211683925812   -0.15888096768600365   0.007545721352815657
0.020711211683925812   -0.15888096768600365   0.007545721352815657
-0.13839516397016666   -0.12346345076505165   -0.025924420950980315
-0.13839516397016666   -0.12346345076505165   -0.025924420950980315
-0.13839516397016666   -0.12346345076505165   -0.025924420950980315
-0.13839516397016666   -0.12346345076505165   -0.025924420950980315
0.0501649750372732   -0.01826945574705406   0.014203026180602997
0.0501649750372732   -0.01826945574705406   0.014203026180602997
0.0501649750372732   -0.01826945574705406   0.014203026180602997
0.0501649750372732   -0.01826945574705406   0.014203026180602997
-0.3020819783677288   -0.22054127783654165   0.02203736065178033
-0.3020819783677288   -0.22054127783654165   0.02203736065178033
-0.3020819783677288   -0.22054127783654165   0.02203736065178033
-0.3020819783677288   -0.22054127783654165   0.02203736065178033
-0.2645390606907933   -0.07787604443959092   -0.0003371202718340195
-0.2645390606907933   -0.07787604443959092   -0.0003371202718340195
-0.2645390606907933   -0.07787604443959092   -0.0003371202718340195
-0.2645390606907933   -0.07787604443959092   -0.0003371202718340195
0.031130107461437184   -0.15518862296567654   0.010780531901094445
0.031130107461437184   -0.15518862296567654   0.010780531901094445
0.031130107461437184   -0.15518862296567654   0.010780531901094445
0.031130107461437184   -0.15518862296567654   0.010780531901094445
-0.12316215210899795   -0.11905755064850665   -0.009552878373416077
-0.12316215210899795   -0.11905755064850665   -0.009552878373416077
-0.12316215210899795   -0.11905755064850665   -0.009552878373416077
-0.12316215210899795   -0.11905755064850665   -0.009552878373416077
0.05961644781882292   -0.011143997115692968   0.009167607838039566
0.05961644781882292   -0.011143997115692968   0.009167607838039566
0.05961644781882292   -0.011143997115692968   0.009167607838039566
0.05961644781882292   -0.011143997115692968   0.009167607838039566
-0.2868255603595855   -0.21572082960097524   0.026075166545593033
-0.2868255603595855   -0.21572082960097524   0.026075166545593033
-0.2868255603595855   -0.21572082960097524   0.026075166545593033
-0.2868255603595855   -0.21572082960097524   0.026075166545593033
-0.23977187184181337   -0.06756447306734485   -0.0032274529038174102
-0.23977187184181337   -0.06756447306734485   -0.0032274529038174102
-0.23977187184181337   -0.06756447306734485   -0.0032274529038174102
-0.23977187184181337   -0.06756447306734485   -0.0032274529038174102
0.047382502447712714   -0.14522229716113944   0.014557669380808873
0.047382502447712714   -0.14522229716113944   0.014557669380808873
0.047382502447712714   -0.14522229716113944   0.014557669380808873
0.047382502447712714   -0.14522229716113944   0.014557669380808873
-0.10343678735927107   -0.10948139843094863   0.007467138259507525
-0.10343678735927107   -0.10948139843094863   0.007467138259507525
-0.10343678735927107   -0.10948139843094863   0.007467138259507525
-0.10343678735927107   -0.10948139843094863   0.007467138259507525
-0.28501524238678017   -0.0436651806651325   0.00858265668753664
-0.28501524238678017   -0.0436651806651325   0.00858265668753664
-0.28501524238678017   -0.0436651806651325   0.00858265668753664
-0.28501524238678017   -0.0436651806651325   0.00858265668753664
-0.7046825460374263   -0.342906555573872   -0.015311512313533789
-0.7046825460374263   -0.342906555573872   -0.015311512313533789
-0.7046825460374263   -0.342906555573872   -0.015311512313533789
-0.7046825460374263   -0.342906555573872   -0.015311512313533789
-0.6406875531418221   -0.1129871045530548   -0.019299998260399014
-0.6406875531418221   -0.1129871045530548   -0.019299998260399014
-0.6406875531418221   -0.1129871045530548   -0.019299998260399014
-0.6406875531418221   -0.1129871045530548   -0.019299998260399014
-0.3182226890607183   -0.2853339219206926   0.0061264512709809996
-0.3182226890607183   -0.2853339219206926   0.0061264512709809996
-0.3182226890607183   -0.2853339219206926   0.0061264512709809996
-0.3182226890607183   -0.2853339219206926   0.0061264512709809996
-0.4866337269927836   -0.2029013528674428   -0.02731970865682047
-0.4866337269927836   -0.2029013528674428   -0.02731970865682047
-0.4866337269927836   -0.2029013528674428   -0.02731970865682047
-0.4866337269927836   -0.2029013528674428   -0.02731970865682047
-0.2673245759004088   -0.032831575351937606   0.008114670503773534
-0.2673245759004088   -0.032831575351937606   0.008114670503773534
-0.2673245759004088   -0.032831575351937606   0.008114670503773534
-0.2673245759004088   -0.032831575351937606   0.008114670503773534
-0.6898170075124729   -0.36372079233214577   -0.014213582334561083
-0.6898170075124729   -0.36372079233214577   -0.014213582334561083
-0.6898170075124729   -0.36372079233214577   -0.014213582334561083
-0.6898170075124729   -0.36372079233214577   -0.014213582334561083
-0.6206145350041189   -0.10227044602361078   -0.0197135458678392
-0.6206145350041189   -0.10227044602361078   -0.0197135458678392
-0.6206145350041189   -0.10227044602361078   -0.0197135458678392
-0.6206145350041189   -0.10227044602361078   -0.0197135458678392
-0.30360775435296855   -0.2828309117036166   0.009274278681317187
-0.30360775435296855   -0.2828309117036166   0.009274278681317187
-0.30360775435296855   -0.2828309117036166   0.009274278681317187
-0.30360775435296855   -0.2828309117036166   0.009274278681317187
-0.4654118152285267   -0.1971036726357187   -0.018732204436241337
-0.4654118152285267   -0.1971036726357187   -0.018732204436241337
-0.4654118152285267   -0.1971036726357187   -0.018732204436241337
-0.4654118152285267   -0.1971036726357187   -0.018732204436241337
-0.25320853465701076   -0.024298869740936296   0.0027383351984250114
-0.25320853465701076   -0.024298869740936296   0.0027383351984250114
-0.25320853465701076   -0.024298869740936296   0.0027383351984250114
-0.25320853465701076   -0.024298869740936296   0.0027383351984250114
-0.6708272370038659   -0.36061597029007963   -0.012431531600100527
-0.6708272370038659   -0.36061597029007963   -0.012431531600100527
-0.6708272370038659   -0.36061597029007963   -0.012431531600100527
-0.6708272370038659   -0.36061597029007963   -0.012431531600100527
-0.5892078402964364   -0.09081687024164103   -0.02236257307688677
-0.5892078402964364   -0.09081687024164103   -0.02236257307688677
-0.5892078402964364   -0.09081687024164103   -0.02236257307688677
-0.5892078402964364   -0.09081687024164103   -0.02236257307688677
-0.27197334671596574   -0.25332422961369383   0.02152492927177327
-0.27197334671596574   -0.25332422961369383   0.02152492927177327
-0.27197334671596574   -0.25332422961369383   0.02152492927177327
-0.27197334671596574   -0.25332422961369383   0.02152492927177327
-0.4418736278164743   -0.1780914820810729   -0.009886396989720672
-0.4418736278164743   -0.1780914820810729   -0.009886396989720672
-0.4418736278164743   -0.1780914820810729   -0.009886396989720672
-0.4418736278164743   -0.1780914820810729   -0.009886396989720672
-0.6414292394488038   -0.037583850277590994   -0.004367684666702582
-0.6414292394488038   -0.037583850277590994   -0.004367684666702582
-0.6414292394488038   -0.037583850277590994   -0.004367684666702582
-0.6414292394488038   -0.037583850277590994   -0.004367684666702582
-1.12780468134472   -0.22324702808939084   0.01156954089776574
-1.12780468134472   -0.22324702808939084   0.01156954089776574
-1.12780468134472   -0.22324702808939084   0.01156954089776574
-1.12780468134472   -0.22324702808939084   0.01156954089776574
-1.0840019675384374   -0.10624390696004737   -0.023299624705518836
-1.0840019675384374   -0.10624390696004737   -0.023299624705518836
-1.0840019675384374   -0.10624390696004737   -0.023299624705518836
-1.0840019675384374   -0.10624390696004737   -0.023299624705518836
-0.6285317284188321   -0.11667328460289013   0.045165305404381434
-0.6285317284188321   -0.11667328460289013   0.045165305404381434
-0.6285317284188321   -0.11667328460289013   0.045165305404381434
-0.6285317284188321   -0.11667328460289013   0.045165305404381434
-0.8352765171244393   -0.12914645624820295   0.011415382766539873
-0.8352765171244393   -0.12914645624820295   0.011415382766539873
-0.8352765171244393   -0.12914645624820295   0.011415382766539873
-0.8352765171244393   -0.12914645624820295   0.011415382766539873
-0.6157890745805747   -0.007916954524010034   0.00012224451678997938
-0.6157890745805747   -0.007916954524010034   0.00012224451678997938
-0.6157890745805747   -0.007916954524010034   0.00012224451678997938
-0.6157890745805747   -0.007916954524010034   0.00012224451678997938
-1.1007949610151   -0.2190505766773315   0.00554207762844261
-1.1007949610151   -0.2190505766773315   0.00554207762844261
-1.1007949610151   -0.2190505766773315   0.00554207762844261
-1.1007949610151   -0.2190505766773315   0.00554207762844261
-1.060241008939923   -0.09740495261458956   -0.029592319225439444
-1.060241008939923   -0.09740495261458956   -0.029592319225439444
-1.060241008939923   -0.09740495261458956   -0.029592319225439444
-1.060241008939923   -0.09740495261458956   -0.029592319225439444
-0.607882491352488   -0.11103437749762975   0.05271060386433926
-0.607882491352488   -0.11103437749762975   0.05271060386433926
-0.607882491352488   -0.11103437749762975   0.05271060386433926
-0.607882491352488   -0.11103437749762975   0.05271060386433926
-0.8230433764392926   -0.10649525831193486   0.011101639141688855
-0.8230433764392926   -0.10649525831193486   0.011101639141688855
-0.8230433764392926   -0.10649525831193486   0.011101639141688855
-0.8230433764392926   -0.10649525831193486   0.011101639141688855
-0.5974074623483632   -9.125431143591767e-05   -0.005857374301230948
-0.5974074623483632   -9.125431143591767e-05   -0.005857374301230948
-0.5974074623483632   -9.125431143591767e-05   -0.005857374301230948
-0.5974074623483632   -9.125431143591767e-05   -0.005857374301230948
-1.072095283793509   -0.2097273216502461   0.023458675542278484
-1.072095283793509   -0.2097273216502461   0.023458675542278484
-1.072095283793509   -0.2097273216502461   0.023458675542278484
-1.072095283793509   -0.2097273216502461   0.023458675542278484
-1.010862125100502   -0.0792926230587506   -0.03324455863210837
-1.010862125100502   -0.0792926230587506   -0.03324455863210837
-1.010862125100502   -0.0792926230587506   -0.03324455863210837
-1.010862125100502   -0.0792926230587506   -0.03324455863210837
-0.5756751935200664   -0.10353190049278976   0.05801569105611756
-0.5756751935200664   -0.10353190049278976   0.05801569105611756
-0.5756751935200664   -0.10353190049278976   0.05801569105611756
-0.5756751935200664   -0.10353190049278976   0.05801569105611756
-0.7747088838784425   -0.08151031870907148   0.023282883045398006
-0.7747088838784425   -0.08151031870907148   0.023282883045398006
-0.7747088838784425   -0.08151031870907148   0.023282883045398006
-0.7747088838784425   -0.08151031870907148   0.023282883045398006
0.809139766888291   0.027323617550225276   0.011214342600238902
0.809139766888291   0.027323617550225276   0.011214342600238902
0.809139766888291   0.027323617550225276   0.011214342600238902
0.809139766888291   0.027323617550225276   0.011214342600238902
0.41192395115110186   -0.02220155385302308   0.007922931584732028
0.41192395115110186   -0.02220155385302308   0.007922931584732028
0.41192395115110186   -0.02220155385302308   0.007922931584732028
0.41192395115110186   -0.02220155385302308   0.007922931584732028
0.39621309660083465   -0.05772515460758226   0.0160151599198102
0.39621309660083465   -0.05772515460758226   0.0160151599198102
0.39621309660083465   -0.05772515460758226   0.0160151599198102
0.39621309660083465   -0.05772515460758226   0.0160151599198102
0.8033154319439421   0.04520372019713795   0.0056138254374953345
0.8033154319439421   0.04520372019713795   0.0056138254374953345
0.8033154319439421   0.04520372019713795   0.0056138254374953345
0.8033154319439421   0.04520372019713795   0.0056138254374953345
0.5729039121346392   -0.007924686535284858   -0.021227284435826096
0.5729039121346392   -0.007924686535284858   -0.021227284435826096
0.5729039121346392   -0.007924686535284858   -0.021227284435826096
0.5729039121346392   -0.007924686535284858   -0.021227284435826096
0.7991315651819406   0.021362624574668393   0.008535587249957607
0.7991315651819406   0.021362624574668393   0.008535587249957607
0.7991315651819406   0.021362624574668393   0.008535587249957607
0.7991315651819406   0.021362624574668393   0.008535587249957607
0.3991330306945673   -0.03514799165338148   0.008037667434272866
0.3991330306945673   -0.03514799165338148   0.008037667434272866
0.3991330306945673   -0.03514799165338148   0.008037667434272866
0.3991330306945673   -0.03514799165338148   0.008037667434272866
0.38613104575020796   -0.05898138065689959   0.013206751324519858
0.38613104575020796   -0.05898138065689959   0.013206751324519858
0.38613104575020796   -0.05898138065689959   0.013206751324519858
0.38613104575020796   -0.05898138065689959   0.013206751324519858
0.7941529624027759   0.04333676941990336   0.0099291921109326
0.7941529624027759   0.04333676941990336   0.0099291921109326
0.7941529624027759   0.04333676941990336   0.0099291921109326
0.7941529624027759   0.04333676941990336   0.0099291921109326
0.5714826979495318   -0.010916625126336316   -0.02438499379394165
0.5714826979495318   -0.010916625126336316   -0.02438499379394165
0.5714826979495318   -0.010916625126336316   -0.02438499379394165
0.5714826979495318   -0.010916625126336316   -0.02438499379394165
0.7878509586469602   0.019227033506580754   0.002528909245169318
0.7878509586469602   0.019227033506580754   0.002528909245169318
0.7878509586469602   0.019227033506580754   0.002528909245169318
0.7878509586469602   0.019227033506580754   0.002528909245169318
0.3901358928272864   -0.03716880142231546   0.011418407475328046
0.3901358928272864   -0.03716880142231546   0.011418407475328046
0.3901358928272864   -0.03716880142231546   0.011418407475328046
0.3901358928272864   -0.03716880142231546   0.011418407475328046
0.3755314239706905   -0.05358546609318468   0.011408895895483197
0.3755314239706905   -0.05358546609318468   0.011408895895483197
0.3755314239706905   -0.05358546609318468   0.011408895895483197
0.3755314239706905   -0.05358546609318468   0.011408895895483197
0.7800761554982502   0.04408259837640535   0.014450242925196095
0.7800761554982502   0.04408259837640535   0.014450242925196095
0.7800761554982502   0.04408259837640535   0.014450242925196095
0.7800761554982502   0.04408259837640535   0.014450242925196095
0.5502844088771213   -0.010899983010033643   -0.03275620520689299
0.5502844088771213   -0.010899983010033643   -0.03275620520689299
0.5502844088771213   -0.010899983010033643   -0.03275620520689299
0.5502844088771213   -0.010899983010033643   -0.03275620520689299
0.4089379322691982   -0.049428228877340566   0.020219512199531255
0.4089379322691982   -0.049428228877340566   0.020219512199531255
0.4089379322691982   -0.049428228877340566   0.020219512199531255
0.4089379322691982   -0.049428228877340566   0.020219512199531255
0.0765000179137201   -0.04864086367016272   0.003968434310993557
0.0765000179137201   -0.04864086367016272   0.003968434310993557
0.0765000179137201   -0.04864086367016272   0.003968434310993557
0.0765000179137201   -0.04864086367016272   0.003968434310993557
0.049374335800784534   -0.1203915452299463   0.020976230667398878
0.049374335800784534   -0.1203915452299463   0.020976230667398878
0.049374335800784534   -0.1203915452299463   0.020976230667398878
0.049374335800784534   -0.1203915452299463   0.020976230667398878
0.41100067972661253   0.016707777392232198   0.015520143548885222
0.41100067972661253   0.016707777392232198   0.015520143548885222
0.41100067972661253   0.016707777392232198   0.015520143548885222
0.41100067972661253   0.016707777392232198   0.015520143548885222
0.23280510798523546   -0.050646878501120984   -0.0009535183105018538
0.23280510798523546   -0.050646878501120984   -0.0009535183105018538
0.23280510798523546   -0.050646878501120984   -0.0009535183105018538
0.23280510798523546   -0.050646878501120984   -0.0009535183105018538
0.39764876164884055   -0.05153186673614146   0.017000197288397807
0.39764876164884055   -0.05153186673614146   0.017000197288397807
0.39764876164884055   -0.05153186673614146   0.017000197288397807
0.39764876164884055   -0.05153186673614146   0.017000197288397807
0.05934722404144422   -0.05553093093869026   0.005980057579441228
0.05934722404144422   -0.05553093093869026   0.005980057579441228
0.05934722404144422   -0.05553093093869026   0.005980057579441228
0.05934722404144422   -0.05553093093869026   0.005980057579441228
0.03717571799332301   -0.1213289492455007   0.018761588751506977
0.03717571799332301   -0.1213289492455007   0.018761588751506977
0.03717571799332301   -0.1213289492455007   0.018761588751506977
0.03717571799332301   -0.1213289492455007   0.018761588751506977
0.40170881118740553   0.013776479991743085   0.01833771786186543
0.40170881118740553   0.013776479991743085   0.01833771786186543
0.40170881118740553   0.013776479991743085   0.01833771786186543
0.40170881118740553   0.013776479991743085   0.01833771786186543
0.21619177050057456   -0.05393263657863325   -0.011015591129736015
0.21619177050057456   -0.05393263657863325   -0.011015591129736015
0.21619177050057456   -0.05393263657863325   -0.011015591129736015
0.21619177050057456   -0.05393263657863325   -0.011015591129736015
0.38767977227562417   -0.05215554623367352   0.014124549528372353
0.38767977227562417   -0.05215554623367352   0.014124549528372353
0.38767977227562417   -0.05215554623367352   0.014124549528372353
0.38767977227562417   -0.05215554623367352   0.014124549528372353
0.04752672058569529   -0.05907495933949876   0.008262611807366479
0.04752672058569529   -0.05907495933949876   0.008262611807366479
0.04752672058569529   -0.05907495933949876   0.008262611807366479
0.04752672058569529   -0.05907495933949876   0.008262611807366479
0.023538944083019916   -0.12109022442012883   0.014615372256072443
0.023538944083019916   -0.12109022442012883   0.014615372256072443
0.023538944083019916   -0.12109022442012883   0.014615372256072443
0.023538944083019916   -0.12109022442012883   0.014615372256072443
0.39116294410055447   0.014102877030978928   0.021878153420640357
0.39116294410055447   0.014102877030978928   0.021878153420640357
0.39116294410055447   0.014102877030978928   0.021878153420640357
0.39116294410055447   0.014102877030978928   0.021878153420640357
0.20613664460735884   -0.05336946505766286   -0.019534447379119583
0.20613664460735884   -0.05336946505766286   -0.019534447379119583
0.20613664460735884   -0.05336946505766286   -0.019534447379119583
0.20613664460735884   -0.05336946505766286   -0.019534447379119583
0.05994157491984654   -0.14552719322144872   0.01806254889291079
0.05994157491984654   -0.14552719322144872   0.01806254889291079
0.05994157491984654   -0.14552719322144872   0.01806254889291079
0.05994157491984654   -0.14552719322144872   0.01806254889291079
-0.24616986546443995   -0.07505261462907954   -3.7309543310317e-05
-0.24616986546443995   -0.07505261462907954   -3.7309543310317e-05
-0.24616986546443995   -0.07505261462907954   -3.7309543310317e-05
-0.24616986546443995   -0.07505261462907954   -3.7309543310317e-05
-0.29524084598305333   -0.21877354441232505   0.024034895388187913
-0.29524084598305333   -0.21877354441232505   0.024034895388187913
-0.29524084598305333   -0.21877354441232505   0.024034895388187913
-0.29524084598305333   -0.21877354441232505   0.024034895388187913
0.06894883143534551   -0.011441005115912277   0.009898168726168728
0.06894883143534551   -0.011441005115912277   0.009898168726168728
0.06894883143534551   -0.011441005115912277   0.009898168726168728
0.06894883143534551   -0.011441005115912277   0.009898168726168728
-0.10180791925610394   -0.11110095607268404   0.004244647306900835
-0.10180791925610394   -0.11110095607268404   0.004244647306900835
-0.10180791925610394   -0.11110095607268404   0.004244647306900835
-0.10180791925610394   -0.11110095607268404   0.004244647306900835
0.041135965433824015   -0.15368882873838097   0.013081662341030934
0.041135965433824015   -0.15368882873838097   0.013081662341030934
0.041135965433824015   -0.15368882873838097   0.013081662341030934
0.041135965433824015   -0.15368882873838097   0.013081662341030934
-0.2721842990911788   -0.0812820398995086   0.0018261253347420549
-0.2721842990911788   -0.0812820398995086   0.0018261253347420549
-0.2721842990911788   -0.0812820398995086   0.0018261253347420549
-0.2721842990911788   -0.0812820398995086   0.0018261253347420549
-0.31218348844509886   -0.22206498509007666   0.019712317185599314
-0.31218348844509886   -0.22206498509007666   0.019712317185599314
-0.31218348844509886   -0.22206498509007666   0.019712317185599314
-0.31218348844509886   -0.22206498509007666   0.019712317185599314
0.05750765401181815   -0.01468834180231009   0.01378066140079205
0.05750765401181815   -0.01468834180231009   0.01378066140079205
0.05750765401181815   -0.01468834180231009   0.01378066140079205
0.05750765401181815   -0.01468834180231009   0.01378066140079205
-0.12300501226259819   -0.11772796506373663   -0.009881547489970333
-0.12300501226259819   -0.11772796506373663   -0.009881547489970333
-0.12300501226259819   -0.11772796506373663   -0.009881547489970333
-0.12300501226259819   -0.11772796506373663   -0.009881547489970333
0.028142121626056747   -0.15624116248252534   0.008505820152200312
0.028142121626056747   -0.15624116248252534   0.008505820152200312
0.028142121626056747   -0.15624116248252534   0.008505820152200312
0.028142121626056747   -0.15624116248252534   0.008505820152200312
-0.28851679136381975   -0.08621099971434401   0.00219181721626034
-0.28851679136381975   -0.08621099971434401   0.00219181721626034
-0.28851679136381975   -0.08621099971434401   0.00219181721626034
-0.28851679136381975   -0.08621099971434401   0.00219181721626034
-0.33060210525588724   -0.22045619570907882   0.016372784344711976
-0.33060210525588724   -0.22045619570907882   0.016372784344711976
-0.33060210525588724   -0.22045619570907882   0.016372784344711976
-0.33060210525588724   -0.22045619570907882   0.016372784344711976
0.04479123812795115   -0.016453240935931226   0.01623985899653096
0.04479123812795115   -0.016453240935931226   0.01623985899653096
0.04479123812795115   -0.016453240935931226   0.01623985899653096
0.04479123812795115   -0.016453240935931226   0.01623985899653096
-0.14024642125411557   -0.1201935057972208   -0.02408084098303923
-0.14024642125411557   -0.1201935057972208   -0.02408084098303923
-0.14024642125411557   -0.1201935057972208   -0.02408084098303923
-0.14024642125411557   -0.1201935057972208   -0.02408084098303923
-0.2768548591545186   -0.24998474521594977   0.021469852593169712
-0.2768548591545186   -0.24998474521594977   0.021469852593169712
-0.2768548591545186   -0.24998474521594977   0.021469852593169712
-0.2768548591545186   -0.24998474521594977   0.021469852593169712
-0.6115268709025813   -0.09330919941343817   -0.013945515698031662
-0.6115268709025813   -0.09330919941343817   -0.013945515698031662
-0.6115268709025813   -0.09330919941343817   -0.013945515698031662
-0.6115268709025813   -0.09330919941343817   -0.013945515698031662
-0.6974040371233453   -0.3660941475735382   -0.018493328930650817
-0.6974040371233453   -0.3660941475735382   -0.018493328930650817
-0.6974040371233453   -0.3660941475735382   -0.018493328930650817
-0.6974040371233453   -0.3660941475735382   -0.018493328930650817
-0.2585310375128587   -0.019742154704989842   0.008552548031823873
-0.2585310375128587   -0.019742154704989842   0.008552548031823873
-0.2585310375128587   -0.019742154704989842   0.008552548031823873
-0.2585310375128587   -0.019742154704989842   0.008552548031823873
-0.45658512570126253   -0.17495593641777324   -0.014476380994509562
-0.45658512570126253   -0.17495593641777324   -0.014476380994509562
-0.45658512570126253   -0.17495593641777324   -0.014476380994509562
-0.45658512570126253   -0.17495593641777324   -0.014476380994509562
-0.3115347575508356   -0.2837193893712632   0.007511182508214663
-0.3115347575508356   -0.2837193893712632   0.007511182508214663
-0.3115347575508356   -0.2837193893712632   0.007511182508214663
-0.3115347575508356   -0.2837193893712632   0.007511182508214663
-0.6431530271266095   -0.1008696229485057   -0.012462803572004588
-0.6431530271266095   -0.1008696229485057   -0.012462803572004588
-0.6431530271266095   -0.1008696229485057   -0.012462803572004588
-0.6431530271266095   -0.1008696229485057   -0.012462803572004588
-0.7176112708916369   -0.3717626313087569   -0.021380802805716116
-0.7176112708916369   -0.3717626313087569   -0.021380802805716116
-0.7176112708916369   -0.3717626313087569   -0.021380802805716116
-0.7176112708916369   -0.3717626313087569   -0.021380802805716116
-0.2742101030926786   -0.0251359280472681   0.012650186904890202
-0.2742101030926786   -0.0251359280472681   0.012650186904890202
-0.2742101030926786   -0.0251359280472681   0.012650186904890202
-0.2742101030926786   -0.0251359280472681   0.012650186904890202
-0.4813414640128829   -0.19409994312325804   -0.02101132807216409
-0.4813414640128829   -0.19409994312325804   -0.02101132807216409
-0.4813414640128829   -0.19409994312325804   -0.02101132807216409
-0.4813414640128829   -0.19409994312325804   -0.02101132807216409
-0.3289532198578869   -0.2891626046121232   0.0029612796437028036
-0.3289532198578869   -0.2891626046121232   0.0029612796437028036
-0.3289532198578869   -0.2891626046121232   0.0029612796437028036
-0.3289532198578869   -0.2891626046121232   0.0029612796437028036
-0.6631361226154437   -0.1080039232329182   -0.012763769500595084
-0.6631361226154437   -0.1080039232329182   -0.012763769500595084
-0.6631361226154437   -0.1080039232329182   -0.012763769500595084
-0.6631361226154437   -0.1080039232329182   -0.012763769500595084
-0.7347791662431041   -0.35501054588694025   -0.02410083256732029
-0.7347791662431041   -0.35501054588694025   -0.02410083256732029
-0.7347791662431041   -0.35501054588694025   -0.02410083256732029
-0.7347791662431041   -0.35501054588694025   -0.02410083256732029
-0.29398490111590525   -0.03278148822764494   0.011784097563183056
-0.29398490111590525   -0.03278148822764494   0.011784097563183056
-0.29398490111590525   -0.03278148822764494   0.011784097563183056
-0.29398490111590525   -0.03278148822764494   0.011784097563183056
-0.5042770831687927   -0.2005314949298777   -0.027367105544899916
-0.5042770831687927   -0.2005314949298777   -0.027367105544899916
-0.5042770831687927   -0.2005314949298777   -0.027367105544899916
-0.5042770831687927   -0.2005314949298777   -0.027367105544899916
-0.6016937231978933   -0.10996378329765549   0.05187480670961575
-0.6016937231978933   -0.10996378329765549   0.05187480670961575
-0.6016937231978933   -0.10996378329765549   0.05187480670961575
-0.6016937231978933   -0.10996378329765549   0.05187480670961575
-1.053800329279428   -0.07818787371609182   -0.01809235331959331
-1.053800329279428   -0.07818787371609182   -0.01809235331959331
-1.053800329279428   -0.07818787371609182   -0.01809235331959331
-1.053800329279428   -0.07818787371609182   -0.01809235331959331
-1.1174041092203235   -0.22064688505829172   0.014169683928864862
-1.1174041092203235   -0.22064688505829172   0.014169683928864862
-1.1174041092203235   -0.22064688505829172   0.014169683928864862
-1.1174041092203235   -0.22064688505829172   0.014169683928864862
-0.6175084094723372   0.009475537733451611   0.005415124017394711
-0.6175084094723372   0.009475537733451611   0.005415124017394711
-0.6175084094723372   0.009475537733451611   0.005415124017394711
-0.6175084094723372   0.009475537733451611   0.005415124017394711
-0.8072481788413566   -0.07746392618774949   0.016087745094497053
-0.8072481788413566   -0.07746392618774949   0.016087745094497053
-0.8072481788413566   -0.07746392618774949   0.016087745094497053
-0.8072481788413566   -0.07746392618774949   0.016087745094497053
-0.6348478304599058   -0.11777571227448427   0.045969269087484416
-0.6348478304599058   -0.11777571227448427   0.045969269087484416
-0.6348478304599058   -0.11777571227448427   0.045969269087484416
-0.6348478304599058   -0.11777571227448427   0.045969269087484416
-1.0973921766550845   -0.0907231234726846   -0.01569441483053908
-1.0973921766550845   -0.0907231234726846   -0.01569441483053908
-1.0973921766550845   -0.0907231234726846   -0.01569441483053908
-1.0973921766550845   -0.0907231234726846   -0.01569441483053908
-1.1440199195628908   -0.2298568163142792   -0.005264162008505102
-1.1440199195628908   -0.2298568163142792   -0.005264162008505102
-1.1440199195628908   -0.2298568163142792   -0.005264162008505102
-1.1440199195628908   -0.2298568163142792   -0.005264162008505102
-0.6363639772034396   0.0033534194368139147   0.009739614889693118
-0.6363639772034396   0.0033534194368139147   0.009739614889693118
-0.6363639772034396   0.0033534194368139147   0.009739614889693118
-0.6363639772034396   0.0033534194368139147   0.009739614889693118
-0.8546653781465713   -0.10206922441102513   0.00649376642860754
-0.8546653781465713   -0.10206922441102513   0.00649376642860754
-0.8546653781465713   -0.10206922441102513   0.00649376642860754
-0.8546653781465713   -0.10206922441102513   0.00649376642860754
-0.6561314517822989   -0.12364596505834799   0.037901626490559004
-0.6561314517822989   -0.12364596505834799   0.037901626490559004
-0.6561314517822989   -0.12364596505834799   0.037901626490559004
-0.6561314517822989   -0.12364596505834799   0.037901626490559004
-1.1187656993080393   -0.09737068614312194   -0.011479190905386613
-1.1187656993080393   -0.09737068614312194   -0.011479190905386613
-1.1187656993080393   -0.09737068614312194   -0.011479190905386613
-1.1187656993080393   -0.09737068614312194   -0.011479190905386613
-1.1668026871488038   -0.2334041724890698   -0.00021817529654521994
-1.1668026871488038   -0.2334041724890698   -0.00021817529654521994
-1.1668026871488038   -0.2334041724890698   -0.00021817529654521994
-1.1668026871488038   -0.2334041724890698   -0.00021817529654521994
-0.6629176462757342   -0.023903740859451572   0.004099962242040338
-0.6629176462757342   -0.023903740859451572   0.004099962242040338
-0.6629176462757342   -0.023903740859451572   0.004099962242040338
-0.6629176462757342   -0.023903740859451572   0.004099962242040338
-0.8644652395788004   -0.12309563063931975   0.010204655113295805
-0.8644652395788004   -0.12309563063931975   0.010204655113295805
-0.8644652395788004   -0.12309563063931975   0.010204655113295805
-0.8644652395788004   -0.12309563063931975   0.010204655113295805
0.7120108095227692   0.033222565507421295   -0.01504332998468275
0.7120108095227692   0.033222565507421295   -0.01504332998468275
0.7120108095227692   0.033222565507421295   -0.01504332998468275
0.7120108095227692   0.033222565507421295   -0.01504332998468275
0.3574291723404943   -0.007796735717189959   0.007228598135239621
0.3574291723404943   -0.007796735717189959   0.007228598135239621
0.3574291723404943   -0.007796735717189959   0.007228598135239621
0.3574291723404943   -0.007796735717189959   0.007228598135239621
0.3351767506248022   -0.05223335490018097   -0.013432868729959482
0.3351767506248022   -0.05223335490018097   -0.013432868729959482
0.3351767506248022   -0.05223335490018097   -0.013432868729959482
0.3351767506248022   -0.05223335490018097   -0.013432868729959482
0.7039013683134698   0.05115056322746818   0.008457273552805043
0.7039013683134698   0.05115056322746818   0.008457273552805043
0.7039013683134698   0.05115056322746818   0.008457273552805043
0.7039013683134698   0.05115056322746818   0.008457273552805043
0.4995024938672766   0.001237131247988743   -0.019279591924104895
0.4995024938672766   0.001237131247988743   -0.019279591924104895
0.4995024938672766   0.001237131247988743   -0.019279591924104895
0.4995024938672766   0.001237131247988743   -0.019279591924104895
0.6927134217491397   0.0189118115520035   -0.015243707593374622
0.6927134217491397   0.0189118115520035   -0.015243707593374622
0.6927134217491397   0.0189118115520035   -0.015243707593374622
0.6927134217491397   0.0189118115520035   -0.015243707593374622
0.34575741763926193   -0.02060188277458609   0.007838994216741463
0.34575741763926193   -0.02060188277458609   0.007838994216741463
0.34575741763926193   -0.02060188277458609   0.007838994216741463
0.34575741763926193   -0.02060188277458609   0.007838994216741463
0.32317463550059994   -0.05507251774738893   -0.011138916823322291
0.32317463550059994   -0.05507251774738893   -0.011138916823322291
0.32317463550059994   -0.05507251774738893   -0.011138916823322291
0.32317463550059994   -0.05507251774738893   -0.011138916823322291
0.6872701760946948   0.047094836221637626   0.012472093460303063
0.6872701760946948   0.047094836221637626   0.012472093460303063
0.6872701760946948   0.047094836221637626   0.012472093460303063
0.6872701760946948   0.047094836221637626   0.012472093460303063
0.4931746984621067   -0.004842150213163365   -0.022854110487134455
0.4931746984621067   -0.004842150213163365   -0.022854110487134455
0.4931746984621067   -0.004842150213163365   -0.022854110487134455
0.4931746984621067   -0.004842150213163365   -0.022854110487134455
0.6759905531390704   0.015293510104782887   -0.01212469520096418
0.6759905531390704   0.015293510104782887   -0.01212469520096418
0.6759905531390704   0.015293510104782887   -0.01212469520096418
0.6759905531390704   0.015293510104782887   -0.01212469520096418
0.33359516916501375   -0.024130280921739772   0.010021514673097143
0.33359516916501375   -0.024130280921739772   0.010021514673097143
0.33359516916501375   -0.024130280921739772   0.010021514673097143
0.33359516916501375   -0.024130280921739772   0.010021514673097143
0.31158244197439583   -0.05403947645371694   -0.007666417701530363
0.31158244197439583   -0.05403947645371694   -0.007666417701530363
0.31158244197439583   -0.05403947645371694   -0.007666417701530363
0.31158244197439583   -0.05403947645371694   -0.007666417701530363
0.6667075455473684   0.044528435895186   0.016331395753987597
0.6667075455473684   0.044528435895186   0.016331395753987597
0.6667075455473684   0.044528435895186   0.016331395753987597
0.6667075455473684   0.044528435895186   0.016331395753987597
0.46916406871104643   -0.008404876834379418   -0.029915142485772286
0.46916406871104643   -0.008404876834379418   -0.029915142485772286
0.46916406871104643   -0.008404876834379418   -0.029915142485772286
0.46916406871104643   -0.008404876834379418   -0.029915142485772286
0.35983752706598815   0.007939732089334448   0.003533903956180605
0.35983752706598815   0.007939732089334448   0.003533903956180605
0.35983752706598815   0.007939732089334448   0.003533903956180605
0.35983752706598815   0.007939732089334448   0.003533903956180605
0.03286729987142423   -0.021885042127857017   -0.001011127864855515
0.03286729987142423   -0.021885042127857017   -0.001011127864855515
0.03286729987142423   -0.021885042127857017   -0.001011127864855515
0.03286729987142423   -0.021885042127857017   -0.001011127864855515
0.011893642221011365   -0.06881520045559188   -0.01298770818463402
0.011893642221011365   -0.06881520045559188   -0.01298770818463402
0.011893642221011365   -0.06881520045559188   -0.01298770818463402
0.011893642221011365   -0.06881520045559188   -0.01298770818463402
0.3601762741931993   0.04166169046885276   0.017669703742989155
0.3601762741931993   0.04166169046885276   0.017669703742989155
0.3601762741931993   0.04166169046885276   0.017669703742989155
0.3601762741931993   0.04166169046885276   0.017669703742989155
0.18768849731898354   -0.009396642514519174   -0.007305368833356519
0.18768849731898354   -0.009396642514519174   -0.007305368833356519
0.18768849731898354   -0.009396642514519174   -0.007305368833356519
0.18768849731898354   -0.009396642514519174   -0.007305368833356519
0.34996784826846977   0.0025458627570547204   0.005743401831140589
0.34996784826846977   0.0025458627570547204   0.005743401831140589
0.34996784826846977   0.0025458627570547204   0.005743401831140589
0.34996784826846977   0.0025458627570547204   0.005743401831140589
0.022501331520585918   -0.029300109368948633   0.0005356472265954995
0.022501331520585918   -0.029300109368948633   0.0005356472265954995
0.022501331520585918   -0.029300109368948633   0.0005356472265954995
0.022501331520585918   -0.029300109368948633   0.0005356472265954995
0.0003200926198115503   -0.07199233728914398   -0.009117649974975857
0.0003200926198115503   -0.07199233728914398   -0.009117649974975857
0.0003200926198115503   -0.07199233728914398   -0.009117649974975857
0.0003200926198115503   -0.07199233728914398   -0.009117649974975857
0.34747747221309394   0.03583280608777784   0.019469942903980644
0.34747747221309394   0.03583280608777784   0.019469942903980644
0.34747747221309394   0.03583280608777784   0.019469942903980644
0.34747747221309394   0.03583280608777784   0.019469942903980644
0.1743099005675959   -0.014788566250812547   -0.01034079885617127
0.1743099005675959   -0.014788566250812547   -0.01034079885617127
0.1743099005675959   -0.014788566250812547   -0.01034079885617127
0.1743099005675959   -0.014788566250812547   -0.01034079885617127
0.3378499591764398   -0.0010248310176093067   0.008190014826099951
0.3378499591764398   -0.0010248310176093067   0.008190014826099951
0.3378499591764398   -0.0010248310176093067   0.008190014826099951
0.3378499591764398   -0.0010248310176093067   0.008190014826099951
0.009899901871738356   -0.035182403968488804   0.001971462964002994
0.009899901871738356   -0.035182403968488804   0.001971462964002994
0.009899901871738356   -0.035182403968488804   0.001971462964002994
0.009899901871738356   -0.035182403968488804   0.001971462964002994
-0.012085452259879868   -0.07217854073333296   -0.006280539040515393
-0.012085452259879868   -0.07217854073333296   -0.006280539040515393
-0.012085452259879868   -0.07217854073333296   -0.006280539040515393
-0.012085452259879868   -0.07217854073333296   -0.006280539040515393
0.33466261164946576   0.032194912388139756   0.021500041831963454
0.33466261164946576   0.032194912388139756   0.021500041831963454
0.33466261164946576   0.032194912388139756   0.021500041831963454
0.33466261164946576   0.032194912388139756   0.021500041831963454
0.16395048811601323   -0.01684354583573104   -0.012909544075976487
0.16395048811601323   -0.01684354583573104   -0.012909544075976487
0.16395048811601323   -0.01684354583573104   -0.012909544075976487
0.16395048811601323   -0.01684354583573104   -0.012909544075976487
0.03399209980961483   -0.018722661438303805   0.0014504911365442862
0.03399209980961483   -0.018722661438303805   0.0014504911365442862
0.03399209980961483   -0.018722661438303805   0.0014504911365442862
0.03399209980961483   -0.018722661438303805   0.0014504911365442862
-0.28106108226283905   -0.03236599154169226   -0.008809813399539738
-0.28106108226283905   -0.03236599154169226   -0.008809813399539738
-0.28106108226283905   -0.03236599154169226   -0.008809813399539738
-0.28106108226283905   -0.03236599154169226   -0.008809813399539738
-0.3043802850175888   -0.09106274610141428   -0.014881419748407024
-0.3043802850175888   -0.09106274610141428   -0.014881419748407024
-0.3043802850175888   -0.09106274610141428   -0.014881419748407024
-0.3043802850175888   -0.09106274610141428   -0.014881419748407024
0.036435327044817535   0.030688357902841995   0.010217157575962948
0.036435327044817535   0.030688357902841995   0.010217157575962948
0.036435327044817535   0.030688357902841995   0.010217157575962948
0.036435327044817535   0.030688357902841995   0.010217157575962948
-0.1291113378410445   -0.0265377712632157   -0.007209540274797444
-0.1291113378410445   -0.0265377712632157   -0.007209540274797444
-0.1291113378410445   -0.0265377712632157   -0.007209540274797444
-0.1291113378410445   -0.0265377712632157   -0.007209540274797444
0.025284247113028242   -0.020936277134698145   0.006086392954556649
0.025284247113028242   -0.020936277134698145   0.006086392954556649
0.025284247113028242   -0.020936277134698145   0.006086392954556649
0.025284247113028242   -0.020936277134698145   0.006086392954556649
-0.2923647809008004   -0.03857368687887515   -0.007292958387004756
-0.2923647809008004   -0.03857368687887515   -0.007292958387004756
-0.2923647809008004   -0.03857368687887515   -0.007292958387004756
-0.2923647809008004   -0.03857368687887515   -0.007292958387004756
-0.3179383562548625   -0.09452847058273252   -0.00997397223463946
-0.3179383562548625   -0.09452847058273252   -0.00997397223463946
-0.3179383562548625   -0.09452847058273252   -0.00997397223463946
-0.3179383562548625   -0.09452847058273252   -0.00997397223463946
0.023740463300131152   0.024456975567653264   0.011534890569824926
0.023740463300131152   0.024456975567653264   0.011534890569824926
0.023740463300131152   0.024456975567653264   0.011534890569824926
0.023740463300131152   0.024456975567653264   0.011534890569824926
-0.14034225015082177   -0.030211835752620576   -0.008634572101635783
-0.14034225015082177   -0.030211835752620576   -0.008634572101635783
-0.14034225015082177   -0.030211835752620576   -0.008634572101635783
-0.14034225015082177   -0.030211835752620576   -0.008634572101635783
0.013276281934399196   -0.024630463863490507   0.00830142317230891
0.013276281934399196   -0.024630463863490507   0.00830142317230891
0.013276281934399196   -0.024630463863490507   0.00830142317230891
0.013276281934399196   -0.024630463863490507   0.00830142317230891
-0.3072849157768905   -0.04525177203934902   -0.005983468388164807
-0.3072849157768905   -0.04525177203934902   -0.005983468388164807
-0.3072849157768905   -0.04525177203934902   -0.005983468388164807
-0.3072849157768905   -0.04525177203934902   -0.005983468388164807
-0.33296608301031977   -0.09702483874680401   -0.008860808919531277
-0.33296608301031977   -0.09702483874680401   -0.008860808919531277
-0.33296608301031977   -0.09702483874680401   -0.008860808919531277
-0.33296608301031977   -0.09702483874680401   -0.008860808919531277
0.010006806639267975   0.019144075008903482   0.012858139712987375
0.010006806639267975   0.019144075008903482   0.012858139712987375
0.010006806639267975   0.019144075008903482   0.012858139712987375
0.010006806639267975   0.019144075008903482   0.012858139712987375
-0.15491475742659402   -0.03460869166525411   -0.012087778337285702
-0.15491475742659402   -0.03460869166525411   -0.012087778337285702
-0.15491475742659402   -0.03460869166525411   -0.012087778337285702
-0.15491475742659402   -0.03460869166525411   -0.012087778337285702
-0.27647533908785626   -0.022632673103454404   0.004385584037131449
-0.27647533908785626   -0.022632673103454404   0.004385584037131449
-0.27647533908785626   -0.022632673103454404   0.004385584037131449
-0.27647533908785626   -0.022632673103454404   0.004385584037131449
-0.588033001893343   -0.03791100015413461   -0.015405229256247568
-0.588033001893343   -0.03791100015413461   -0.015405229256247568
-0.588033001893343   -0.03791100015413461   -0.015405229256247568
-0.588033001893343   -0.03791100015413461   -0.015405229256247568
-0.6144899622961602   -0.09564552925711133   -0.015005399945482067
-0.6144899622961602   -0.09564552925711133   -0.015005399945482067
-0.6144899622961602   -0.09564552925711133   -0.015005399945482067
-0.6144899622961602   -0.09564552925711133   -0.015005399945482067
-0.27787023643729075   0.02358710248146305   0.0030189745702007866
-0.27787023643729075   0.02358710248146305   0.0030189745702007866
-0.27787023643729075   0.02358710248146305   0.0030189745702007866
-0.27787023643729075   0.02358710248146305   0.0030189745702007866
-0.435625837795597   -0.031620988983831755   -0.005973254720825657
-0.435625837795597   -0.031620988983831755   -0.005973254720825657
-0.435625837795597   -0.031620988983831755   -0.005973254720825657
-0.435625837795597   -0.031620988983831755   -0.005973254720825657
-0.2861091308517775   -0.024904968319410012   0.010316573298641846
-0.2861091308517775   -0.024904968319410012   0.010316573298641846
-0.2861091308517775   -0.024904968319410012   0.010316573298641846
-0.2861091308517775   -0.024904968319410012   0.010316573298641846
-0.604575786354954   -0.04547817692952212   -0.015601872567046388
-0.604575786354954   -0.04547817692952212   -0.015601872567046388
-0.604575786354954   -0.04547817692952212   -0.015601872567046388
-0.604575786354954   -0.04547817692952212   -0.015601872567046388
-0.6332081074925915   -0.10158910970762766   -0.010617716997025376
-0.6332081074925915   -0.10158910970762766   -0.010617716997025376
-0.6332081074925915   -0.10158910970762766   -0.010617716997025376
-0.6332081074925915   -0.10158910970762766   -0.010617716997025376
-0.29295553418924447   0.016756699316362603   0.003654968194354003
-0.29295553418924447   0.016756699316362603   0.003654968194354003
-0.29295553418924447   0.016756699316362603   0.003654968194354003
-0.29295553418924447   0.016756699316362603   0.003654968194354003
-0.4473582882869346   -0.03484884084167421   -0.00594980844256655
-0.4473582882869346   -0.03484884084167421   -0.00594980844256655
-0.4473582882869346   -0.03484884084167421   -0.00594980844256655
-0.4473582882869346   -0.03484884084167421   -0.00594980844256655
-0.30106612226204627   -0.030887853193982157   0.010746580340687598
-0.30106612226204627   -0.030887853193982157   0.010746580340687598
-0.30106612226204627   -0.030887853193982157   0.010746580340687598
-0.30106612226204627   -0.030887853193982157   0.010746580340687598
-0.6239708927972395   -0.052817930574740754   -0.013202822653152316
-0.6239708927972395   -0.052817930574740754   -0.013202822653152316
-0.6239708927972395   -0.052817930574740754   -0.013202822653152316
-0.6239708927972395   -0.052817930574740754   -0.013202822653152316
-0.6543565944020248   -0.10947298149976142   -0.011301675511279745
-0.6543565944020248   -0.10947298149976142   -0.011301675511279745
-0.6543565944020248   -0.10947298149976142   -0.011301675511279745
-0.6543565944020248   -0.10947298149976142   -0.011301675511279745
-0.30926560526153396   0.008288327462343079   0.004328413615244917
-0.30926560526153396   0.008288327462343079   0.004328413615244917
-0.30926560526153396   0.008288327462343079   0.004328413615244917
-0.30926560526153396   0.008288327462343079   0.004328413615244917
-0.46849068069679184   -0.04300765681711654   -0.009780122199032558
-0.46849068069679184   -0.04300765681711654   -0.009780122199032558
-0.46849068069679184   -0.04300765681711654   -0.009780122199032558
-0.46849068069679184   -0.04300765681711654   -0.009780122199032558
-0.5684074063544967   0.02622627599131397   0.018585472292535272
-0.5684074063544967   0.02622627599131397   0.018585472292535272
-0.5684074063544967   0.02622627599131397   0.018585472292535272
-0.5684074063544967   0.02622627599131397   0.018585472292535272
-0.8808141678380266   -0.04383674808915741   -0.011486838612918195
-0.8808141678380266   -0.04383674808915741   -0.011486838612918195
-0.8808141678380266   -0.04383674808915741   -0.011486838612918195
-0.8808141678380266   -0.04383674808915741   -0.011486838612918195
-0.9018552196130983   -0.0446770837779181   0.018998826601307327
-0.9018552196130983   -0.0446770837779181   0.018998826601307327
-0.9018552196130983   -0.0446770837779181   0.018998826601307327
-0.9018552196130983   -0.0446770837779181   0.018998826601307327
-0.5895155152571984   0.018617364908668083   -0.00439605891645789
-0.5895155152571984   0.018617364908668083   -0.00439605891645789
-0.5895155152571984   0.018617364908668083   -0.00439605891645789
-0.5895155152571984   0.018617364908668083   -0.00439605891645789
-0.7008525204936076   0.00038172786416998394   0.017866629016939
-0.7008525204936076   0.00038172786416998394   0.017866629016939
-0.7008525204936076   0.00038172786416998394   0.017866629016939
-0.7008525204936076   0.00038172786416998394   0.017866629016939
-0.5836675512653059   0.019877424801427485   0.023583701150242768
-0.5836675512653059   0.019877424801427485   0.023583701150242768
-0.5836675512653059   0.019877424801427485   0.023583701150242768
-0.5836675512653059   0.019877424801427485   0.023583701150242768
-0.9072998430745286   -0.04553380314021824   -0.0073675713435438425
-0.9072998430745286   -0.04553380314021824   -0.0073675713435438425
-0.9072998430745286   -0.04553380314021824   -0.0073675713435438425
-0.9072998430745286   -0.04553380314021824   -0.0073675713435438425
-0.9283463729342928   -0.05181157142257323   0.025897056323641143
-0.9283463729342928   -0.05181157142257323   0.025897056323641143
-0.9283463729342928   -0.05181157142257323   0.025897056323641143
-0.9283463729342928   -0.05181157142257323   0.025897056323641143
-0.6089401817013642   0.013759932084918353   -0.004627129833440317
-0.6089401817013642   0.013759932084918353   -0.004627129833440317
-0.6089401817013642   0.013759932084918353   -0.004627129833440317
-0.6089401817013642   0.013759932084918353   -0.004627129833440317
-0.7353467956185629   -0.00793333620742126   0.010030774132462235
-0.7353467956185629   -0.00793333620742126   0.010030774132462235
-0.7353467956185629   -0.00793333620742126   0.010030774132462235
-0.7353467956185629   -0.00793333620742126   0.010030774132462235
-0.603590121399444   0.012614073643241797   0.02326903011783686
-0.603590121399444   0.012614073643241797   0.02326903011783686
-0.603590121399444   0.012614073643241797   0.02326903011783686
-0.603590121399444   0.012614073643241797   0.02326903011783686
-0.9347046813465191   -0.05167396109119768   -0.006032096068865643
-0.9347046813465191   -0.05167396109119768   -0.006032096068865643
-0.9347046813465191   -0.05167396109119768   -0.006032096068865643
-0.9347046813465191   -0.05167396109119768   -0.006032096068865643
-0.9660897268473959   -0.08088762631157569   0.022352615553050546
-0.9660897268473959   -0.08088762631157569   0.022352615553050546
-0.9660897268473959   -0.08088762631157569   0.022352615553050546
-0.9660897268473959   -0.08088762631157569   0.022352615553050546
-0.6313403082778092   -0.0013167556297123961   -0.004376470760260959
-0.6313403082778092   -0.0013167556297123961   -0.004376470760260959
-0.6313403082778092   -0.0013167556297123961   -0.004376470760260959
-0.6313403082778092   -0.0013167556297123961   -0.004376470760260959
-0.7495302004130975   -0.018491302101734164   0.0032676533961384507
-0.7495302004130975   -0.018491302101734164   0.0032676533961384507
-0.7495302004130975   -0.018491302101734164   0.0032676533961384507
-0.7495302004130975   -0.018491302101734164   0.0032676533961384507
0.5805624582682982   0.031350080855185716   -0.020170604930685933
0.5805624582682982   0.031350080855185716   -0.020170604930685933
0.5805624582682982   0.031350080855185716   -0.020170604930685933
0.5805624582682982   0.031350080855185716   -0.020170604930685933
0.2869955423755771   -0.0008628775974946767   0.007160473595455411
0.2869955423755771   -0.0008628775974946767   0.007160473595455411
0.2869955423755771   -0.0008628775974946767   0.007160473595455411
0.2869955423755771   -0.0008628775974946767   0.007160473595455411
0.2628720510327728   -0.04247026118312759   -0.018617531219492212
0.2628720510327728   -0.04247026118312759   -0.018617531219492212
0.2628720510327728   -0.04247026118312759   -0.018617531219492212
0.2628720510327728   -0.04247026118312759   -0.018617531219492212
0.5699100516778892   0.0466771945980774   0.008999143021345673
0.5699100516778892   0.0466771945980774   0.008999143021345673
0.5699100516778892   0.0466771945980774   0.008999143021345673
0.5699100516778892   0.0466771945980774   0.008999143021345673
0.4031083627669948   0.0035343997606819832   -0.013281445394195374
0.4031083627669948   0.0035343997606819832   -0.013281445394195374
0.4031083627669948   0.0035343997606819832   -0.013281445394195374
0.4031083627669948   0.0035343997606819832   -0.013281445394195374
0.5581602951297957   0.0164136707133037   -0.01948611583434334
0.5581602951297957   0.0164136707133037   -0.01948611583434334
0.5581602951297957   0.0164136707133037   -0.01948611583434334
0.5581602951297957   0.0164136707133037   -0.01948611583434334
0.2741292496762259   -0.012699295202996869   0.007897496017637704
0.2741292496762259   -0.012699295202996869   0.007897496017637704
0.2741292496762259   -0.012699295202996869   0.007897496017637704
0.2741292496762259   -0.012699295202996869   0.007897496017637704
0.25081210245798596   -0.04593451630279269   -0.01621659552515505
0.25081210245798596   -0.04593451630279269   -0.01621659552515505
0.25081210245798596   -0.04593451630279269   -0.01621659552515505
0.25081210245798596   -0.04593451630279269   -0.01621659552515505
0.5518890021568899   0.04188816104744118   0.012385020026282164
0.5518890021568899   0.04188816104744118   0.012385020026282164
0.5518890021568899   0.04188816104744118   0.012385020026282164
0.5518890021568899   0.04188816104744118   0.012385020026282164
0.39388021271503126   -0.0027699487680894336   -0.017274549338693327
0.39388021271503126   -0.0027699487680894336   -0.017274549338693327
0.39388021271503126   -0.0027699487680894336   -0.017274549338693327
0.39388021271503126   -0.0027699487680894336   -0.017274549338693327
0.5403800126513023   0.012140026291714567   -0.015411792745919722
0.5403800126513023   0.012140026291714567   -0.015411792745919722
0.5403800126513023   0.012140026291714567   -0.015411792745919722
0.5403800126513023   0.012140026291714567   -0.015411792745919722
0.2618693585942927   -0.016638114916348284   0.009773283769931983
0.2618693585942927   -0.016638114916348284   0.009773283769931983
0.2618693585942927   -0.016638114916348284   0.009773283769931983
0.2618693585942927   -0.016638114916348284   0.009773283769931983
0.2398266049357753   -0.046765895599594445   -0.013259321108321478
0.2398266049357753   -0.046765895599594445   -0.013259321108321478
0.2398266049357753   -0.046765895599594445   -0.013259321108321478
0.2398266049357753   -0.046765895599594445   -0.013259321108321478
0.5315738381967099   0.037838765994751763   0.015489229563076738
0.5315738381967099   0.037838765994751763   0.015489229563076738
0.5315738381967099   0.037838765994751763   0.015489229563076738
0.5315738381967099   0.037838765994751763   0.015489229563076738
0.37169931948212825   -0.0070480738637086204   -0.023379473069099196
0.37169931948212825   -0.0070480738637086204   -0.023379473069099196
0.37169931948212825   -0.0070480738637086204   -0.023379473069099196
0.37169931948212825   -0.0070480738637086204   -0.023379473069099196
0.2922194241625966   0.03055917440830018   0.0018578305247581063
0.2922194241625966   0.03055917440830018   0.0018578305247581063
0.2922194241625966   0.03055917440830018   0.0018578305247581063
0.2922194241625966   0.03055917440830018   0.0018578305247581063
0.00880061971464418   -0.009983813557995578   -0.0013444531227946232
0.00880061971464418   -0.009983813557995578   -0.0013444531227946232
0.00880061971464418   -0.009983813557995578   -0.0013444531227946232
0.00880061971464418   -0.009983813557995578   -0.0013444531227946232
-0.009389775149889562   -0.03833600733028354   -0.01275273590960358
-0.009389775149889562   -0.03833600733028354   -0.01275273590960358
-0.009389775149889562   -0.03833600733028354   -0.01275273590960358
-0.009389775149889562   -0.03833600733028354   -0.01275273590960358
0.28671692005889854   0.04238269006365469   0.015753862664349576
0.28671692005889854   0.04238269006365469   0.015753862664349576
0.28671692005889854   0.04238269006365469   0.015753862664349576
0.28671692005889854   0.04238269006365469   0.015753862664349576
0.14232845945894176   0.006045238154430841   -0.0015661074357037315
0.14232845945894176   0.006045238154430841   -0.0015661074357037315
0.14232845945894176   0.006045238154430841   -0.0015661074357037315
0.14232845945894176   0.006045238154430841   -0.0015661074357037315
0.28034967227183566   0.022852076745431084   0.0034482370472596457
0.28034967227183566   0.022852076745431084   0.0034482370472596457
0.28034967227183566   0.022852076745431084   0.0034482370472596457
0.28034967227183566   0.022852076745431084   0.0034482370472596457
-0.0029052937754043317   -0.018688160424639992   2.182405717901948e-05
-0.0029052937754043317   -0.018688160424639992   2.182405717901948e-05
-0.0029052937754043317   -0.018688160424639992   2.182405717901948e-05
-0.0029052937754043317   -0.018688160424639992   2.182405717901948e-05
-0.02081193744070979   -0.04392964725224676   -0.011052914142323268
-0.02081193744070979   -0.04392964725224676   -0.011052914142323268
-0.02081193744070979   -0.04392964725224676   -0.011052914142323268
-0.02081193744070979   -0.04392964725224676   -0.011052914142323268
0.2737737792922945   0.0352425094684514   0.017414762875141078
0.2737737792922945   0.0352425094684514   0.017414762875141078
0.2737737792922945   0.0352425094684514   0.017414762875141078
0.2737737792922945   0.0352425094684514   0.017414762875141078
0.12832112260023756   -0.001012706610052986   -0.005568143302979331
0.12832112260023756   -0.001012706610052986   -0.005568143302979331
0.12832112260023756   -0.001012706610052986   -0.005568143302979331
0.12832112260023756   -0.001012706610052986   -0.005568143302979331
0.2676503220508623   0.01698448725151592   0.005055498884918
0.2676503220508623   0.01698448725151592   0.005055498884918
0.2676503220508623   0.01698448725151592   0.005055498884918
0.2676503220508623   0.01698448725151592   0.005055498884918
-0.014678973327272447   -0.025662118163303153   0.0013443773359198613
-0.014678973327272447   -0.025662118163303153   0.0013443773359198613
-0.014678973327272447   -0.025662118163303153   0.0013443773359198613
-0.014678973327272447   -0.025662118163303153   0.0013443773359198613
-0.032109856587516424   -0.04722749084632952   -0.008839506103416103
-0.032109856587516424   -0.04722749084632952   -0.008839506103416103
-0.032109856587516424   -0.04722749084632952   -0.008839506103416103
-0.032109856587516424   -0.04722749084632952   -0.008839506103416103
0.2614614858644688   0.02927487977359371   0.018874308161955605
0.2614614858644688   0.02927487977359371   0.018874308161955605
0.2614614858644688   0.02927487977359371   0.018874308161955605
0.2614614858644688   0.02927487977359371   0.018874308161955605
0.11805236125139508   -0.005451561852905344   -0.008492554251709705
0.11805236125139508   -0.005451561852905344   -0.008492554251709705
0.11805236125139508   -0.005451561852905344   -0.008492554251709705
0.11805236125139508   -0.005451561852905344   -0.008492554251709705
0.018518250105672318   0.03063651222232082   0.00662337305202967
0.018518250105672318   0.03063651222232082   0.00662337305202967
0.018518250105672318   0.03063651222232082   0.00662337305202967
0.018518250105672318   0.03063651222232082   0.00662337305202967
-0.26092887825375205   -0.01717436261847441   -0.008939716218570945
-0.26092887825375205   -0.01717436261847441   -0.008939716218570945
-0.26092887825375205   -0.01717436261847441   -0.008939716218570945
-0.26092887825375205   -0.01717436261847441   -0.008939716218570945
-0.27511746743966203   -0.03530751139016634   -0.008209394404599162
-0.27511746743966203   -0.03530751139016634   -0.008209394404599162
-0.27511746743966203   -0.03530751139016634   -0.008209394404599162
-0.27511746743966203   -0.03530751139016634   -0.008209394404599162
0.009315093825975904   0.034733664356974475   0.007701937282465733
0.009315093825975904   0.034733664356974475   0.007701937282465733
0.009315093825975904   0.034733664356974475   0.007701937282465733
0.009315093825975904   0.034733664356974475   0.007701937282465733
-0.12688996056863105   0.003779372844552764   0.0005204917404285636
-0.12688996056863105   0.003779372844552764   0.0005204917404285636
-0.12688996056863105   0.003779372844552764   0.0005204917404285636
-0.12688996056863105   0.003779372844552764   0.0005204917404285636
0.007379210490918164   0.024487450058083195   0.008268734906068314
0.007379210490918164   0.024487450058083195   0.008268734906068314
0.007379210490918164   0.024487450058083195   0.008268734906068314
0.007379210490918164   0.024487450058083195   0.008268734906068314
-0.272867368707112   -0.02474708169378273   -0.00751933043823241
-0.272867368707112   -0.02474708169378273   -0.00751933043823241
-0.272867368707112   -0.02474708169378273   -0.00751933043823241
-0.272867368707112   -0.02474708169378273   -0.00751933043823241
-0.28737021857604383   -0.04144583399041918   -0.006868475344362242
-0.28737021857604383   -0.04144583399041918   -0.006868475344362242
-0.28737021857604383   -0.04144583399041918   -0.006868475344362242
-0.28737021857604383   -0.04144583399041918   -0.006868475344362242
-0.002471947121280566   0.027392720608036793   0.009324669594539321
-0.002471947121280566   0.027392720608036793   0.009324669594539321
-0.002471947121280566   0.027392720608036793   0.009324669594539321
-0.002471947121280566   0.027392720608036793   0.009324669594539321
-0.13863414789064693   -0.0022601753216290148   -0.002470667641724672
-0.13863414789064693   -0.0022601753216290148   -0.002470667641724672
-0.13863414789064693   -0.0022601753216290148   -0.002470667641724672
-0.13863414789064693   -0.0022601753216290148   -0.002470667641724672
-0.004119953463935562   0.0185611548322793   0.009916203657021831
-0.004119953463935562   0.0185611548322793   0.009916203657021831
-0.004119953463935562   0.0185611548322793   0.009916203657021831
-0.004119953463935562   0.0185611548322793   0.009916203657021831
-0.28545642962060486   -0.03234848560187719   -0.006396878955706285
-0.28545642962060486   -0.03234848560187719   -0.006396878955706285
-0.28545642962060486   -0.03234848560187719   -0.006396878955706285
-0.28545642962060486   -0.03234848560187719   -0.006396878955706285
-0.2995325235056979   -0.04626244382072758   -0.004635124290202008
-0.2995325235056979   -0.04626244382072758   -0.004635124290202008
-0.2995325235056979   -0.04626244382072758   -0.004635124290202008
-0.2995325235056979   -0.04626244382072758   -0.004635124290202008
-0.01468681605192126   0.020477477753816222   0.010570727974413975
-0.01468681605192126   0.020477477753816222   0.010570727974413975
-0.01468681605192126   0.020477477753816222   0.010570727974413975
-0.01468681605192126   0.020477477753816222   0.010570727974413975
-0.15127359017582911   -0.008400161496055863   -0.005748144630634195
-0.15127359017582911   -0.008400161496055863   -0.005748144630634195
-0.15127359017582911   -0.008400161496055863   -0.005748144630634195
-0.15127359017582911   -0.008400161496055863   -0.005748144630634195
-0.24615888958561852   0.035910034216154504   0.01182583028747353
-0.24615888958561852   0.035910034216154504   0.01182583028747353
-0.24615888958561852   0.035910034216154504   0.01182583028747353
-0.24615888958561852   0.035910034216154504   0.01182583028747353
-0.5222420008736716   -0.023527953538645507   -0.014583049988014199
-0.5222420008736716   -0.023527953538645507   -0.014583049988014199
-0.5222420008736716   -0.023527953538645507   -0.014583049988014199
-0.5222420008736716   -0.023527953538645507   -0.014583049988014199
-0.5332876882710237   -0.02861976677032811   -0.0025979198550221926
-0.5332876882710237   -0.02861976677032811   -0.0025979198550221926
-0.5332876882710237   -0.02861976677032811   -0.0025979198550221926
-0.5332876882710237   -0.02861976677032811   -0.0025979198550221926
-0.26119821832894663   0.026365042890606816   -0.00028570313179342166
-0.26119821832894663   0.026365042890606816   -0.00028570313179342166
-0.26119821832894663   0.026365042890606816   -0.00028570313179342166
-0.26119821832894663   0.026365042890606816   -0.00028570313179342166
-0.38789276132150224   0.0036867273897414066   0.0028569252095874513
-0.38789276132150224   0.0036867273897414066   0.0028569252095874513
-0.38789276132150224   0.0036867273897414066   0.0028569252095874513
-0.38789276132150224   0.0036867273897414066   0.0028569252095874513
-0.25783451530528484   0.029641685641040402   0.01325616923608167
-0.25783451530528484   0.029641685641040402   0.01325616923608167
-0.25783451530528484   0.029641685641040402   0.01325616923608167
-0.25783451530528484   0.029641685641040402   0.01325616923608167
-0.5362364124241666   -0.03148143065024367   -0.014479876740825848
-0.5362364124241666   -0.03148143065024367   -0.014479876740825848
-0.5362364124241666   -0.03148143065024367   -0.014479876740825848
-0.5362364124241666   -0.03148143065024367   -0.014479876740825848
-0.5483683700675878   -0.035531054461365216   -0.0023709648159417444
-0.5483683700675878   -0.035531054461365216   -0.0023709648159417444
-0.5483683700675878   -0.035531054461365216   -0.0023709648159417444
-0.5483683700675878   -0.035531054461365216   -0.0023709648159417444
-0.2736043741027296   0.01936019017532689   0.0011547228564659888
-0.2736043741027296   0.01936019017532689   0.0011547228564659888
-0.2736043741027296   0.01936019017532689   0.0011547228564659888
-0.2736043741027296   0.01936019017532689   0.0011547228564659888
-0.3983776423580513   -0.0017949702221421032   0.0004105714468331037
-0.3983776423580513   -0.0017949702221421032   0.0004105714468331037
-0.3983776423580513   -0.0017949702221421032   0.0004105714468331037
-0.3983776423580513   -0.0017949702221421032   0.0004105714468331037
-0.26991354031831316   0.02368993403537724   0.015279147918495915
-0.26991354031831316   0.02368993403537724   0.015279147918495915
-0.26991354031831316   0.02368993403537724   0.015279147918495915
-0.26991354031831316   0.02368993403537724   0.015279147918495915
-0.5511998093165523   -0.03900140378596213   -0.01305781173617173
-0.5511998093165523   -0.03900140378596213   -0.01305781173617173
-0.5511998093165523   -0.03900140378596213   -0.01305781173617173
-0.5511998093165523   -0.03900140378596213   -0.01305781173617173
-0.562236705996265   -0.042947974211722875   0.0011180059796461646
-0.562236705996265   -0.042947974211722875   0.0011180059796461646
-0.562236705996265   -0.042947974211722875   0.0011180059796461646
-0.562236705996265   -0.042947974211722875   0.0011180059796461646
-0.28675305170464815   0.01098858095538642   0.002011209938937785
-0.28675305170464815   0.01098858095538642   0.002011209938937785
-0.28675305170464815   0.01098858095538642   0.002011209938937785
-0.28675305170464815   0.01098858095538642   0.002011209938937785
-0.4149446685713212   -0.009587379354712044   -0.002914405458525341
-0.4149446685713212   -0.009587379354712044   -0.002914405458525341
-0.4149446685713212   -0.009587379354712044   -0.002914405458525341
-0.4149446685713212   -0.009587379354712044   -0.002914405458525341
-0.5039089378664101   0.037127106608065286   0.01642720490157882
-0.5039089378664101   0.037127106608065286   0.01642720490157882
-0.5039089378664101   0.037127106608065286   0.01642720490157882
-0.5039089378664101   0.037127106608065286   0.01642720490157882
-0.7713984775908267   -0.035757156242287896   -0.013230246844963212
-0.7713984775908267   -0.035757156242287896   -0.013230246844963212
-0.7713984775908267   -0.035757156242287896   -0.013230246844963212
-0.7713984775908267   -0.035757156242287896   -0.013230246844963212
-0.7816301326008909   -0.016148836631573765   0.01388755072602546
-0.7816301326008909   -0.016148836631573765   0.01388755072602546
-0.7816301326008909   -0.016148836631573765   0.01388755072602546
-0.7816301326008909   -0.016148836631573765   0.01388755072602546
-0.5252785660585602   0.016093913961857914   -0.007265989524891034
-0.5252785660585602   0.016093913961857914   -0.007265989524891034
-0.5252785660585602   0.016093913961857914   -0.007265989524891034
-0.5252785660585602   0.016093913961857914   -0.007265989524891034
-0.616966876082517   0.007579994079891211   0.014317706443841456
-0.616966876082517   0.007579994079891211   0.014317706443841456
-0.616966876082517   0.007579994079891211   0.014317706443841456
-0.616966876082517   0.007579994079891211   0.014317706443841456
-0.5156577788751568   0.038045413365967035   0.018886446988010876
-0.5156577788751568   0.038045413365967035   0.018886446988010876
-0.5156577788751568   0.038045413365967035   0.018886446988010876
-0.5156577788751568   0.038045413365967035   0.018886446988010876
-0.7906847116645878   -0.037534127915977655   -0.010000053308041337
-0.7906847116645878   -0.037534127915977655   -0.010000053308041337
-0.7906847116645878   -0.037534127915977655   -0.010000053308041337
-0.7906847116645878   -0.037534127915977655   -0.010000053308041337
-0.8003737965247005   -0.019767172077258116   0.0191709641790136
-0.8003737965247005   -0.019767172077258116   0.0191709641790136
-0.8003737965247005   -0.019767172077258116   0.0191709641790136
-0.8003737965247005   -0.019767172077258116   0.0191709641790136
-0.5396647094560748   0.012071278164513574   -0.006454994384255834
-0.5396647094560748   0.012071278164513574   -0.006454994384255834
-0.5396647094560748   0.012071278164513574   -0.006454994384255834
-0.5396647094560748   0.012071278164513574   -0.006454994384255834
-0.6430469702857027   0.0037689084087981772   0.009358645084461811
-0.6430469702857027   0.0037689084087981772   0.009358645084461811
-0.6430469702857027   0.0037689084087981772   0.009358645084461811
-0.6430469702857027   0.0037689084087981772   0.009358645084461811
-0.5290343134542729   0.035350153715731775   0.02341811007353551
-0.5290343134542729   0.035350153715731775   0.02341811007353551
-0.5290343134542729   0.035350153715731775   0.02341811007353551
-0.5290343134542729   0.035350153715731775   0.02341811007353551
-0.8104504379043617   -0.04249229300633367   -0.008487121790205145
-0.8104504379043617   -0.04249229300633367   -0.008487121790205145
-0.8104504379043617   -0.04249229300633367   -0.008487121790205145
-0.8104504379043617   -0.04249229300633367   -0.008487121790205145
-0.8258076423426346   -0.03554011197978657   0.018974081554193473
-0.8258076423426346   -0.03554011197978657   0.018974081554193473
-0.8258076423426346   -0.03554011197978657   0.018974081554193473
-0.8258076423426346   -0.03554011197978657   0.018974081554193473
-0.555125511660792   -0.00019277092240438387   -0.00608122563230775
-0.555125511660792   -0.00019277092240438387   -0.00608122563230775
-0.555125511660792   -0.00019277092240438387   -0.00608122563230775
-0.555125511660792   -0.00019277092240438387   -0.00608122563230775
-0.6502452578365672   -0.0018064384558654778   0.007800676521213648
-0.6502452578365672   -0.0018064384558654778   0.007800676521213648
-0.6502452578365672   -0.0018064384558654778   0.007800676521213648
-0.6502452578365672   -0.0018064384558654778   0.007800676521213648
0.4434845700357647   0.024873494552200837   -0.020646693316254645
0.4434845700357647   0.024873494552200837   -0.020646693316254645
0.4434845700357647   0.024873494552200837   -0.020646693316254645
0.4434845700357647   0.024873494552200837   -0.020646693316254645
0.2103569904223356   0.0037270858014105124   0.007754579899752197
0.2103569904223356   0.0037270858014105124   0.007754579899752197
0.2103569904223356   0.0037270858014105124   0.007754579899752197
0.2103569904223356   0.0037270858014105124   0.007754579899752197
0.18747647240746587   -0.03554531545418026   -0.019679827969503953
0.18747647240746587   -0.03554531545418026   -0.019679827969503953
0.18747647240746587   -0.03554531545418026   -0.019679827969503953
0.18747647240746587   -0.03554531545418026   -0.019679827969503953
0.4341787844483499   0.04049739267953358   0.00960635721591036
0.4341787844483499   0.04049739267953358   0.00960635721591036
0.4341787844483499   0.04049739267953358   0.00960635721591036
0.4341787844483499   0.04049739267953358   0.00960635721591036
0.3024055449525951   0.004069775925506121   -0.008955669507993735
0.3024055449525951   0.004069775925506121   -0.008955669507993735
0.3024055449525951   0.004069775925506121   -0.008955669507993735
0.3024055449525951   0.004069775925506121   -0.008955669507993735
0.42254363358908   0.011491401246551874   -0.01956340564745746
0.42254363358908   0.011491401246551874   -0.01956340564745746
0.42254363358908   0.011491401246551874   -0.01956340564745746
0.42254363358908   0.011491401246551874   -0.01956340564745746
0.19888623946290873   -0.00676470782502589   0.00858839967855418
0.19888623946290873   -0.00676470782502589   0.00858839967855418
0.19888623946290873   -0.00676470782502589   0.00858839967855418
0.19888623946290873   -0.00676470782502589   0.00858839967855418
0.17681077671881312   -0.0389684957834163   -0.016820038689928537
0.17681077671881312   -0.0389684957834163   -0.016820038689928537
0.17681077671881312   -0.0389684957834163   -0.016820038689928537
0.17681077671881312   -0.0389684957834163   -0.016820038689928537
0.4175883326607897   0.03558781514911934   0.012700721263720283
0.4175883326607897   0.03558781514911934   0.012700721263720283
0.4175883326607897   0.03558781514911934   0.012700721263720283
0.4175883326607897   0.03558781514911934   0.012700721263720283
0.293021599577332   -0.0019098464570788676   -0.012434073906452528
0.293021599577332   -0.0019098464570788676   -0.012434073906452528
0.293021599577332   -0.0019098464570788676   -0.012434073906452528
0.293021599577332   -0.0019098464570788676   -0.012434073906452528
0.40621182412457657   0.007130766818397999   -0.01572477308662049
0.40621182412457657   0.007130766818397999   -0.01572477308662049
0.40621182412457657   0.007130766818397999   -0.01572477308662049
0.40621182412457657   0.007130766818397999   -0.01572477308662049
0.18789294428352754   -0.010805788424193316   0.010428091774419161
0.18789294428352754   -0.010805788424193316   0.010428091774419161
0.18789294428352754   -0.010805788424193316   0.010428091774419161
0.18789294428352754   -0.010805788424193316   0.010428091774419161
0.16722098923974982   -0.04093271159666352   -0.014015309437039644
0.16722098923974982   -0.04093271159666352   -0.014015309437039644
0.16722098923974982   -0.04093271159666352   -0.014015309437039644
0.16722098923974982   -0.04093271159666352   -0.014015309437039644
0.3988593173184971   0.03037715151488333   0.01514402214649818
0.3988593173184971   0.03037715151488333   0.01514402214649818
0.3988593173184971   0.03037715151488333   0.01514402214649818
0.3988593173184971   0.03037715151488333   0.01514402214649818
0.2739711427461606   -0.006377548477216707   -0.01766751942541111
0.2739711427461606   -0.006377548477216707   -0.01766751942541111
0.2739711427461606   -0.006377548477216707   -0.01766751942541111
0.2739711427461606   -0.006377548477216707   -0.01766751942541111
0.21408375635885646   0.031137336226799876   -0.0010218408430296188
0.21408375635885646   0.031137336226799876   -0.0010218408430296188
0.21408375635885646   0.031137336226799876   -0.0010218408430296188
0.21408375635885646   0.031137336226799876   -0.0010218408430296188
-0.014517344868833652   -0.0033918087164595003   -0.0002498972174940312
-0.014517344868833652   -0.0033918087164595003   -0.0002498972174940312
-0.014517344868833652   -0.0033918087164595003   -0.0002498972174940312
-0.014517344868833652   -0.0033918087164595003   -0.0002498972174940312
-0.030639383480587448   -0.02675675144495915   -0.012587041339233662
-0.030639383480587448   -0.02675675144495915   -0.012587041339233662
-0.030639383480587448   -0.02675675144495915   -0.012587041339233662
-0.030639383480587448   -0.02675675144495915   -0.012587041339233662
0.20870894491002312   0.036881387876743936   0.014055831212356385
0.20870894491002312   0.036881387876743936   0.014055831212356385
0.20870894491002312   0.036881387876743936   0.014055831212356385
0.20870894491002312   0.036881387876743936   0.014055831212356385
0.09294682878671934   0.009035763632217204   0.0006998392397624823
0.09294682878671934   0.009035763632217204   0.0006998392397624823
0.09294682878671934   0.009035763632217204   0.0006998392397624823
0.09294682878671934   0.009035763632217204   0.0006998392397624823
0.20321834528077976   0.022690872303115246   0.0007933486397711026
0.20321834528077976   0.022690872303115246   0.0007933486397711026
0.20321834528077976   0.022690872303115246   0.0007933486397711026
0.20321834528077976   0.022690872303115246   0.0007933486397711026
-0.02505740873515961   -0.012474860755145515   0.0010409416980918843
-0.02505740873515961   -0.012474860755145515   0.0010409416980918843
-0.02505740873515961   -0.012474860755145515   0.0010409416980918843
-0.02505740873515961   -0.012474860755145515   0.0010409416980918843
-0.04068058289782557   -0.033219204042784584   -0.010439442490934148
-0.04068058289782557   -0.033219204042784584   -0.010439442490934148
-0.04068058289782557   -0.033219204042784584   -0.010439442490934148
-0.04068058289782557   -0.033219204042784584   -0.010439442490934148
0.1968625775242211   0.02911155058155985   0.0153589189721338
0.1968625775242211   0.02911155058155985   0.0153589189721338
0.1968625775242211   0.02911155058155985   0.0153589189721338
0.1968625775242211   0.02911155058155985   0.0153589189721338
0.08052370694056961   0.0013363845723015494   -0.0031601857323174543
0.08052370694056961   0.0013363845723015494   -0.0031601857323174543
0.08052370694056961   0.0013363845723015494   -0.0031601857323174543
0.08052370694056961   0.0013363845723015494   -0.0031601857323174543
0.1915571584786766   0.015754089663245104   0.002189284662727437
0.1915571584786766   0.015754089663245104   0.002189284662727437
0.1915571584786766   0.015754089663245104   0.002189284662727437
0.1915571584786766   0.015754089663245104   0.002189284662727437
-0.03545784521619597   -0.019944424488387055   0.0023994663628163454
-0.03545784521619597   -0.019944424488387055   0.0023994663628163454
-0.03545784521619597   -0.019944424488387055   0.0023994663628163454
-0.03545784521619597   -0.019944424488387055   0.0023994663628163454
-0.05058352462310789   -0.03859354772336465   -0.008422818835259527
-0.05058352462310789   -0.03859354772336465   -0.008422818835259527
-0.05058352462310789   -0.03859354772336465   -0.008422818835259527
-0.05058352462310789   -0.03859354772336465   -0.008422818835259527
0.18592423197220764   0.021977238026326   0.01659095460225905
0.18592423197220764   0.021977238026326   0.01659095460225905
0.18592423197220764   0.021977238026326   0.01659095460225905
0.18592423197220764   0.021977238026326   0.01659095460225905
0.07106968752798158   -0.004433678919735111   -0.006353828768287022
0.07106968752798158   -0.004433678919735111   -0.006353828768287022
0.07106968752798158   -0.004433678919735111   -0.006353828768287022
0.07106968752798158   -0.004433678919735111   -0.006353828768287022
-0.0054067980017507965   0.03675016862994604   0.005160859771514706
-0.0054067980017507965   0.03675016862994604   0.005160859771514706
-0.0054067980017507965   0.03675016862994604   0.005160859771514706
-0.0054067980017507965   0.03675016862994604   0.005160859771514706
-0.23463738410739288   -0.010515051928835034   -0.007778304167240841
-0.23463738410739288   -0.010515051928835034   -0.007778304167240841
-0.23463738410739288   -0.010515051928835034   -0.007778304167240841
-0.23463738410739288   -0.010515051928835034   -0.007778304167240841
-0.24502164775719093   -0.018894532224234137   -0.006102304040410473
-0.24502164775719093   -0.018894532224234137   -0.006102304040410473
-0.24502164775719093   -0.018894532224234137   -0.006102304040410473
-0.24502164775719093   -0.018894532224234137   -0.006102304040410473
-0.015581380207275865   0.02977547177021387   0.0061707518121522
-0.015581380207275865   0.02977547177021387   0.0061707518121522
-0.015581380207275865   0.02977547177021387   0.0061707518121522
-0.015581380207275865   0.02977547177021387   0.0061707518121522
-0.12486291433336233   0.00932571180354285   0.0024423719529051476
-0.12486291433336233   0.00932571180354285   0.0024423719529051476
-0.12486291433336233   0.00932571180354285   0.0024423719529051476
-0.12486291433336233   0.00932571180354285   0.0024423719529051476
-0.015392146295145025   0.029691922920717664   0.007200470222302602
-0.015392146295145025   0.029691922920717664   0.007200470222302602
-0.015392146295145025   0.029691922920717664   0.007200470222302602
-0.015392146295145025   0.029691922920717664   0.007200470222302602
-0.24501989843963728   -0.018620000145053425   -0.006368089531822881
-0.24501989843963728   -0.018620000145053425   -0.006368089531822881
-0.24501989843963728   -0.018620000145053425   -0.006368089531822881
-0.24501989843963728   -0.018620000145053425   -0.006368089531822881
-0.25530872802567417   -0.025886673629573448   -0.004235520689102986
-0.25530872802567417   -0.025886673629573448   -0.004235520689102986
-0.25530872802567417   -0.025886673629573448   -0.004235520689102986
-0.25530872802567417   -0.025886673629573448   -0.004235520689102986
-0.026055178597974012   0.021776679240817484   0.007691695724721604
-0.026055178597974012   0.021776679240817484   0.007691695724721604
-0.026055178597974012   0.021776679240817484   0.007691695724721604
-0.026055178597974012   0.021776679240817484   0.007691695724721604
-0.1352561832621006   0.002400117639545306   -0.0006776308522099157
-0.1352561832621006   0.002400117639545306   -0.0006776308522099157
-0.1352561832621006   0.002400117639545306   -0.0006776308522099157
-0.1352561832621006   0.002400117639545306   -0.0006776308522099157
-0.025655734060252875   0.02265345736013363   0.008812140294011133
-0.025655734060252875   0.02265345736013363   0.008812140294011133
-0.025655734060252875   0.02265345736013363   0.008812140294011133
-0.025655734060252875   0.02265345736013363   0.008812140294011133
-0.25565720190354224   -0.026712481089036566   -0.005152082618980387
-0.25565720190354224   -0.026712481089036566   -0.005152082618980387
-0.25565720190354224   -0.026712481089036566   -0.005152082618980387
-0.25565720190354224   -0.026712481089036566   -0.005152082618980387
-0.26546627967230046   -0.03226915722320783   -0.0023829832903117156
-0.26546627967230046   -0.03226915722320783   -0.0023829832903117156
-0.26546627967230046   -0.03226915722320783   -0.0023829832903117156
-0.26546627967230046   -0.03226915722320783   -0.0023829832903117156
-0.036577583718858254   0.014040778668886363   0.008972559293738571
-0.036577583718858254   0.014040778668886363   0.008972559293738571
-0.036577583718858254   0.014040778668886363   0.008972559293738571
-0.036577583718858254   0.014040778668886363   0.008972559293738571
-0.14613181272591738   -0.004580131380770361   -0.004157059361300756
-0.14613181272591738   -0.004580131380770361   -0.004157059361300756
-0.14613181272591738   -0.004580131380770361   -0.004157059361300756
-0.14613181272591738   -0.004580131380770361   -0.004157059361300756
-0.220388017489762   0.04195845711179547   0.010995019880281044
-0.220388017489762   0.04195845711179547   0.010995019880281044
-0.220388017489762   0.04195845711179547   0.010995019880281044
-0.220388017489762   0.04195845711179547   0.010995019880281044
-0.4501090750282412   -0.01781880505948913   -0.01394550172151773
-0.4501090750282412   -0.01781880505948913   -0.01394550172151773
-0.4501090750282412   -0.01781880505948913   -0.01394550172151773
-0.4501090750282412   -0.01781880505948913   -0.01394550172151773
-0.4557673336833603   -0.012300150752460215   0.0009574440072851187
-0.4557673336833603   -0.012300150752460215   0.0009574440072851187
-0.4557673336833603   -0.012300150752460215   0.0009574440072851187
-0.4557673336833603   -0.012300150752460215   0.0009574440072851187
-0.2360692504538028   0.021439014419211415   -0.001673864166913546
-0.2360692504538028   0.021439014419211415   -0.001673864166913546
-0.2360692504538028   0.021439014419211415   -0.001673864166913546
-0.2360692504538028   0.021439014419211415   -0.001673864166913546
-0.33835119878403547   0.008729048353931679   0.004131463866366505
-0.33835119878403547   0.008729048353931679   0.004131463866366505
-0.33835119878403547   0.008729048353931679   0.004131463866366505
-0.33835119878403547   0.008729048353931679   0.004131463866366505
-0.23039548199787407   0.035174607741306624   0.012959384790633043
-0.23039548199787407   0.035174607741306624   0.012959384790633043
-0.23039548199787407   0.035174607741306624   0.012959384790633043
-0.23039548199787407   0.035174607741306624   0.012959384790633043
-0.4613983429287705   -0.025992984864037214   -0.013504768108188975
-0.4613983429287705   -0.025992984864037214   -0.013504768108188975
-0.4613983429287705   -0.025992984864037214   -0.013504768108188975
-0.4613983429287705   -0.025992984864037214   -0.013504768108188975
-0.46775221169022374   -0.019372575006523757   0.00163873453470691
-0.46775221169022374   -0.019372575006523757   0.00163873453470691
-0.46775221169022374   -0.019372575006523757   0.00163873453470691
-0.46775221169022374   -0.019372575006523757   0.00163873453470691
-0.24650577367204776   0.014028201665626419   -0.0001356242161690037
-0.24650577367204776   0.014028201665626419   -0.0001356242161690037
-0.24650577367204776   0.014028201665626419   -0.0001356242161690037
-0.24650577367204776   0.014028201665626419   -0.0001356242161690037
-0.3470740207990801   0.0025884948006189012   0.0012357553316274944
-0.3470740207990801   0.0025884948006189012   0.0012357553316274944
-0.3470740207990801   0.0025884948006189012   0.0012357553316274944
-0.3470740207990801   0.0025884948006189012   0.0012357553316274944
-0.24058970337066227   0.028688971284772616   0.01478395767161201
-0.24058970337066227   0.028688971284772616   0.01478395767161201
-0.24058970337066227   0.028688971284772616   0.01478395767161201
-0.24058970337066227   0.028688971284772616   0.01478395767161201
-0.47336781344567963   -0.03373287607973789   -0.012078973169358565
-0.47336781344567963   -0.03373287607973789   -0.012078973169358565
-0.47336781344567963   -0.03373287607973789   -0.012078973169358565
-0.47336781344567963   -0.03373287607973789   -0.012078973169358565
-0.4786038636506663   -0.027011970615380368   0.0038592640311220193
-0.4786038636506663   -0.027011970615380368   0.0038592640311220193
-0.4786038636506663   -0.027011970615380368   0.0038592640311220193
-0.4786038636506663   -0.027011970615380368   0.0038592640311220193
-0.25723780846088395   0.00551326938017177   0.0009769461633931283
-0.25723780846088395   0.00551326938017177   0.0009769461633931283
-0.25723780846088395   0.00551326938017177   0.0009769461633931283
-0.25723780846088395   0.00551326938017177   0.0009769461633931283
-0.36053511798458954   -0.005190936413640573   -0.002471506965654773
-0.36053511798458954   -0.005190936413640573   -0.002471506965654773
-0.36053511798458954   -0.005190936413640573   -0.002471506965654773
-0.36053511798458954   -0.005190936413640573   -0.002471506965654773
-0.43313481254134445   0.03763585605608047   0.015471149597396427
-0.43313481254134445   0.03763585605608047   0.015471149597396427
-0.43313481254134445   0.03763585605608047   0.015471149597396427
-0.43313481254134445   0.03763585605608047   0.015471149597396427
-0.6557968765434217   -0.030360148377980525   -0.015150474137428756
-0.6557968765434217   -0.030360148377980525   -0.015150474137428756
-0.6557968765434217   -0.030360148377980525   -0.015150474137428756
-0.6557968765434217   -0.030360148377980525   -0.015150474137428756
-0.6628294111144362   -0.007120893338108919   0.014210819031150693
-0.6628294111144362   -0.007120893338108919   0.014210819031150693
-0.6628294111144362   -0.007120893338108919   0.014210819031150693
-0.6628294111144362   -0.007120893338108919   0.014210819031150693
-0.4530290019163328   0.011095565147667241   -0.008746613057704581
-0.4530290019163328   0.011095565147667241   -0.008746613057704581
-0.4530290019163328   0.011095565147667241   -0.008746613057704581
-0.4530290019163328   0.011095565147667241   -0.008746613057704581
-0.5267616161358928   0.008306144018000894   0.013014011253244077
-0.5267616161358928   0.008306144018000894   0.013014011253244077
-0.5267616161358928   0.008306144018000894   0.013014011253244077
-0.5267616161358928   0.008306144018000894   0.013014011253244077
-0.4423135145513033   0.037771166626093464   0.018155222289014443
-0.4423135145513033   0.037771166626093464   0.018155222289014443
-0.4423135145513033   0.037771166626093464   0.018155222289014443
-0.4423135145513033   0.037771166626093464   0.018155222289014443
-0.6733738366946748   -0.03362543303174094   -0.01200676917640341
-0.6733738366946748   -0.03362543303174094   -0.01200676917640341
-0.6733738366946748   -0.03362543303174094   -0.01200676917640341
-0.6733738366946748   -0.03362543303174094   -0.01200676917640341
-0.678542280498819   -0.010860609859922543   0.017763136536323054
-0.678542280498819   -0.010860609859922543   0.017763136536323054
-0.678542280498819   -0.010860609859922543   0.017763136536323054
-0.678542280498819   -0.010860609859922543   0.017763136536323054
-0.4642941653185649   0.0070347724998481576   -0.007478381113370777
-0.4642941653185649   0.0070347724998481576   -0.007478381113370777
-0.4642941653185649   0.0070347724998481576   -0.007478381113370777
-0.4642941653185649   0.0070347724998481576   -0.007478381113370777
-0.548959738244019   0.004151654835271079   0.008051400207696749
-0.548959738244019   0.004151654835271079   0.008051400207696749
-0.548959738244019   0.004151654835271079   0.008051400207696749
-0.548959738244019   0.004151654835271079   0.008051400207696749
-0.4529289234907038   0.03498829528299374   0.021394305242789347
-0.4529289234907038   0.03498829528299374   0.021394305242789347
-0.4529289234907038   0.03498829528299374   0.021394305242789347
-0.4529289234907038   0.03498829528299374   0.021394305242789347
-0.689614549761933   -0.03852116007832038   -0.009937659560845358
-0.689614549761933   -0.03852116007832038   -0.009937659560845358
-0.689614549761933   -0.03852116007832038   -0.009937659560845358
-0.689614549761933   -0.03852116007832038   -0.009937659560845358
-0.699287079853837   -0.024333372656585084   0.01737733388984894
-0.699287079853837   -0.024333372656585084   0.01737733388984894
-0.699287079853837   -0.024333372656585084   0.01737733388984894
-0.699287079853837   -0.024333372656585084   0.01737733388984894
-0.47621341957833047   -0.004415805868864975   -0.006784680353714136
-0.47621341957833047   -0.004415805868864975   -0.006784680353714136
-0.47621341957833047   -0.004415805868864975   -0.006784680353714136
-0.47621341957833047   -0.004415805868864975   -0.006784680353714136
-0.5543569336860819   -0.0010775007894768818   0.0064534806108809545
-0.5543569336860819   -0.0010775007894768818   0.0064534806108809545
-0.5543569336860819   -0.0010775007894768818   0.0064534806108809545
-0.5543569336860819   -0.0010775007894768818   0.0064534806108809545
0.307865475224424   0.017631989738456685   -0.02022938521708992
0.307865475224424   0.017631989738456685   -0.02022938521708992
0.307865475224424   0.017631989738456685   -0.02022938521708992
0.307865475224424   0.017631989738456685   -0.02022938521708992
0.13147380352433852   0.007909282338790895   0.008581751298665511
0.13147380352433852   0.007909282338790895   0.008581751298665511
0.13147380352433852   0.007909282338790895   0.008581751298665511
0.13147380352433852   0.007909282338790895   0.008581751298665511
0.1106995575493334   -0.029900196781747768   -0.0189023631914799
0.1106995575493334   -0.029900196781747768   -0.0189023631914799
0.1106995575493334   -0.029900196781747768   -0.0189023631914799
0.1106995575493334   -0.029900196781747768   -0.0189023631914799
0.3009205787479171   0.03463482711833323   0.01043867043819144
0.3009205787479171   0.03463482711833323   0.01043867043819144
0.3009205787479171   0.03463482711833323   0.01043867043819144
0.3009205787479171   0.03463482711833323   0.01043867043819144
0.20148481043961253   0.004440239768158612   -0.005495636197473508
0.20148481043961253   0.004440239768158612   -0.005495636197473508
0.20148481043961253   0.004440239768158612   -0.005495636197473508
0.20148481043961253   0.004440239768158612   -0.005495636197473508
0.28928593694301874   0.005814674534740286   -0.01891438600270963
0.28928593694301874   0.005814674534740286   -0.01891438600270963
0.28928593694301874   0.005814674534740286   -0.01891438600270963
0.28928593694301874   0.005814674534740286   -0.01891438600270963
0.12211478379519766   -0.0012994597571915206   0.009573031013287046
0.12211478379519766   -0.0012994597571915206   0.009573031013287046
0.12211478379519766   -0.0012994597571915206   0.009573031013287046
0.12211478379519766   -0.0012994597571915206   0.009573031013287046
0.10187839989272128   -0.03331912603263961   -0.016124051877006055
0.10187839989272128   -0.03331912603263961   -0.016124051877006055
0.10187839989272128   -0.03331912603263961   -0.016124051877006055
0.10187839989272128   -0.03331912603263961   -0.016124051877006055
0.28638955866809557   0.02977784098439841   0.013511727011093988
0.28638955866809557   0.02977784098439841   0.013511727011093988
0.28638955866809557   0.02977784098439841   0.013511727011093988
0.28638955866809557   0.02977784098439841   0.013511727011093988
0.19248988931130417   -0.0012306882606182151   -0.008823754035150486
0.19248988931130417   -0.0012306882606182151   -0.008823754035150486
0.19248988931130417   -0.0012306882606182151   -0.008823754035150486
0.19248988931130417   -0.0012306882606182151   -0.008823754035150486
0.2749314758388972   0.0014301085849136586   -0.015430954735415638
0.2749314758388972   0.0014301085849136586   -0.015430954735415638
0.2749314758388972   0.0014301085849136586   -0.015430954735415638
0.2749314758388972   0.0014301085849136586   -0.015430954735415638
0.1130065622352606   -0.005301314119814167   0.011498947922866085
0.1130065622352606   -0.005301314119814167   0.011498947922866085
0.1130065622352606   -0.005301314119814167   0.011498947922866085
0.1130065622352606   -0.005301314119814167   0.011498947922866085
0.09401093274975697   -0.03631120874756624   -0.013449394597009537
0.09401093274975697   -0.03631120874756624   -0.013449394597009537
0.09401093274975697   -0.03631120874756624   -0.013449394597009537
0.09401093274975697   -0.03631120874756624   -0.013449394597009537
0.2693951789303087   0.023470896134462273   0.015468259782903438
0.2693951789303087   0.023470896134462273   0.015468259782903438
0.2693951789303087   0.023470896134462273   0.015468259782903438
0.2693951789303087   0.023470896134462273   0.015468259782903438
0.17690669276099022   -0.005839196649434657   -0.013455951898963424
0.17690669276099022   -0.005839196649434657   -0.013455951898963424
0.17690669276099022   -0.005839196649434657   -0.013455951898963424
0.17690669276099022   -0.005839196649434657   -0.013455951898963424
0.13255605320644445   0.02537775562640969   -0.003475473578426199
0.13255605320644445   0.02537775562640969   -0.003475473578426199
0.13255605320644445   0.02537775562640969   -0.003475473578426199
0.13255605320644445   0.02537775562640969   -0.003475473578426199
-0.04008804912489395   0.001883232656770947   0.0010598833098552853
-0.04008804912489395   0.001883232656770947   0.0010598833098552853
-0.04008804912489395   0.001883232656770947   0.0010598833098552853
-0.04008804912489395   0.001883232656770947   0.0010598833098552853
-0.054292259654025884   -0.02087012808831798   -0.011700544048904174
-0.054292259654025884   -0.02087012808831798   -0.011700544048904174
-0.054292259654025884   -0.02087012808831798   -0.011700544048904174
-0.054292259654025884   -0.02087012808831798   -0.011700544048904174
0.1290712702702073   0.03044717954255212   0.012608824088591509
0.1290712702702073   0.03044717954255212   0.012608824088591509
0.1290712702702073   0.03044717954255212   0.012608824088591509
0.1290712702702073   0.03044717954255212   0.012608824088591509
0.0409002849640347   0.008756403257968545   0.0015840451003217198
0.0409002849640347   0.008756403257968545   0.0015840451003217198
0.0409002849640347   0.008756403257968545   0.0015840451003217198
0.0409002849640347   0.008756403257968545   0.0015840451003217198
0.1234257789386567   0.016649414862233567   -0.0018208678888443379
0.1234257789386567   0.016649414862233567   -0.0018208678888443379
0.1234257789386567   0.016649414862233567   -0.0018208678888443379
0.1234257789386567   0.016649414862233567   -0.0018208678888443379
-0.04873551836113962   -0.007161113446661443   0.0023741477738706126
-0.04873551836113962   -0.007161113446661443   0.0023741477738706126
-0.04873551836113962   -0.007161113446661443   0.0023741477738706126
-0.04873551836113962   -0.007161113446661443   0.0023741477738706126
-0.0624903687930779   -0.02773016469668671   -0.00949671110180001
-0.0624903687930779   -0.02773016469668671   -0.00949671110180001
-0.0624903687930779   -0.02773016469668671   -0.00949671110180001
-0.0624903687930779   -0.02773016469668671   -0.00949671110180001
0.11900742516880407   0.022492081026102225   0.013709867444667076
0.11900742516880407   0.022492081026102225   0.013709867444667076
0.11900742516880407   0.022492081026102225   0.013709867444667076
0.11900742516880407   0.022492081026102225   0.013709867444667076
0.030752606099353038   0.0009451441462870061   -0.002167492564548767
0.030752606099353038   0.0009451441462870061   -0.002167492564548767
0.030752606099353038   0.0009451441462870061   -0.002167492564548767
0.030752606099353038   0.0009451441462870061   -0.002167492564548767
0.11354057049540105   0.009290750335099606   -0.0004230752313473603
0.11354057049540105   0.009290750335099606   -0.0004230752313473603
0.11354057049540105   0.009290750335099606   -0.0004230752313473603
0.11354057049540105   0.009290750335099606   -0.0004230752313473603
-0.05724186693109836   -0.014747186817105348   0.0037628203285163028
-0.05724186693109836   -0.014747186817105348   0.0037628203285163028
-0.05724186693109836   -0.014747186817105348   0.0037628203285163028
-0.05724186693109836   -0.014747186817105348   0.0037628203285163028
-0.07057439389109027   -0.03413298933508585   -0.007461556341502274
-0.07057439389109027   -0.03413298933508585   -0.007461556341502274
-0.07057439389109027   -0.03413298933508585   -0.007461556341502274
-0.07057439389109027   -0.03413298933508585   -0.007461556341502274
0.10992614105290811   0.0148935930506864   0.0149218451204957
0.10992614105290811   0.0148935930506864   0.0149218451204957
0.10992614105290811   0.0148935930506864   0.0149218451204957
0.10992614105290811   0.0148935930506864   0.0149218451204957
0.022663207029757958   -0.005480834224602546   -0.005463603113210327
0.022663207029757958   -0.005480834224602546   -0.005463603113210327
0.022663207029757958   -0.005480834224602546   -0.005463603113210327
0.022663207029757958   -0.005480834224602546   -0.005463603113210327
-0.03372407501311659   0.03181322335714234   0.002949763168369749
-0.03372407501311659   0.03181322335714234   0.002949763168369749
-0.03372407501311659   0.03181322335714234   0.002949763168369749
-0.03372407501311659   0.03181322335714234   0.002949763168369749
-0.20904843644739932   -0.005594234019914268   -0.006390417257031699
-0.20904843644739932   -0.005594234019914268   -0.006390417257031699
-0.20904843644739932   -0.005594234019914268   -0.006390417257031699
-0.20904843644739932   -0.005594234019914268   -0.006390417257031699
-0.21715958852921144   -0.01271902832267837   -0.004723540330373418
-0.21715958852921144   -0.01271902832267837   -0.004723540330373418
-0.21715958852921144   -0.01271902832267837   -0.004723540330373418
-0.21715958852921144   -0.01271902832267837   -0.004723540330373418
-0.042155987580424666   0.023200865952823335   0.00490982227795962
-0.042155987580424666   0.023200865952823335   0.00490982227795962
-0.042155987580424666   0.023200865952823335   0.00490982227795962
-0.042155987580424666   0.023200865952823335   0.00490982227795962
-0.1252114996417187   0.00901826378817338   0.0025029166887266495
-0.1252114996417187   0.00901826378817338   0.0025029166887266495
-0.1252114996417187   0.00901826378817338   0.0025029166887266495
-0.1252114996417187   0.00901826378817338   0.0025029166887266495
-0.04191875218359291   0.024277683379590465   0.005019181835352228
-0.04191875218359291   0.024277683379590465   0.005019181835352228
-0.04191875218359291   0.024277683379590465   0.005019181835352228
-0.04191875218359291   0.024277683379590465   0.005019181835352228
-0.21742632493260697   -0.013825346756011672   -0.004950903914017759
-0.21742632493260697   -0.013825346756011672   -0.004950903914017759
-0.21742632493260697   -0.013825346756011672   -0.004950903914017759
-0.21742632493260697   -0.013825346756011672   -0.004950903914017759
-0.22544638208455073   -0.020193518591459507   -0.0027680899500865976
-0.22544638208455073   -0.020193518591459507   -0.0027680899500865976
-0.22544638208455073   -0.020193518591459507   -0.0027680899500865976
-0.22544638208455073   -0.020193518591459507   -0.0027680899500865976
-0.05076111049477128   0.015015136380474008   0.00640427931257137
-0.05076111049477128   0.015015136380474008   0.00640427931257137
-0.05076111049477128   0.015015136380474008   0.00640427931257137
-0.05076111049477128   0.015015136380474008   0.00640427931257137
-0.1337292772082625   0.0017225326827102726   -0.0007128868574876063
-0.1337292772082625   0.0017225326827102726   -0.0007128868574876063
-0.1337292772082625   0.0017225326827102726   -0.0007128868574876063
-0.1337292772082625   0.0017225326827102726   -0.0007128868574876063
-0.0503474106706448   0.01673123053672896   0.0067566842769497815
-0.0503474106706448   0.01673123053672896   0.0067566842769497815
-0.0503474106706448   0.01673123053672896   0.0067566842769497815
-0.0503474106706448   0.01673123053672896   0.0067566842769497815
-0.22600153358998445   -0.022051064429024072   -0.0036863016396905196
-0.22600153358998445   -0.022051064429024072   -0.0036863016396905196
-0.22600153358998445   -0.022051064429024072   -0.0036863016396905196
-0.22600153358998445   -0.022051064429024072   -0.0036863016396905196
-0.2335856853942984   -0.02732751056751479   -0.0008607852128270661
-0.2335856853942984   -0.02732751056751479   -0.0008607852128270661
-0.2335856853942984   -0.02732751056751479   -0.0008607852128270661
-0.2335856853942984   -0.02732751056751479   -0.0008607852128270661
-0.05930006311516852   0.0070637414565803205   0.007713366746439307
-0.05930006311516852   0.0070637414565803205   0.007713366746439307
-0.05930006311516852   0.0070637414565803205   0.007713366746439307
-0.05930006311516852   0.0070637414565803205   0.007713366746439307
-0.14260487400770974   -0.005578477395869155   -0.004202821259444005
-0.14260487400770974   -0.005578477395869155   -0.004202821259444005
-0.14260487400770974   -0.005578477395869155   -0.004202821259444005
-0.14260487400770974   -0.005578477395869155   -0.004202821259444005
-0.19732270317710363   0.03738031055829035   0.009263704516242085
-0.19732270317710363   0.03738031055829035   0.009263704516242085
-0.19732270317710363   0.03738031055829035   0.009263704516242085
-0.19732270317710363   0.03738031055829035   0.009263704516242085
-0.3753139404620258   -0.013069546935602555   -0.012911284722955996
-0.3753139404620258   -0.013069546935602555   -0.012911284722955996
-0.3753139404620258   -0.013069546935602555   -0.012911284722955996
-0.3753139404620258   -0.013069546935602555   -0.012911284722955996
-0.3783405173720445   -0.006131324965344034   0.0027457058285508228
-0.3783405173720445   -0.006131324965344034   0.0027457058285508228
-0.3783405173720445   -0.006131324965344034   0.0027457058285508228
-0.3783405173720445   -0.006131324965344034   0.0027457058285508228
-0.21117401304868985   0.015151662102382696   -0.0026663533528304174
-0.21117401304868985   0.015151662102382696   -0.0026663533528304174
-0.21117401304868985   0.015151662102382696   -0.0026663533528304174
-0.21117401304868985   0.015151662102382696   -0.0026663533528304174
-0.2887874999894652   0.008405700125981533   0.0036143199681513555
-0.2887874999894652   0.008405700125981533   0.0036143199681513555
-0.2887874999894652   0.008405700125981533   0.0036143199681513555
-0.2887874999894652   0.008405700125981533   0.0036143199681513555
-0.2053713254627604   0.03017760132220018   0.011321145357003213
-0.2053713254627604   0.03017760132220018   0.011321145357003213
-0.2053713254627604   0.03017760132220018   0.011321145357003213
-0.2053713254627604   0.03017760132220018   0.011321145357003213
-0.38440668805264205   -0.021420747279832245   -0.01229572525995291
-0.38440668805264205   -0.021420747279832245   -0.01229572525995291
-0.38440668805264205   -0.021420747279832245   -0.01229572525995291
-0.38440668805264205   -0.021420747279832245   -0.01229572525995291
-0.38812035626277935   -0.013539275801794565   0.0036415710374577796
-0.38812035626277935   -0.013539275801794565   0.0036415710374577796
-0.38812035626277935   -0.013539275801794565   0.0036415710374577796
-0.38812035626277935   -0.013539275801794565   0.0036415710374577796
-0.21955193085124833   0.007601336142921571   -0.001090688517959475
-0.21955193085124833   0.007601336142921571   -0.001090688517959475
-0.21955193085124833   0.007601336142921571   -0.001090688517959475
-0.21955193085124833   0.007601336142921571   -0.001090688517959475
-0.29591019816517805   0.0018175117458059525   0.0003978730865725026
-0.29591019816517805   0.0018175117458059525   0.0003978730865725026
-0.29591019816517805   0.0018175117458059525   0.0003978730865725026
-0.29591019816517805   0.0018175117458059525   0.0003978730865725026
-0.2135383073005998   0.023303810715659297   0.01327495466254747
-0.2135383073005998   0.023303810715659297   0.01327495466254747
-0.2135383073005998   0.023303810715659297   0.01327495466254747
-0.2135383073005998   0.023303810715659297   0.01327495466254747
-0.394162265292928   -0.029270035854032657   -0.010837214061050935
-0.394162265292928   -0.029270035854032657   -0.010837214061050935
-0.394162265292928   -0.029270035854032657   -0.010837214061050935
-0.394162265292928   -0.029270035854032657   -0.010837214061050935
-0.396808917587752   -0.021458818160672452   0.005687617586040045
-0.396808917587752   -0.021458818160672452   0.005687617586040045
-0.396808917587752   -0.021458818160672452   0.005687617586040045
-0.396808917587752   -0.021458818160672452   0.005687617586040045
-0.2280801093075075   -0.0008071762075007663   0.00014676086110943995
-0.2280801093075075   -0.0008071762075007663   0.00014676086110943995
-0.2280801093075075   -0.0008071762075007663   0.00014676086110943995
-0.2280801093075075   -0.0008071762075007663   0.00014676086110943995
-0.30673694448892197   -0.005892564001246631   -0.0033604051906875945
-0.30673694448892197   -0.005892564001246631   -0.0033604051906875945
-0.30673694448892197   -0.005892564001246631   -0.0033604051906875945
-0.30673694448892197   -0.005892564001246631   -0.0033604051906875945
-0.36027825012973297   0.03467766311068678   0.014519956892219094
-0.36027825012973297   0.03467766311068678   0.014519956892219094
-0.36027825012973297   0.03467766311068678   0.014519956892219094
-0.36027825012973297   0.03467766311068678   0.014519956892219094
-0.5324623342569706   -0.024641896493743806   -0.01655225981105078
-0.5324623342569706   -0.024641896493743806   -0.01655225981105078
-0.5324623342569706   -0.024641896493743806   -0.01655225981105078
-0.5324623342569706   -0.024641896493743806   -0.01655225981105078
-0.5374194331016977   -0.001160197533916038   0.014365004719728573
-0.5374194331016977   -0.001160197533916038   0.014365004719728573
-0.5374194331016977   -0.001160197533916038   0.014365004719728573
-0.5374194331016977   -0.001160197533916038   0.014365004719728573
-0.37855071953044395   0.00542341768393545   -0.009860047612732018
-0.37855071953044395   0.00542341768393545   -0.009860047612732018
-0.37855071953044395   0.00542341768393545   -0.009860047612732018
-0.37855071953044395   0.00542341768393545   -0.009860047612732018
-0.43223118256217286   0.0078889625883692   0.011044921287752793
-0.43223118256217286   0.0078889625883692   0.011044921287752793
-0.43223118256217286   0.0078889625883692   0.011044921287752793
-0.43223118256217286   0.0078889625883692   0.011044921287752793
-0.36756371905163643   0.03336468235433285   0.017133690110911846
-0.36756371905163643   0.03336468235433285   0.017133690110911846
-0.36756371905163643   0.03336468235433285   0.017133690110911846
-0.36756371905163643   0.03336468235433285   0.017133690110911846
-0.5486346191459758   -0.029329647769782738   -0.013541475265791154
-0.5486346191459758   -0.029329647769782738   -0.013541475265791154
-0.5486346191459758   -0.029329647769782738   -0.013541475265791154
-0.5486346191459758   -0.029329647769782738   -0.013541475265791154
-0.5512691667858587   -0.005246563842289442   0.01808993864325032
-0.5512691667858587   -0.005246563842289442   0.01808993864325032
-0.5512691667858587   -0.005246563842289442   0.01808993864325032
-0.5512691667858587   -0.005246563842289442   0.01808993864325032
-0.3875608310599133   0.0012852713795223902   -0.008385350129536319
-0.3875608310599133   0.0012852713795223902   -0.008385350129536319
-0.3875608310599133   0.0012852713795223902   -0.008385350129536319
-0.3875608310599133   0.0012852713795223902   -0.008385350129536319
-0.4510975250835992   0.003209986001414325   0.00592512344823223
-0.4510975250835992   0.003209986001414325   0.00592512344823223
-0.4510975250835992   0.003209986001414325   0.00592512344823223
-0.4510975250835992   0.003209986001414325   0.00592512344823223
-0.3760646707549133   0.03021041015854281   0.020170312616450845
-0.3760646707549133   0.03021041015854281   0.020170312616450845
-0.3760646707549133   0.03021041015854281   0.020170312616450845
-0.3760646707549133   0.03021041015854281   0.020170312616450845
-0.5629286739415813   -0.034335049472028645   -0.011119111505623454
-0.5629286739415813   -0.034335049472028645   -0.011119111505623454
-0.5629286739415813   -0.034335049472028645   -0.011119111505623454
-0.5629286739415813   -0.034335049472028645   -0.011119111505623454
-0.5697960769845446   -0.018155570705530005   0.0180991528691902
-0.5697960769845446   -0.018155570705530005   0.0180991528691902
-0.5697960769845446   -0.018155570705530005   0.0180991528691902
-0.5697960769845446   -0.018155570705530005   0.0180991528691902
-0.3970046217991856   -0.009331702866926667   -0.007418018764881358
-0.3970046217991856   -0.009331702866926667   -0.007418018764881358
-0.3970046217991856   -0.009331702866926667   -0.007418018764881358
-0.3970046217991856   -0.009331702866926667   -0.007418018764881358
-0.45617461229558665   -0.0021769552518213914   0.0035382934238884743
-0.45617461229558665   -0.0021769552518213914   0.0035382934238884743
-0.45617461229558665   -0.0021769552518213914   0.0035382934238884743
-0.45617461229558665   -0.0021769552518213914   0.0035382934238884743
0.17302358048713196   0.01050973806676046   -0.019965747024280132
0.17302358048713196   0.01050973806676046   -0.019965747024280132
0.17302358048713196   0.01050973806676046   -0.019965747024280132
0.17302358048713196   0.01050973806676046   -0.019965747024280132
0.0514126622984057   0.011823157835058358   0.009459860208102326
0.0514126622984057   0.011823157835058358   0.009459860208102326
0.0514126622984057   0.011823157835058358   0.009459860208102326
0.0514126622984057   0.011823157835058358   0.009459860208102326
0.032881667110592316   -0.024587912278269168   -0.01763611490749584
0.032881667110592316   -0.024587912278269168   -0.01763611490749584
0.032881667110592316   -0.024587912278269168   -0.01763611490749584
0.032881667110592316   -0.024587912278269168   -0.01763611490749584
0.16850648345295796   0.028838175306736904   0.011377814508150192
0.16850648345295796   0.028838175306736904   0.011377814508150192
0.16850648345295796   0.028838175306736904   0.011377814508150192
0.16850648345295796   0.028838175306736904   0.011377814508150192
0.10028533724231001   0.004832904018712957   -0.0022851134168439596
0.10028533724231001   0.004832904018712957   -0.0022851134168439596
0.10028533724231001   0.004832904018712957   -0.0022851134168439596
0.10028533724231001   0.004832904018712957   -0.0022851134168439596
0.15680399064489814   5.3733804176222394e-05   -0.01835020802959004
0.15680399064489814   5.3733804176222394e-05   -0.01835020802959004
0.15680399064489814   5.3733804176222394e-05   -0.01835020802959004
0.15680399064489814   5.3733804176222394e-05   -0.01835020802959004
0.044219585697785405   0.003831955003427116   0.01063361074677379
0.044219585697785405   0.003831955003427116   0.01063361074677379
0.044219585697785405   0.003831955003427116   0.01063361074677379
0.044219585697785405   0.003831955003427116   0.01063361074677379
0.025898851704112394   -0.028025727605536836   -0.015015408974599073
0.025898851704112394   -0.028025727605536836   -0.015015408974599073
0.025898851704112394   -0.028025727605536836   -0.015015408974599073
0.025898851704112394   -0.028025727605536836   -0.015015408974599073
0.15595153765885633   0.02409935705939814   0.01466819811093481
0.15595153765885633   0.02409935705939814   0.01466819811093481
0.15595153765885633   0.02409935705939814   0.01466819811093481
0.15595153765885633   0.02409935705939814   0.01466819811093481
0.09162821847515855   -0.0005583913731484272   -0.005751029846208502
0.09162821847515855   -0.0005583913731484272   -0.005751029846208502
0.09162821847515855   -0.0005583913731484272   -0.005751029846208502
0.09162821847515855   -0.0005583913731484272   -0.005751029846208502
0.14430131531046383   -0.0043657203363941105   -0.015117836235236888
0.14430131531046383   -0.0043657203363941105   -0.015117836235236888
0.14430131531046383   -0.0043657203363941105   -0.015117836235236888
0.14430131531046383   -0.0043657203363941105   -0.015117836235236888
0.037056565611455115   -5.315865079448187e-05   0.012800591607372916
0.037056565611455115   -5.315865079448187e-05   0.012800591607372916
0.037056565611455115   -5.315865079448187e-05   0.012800591607372916
0.037056565611455115   -5.315865079448187e-05   0.012800591607372916
0.019666009595134867   -0.03207330171395043   -0.012523560123986314
0.019666009595134867   -0.03207330171395043   -0.012523560123986314
0.019666009595134867   -0.03207330171395043   -0.012523560123986314
0.019666009595134867   -0.03207330171395043   -0.012523560123986314
0.14037602036313065   0.01658571517135205   0.01632778138660254
0.14037602036313065   0.01658571517135205   0.01632778138660254
0.14037602036313065   0.01658571517135205   0.01632778138660254
0.14037602036313065   0.01658571517135205   0.01632778138660254
0.07939977617543063   -0.005317283054872272   -0.01003501183638855
0.07939977617543063   -0.005317283054872272   -0.01003501183638855
0.07939977617543063   -0.005317283054872272   -0.01003501183638855
0.07939977617543063   -0.005317283054872272   -0.01003501183638855
0.049727287418031355   0.01850462669303553   -0.005648483051747094
0.049727287418031355   0.01850462669303553   -0.005648483051747094
0.049727287418031355   0.01850462669303553   -0.005648483051747094
0.049727287418031355   0.01850462669303553   -0.005648483051747094
-0.06741887043533364   0.0056757399670106096   0.002223128661531921
-0.06741887043533364   0.0056757399670106096   0.002223128661531921
-0.06741887043533364   0.0056757399670106096   0.002223128661531921
-0.06741887043533364   0.0056757399670106096   0.002223128661531921
-0.07936743789426269   -0.015830057399098655   -0.010338652455192382
-0.07936743789426269   -0.015830057399098655   -0.010338652455192382
-0.07936743789426269   -0.015830057399098655   -0.010338652455192382
-0.07936743789426269   -0.015830057399098655   -0.010338652455192382
0.04811602038537653   0.022926532441392845   0.011021206746763726
0.04811602038537653   0.022926532441392845   0.011021206746763726
0.04811602038537653   0.022926532441392845   0.011021206746763726
0.04811602038537653   0.022926532441392845   0.011021206746763726
-0.012657714621071531   0.007483403962991771   0.0019696326182437078
-0.012657714621071531   0.007483403962991771   0.0019696326182437078
-0.012657714621071531   0.007483403962991771   0.0019696326182437078
-0.012657714621071531   0.007483403962991771   0.0019696326182437078
0.0424519491854045   0.009772522621274513   -0.004145139432978381
0.0424519491854045   0.009772522621274513   -0.004145139432978381
0.0424519491854045   0.009772522621274513   -0.004145139432978381
0.0424519491854045   0.009772522621274513   -0.004145139432978381
-0.07401893732329418   -0.002991618207986456   0.0035654112085379483
-0.07401893732329418   -0.002991618207986456   0.0035654112085379483
-0.07401893732329418   -0.002991618207986456   0.0035654112085379483
-0.07401893732329418   -0.002991618207986456   0.0035654112085379483
-0.08561001248843685   -0.02279904756951113   -0.00812833787615877
-0.08561001248843685   -0.02279904756951113   -0.00812833787615877
-0.08561001248843685   -0.02279904756951113   -0.00812833787615877
-0.08561001248843685   -0.02279904756951113   -0.00812833787615877
0.03992675312294598   0.015074764402426631   0.012023606111606144
0.03992675312294598   0.015074764402426631   0.012023606111606144
0.03992675312294598   0.015074764402426631   0.012023606111606144
0.03992675312294598   0.015074764402426631   0.012023606111606144
-0.020392924365804362   -7.53756162302872e-05   -0.0016571923787521911
-0.020392924365804362   -7.53756162302872e-05   -0.0016571923787521911
-0.020392924365804362   -7.53756162302872e-05   -0.0016571923787521911
-0.020392924365804362   -7.53756162302872e-05   -0.0016571923787521911
0.03442634357881753   0.00229429648154121   -0.0026979736881514544
0.03442634357881753   0.00229429648154121   -0.0026979736881514544
0.03442634357881753   0.00229429648154121   -0.0026979736881514544
0.03442634357881753   0.00229429648154121   -0.0026979736881514544
-0.08051873691031562   -0.010427713614632884   0.004956706059570166
-0.08051873691031562   -0.010427713614632884   0.004956706059570166
-0.08051873691031562   -0.010427713614632884   0.004956706059570166
-0.08051873691031562   -0.010427713614632884   0.004956706059570166
-0.09180216758511114   -0.029662914779989193   -0.006132385394863024
-0.09180216758511114   -0.029662914779989193   -0.006132385394863024
-0.09180216758511114   -0.029662914779989193   -0.006132385394863024
-0.09180216758511114   -0.029662914779989193   -0.006132385394863024
0.03275556635978263   0.007416582081753876   0.013434339903548425
0.03275556635978263   0.007416582081753876   0.013434339903548425
0.03275556635978263   0.007416582081753876   0.013434339903548425
0.03275556635978263   0.007416582081753876   0.013434339903548425
-0.027045334879866774   -0.0067857380004769   -0.005066188097227009
-0.027045334879866774   -0.0067857380004769   -0.005066188097227009
-0.027045334879866774   -0.0067857380004769   -0.005066188097227009
-0.027045334879866774   -0.0067857380004769   -0.005066188097227009
-0.06383338703325465   0.02491009703509041   0.0009161886038470384
-0.06383338703325465   0.02491009703509041   0.0009161886038470384
-0.06383338703325465   0.02491009703509041   0.0009161886038470384
-0.06383338703325465   0.02491009703509041   0.0009161886038470384
-0.1845492566887621   -0.0024660023770281675   -0.005137716768046209
-0.1845492566887621   -0.0024660023770281675   -0.005137716768046209
-0.1845492566887621   -0.0024660023770281675   -0.005137716768046209
-0.1845492566887621   -0.0024660023770281675   -0.005137716768046209
-0.1901898711491502   -0.008008173640826538   -0.003101492121564237
-0.1901898711491502   -0.008008173640826538   -0.003101492121564237
-0.1901898711491502   -0.008008173640826538   -0.003101492121564237
-0.1901898711491502   -0.008008173640826538   -0.003101492121564237
-0.07040889743592159   0.015111680974501024   0.003512311462912412
-0.07040889743592159   0.015111680974501024   0.003512311462912412
-0.07040889743592159   0.015111680974501024   0.003512311462912412
-0.07040889743592159   0.015111680974501024   0.003512311462912412
-0.12693628150847766   0.007217447174001048   0.00202220081690984
-0.12693628150847766   0.007217447174001048   0.00202220081690984
-0.12693628150847766   0.007217447174001048   0.00202220081690984
-0.12693628150847766   0.007217447174001048   0.00202220081690984
-0.07009200292913073   0.017227826184803285   0.00298063878656543
-0.07009200292913073   0.017227826184803285   0.00298063878656543
-0.07009200292913073   0.017227826184803285   0.00298063878656543
-0.07009200292913073   0.017227826184803285   0.00298063878656543
-0.1907849097102305   -0.010402462905418408   -0.0036823956623758276
-0.1907849097102305   -0.010402462905418408   -0.0036823956623758276
-0.1907849097102305   -0.010402462905418408   -0.0036823956623758276
-0.1907849097102305   -0.010402462905418408   -0.0036823956623758276
-0.19640893306821205   -0.01561641170282884   -0.0011056385305021083
-0.19640893306821205   -0.01561641170282884   -0.0011056385305021083
-0.19640893306821205   -0.01561641170282884   -0.0011056385305021083
-0.19640893306821205   -0.01561641170282884   -0.0011056385305021083
-0.07699529724975436   0.007148106569082085   0.004998084178659524
-0.07699529724975436   0.007148106569082085   0.004998084178659524
-0.07699529724975436   0.007148106569082085   0.004998084178659524
-0.07699529724975436   0.007148106569082085   0.004998084178659524
-0.1334206114059107   -1.9029154581750446e-05   -0.0012226197260147053
-0.1334206114059107   -1.9029154581750446e-05   -0.0012226197260147053
-0.1334206114059107   -1.9029154581750446e-05   -0.0012226197260147053
-0.1334206114059107   -1.9029154581750446e-05   -0.0012226197260147053
-0.07656972441726145   0.009522807262919427   0.004751247647288638
-0.07656972441726145   0.009522807262919427   0.004751247647288638
-0.07656972441726145   0.009522807262919427   0.004751247647288638
-0.07656972441726145   0.009522807262919427   0.004751247647288638
-0.1972291743862266   -0.018385780882187817   -0.002437475941217759
-0.1972291743862266   -0.018385780882187817   -0.002437475941217759
-0.1972291743862266   -0.018385780882187817   -0.002437475941217759
-0.1972291743862266   -0.018385780882187817   -0.002437475941217759
-0.202502131550584   -0.02295269505102989   0.0008332526437884041
-0.202502131550584   -0.02295269505102989   0.0008332526437884041
-0.202502131550584   -0.02295269505102989   0.0008332526437884041
-0.202502131550584   -0.02295269505102989   0.0008332526437884041
-0.08347688461256751   -0.0005162537951510747   0.00634736848301605
-0.08347688461256751   -0.0005162537951510747   0.00634736848301605
-0.08347688461256751   -0.0005162537951510747   0.00634736848301605
-0.08347688461256751   -0.0005162537951510747   0.00634736848301605
-0.14024881117618757   -0.007269203361290118   -0.004748697795350696
-0.14024881117618757   -0.007269203361290118   -0.004748697795350696
-0.14024881117618757   -0.007269203361290118   -0.004748697795350696
-0.14024881117618757   -0.007269203361290118   -0.004748697795350696
-0.17527789902810112   0.03105877677284974   0.00769429238538074
-0.17527789902810112   0.03105877677284974   0.00769429238538074
-0.17527789902810112   0.03105877677284974   0.00769429238538074
-0.17527789902810112   0.03105877677284974   0.00769429238538074
-0.29937407914210784   -0.009227586384673844   -0.011620092573568021
-0.29937407914210784   -0.009227586384673844   -0.011620092573568021
-0.29937407914210784   -0.009227586384673844   -0.011620092573568021
-0.29937407914210784   -0.009227586384673844   -0.011620092573568021
-0.29992307471365637   -0.0011549166638299552   0.004549814481072809
-0.29992307471365637   -0.0011549166638299552   0.004549814481072809
-0.29992307471365637   -0.0011549166638299552   0.004549814481072809
-0.29992307471365637   -0.0011549166638299552   0.004549814481072809
-0.18712671514895848   0.00780510185270316   -0.00359898761413922
-0.18712671514895848   0.00780510185270316   -0.00359898761413922
-0.18712671514895848   0.00780510185270316   -0.00359898761413922
-0.18712671514895848   0.00780510185270316   -0.00359898761413922
-0.23916827991247722   0.007094012599278124   0.0026264033996357457
-0.23916827991247722   0.007094012599278124   0.0026264033996357457
-0.23916827991247722   0.007094012599278124   0.0026264033996357457
-0.23916827991247722   0.007094012599278124   0.0026264033996357457
-0.18129238505008205   0.02361400943271693   0.009763755300232945
-0.18129238505008205   0.02361400943271693   0.009763755300232945
-0.18129238505008205   0.02361400943271693   0.009763755300232945
-0.18129238505008205   0.02361400943271693   0.009763755300232945
-0.3062881442818997   -0.017494563713208025   -0.010935886310769315
-0.3062881442818997   -0.017494563713208025   -0.010935886310769315
-0.3062881442818997   -0.017494563713208025   -0.010935886310769315
-0.3062881442818997   -0.017494563713208025   -0.010935886310769315
-0.30758664536758984   -0.008663523448072967   0.005619728043409383
-0.30758664536758984   -0.008663523448072967   0.005619728043409383
-0.30758664536758984   -0.008663523448072967   0.005619728043409383
-0.30758664536758984   -0.008663523448072967   0.005619728043409383
-0.19337845255600175   0.0004591366484708245   -0.0020287843207522343
-0.19337845255600175   0.0004591366484708245   -0.0020287843207522343
-0.19337845255600175   0.0004591366484708245   -0.0020287843207522343
-0.19337845255600175   0.0004591366484708245   -0.0020287843207522343
-0.2446480247366544   0.00036738084243205515   -0.0007702029614307659
-0.2446480247366544   0.00036738084243205515   -0.0007702029614307659
-0.2446480247366544   0.00036738084243205515   -0.0007702029614307659
-0.2446480247366544   0.00036738084243205515   -0.0007702029614307659
-0.18739000391814142   0.016605315280449402   0.011767280236572778
-0.18739000391814142   0.016605315280449402   0.011767280236572778
-0.18739000391814142   0.016605315280449402   0.011767280236572778
-0.18739000391814142   0.016605315280449402   0.011767280236572778
-0.3139070068489572   -0.02514161492355948   -0.00950398788794835
-0.3139070068489572   -0.02514161492355948   -0.00950398788794835
-0.3139070068489572   -0.02514161492355948   -0.00950398788794835
-0.3139070068489572   -0.02514161492355948   -0.00950398788794835
-0.31419037378571557   -0.01651702811783816   0.007707765787630553
-0.31419037378571557   -0.01651702811783816   0.007707765787630553
-0.31419037378571557   -0.01651702811783816   0.007707765787630553
-0.31419037378571557   -0.01651702811783816   0.007707765787630553
-0.1997123664479624   -0.007428048930843062   -0.000742567963296057
-0.1997123664479624   -0.007428048930843062   -0.000742567963296057
-0.1997123664479624   -0.007428048930843062   -0.000742567963296057
-0.1997123664479624   -0.007428048930843062   -0.000742567963296057
-0.2528897063969192   -0.007014010974117253   -0.004492260775108408
-0.2528897063969192   -0.007014010974117253   -0.004492260775108408
-0.2528897063969192   -0.007014010974117253   -0.004492260775108408
-0.2528897063969192   -0.007014010974117253   -0.004492260775108408
-0.2863588162015029   0.030612488523764372   0.013616147221022366
-0.2863588162015029   0.030612488523764372   0.013616147221022366
-0.2863588162015029   0.030612488523764372   0.013616147221022366
-0.2863588162015029   0.030612488523764372   0.013616147221022366
-0.40445096204141995   -0.018769700231361763   -0.01741686340455344
-0.40445096204141995   -0.018769700231361763   -0.01741686340455344
-0.40445096204141995   -0.018769700231361763   -0.01741686340455344
-0.40445096204141995   -0.018769700231361763   -0.01741686340455344
-0.4073263250257844   0.004501010806459163   0.014303523495227049
-0.4073263250257844   0.004501010806459163   0.014303523495227049
-0.4073263250257844   0.004501010806459163   0.014303523495227049
-0.4073263250257844   0.004501010806459163   0.014303523495227049
-0.3028499224113448   -0.0006413306006052416   -0.01059801007060169
-0.3028499224113448   -0.0006413306006052416   -0.01059801007060169
-0.3028499224113448   -0.0006413306006052416   -0.01059801007060169
-0.3028499224113448   -0.0006413306006052416   -0.01059801007060169
-0.33513673480938777   0.007181543544310831   0.008236775835445728
-0.33513673480938777   0.007181543544310831   0.008236775835445728
-0.33513673480938777   0.007181543544310831   0.008236775835445728
-0.33513673480938777   0.007181543544310831   0.008236775835445728
-0.2917869122748058   0.027969442216589202   0.016106267794898623
-0.2917869122748058   0.027969442216589202   0.016106267794898623
-0.2917869122748058   0.027969442216589202   0.016106267794898623
-0.2917869122748058   0.027969442216589202   0.016106267794898623
-0.4189569449479583   -0.024677371796368933   -0.014671193512806636
-0.4189569449479583   -0.024677371796368933   -0.014671193512806636
-0.4189569449479583   -0.024677371796368933   -0.014671193512806636
-0.4189569449479583   -0.024677371796368933   -0.014671193512806636
-0.4192925660269275   0.0002651743691893804   0.018245899785812918
-0.4192925660269275   0.0002651743691893804   0.018245899785812918
-0.4192925660269275   0.0002651743691893804   0.018245899785812918
-0.4192925660269275   0.0002651743691893804   0.018245899785812918
-0.3097409186414358   -0.004739694444888268   -0.009075467329012692
-0.3097409186414358   -0.004739694444888268   -0.009075467329012692
-0.3097409186414358   -0.004739694444888268   -0.009075467329012692
-0.3097409186414358   -0.004739694444888268   -0.009075467329012692
-0.35055771385845097   0.002190545907003752   0.0031326828840316442
-0.35055771385845097   0.002190545907003752   0.0031326828840316442
-0.35055771385845097   0.002190545907003752   0.0031326828840316442
-0.35055771385845097   0.002190545907003752   0.0031326828840316442
-0.2982188309335747   0.024658163986485085   0.01913711277892327
-0.2982188309335747   0.024658163986485085   0.01913711277892327
-0.2982188309335747   0.024658163986485085   0.01913711277892327
-0.2982188309335747   0.024658163986485085   0.01913711277892327
-0.4313464806116409   -0.02966451093903237   -0.012093987829528207
-0.4313464806116409   -0.02966451093903237   -0.012093987829528207
-0.4313464806116409   -0.02966451093903237   -0.012093987829528207
-0.4313464806116409   -0.02966451093903237   -0.012093987829528207
-0.435814501322974   -0.011849925454379434   0.018800747821627842
-0.435814501322974   -0.011849925454379434   0.018800747821627842
-0.435814501322974   -0.011849925454379434   0.018800747821627842
-0.435814501322974   -0.011849925454379434   0.018800747821627842
-0.3168609156629723   -0.014246270875382806   -0.007915700841116037
-0.3168609156629723   -0.014246270875382806   -0.007915700841116037
-0.3168609156629723   -0.014246270875382806   -0.007915700841116037
-0.3168609156629723   -0.014246270875382806   -0.007915700841116037
-0.3553957315620845   -0.0031573814862373983   0.0001382054863241014
-0.3553957315620845   -0.0031573814862373983   0.0001382054863241014
-0.3553957315620845   -0.0031573814862373983   0.0001382054863241014
-0.3553957315620845   -0.0031573814862373983   0.0001382054863241014
0.03697616805459741   0.0030257398105233042   -0.020090735670764658
0.03697616805459741   0.0030257398105233042   -0.020090735670764658
0.03697616805459741   0.0030257398105233042   -0.020090735670764658
0.03697616805459741   0.0030257398105233042   -0.020090735670764658
-0.02929220044126545   0.01492377309129114   0.010189807746015536
-0.02929220044126545   0.01492377309129114   0.010189807746015536
-0.02929220044126545   0.01492377309129114   0.010189807746015536
-0.02929220044126545   0.01492377309129114   0.010189807746015536
-0.045674125433240516   -0.01951868245123286   -0.016225865395484824
-0.045674125433240516   -0.01951868245123286   -0.016225865395484824
-0.045674125433240516   -0.01951868245123286   -0.016225865395484824
-0.045674125433240516   -0.01951868245123286   -0.016225865395484824
0.03449512485770978   0.021798813224629884   0.012464161071980881
0.03449512485770978   0.021798813224629884   0.012464161071980881
0.03449512485770978   0.021798813224629884   0.012464161071980881
0.03449512485770978   0.021798813224629884   0.012464161071980881
-0.0018009643962518076   0.00479273912819498   0.00171202532337956
-0.0018009643962518076   0.00479273912819498   0.00171202532337956
-0.0018009643962518076   0.00479273912819498   0.00171202532337956
-0.0018009643962518076   0.00479273912819498   0.00171202532337956
0.022802626354262955   -0.006181718882299895   -0.018017799338323474
0.022802626354262955   -0.006181718882299895   -0.018017799338323474
0.022802626354262955   -0.006181718882299895   -0.018017799338323474
0.022802626354262955   -0.006181718882299895   -0.018017799338323474
-0.03466061979458368   0.007782856790906926   0.01154012355565955
-0.03466061979458368   0.007782856790906926   0.01154012355565955
-0.03466061979458368   0.007782856790906926   0.01154012355565955
-0.03466061979458368   0.007782856790906926   0.01154012355565955
-0.05110032659530326   -0.023004174954301675   -0.013797597703389317
-0.05110032659530326   -0.023004174954301675   -0.013797597703389317
-0.05110032659530326   -0.023004174954301675   -0.013797597703389317
-0.05110032659530326   -0.023004174954301675   -0.013797597703389317
0.023392466723674326   0.017084159201101307   0.017148588844759526
0.023392466723674326   0.017084159201101307   0.017148588844759526
0.023392466723674326   0.017084159201101307   0.017148588844759526
0.023392466723674326   0.017084159201101307   0.017148588844759526
-0.010465952404562483   -0.00043642938553066024   -0.0022889931376496946
-0.010465952404562483   -0.00043642938553066024   -0.0022889931376496946
-0.010465952404562483   -0.00043642938553066024   -0.0022889931376496946
-0.010465952404562483   -0.00043642938553066024   -0.0022889931376496946
0.011415142400875398   -0.010726946940012368   -0.014926926628121442
0.011415142400875398   -0.010726946940012368   -0.014926926628121442
0.011415142400875398   -0.010726946940012368   -0.014926926628121442
0.011415142400875398   -0.010726946940012368   -0.014926926628121442
-0.04007082501489764   0.003859108444418606   0.01448662679991799
-0.04007082501489764   0.003859108444418606   0.01448662679991799
-0.04007082501489764   0.003859108444418606   0.01448662679991799
-0.04007082501489764   0.003859108444418606   0.01448662679991799
-0.0560668913810113   -0.028261580278113617   -0.01146578411658386
-0.0560668913810113   -0.028261580278113617   -0.01146578411658386
-0.0560668913810113   -0.028261580278113617   -0.01146578411658386
-0.0560668913810113   -0.028261580278113617   -0.01146578411658386
0.007970223684549374   0.00726878374401348   0.019601016955115173
0.007970223684549374   0.00726878374401348   0.019601016955115173
0.007970223684549374   0.00726878374401348   0.019601016955115173
0.007970223684549374   0.00726878374401348   0.019601016955115173
-0.01998831960322999   -0.005658965416546634   -0.0069440547198945345
-0.01998831960322999   -0.005658965416546634   -0.0069440547198945345
-0.01998831960322999   -0.005658965416546634   -0.0069440547198945345
-0.01998831960322999   -0.005658965416546634   -0.0069440547198945345
-0.03381446720325647   0.010377036905494208   -0.0078747898781426
-0.03381446720325647   0.010377036905494208   -0.0078747898781426
-0.03381446720325647   0.010377036905494208   -0.0078747898781426
-0.03381446720325647   0.010377036905494208   -0.0078747898781426
-0.09540022470697004   0.004034309256067504   0.0026120738446773406
-0.09540022470697004   0.004034309256067504   0.0026120738446773406
-0.09540022470697004   0.004034309256067504   0.0026120738446773406
-0.09540022470697004   0.004034309256067504   0.0026120738446773406
-0.10390638253280425   -0.011379264418613463   -0.008485374635087018
-0.10390638253280425   -0.011379264418613463   -0.008485374635087018
-0.10390638253280425   -0.011379264418613463   -0.008485374635087018
-0.10390638253280425   -0.011379264418613463   -0.008485374635087018
-0.034858769289708214   0.010200411260729209   0.008131821610214598
-0.034858769289708214   0.010200411260729209   0.008131821610214598
-0.034858769289708214   0.010200411260729209   0.008131821610214598
-0.034858769289708214   0.010200411260729209   0.008131821610214598
-0.06687860218906867   0.00310015583227243   0.001688942202712129
-0.06687860218906867   0.00310015583227243   0.001688942202712129
-0.06687860218906867   0.00310015583227243   0.001688942202712129
-0.06687860218906867   0.00310015583227243   0.001688942202712129
-0.03943846495391434   0.0019151207784705027   -0.006481366228557099
-0.03943846495391434   0.0019151207784705027   -0.006481366228557099
-0.03943846495391434   0.0019151207784705027   -0.006481366228557099
-0.03943846495391434   0.0019151207784705027   -0.006481366228557099
-0.09989259582774891   -0.0036598828955056555   0.0038641773670809636
-0.09989259582774891   -0.0036598828955056555   0.0038641773670809636
-0.09989259582774891   -0.0036598828955056555   0.0038641773670809636
-0.09989259582774891   -0.0036598828955056555   0.0038641773670809636
-0.10814357645362987   -0.01820443888582613   -0.006302080753097126
-0.10814357645362987   -0.01820443888582613   -0.006302080753097126
-0.10814357645362987   -0.01820443888582613   -0.006302080753097126
-0.10814357645362987   -0.01820443888582613   -0.006302080753097126
-0.04137529674143393   0.002652299836289231   0.009171076775365963
-0.04137529674143393   0.002652299836289231   0.009171076775365963
-0.04137529674143393   0.002652299836289231   0.009171076775365963
-0.04137529674143393   0.002652299836289231   0.009171076775365963
-0.07222830514430648   -0.003781356241698749   -0.001775936929601357
-0.07222830514430648   -0.003781356241698749   -0.001775936929601357
-0.07222830514430648   -0.003781356241698749   -0.001775936929601357
-0.07222830514430648   -0.003781356241698749   -0.001775936929601357
-0.04579869041230551   -0.005444803229568567   -0.0048487885131336915
-0.04579869041230551   -0.005444803229568567   -0.0048487885131336915
-0.04579869041230551   -0.005444803229568567   -0.0048487885131336915
-0.04579869041230551   -0.005444803229568567   -0.0048487885131336915
-0.10432950469313043   -0.010716657730340381   0.0052804968939144
-0.10432950469313043   -0.010716657730340381   0.0052804968939144
-0.10432950469313043   -0.010716657730340381   0.0052804968939144
-0.10432950469313043   -0.010716657730340381   0.0052804968939144
-0.11240862804869012   -0.025177365280919708   -0.004371202501362099
-0.11240862804869012   -0.025177365280919708   -0.004371202501362099
-0.11240862804869012   -0.025177365280919708   -0.004371202501362099
-0.11240862804869012   -0.025177365280919708   -0.004371202501362099
-0.04683318837762117   -0.004934318180196993   0.011375468802450165
-0.04683318837762117   -0.004934318180196993   0.011375468802450165
-0.04683318837762117   -0.004934318180196993   0.011375468802450165
-0.04683318837762117   -0.004934318180196993   0.011375468802450165
-0.07753667550899009   -0.010525981043256074   -0.005283315401519141
-0.07753667550899009   -0.010525981043256074   -0.005283315401519141
-0.07753667550899009   -0.010525981043256074   -0.005283315401519141
-0.07753667550899009   -0.010525981043256074   -0.005283315401519141
-0.09357634951081813   0.016591061857058796   -0.0008253027755553404
-0.09357634951081813   0.016591061857058796   -0.0008253027755553404
-0.09357634951081813   0.016591061857058796   -0.0008253027755553404
-0.09357634951081813   0.016591061857058796   -0.0008253027755553404
-0.160690713932782   -0.005628022672630087   -0.004615347976353351
-0.160690713932782   -0.005628022672630087   -0.004615347976353351
-0.160690713932782   -0.005628022672630087   -0.004615347976353351
-0.160690713932782   -0.005628022672630087   -0.004615347976353351
-0.1624262041173289   -0.004206483135451772   -0.0010612024054442882
-0.1624262041173289   -0.004206483135451772   -0.0010612024054442882
-0.1624262041173289   -0.004206483135451772   -0.0010612024054442882
-0.1624262041173289   -0.004206483135451772   -0.0010612024054442882
-0.09941781261387149   0.001313763440732342   0.001264447100230018
-0.09941781261387149   0.001313763440732342   0.001264447100230018
-0.09941781261387149   0.001313763440732342   0.001264447100230018
-0.09941781261387149   0.001313763440732342   0.001264447100230018
-0.12874993515118363   0.0018789647820771638   0.0006423138780963546
-0.12874993515118363   0.0018789647820771638   0.0006423138780963546
-0.12874993515118363   0.0018789647820771638   0.0006423138780963546
-0.12874993515118363   0.0018789647820771638   0.0006423138780963546
-0.09785424955676637   0.009166127852539317   0.0012298979739486637
-0.09785424955676637   0.009166127852539317   0.0012298979739486637
-0.09785424955676637   0.009166127852539317   0.0012298979739486637
-0.09785424955676637   0.009166127852539317   0.0012298979739486637
-0.16453713701142564   -0.012606217384250381   -0.0032161326271294794
-0.16453713701142564   -0.012606217384250381   -0.0032161326271294794
-0.16453713701142564   -0.012606217384250381   -0.0032161326271294794
-0.16453713701142564   -0.012606217384250381   -0.0032161326271294794
-0.16640634183211048   -0.011540580296098595   0.0009656944351122401
-0.16640634183211048   -0.011540580296098595   0.0009656944351122401
-0.16640634183211048   -0.011540580296098595   0.0009656944351122401
-0.16640634183211048   -0.011540580296098595   0.0009656944351122401
-0.10390015072139697   -0.005903361621009327   0.002613970643250617
-0.10390015072139697   -0.005903361621009327   0.002613970643250617
-0.10390015072139697   -0.005903361621009327   0.002613970643250617
-0.10390015072139697   -0.005903361621009327   0.002613970643250617
-0.13305441512971364   -0.004791801461662137   -0.0025380010729424748
-0.13305441512971364   -0.004791801461662137   -0.0025380010729424748
-0.13305441512971364   -0.004791801461662137   -0.0025380010729424748
-0.13305441512971364   -0.004791801461662137   -0.0025380010729424748
-0.10229876243208806   0.0016927556588697303   0.003024794809916102
-0.10229876243208806   0.0016927556588697303   0.003024794809916102
-0.10229876243208806   0.0016927556588697303   0.003024794809916102
-0.10229876243208806   0.0016927556588697303   0.003024794809916102
-0.16866866799320432   -0.019797635447761315   -0.0020888812186943013
-0.16866866799320432   -0.019797635447761315   -0.0020888812186943013
-0.16866866799320432   -0.019797635447761315   -0.0020888812186943013
-0.16866866799320432   -0.019797635447761315   -0.0020888812186943013
-0.1702794016248573   -0.018562816600743215   0.0029170714673451142
-0.1702794016248573   -0.018562816600743215   0.0029170714673451142
-0.1702794016248573   -0.018562816600743215   0.0029170714673451142
-0.1702794016248573   -0.018562816600743215   0.0029170714673451142
-0.10821653019316697   -0.012695418203867707   0.004107339699201626
-0.10821653019316697   -0.012695418203867707   0.004107339699201626
-0.10821653019316697   -0.012695418203867707   0.004107339699201626
-0.10821653019316697   -0.012695418203867707   0.004107339699201626
-0.13768611929425753   -0.011497112986181526   -0.005995092379968751
-0.13768611929425753   -0.011497112986181526   -0.005995092379968751
-0.13768611929425753   -0.011497112986181526   -0.005995092379968751
-0.13768611929425753   -0.011497112986181526   -0.005995092379968751
-0.15259210450232535   0.023752301965547513   0.006497374537756274
-0.15259210450232535   0.023752301965547513   0.006497374537756274
-0.15259210450232535   0.023752301965547513   0.006497374537756274
-0.15259210450232535   0.023752301965547513   0.006497374537756274
-0.22362827979897332   -0.009478553522189917   -0.010305030562936246
-0.22362827979897332   -0.009478553522189917   -0.010305030562936246
-0.22362827979897332   -0.009478553522189917   -0.010305030562936246
-0.22362827979897332   -0.009478553522189917   -0.010305030562936246
-0.22073974952956302   0.00311744856727951   0.006575780339331708
-0.22073974952956302   0.00311744856727951   0.006575780339331708
-0.22073974952956302   0.00311744856727951   0.006575780339331708
-0.22073974952956302   0.00311744856727951   0.006575780339331708
-0.1628766390037587   -0.0029941095975187723   -0.004525750375526372
-0.1628766390037587   -0.0029941095975187723   -0.004525750375526372
-0.1628766390037587   -0.0029941095975187723   -0.004525750375526372
-0.1628766390037587   -0.0029941095975187723   -0.004525750375526372
-0.18926587255734412   0.0036120801189672286   0.0009902570724578987
-0.18926587255734412   0.0036120801189672286   0.0009902570724578987
-0.18926587255734412   0.0036120801189672286   0.0009902570724578987
-0.18926587255734412   0.0036120801189672286   0.0009902570724578987
-0.15638481854736633   0.016384272631363182   0.008554969677553422
-0.15638481854736633   0.016384272631363182   0.008554969677553422
-0.15638481854736633   0.016384272631363182   0.008554969677553422
-0.15638481854736633   0.016384272631363182   0.008554969677553422
-0.22803194159961152   -0.017061305275260535   -0.00970642616837468
-0.22803194159961152   -0.017061305275260535   -0.00970642616837468
-0.22803194159961152   -0.017061305275260535   -0.00970642616837468
-0.22803194159961152   -0.017061305275260535   -0.00970642616837468
-0.22606045524503776   -0.004114368934726033   0.007785690452299461
-0.22606045524503776   -0.004114368934726033   0.007785690452299461
-0.22606045524503776   -0.004114368934726033   0.007785690452299461
-0.22606045524503776   -0.004114368934726033   0.007785690452299461
-0.1668210617261325   -0.009580676031563064   -0.003067809299533492
-0.1668210617261325   -0.009580676031563064   -0.003067809299533492
-0.1668210617261325   -0.009580676031563064   -0.003067809299533492
-0.1668210617261325   -0.009580676031563064   -0.003067809299533492
-0.19287132053028816   -0.0028111337408577436   -0.002456144198677658
-0.19287132053028816   -0.0028111337408577436   -0.002456144198677658
-0.19287132053028816   -0.0028111337408577436   -0.002456144198677658
-0.19287132053028816   -0.0028111337408577436   -0.002456144198677658
-0.16026093319538032   0.009599024041062824   0.010553133281601627
-0.16026093319538032   0.009599024041062824   0.010553133281601627
-0.16026093319538032   0.009599024041062824   0.010553133281601627
-0.16026093319538032   0.009599024041062824   0.010553133281601627
-0.23325265096294762   -0.02392613619451214   -0.008363520877463733
-0.23325265096294762   -0.02392613619451214   -0.008363520877463733
-0.23325265096294762   -0.02392613619451214   -0.008363520877463733
-0.23325265096294762   -0.02392613619451214   -0.008363520877463733
-0.23038158649555676   -0.01142447449397288   0.009944524268649248
-0.23038158649555676   -0.01142447449397288   0.009944524268649248
-0.23038158649555676   -0.01142447449397288   0.009944524268649248
-0.23038158649555676   -0.01142447449397288   0.009944524268649248
-0.17078458863816004   -0.016349284951483807   -0.0018223952484299408
-0.17078458863816004   -0.016349284951483807   -0.0018223952484299408
-0.17078458863816004   -0.016349284951483807   -0.0018223952484299408
-0.17078458863816004   -0.016349284951483807   -0.0018223952484299408
-0.19833031406056997   -0.00940316132291838   -0.006004069358028403
-0.19833031406056997   -0.00940316132291838   -0.006004069358028403
-0.19833031406056997   -0.00940316132291838   -0.006004069358028403
-0.19833031406056997   -0.00940316132291838   -0.006004069358028403
-0.21193948514949196   0.02579003805032555   0.012870351111955131
-0.21193948514949196   0.02579003805032555   0.012870351111955131
-0.21193948514949196   0.02579003805032555   0.012870351111955131
-0.21193948514949196   0.02579003805032555   0.012870351111955131
-0.27478129011292196   -0.013901528017669952   -0.01703732271758751
-0.27478129011292196   -0.013901528017669952   -0.01703732271758751
-0.27478129011292196   -0.013901528017669952   -0.01703732271758751
-0.27478129011292196   -0.013901528017669952   -0.01703732271758751
-0.27506047885508256   0.009874161229754985   0.014190005524937203
-0.27506047885508256   0.009874161229754985   0.014190005524937203
-0.27506047885508256   0.009874161229754985   0.014190005524937203
-0.27506047885508256   0.009874161229754985   0.014190005524937203
-0.2262412914416605   -0.007402132055703552   -0.01041234859817651
-0.2262412914416605   -0.007402132055703552   -0.01041234859817651
-0.2262412914416605   -0.007402132055703552   -0.01041234859817651
-0.2262412914416605   -0.007402132055703552   -0.01041234859817651
-0.2369455096362249   0.005962192552848904   0.0047351816842957015
-0.2369455096362249   0.005962192552848904   0.0047351816842957015
-0.2369455096362249   0.005962192552848904   0.0047351816842957015
-0.2369455096362249   0.005962192552848904   0.0047351816842957015
-0.21523463057208467   0.022037578766806412   0.015181244927196476
-0.21523463057208467   0.022037578766806412   0.015181244927196476
-0.21523463057208467   0.022037578766806412   0.015181244927196476
-0.21523463057208467   0.022037578766806412   0.015181244927196476
-0.28690441131289146   -0.020402821180984868   -0.01475267435335979
-0.28690441131289146   -0.020402821180984868   -0.01475267435335979
-0.28690441131289146   -0.020402821180984868   -0.01475267435335979
-0.28690441131289146   -0.020402821180984868   -0.01475267435335979
-0.284731370169236   0.005728320703951517   0.018255059943001722
-0.284731370169236   0.005728320703951517   0.018255059943001722
-0.284731370169236   0.005728320703951517   0.018255059943001722
-0.284731370169236   0.005728320703951517   0.018255059943001722
-0.23085280504287387   -0.011193408058026696   -0.00909701941358033
-0.23085280504287387   -0.011193408058026696   -0.00909701941358033
-0.23085280504287387   -0.011193408058026696   -0.00909701941358033
-0.23085280504287387   -0.011193408058026696   -0.00909701941358033
-0.24852334435543394   0.0009402479390724222   -9.186304111720445e-05
-0.24852334435543394   0.0009402479390724222   -9.186304111720445e-05
-0.24852334435543394   0.0009402479390724222   -9.186304111720445e-05
-0.24852334435543394   0.0009402479390724222   -9.186304111720445e-05
-0.21940265527179256   0.018779263309668996   0.018181058074130372
-0.21940265527179256   0.018779263309668996   0.018181058074130372
-0.21940265527179256   0.018779263309668996   0.018181058074130372
-0.21940265527179256   0.018779263309668996   0.018181058074130372
-0.29702706812971835   -0.025089898853140814   -0.012405210302314068
-0.29702706812971835   -0.025089898853140814   -0.012405210302314068
-0.29702706812971835   -0.025089898853140814   -0.012405210302314068
-0.29702706812971835   -0.025089898853140814   -0.012405210302314068
-0.2989470943093144   -0.005225633450704467   0.01927366492860239
-0.2989470943093144   -0.005225633450704467   0.01927366492860239
-0.2989470943093144   -0.005225633450704467   0.01927366492860239
-0.2989470943093144   -0.005225633450704467   0.01927366492860239
-0.2354880035821998   -0.01915555958010906   -0.007856476078433552
-0.2354880035821998   -0.01915555958010906   -0.007856476078433552
-0.2354880035821998   -0.01915555958010906   -0.007856476078433552
-0.2354880035821998   -0.01915555958010906   -0.007856476078433552
-0.252866359736095   -0.004067932903638924   -0.0034840890267144806
-0.252866359736095   -0.004067932903638924   -0.0034840890267144806
-0.252866359736095   -0.004067932903638924   -0.0034840890267144806
-0.252866359736095   -0.004067932903638924   -0.0034840890267144806
-0.10658993232644494   -0.006871101496774033   -0.021486833309130846
-0.10658993232644494   -0.006871101496774033   -0.021486833309130846
-0.10658993232644494   -0.006871101496774033   -0.021486833309130846
-0.10658993232644494   -0.006871101496774033   -0.021486833309130846
-0.10914374777056564   0.016214419003078274   0.009606897349924568
-0.10914374777056564   0.016214419003078274   0.009606897349924568
-0.10914374777056564   0.016214419003078274   0.009606897349924568
-0.10914374777056564   0.016214419003078274   0.009606897349924568
-0.12342063200193704   -0.015209684373511514   -0.01466257005907931
-0.12342063200193704   -0.015209684373511514   -0.01466257005907931
-0.12342063200193704   -0.015209684373511514   -0.01466257005907931
-0.12342063200193704   -0.015209684373511514   -0.01466257005907931
-0.10905550663265935   0.009121455659639007   0.014274818848084635
-0.10905550663265935   0.009121455659639007   0.014274818848084635
-0.10905550663265935   0.009121455659639007   0.014274818848084635
-0.10905550663265935   0.009121455659639007   0.014274818848084635
-0.10640977427520401   0.0028860430359761123   0.009805021696696628
-0.10640977427520401   0.0028860430359761123   0.009805021696696628
-0.10640977427520401   0.0028860430359761123   0.009805021696696628
-0.10640977427520401   0.0028860430359761123   0.009805021696696628
-0.1204107851217558   -0.015292687144342454   -0.01808743079341523
-0.1204107851217558   -0.015292687144342454   -0.01808743079341523
-0.1204107851217558   -0.015292687144342454   -0.01808743079341523
-0.1204107851217558   -0.015292687144342454   -0.01808743079341523
-0.11343644101403337   0.007833370929277314   0.012215329577650171
-0.11343644101403337   0.007833370929277314   0.012215329577650171
-0.11343644101403337   0.007833370929277314   0.012215329577650171
-0.11343644101403337   0.007833370929277314   0.012215329577650171
-0.12782076063454212   -0.019081145034996444   -0.012464704977512809
-0.12782076063454212   -0.019081145034996444   -0.012464704977512809
-0.12782076063454212   -0.019081145034996444   -0.012464704977512809
-0.12782076063454212   -0.019081145034996444   -0.012464704977512809
-0.12012455484708381   0.003891224120300022   0.02671462325809074
-0.12012455484708381   0.003891224120300022   0.02671462325809074
-0.12012455484708381   0.003891224120300022   0.02671462325809074
-0.12012455484708381   0.003891224120300022   0.02671462325809074
-0.1165059804068727   -0.003748786128022947   0.003990857135416464
-0.1165059804068727   -0.003748786128022947   0.003990857135416464
-0.1165059804068727   -0.003748786128022947   0.003990857135416464
-0.1165059804068727   -0.003748786128022947   0.003990857135416464
-0.13318159270395327   -0.020496865695472627   -0.01418247621048255
-0.13318159270395327   -0.020496865695472627   -0.01418247621048255
-0.13318159270395327   -0.020496865695472627   -0.01418247621048255
-0.13318159270395327   -0.020496865695472627   -0.01418247621048255
-0.11806584875067215   0.002004818807776927   0.015223890599063605
-0.11806584875067215   0.002004818807776927   0.015223890599063605
-0.11806584875067215   0.002004818807776927   0.015223890599063605
-0.11806584875067215   0.002004818807776927   0.015223890599063605
-0.1314446404516641   -0.026506650072412555   -0.009861287990801533
-0.1314446404516641   -0.026506650072412555   -0.009861287990801533
-0.1314446404516641   -0.026506650072412555   -0.009861287990801533
-0.1314446404516641   -0.026506650072412555   -0.009861287990801533
-0.1372804362076234   -0.013395953188848838   0.024970849709876116
-0.1372804362076234   -0.013395953188848838   0.024970849709876116
-0.1372804362076234   -0.013395953188848838   0.024970849709876116
-0.1372804362076234   -0.013395953188848838   0.024970849709876116
-0.12548086126043012   -0.011570723545415211   -0.005312333270172082
-0.12548086126043012   -0.011570723545415211   -0.005312333270172082
-0.12548086126043012   -0.011570723545415211   -0.005312333270172082
-0.12548086126043012   -0.011570723545415211   -0.005312333270172082
-0.11710461431114659   -0.0030213222530698462   -0.010961694096832886
-0.11710461431114659   -0.0030213222530698462   -0.010961694096832886
-0.11710461431114659   -0.0030213222530698462   -0.010961694096832886
-0.11710461431114659   -0.0030213222530698462   -0.010961694096832886
-0.12141697190397917   -0.015028107839393505   -0.000655181590680667
-0.12141697190397917   -0.015028107839393505   -0.000655181590680667
-0.12141697190397917   -0.015028107839393505   -0.000655181590680667
-0.12141697190397917   -0.015028107839393505   -0.000655181590680667
-0.12249911635362196   -0.010080141397156   -0.0056305946152976965
-0.12249911635362196   -0.010080141397156   -0.0056305946152976965
-0.12249911635362196   -0.010080141397156   -0.0056305946152976965
-0.12249911635362196   -0.010080141397156   -0.0056305946152976965
-0.12144508871542657   -0.019915236133646045   -7.930186639248135e-05
-0.12144508871542657   -0.019915236133646045   -7.930186639248135e-05
-0.12144508871542657   -0.019915236133646045   -7.930186639248135e-05
-0.12144508871542657   -0.019915236133646045   -7.930186639248135e-05
-0.11960083309000592   -0.012538362264123979   -0.00025803670237351884
-0.11960083309000592   -0.012538362264123979   -0.00025803670237351884
-0.11960083309000592   -0.012538362264123979   -0.00025803670237351884
-0.11960083309000592   -0.012538362264123979   -0.00025803670237351884
-0.12147867986351452   -0.010652028270142253   -0.009510465470336429
-0.12147867986351452   -0.010652028270142253   -0.009510465470336429
-0.12147867986351452   -0.010652028270142253   -0.009510465470336429
-0.12147867986351452   -0.010652028270142253   -0.009510465470336429
-0.1232458805337066   -0.020123704588832753   0.0006791476759540071
-0.1232458805337066   -0.020123704588832753   0.0006791476759540071
-0.1232458805337066   -0.020123704588832753   0.0006791476759540071
-0.1232458805337066   -0.020123704588832753   0.0006791476759540071
-0.12472583693906042   -0.01658971084742219   -0.0036884364455646444
-0.12472583693906042   -0.01658971084742219   -0.0036884364455646444
-0.12472583693906042   -0.01658971084742219   -0.0036884364455646444
-0.12472583693906042   -0.01658971084742219   -0.0036884364455646444
-0.1261150499864244   -0.025941858641031018   0.002924561869110299
-0.1261150499864244   -0.025941858641031018   0.002924561869110299
-0.1261150499864244   -0.025941858641031018   0.002924561869110299
-0.1261150499864244   -0.025941858641031018   0.002924561869110299
-0.12256657197742685   -0.01782755932835453   -0.0033136634834154085
-0.12256657197742685   -0.01782755932835453   -0.0033136634834154085
-0.12256657197742685   -0.01782755932835453   -0.0033136634834154085
-0.12256657197742685   -0.01782755932835453   -0.0033136634834154085
-0.12645118016240123   -0.017613901444448653   -0.007084046207356153
-0.12645118016240123   -0.017613901444448653   -0.007084046207356153
-0.12645118016240123   -0.017613901444448653   -0.007084046207356153
-0.12645118016240123   -0.017613901444448653   -0.007084046207356153
-0.12538512653614617   -0.025913087817068737   0.0023384925386511412
-0.12538512653614617   -0.025913087817068737   0.0023384925386511412
-0.12538512653614617   -0.025913087817068737   0.0023384925386511412
-0.12538512653614617   -0.025913087817068737   0.0023384925386511412
-0.12674924458561382   -0.023546507385406167   -0.001769421015595391
-0.12674924458561382   -0.023546507385406167   -0.001769421015595391
-0.12674924458561382   -0.023546507385406167   -0.001769421015595391
-0.12674924458561382   -0.023546507385406167   -0.001769421015595391
-0.1297143294838372   -0.033508011595796576   0.005791628371715892
-0.1297143294838372   -0.033508011595796576   0.005791628371715892
-0.1297143294838372   -0.033508011595796576   0.005791628371715892
-0.1297143294838372   -0.033508011595796576   0.005791628371715892
-0.12655136004202913   -0.024134131678292144   -0.007163691157835974
-0.12655136004202913   -0.024134131678292144   -0.007163691157835974
-0.12655136004202913   -0.024134131678292144   -0.007163691157835974
-0.12655136004202913   -0.024134131678292144   -0.007163691157835974
-0.11800078039661262   0.003427139376020835   -0.0020294712692604626
-0.11800078039661262   0.003427139376020835   -0.0020294712692604626
-0.11800078039661262   0.003427139376020835   -0.0020294712692604626
-0.11800078039661262   0.003427139376020835   -0.0020294712692604626
-0.1358014168864086   -0.025810665274388415   -0.006569894012119384
-0.1358014168864086   -0.025810665274388415   -0.006569894012119384
-0.1358014168864086   -0.025810665274388415   -0.006569894012119384
-0.1358014168864086   -0.025810665274388415   -0.006569894012119384
-0.13043775755138767   -0.004823901458256851   0.0015960675428002185
-0.13043775755138767   -0.004823901458256851   0.0015960675428002185
-0.13043775755138767   -0.004823901458256851   0.0015960675428002185
-0.13043775755138767   -0.004823901458256851   0.0015960675428002185
-0.12563580018857057   -0.02741735792289872   -0.00397679726429997
-0.12563580018857057   -0.02741735792289872   -0.00397679726429997
-0.12563580018857057   -0.02741735792289872   -0.00397679726429997
-0.12563580018857057   -0.02741735792289872   -0.00397679726429997
-0.12737829151137348   -0.014095606912600095   -0.002782370575147695
-0.12737829151137348   -0.014095606912600095   -0.002782370575147695
-0.12737829151137348   -0.014095606912600095   -0.002782370575147695
-0.12737829151137348   -0.014095606912600095   -0.002782370575147695
-0.11997465748592524   -0.003056819407099006   -3.162226687297275e-05
-0.11997465748592524   -0.003056819407099006   -3.162226687297275e-05
-0.11997465748592524   -0.003056819407099006   -3.162226687297275e-05
-0.11997465748592524   -0.003056819407099006   -3.162226687297275e-05
-0.13681121484308906   -0.029896754563113876   -0.005198365810849642
-0.13681121484308906   -0.029896754563113876   -0.005198365810849642
-0.13681121484308906   -0.029896754563113876   -0.005198365810849642
-0.13681121484308906   -0.029896754563113876   -0.005198365810849642
-0.13208672260300952   -0.011358782687190348   0.0035234371939657488
-0.13208672260300952   -0.011358782687190348   0.0035234371939657488
-0.13208672260300952   -0.011358782687190348   0.0035234371939657488
-0.13208672260300952   -0.011358782687190348   0.0035234371939657488
-0.12772152653021576   -0.03255446220265189   -0.0027021330461116655
-0.12772152653021576   -0.03255446220265189   -0.0027021330461116655
-0.12772152653021576   -0.03255446220265189   -0.0027021330461116655
-0.12772152653021576   -0.03255446220265189   -0.0027021330461116655
-0.12911180386030122   -0.01905868371964809   -0.005403854666642963
-0.12911180386030122   -0.01905868371964809   -0.005403854666642963
-0.12911180386030122   -0.01905868371964809   -0.005403854666642963
-0.12911180386030122   -0.01905868371964809   -0.005403854666642963
-0.1222325628190621   -0.00971249458982627   0.0019007178968310301
-0.1222325628190621   -0.00971249458982627   0.0019007178968310301
-0.1222325628190621   -0.00971249458982627   0.0019007178968310301
-0.1222325628190621   -0.00971249458982627   0.0019007178968310301
-0.13837162075091758   -0.03499668473676809   -0.004263151495998544
-0.13837162075091758   -0.03499668473676809   -0.004263151495998544
-0.13837162075091758   -0.03499668473676809   -0.004263151495998544
-0.13837162075091758   -0.03499668473676809   -0.004263151495998544
-0.1334589507575953   -0.017482137909372638   0.005416161736105333
-0.1334589507575953   -0.017482137909372638   0.005416161736105333
-0.1334589507575953   -0.017482137909372638   0.005416161736105333
-0.1334589507575953   -0.017482137909372638   0.005416161736105333
-0.1293256446993775   -0.037442446199366125   -0.0007554827704545708
-0.1293256446993775   -0.037442446199366125   -0.0007554827704545708
-0.1293256446993775   -0.037442446199366125   -0.0007554827704545708
-0.1293256446993775   -0.037442446199366125   -0.0007554827704545708
-0.1311551518543845   -0.024241407525792454   -0.008281751012848669
-0.1311551518543845   -0.024241407525792454   -0.008281751012848669
-0.1311551518543845   -0.024241407525792454   -0.008281751012848669
-0.1311551518543845   -0.024241407525792454   -0.008281751012848669
-0.12537353117264083   0.013487646810108354   0.006271222472222629
-0.12537353117264083   0.013487646810108354   0.006271222472222629
-0.12537353117264083   0.013487646810108354   0.006271222472222629
-0.12537353117264083   0.013487646810108354   0.006271222472222629
-0.15018435279647546   -0.019527794219955402   -0.009244801040101636
-0.15018435279647546   -0.019527794219955402   -0.009244801040101636
-0.15018435279647546   -0.019527794219955402   -0.009244801040101636
-0.15018435279647546   -0.019527794219955402   -0.009244801040101636
-0.14236015994995332   0.003732496990215821   0.008590803509348897
-0.14236015994995332   0.003732496990215821   0.008590803509348897
-0.14236015994995332   0.003732496990215821   0.008590803509348897
-0.14236015994995332   0.003732496990215821   0.008590803509348897
-0.13515503062889095   -0.021279762997695705   -0.005534436305277368
-0.13515503062889095   -0.021279762997695705   -0.005534436305277368
-0.13515503062889095   -0.021279762997695705   -0.005534436305277368
-0.13515503062889095   -0.021279762997695705   -0.005534436305277368
-0.13822329994578533   -0.005760870121161447   -0.0016591919099306065
-0.13822329994578533   -0.005760870121161447   -0.0016591919099306065
-0.13822329994578533   -0.005760870121161447   -0.0016591919099306065
-0.13822329994578533   -0.005760870121161447   -0.0016591919099306065
-0.12679718237301194   0.0067682834991822545   0.008206758477239687
-0.12679718237301194   0.0067682834991822545   0.008206758477239687
-0.12679718237301194   0.0067682834991822545   0.008206758477239687
-0.12679718237301194   0.0067682834991822545   0.008206758477239687
-0.15166890638930886   -0.025266447690138673   -0.008953984007074282
-0.15166890638930886   -0.025266447690138673   -0.008953984007074282
-0.15166890638930886   -0.025266447690138673   -0.008953984007074282
-0.15166890638930886   -0.025266447690138673   -0.008953984007074282
-0.14510654116912894   -0.002672944860105036   0.00975632600075308
-0.14510654116912894   -0.002672944860105036   0.00975632600075308
-0.14510654116912894   -0.002672944860105036   0.00975632600075308
-0.14510654116912894   -0.002672944860105036   0.00975632600075308
-0.1366107157928889   -0.026063663628695416   -0.004391647813925944
-0.1366107157928889   -0.026063663628695416   -0.004391647813925944
-0.1366107157928889   -0.026063663628695416   -0.004391647813925944
-0.1366107157928889   -0.026063663628695416   -0.004391647813925944
-0.13966950335992784   -0.011155163585047638   -0.004738908015794048
-0.13966950335992784   -0.011155163585047638   -0.004738908015794048
-0.13966950335992784   -0.011155163585047638   -0.004738908015794048
-0.13966950335992784   -0.011155163585047638   -0.004738908015794048
-0.12835476010399624   0.0007425329609503546   0.01008193404088965
-0.12835476010399624   0.0007425329609503546   0.01008193404088965
-0.12835476010399624   0.0007425329609503546   0.01008193404088965
-0.12835476010399624   0.0007425329609503546   0.01008193404088965
-0.15418544712240884   -0.030302091714138356   -0.00800905691161303
-0.15418544712240884   -0.030302091714138356   -0.00800905691161303
-0.15418544712240884   -0.030302091714138356   -0.00800905691161303
-0.15418544712240884   -0.030302091714138356   -0.00800905691161303
-0.14696421918978098   -0.008838389030112075   0.011911714910049664
-0.14696421918978098   -0.008838389030112075   0.011911714910049664
-0.14696421918978098   -0.008838389030112075   0.011911714910049664
-0.14696421918978098   -0.008838389030112075   0.011911714910049664
-0.1378896852774741   -0.03087685109892244   -0.0033427976737407227
-0.1378896852774741   -0.03087685109892244   -0.0033427976737407227
-0.1378896852774741   -0.03087685109892244   -0.0033427976737407227
-0.1378896852774741   -0.03087685109892244   -0.0033427976737407227
-0.1421269133807482   -0.016271370995403482   -0.007734941977927014
-0.1421269133807482   -0.016271370995403482   -0.007734941977927014
-0.1421269133807482   -0.016271370995403482   -0.007734941977927014
-0.1421269133807482   -0.016271370995403482   -0.007734941977927014
-0.138039112313368   0.019370911264044693   0.012582695891431737
-0.138039112313368   0.019370911264044693   0.012582695891431737
-0.138039112313368   0.019370911264044693   0.012582695891431737
-0.138039112313368   0.019370911264044693   0.012582695891431737
-0.1499422547406975   -0.012019253006749907   -0.013319215453716088
-0.1499422547406975   -0.012019253006749907   -0.013319215453716088
-0.1499422547406975   -0.012019253006749907   -0.013319215453716088
-0.1499422547406975   -0.012019253006749907   -0.013319215453716088
-0.146864890398634   0.013355073373228513   0.01399727750344967
-0.146864890398634   0.013355073373228513   0.01399727750344967
-0.146864890398634   0.013355073373228513   0.01399727750344967
-0.146864890398634   0.013355073373228513   0.01399727750344967
-0.14941511439585617   -0.014805064344969022   -0.0081464073849805
-0.14941511439585617   -0.014805064344969022   -0.0081464073849805
-0.14941511439585617   -0.014805064344969022   -0.0081464073849805
-0.14941511439585617   -0.014805064344969022   -0.0081464073849805
-0.14101974521749994   0.0033217273836983266   0.0007376665512681888
-0.14101974521749994   0.0033217273836983266   0.0007376665512681888
-0.14101974521749994   0.0033217273836983266   0.0007376665512681888
-0.14101974521749994   0.0033217273836983266   0.0007376665512681888
-0.13890512806683245   0.01505605193494327   0.014542407980221893
-0.13890512806683245   0.01505605193494327   0.014542407980221893
-0.13890512806683245   0.01505605193494327   0.014542407980221893
-0.13890512806683245   0.01505605193494327   0.014542407980221893
-0.15816131311406856   -0.017292479293093983   -0.011837283407400586
-0.15816131311406856   -0.017292479293093983   -0.011837283407400586
-0.15816131311406856   -0.017292479293093983   -0.011837283407400586
-0.15816131311406856   -0.017292479293093983   -0.011837283407400586
-0.15332586780427618   0.009729273947210931   0.017989453374002422
-0.15332586780427618   0.009729273947210931   0.017989453374002422
-0.15332586780427618   0.009729273947210931   0.017989453374002422
-0.15332586780427618   0.009729273947210931   0.017989453374002422
-0.1515308588001263   -0.017637601719273956   -0.007400605295064826
-0.1515308588001263   -0.017637601719273956   -0.007400605295064826
-0.1515308588001263   -0.017637601719273956   -0.007400605295064826
-0.1515308588001263   -0.017637601719273956   -0.007400605295064826
-0.14800712664180019   -0.0010539849320611722   -0.0029505376922856087
-0.14800712664180019   -0.0010539849320611722   -0.0029505376922856087
-0.14800712664180019   -0.0010539849320611722   -0.0029505376922856087
-0.14800712664180019   -0.0010539849320611722   -0.0029505376922856087
-0.14061779894492743   0.012148679580507499   0.017378412681144234
-0.14061779894492743   0.012148679580507499   0.017378412681144234
-0.14061779894492743   0.012148679580507499   0.017378412681144234
-0.14061779894492743   0.012148679580507499   0.017378412681144234
-0.16524944579998863   -0.02106752549308475   -0.01083163716425647
-0.16524944579998863   -0.02106752549308475   -0.01083163716425647
-0.16524944579998863   -0.02106752549308475   -0.01083163716425647
-0.16524944579998863   -0.02106752549308475   -0.01083163716425647
-0.16452062490200237   0.0004500239524880961   0.019204062904354773
-0.16452062490200237   0.0004500239524880961   0.019204062904354773
-0.16452062490200237   0.0004500239524880961   0.019204062904354773
-0.16452062490200237   0.0004500239524880961   0.019204062904354773
-0.1534783819840646   -0.02307521879197013   -0.006422269299510596
-0.1534783819840646   -0.02307521879197013   -0.006422269299510596
-0.1534783819840646   -0.02307521879197013   -0.006422269299510596
-0.1534783819840646   -0.02307521879197013   -0.006422269299510596
-0.15130717486318612   -0.005112393549131008   -0.006241161712898892
-0.15130717486318612   -0.005112393549131008   -0.006241161712898892
-0.15130717486318612   -0.005112393549131008   -0.006241161712898892
-0.15130717486318612   -0.005112393549131008   -0.006241161712898892
-0.2831499964273437   -0.026022796090437297   -0.027572929460867535
-0.2831499964273437   -0.026022796090437297   -0.027572929460867535
-0.2831499964273437   -0.026022796090437297   -0.027572929460867535
-0.2831499964273437   -0.026022796090437297   -0.027572929460867535
-0.18147831182678564   0.014788765530056314   0.0064416596379640746
-0.18147831182678564   0.014788765530056314   0.0064416596379640746
-0.18147831182678564   0.014788765530056314   0.0064416596379640746
-0.18147831182678564   0.014788765530056314   0.0064416596379640746
-0.1907700361890869   -0.012571523800148435   -0.01247554889442502
-0.1907700361890869   -0.012571523800148435   -0.01247554889442502
-0.1907700361890869   -0.012571523800148435   -0.01247554889442502
-0.1907700361890869   -0.012571523800148435   -0.01247554889442502
-0.3019970298474953   -0.035021551394921115   0.0304801822617808
-0.3019970298474953   -0.035021551394921115   0.0304801822617808
-0.3019970298474953   -0.035021551394921115   0.0304801822617808
-0.3019970298474953   -0.035021551394921115   0.0304801822617808
-0.21980785736107109   -0.008704620368048394   0.02977702065109924
-0.21980785736107109   -0.008704620368048394   0.02977702065109924
-0.21980785736107109   -0.008704620368048394   0.02977702065109924
-0.21980785736107109   -0.008704620368048394   0.02977702065109924
-0.31286559485096416   -0.038560303819780706   -0.02032389033070143
-0.31286559485096416   -0.038560303819780706   -0.02032389033070143
-0.31286559485096416   -0.038560303819780706   -0.02032389033070143
-0.31286559485096416   -0.038560303819780706   -0.02032389033070143
-0.1875723242560928   -0.016703624445764467   0.007645111416161513
-0.1875723242560928   -0.016703624445764467   0.007645111416161513
-0.1875723242560928   -0.016703624445764467   0.007645111416161513
-0.1875723242560928   -0.016703624445764467   0.007645111416161513
-0.19403845821745613   -0.01805086543246932   -0.009081921135383652
-0.19403845821745613   -0.01805086543246932   -0.009081921135383652
-0.19403845821745613   -0.01805086543246932   -0.009081921135383652
-0.19403845821745613   -0.01805086543246932   -0.009081921135383652
-0.31209927299903967   -0.048802534539635595   0.00048671606054547737
-0.31209927299903967   -0.048802534539635595   0.00048671606054547737
-0.31209927299903967   -0.048802534539635595   0.00048671606054547737
-0.31209927299903967   -0.048802534539635595   0.00048671606054547737
-0.2440513781657046   -0.029437286756054462   0.006974247685718407
-0.2440513781657046   -0.029437286756054462   0.006974247685718407
-0.2440513781657046   -0.029437286756054462   0.006974247685718407
-0.2440513781657046   -0.029437286756054462   0.006974247685718407
-0.314462527551561   -0.04362142776712696   -0.016510663474566967
-0.314462527551561   -0.04362142776712696   -0.016510663474566967
-0.314462527551561   -0.04362142776712696   -0.016510663474566967
-0.314462527551561   -0.04362142776712696   -0.016510663474566967
-0.19396516955675075   -0.025521938096793772   -0.0012444051675343576
-0.19396516955675075   -0.025521938096793772   -0.0012444051675343576
-0.19396516955675075   -0.025521938096793772   -0.0012444051675343576
-0.19396516955675075   -0.025521938096793772   -0.0012444051675343576
-0.19448396739196452   -0.031169759110252413   -0.006694648712800661
-0.19448396739196452   -0.031169759110252413   -0.006694648712800661
-0.19448396739196452   -0.031169759110252413   -0.006694648712800661
-0.19448396739196452   -0.031169759110252413   -0.006694648712800661
-0.3201685425460692   -0.07430553176605534   0.004490210831937267
-0.3201685425460692   -0.07430553176605534   0.004490210831937267
-0.3201685425460692   -0.07430553176605534   0.004490210831937267
-0.3201685425460692   -0.07430553176605534   0.004490210831937267
-0.2441736123531734   -0.040384716172252894   0.0006383763597165204
-0.2441736123531734   -0.040384716172252894   0.0006383763597165204
-0.2441736123531734   -0.040384716172252894   0.0006383763597165204
-0.2441736123531734   -0.040384716172252894   0.0006383763597165204
-0.19592180596627803   -0.03332953953300561   -0.01765750599643463
-0.19592180596627803   -0.03332953953300561   -0.01765750599643463
-0.19592180596627803   -0.03332953953300561   -0.01765750599643463
-0.19592180596627803   -0.03332953953300561   -0.01765750599643463
-0.13610303311735947   -0.08966204263314081   -0.016728660888361942
-0.13610303311735947   -0.08966204263314081   -0.016728660888361942
-0.13610303311735947   -0.08966204263314081   -0.016728660888361942
-0.13610303311735947   -0.08966204263314081   -0.016728660888361942
-0.11945023861931121   -0.01974130043157981   -0.001204473452184315
-0.11945023861931121   -0.01974130043157981   -0.001204473452184315
-0.11945023861931121   -0.01974130043157981   -0.001204473452184315
-0.11945023861931121   -0.01974130043157981   -0.001204473452184315
-0.20887315579970903   -0.09463967373754348   -0.020922997010140557
-0.20887315579970903   -0.09463967373754348   -0.020922997010140557
-0.20887315579970903   -0.09463967373754348   -0.020922997010140557
-0.20887315579970903   -0.09463967373754348   -0.020922997010140557
-0.1632083967677797   -0.0628844898467549   -0.004802263584700468
-0.1632083967677797   -0.0628844898467549   -0.004802263584700468
-0.1632083967677797   -0.0628844898467549   -0.004802263584700468
-0.1632083967677797   -0.0628844898467549   -0.004802263584700468
-0.19592136139538016   -0.03746280836797047   -0.013340890358068683
-0.19592136139538016   -0.03746280836797047   -0.013340890358068683
-0.19592136139538016   -0.03746280836797047   -0.013340890358068683
-0.19592136139538016   -0.03746280836797047   -0.013340890358068683
-0.1331882595301592   -0.07770439230767198   -0.01193148613033292
-0.1331882595301592   -0.07770439230767198   -0.01193148613033292
-0.1331882595301592   -0.07770439230767198   -0.01193148613033292
-0.1331882595301592   -0.07770439230767198   -0.01193148613033292
-0.12110190582803035   -0.02551833903771157   2.9015727313482572e-05
-0.12110190582803035   -0.02551833903771157   2.9015727313482572e-05
-0.12110190582803035   -0.02551833903771157   2.9015727313482572e-05
-0.12110190582803035   -0.02551833903771157   2.9015727313482572e-05
-0.20989832797243727   -0.09412730908733849   -0.012304826255422186
-0.20989832797243727   -0.09412730908733849   -0.012304826255422186
-0.20989832797243727   -0.09412730908733849   -0.012304826255422186
-0.20989832797243727   -0.09412730908733849   -0.012304826255422186
-0.1615950841026291   -0.058938012551122604   -0.0051055133042784435
-0.1615950841026291   -0.058938012551122604   -0.0051055133042784435
-0.1615950841026291   -0.058938012551122604   -0.0051055133042784435
-0.1615950841026291   -0.058938012551122604   -0.0051055133042784435
-0.19925424112374102   -0.043164124551809895   -0.010047576547467454
-0.19925424112374102   -0.043164124551809895   -0.010047576547467454
-0.19925424112374102   -0.043164124551809895   -0.010047576547467454
-0.19925424112374102   -0.043164124551809895   -0.010047576547467454
-0.13340190698068166   -0.07813743787719525   -0.008851891196461533
-0.13340190698068166   -0.07813743787719525   -0.008851891196461533
-0.13340190698068166   -0.07813743787719525   -0.008851891196461533
-0.13340190698068166   -0.07813743787719525   -0.008851891196461533
-0.1213902255887873   -0.032643227534190036   0.0017914447846986816
-0.1213902255887873   -0.032643227534190036   0.0017914447846986816
-0.1213902255887873   -0.032643227534190036   0.0017914447846986816
-0.1213902255887873   -0.032643227534190036   0.0017914447846986816
-0.20968216655757888   -0.09547665558565469   -0.018378748065472166
-0.20968216655757888   -0.09547665558565469   -0.018378748065472166
-0.20968216655757888   -0.09547665558565469   -0.018378748065472166
-0.20968216655757888   -0.09547665558565469   -0.018378748065472166
-0.16435624921074768   -0.0633293375489165   -0.009516657072580093
-0.16435624921074768   -0.0633293375489165   -0.009516657072580093
-0.16435624921074768   -0.0633293375489165   -0.009516657072580093
-0.16435624921074768   -0.0633293375489165   -0.009516657072580093
-0.11944503844136749   -0.021537964009386144   -0.0015627661321567644
-0.11944503844136749   -0.021537964009386144   -0.0015627661321567644
-0.11944503844136749   -0.021537964009386144   -0.0015627661321567644
-0.11944503844136749   -0.021537964009386144   -0.0015627661321567644
-0.10169395717770217   -0.06891461893126224   -0.011892686288242795
-0.10169395717770217   -0.06891461893126224   -0.011892686288242795
-0.10169395717770217   -0.06891461893126224   -0.011892686288242795
-0.10169395717770217   -0.06891461893126224   -0.011892686288242795
-0.08770902303657331   -0.01811927028863981   0.004586863754997292
-0.08770902303657331   -0.01811927028863981   0.004586863754997292
-0.08770902303657331   -0.01811927028863981   0.004586863754997292
-0.08770902303657331   -0.01811927028863981   0.004586863754997292
-0.13277568442274568   -0.07453518356510529   -0.013037819335832158
-0.13277568442274568   -0.07453518356510529   -0.013037819335832158
-0.13277568442274568   -0.07453518356510529   -0.013037819335832158
-0.13277568442274568   -0.07453518356510529   -0.013037819335832158
-0.10993988347105922   -0.04636362831314182   -0.005459409066369161
-0.10993988347105922   -0.04636362831314182   -0.005459409066369161
-0.10993988347105922   -0.04636362831314182   -0.005459409066369161
-0.10993988347105922   -0.04636362831314182   -0.005459409066369161
-0.1203294747505821   -0.025524270242054104   0.00018231570193461206
-0.1203294747505821   -0.025524270242054104   0.00018231570193461206
-0.1203294747505821   -0.025524270242054104   0.00018231570193461206
-0.1203294747505821   -0.025524270242054104   0.00018231570193461206
-0.10086329923295961   -0.067838250135914   -0.011465537379658037
-0.10086329923295961   -0.067838250135914   -0.011465537379658037
-0.10086329923295961   -0.067838250135914   -0.011465537379658037
-0.10086329923295961   -0.067838250135914   -0.011465537379658037
-0.08800947790234712   -0.02287849934361617   0.005965632621198282
-0.08800947790234712   -0.02287849934361617   0.005965632621198282
-0.08800947790234712   -0.02287849934361617   0.005965632621198282
-0.08800947790234712   -0.02287849934361617   0.005965632621198282
-0.13346404780733584   -0.07571188990224478   -0.011588143304682845
-0.13346404780733584   -0.07571188990224478   -0.011588143304682845
-0.13346404780733584   -0.07571188990224478   -0.011588143304682845
-0.13346404780733584   -0.07571188990224478   -0.011588143304682845
-0.10997375764385536   -0.0481169616191713   -0.007091370305734048
-0.10997375764385536   -0.0481169616191713   -0.007091370305734048
-0.10997375764385536   -0.0481169616191713   -0.007091370305734048
-0.10997375764385536   -0.0481169616191713   -0.007091370305734048
-0.12163548876163667   -0.03035689636283212   0.0021996583844003897
-0.12163548876163667   -0.03035689636283212   0.0021996583844003897
-0.12163548876163667   -0.03035689636283212   0.0021996583844003897
-0.12163548876163667   -0.03035689636283212   0.0021996583844003897
-0.10023153289179536   -0.0686269888267766   -0.009396152842882427
-0.10023153289179536   -0.0686269888267766   -0.009396152842882427
-0.10023153289179536   -0.0686269888267766   -0.009396152842882427
-0.10023153289179536   -0.0686269888267766   -0.009396152842882427
-0.0872782078809909   -0.02738634237138683   0.00747759955106304
-0.0872782078809909   -0.02738634237138683   0.00747759955106304
-0.0872782078809909   -0.02738634237138683   0.00747759955106304
-0.0872782078809909   -0.02738634237138683   0.00747759955106304
-0.13219870820201446   -0.07659202662528174   -0.00830216919034543
-0.13219870820201446   -0.07659202662528174   -0.00830216919034543
-0.13219870820201446   -0.07659202662528174   -0.00830216919034543
-0.13219870820201446   -0.07659202662528174   -0.00830216919034543
-0.10994545780180029   -0.05047258948394498   -0.008265128609026852
-0.10994545780180029   -0.05047258948394498   -0.008265128609026852
-0.10994545780180029   -0.05047258948394498   -0.008265128609026852
-0.10994545780180029   -0.05047258948394498   -0.008265128609026852
-0.08444984043550129   -0.002874396534533632   0.00828767502603303
-0.08444984043550129   -0.002874396534533632   0.00828767502603303
-0.08444984043550129   -0.002874396534533632   0.00828767502603303
-0.08444984043550129   -0.002874396534533632   0.00828767502603303
-0.08136361243261597   -0.03678728610878269   -0.007258278419544256
-0.08136361243261597   -0.03678728610878269   -0.007258278419544256
-0.08136361243261597   -0.03678728610878269   -0.007258278419544256
-0.08136361243261597   -0.03678728610878269   -0.007258278419544256
-0.07041871262955608   -0.005315453093040204   0.00955079521866528
-0.07041871262955608   -0.005315453093040204   0.00955079521866528
-0.07041871262955608   -0.005315453093040204   0.00955079521866528
-0.07041871262955608   -0.005315453093040204   0.00955079521866528
-0.09444341898773699   -0.04212060952121961   -0.005083776768241306
-0.09444341898773699   -0.04212060952121961   -0.005083776768241306
-0.09444341898773699   -0.04212060952121961   -0.005083776768241306
-0.09444341898773699   -0.04212060952121961   -0.005083776768241306
-0.0829326490802768   -0.021548364500575984   -0.0029778115136648515
-0.0829326490802768   -0.021548364500575984   -0.0029778115136648515
-0.0829326490802768   -0.021548364500575984   -0.0029778115136648515
-0.0829326490802768   -0.021548364500575984   -0.0029778115136648515
-0.08472466901662509   -0.008174108917472788   0.009563472483571365
-0.08472466901662509   -0.008174108917472788   0.009563472483571365
-0.08472466901662509   -0.008174108917472788   0.009563472483571365
-0.08472466901662509   -0.008174108917472788   0.009563472483571365
-0.08090690514220873   -0.04003139623832778   -0.008174224199310385
-0.08090690514220873   -0.04003139623832778   -0.008174224199310385
-0.08090690514220873   -0.04003139623832778   -0.008174224199310385
-0.08090690514220873   -0.04003139623832778   -0.008174224199310385
-0.07077705008325512   -0.00996152663078351   0.010285371466007496
-0.07077705008325512   -0.00996152663078351   0.010285371466007496
-0.07077705008325512   -0.00996152663078351   0.010285371466007496
-0.07077705008325512   -0.00996152663078351   0.010285371466007496
-0.09468910614080313   -0.04470663265054656   -0.005604375264153291
-0.09468910614080313   -0.04470663265054656   -0.005604375264153291
-0.09468910614080313   -0.04470663265054656   -0.005604375264153291
-0.09468910614080313   -0.04470663265054656   -0.005604375264153291
-0.08280746345894703   -0.025255046639245826   -0.005079107391906238
-0.08280746345894703   -0.025255046639245826   -0.005079107391906238
-0.08280746345894703   -0.025255046639245826   -0.005079107391906238
-0.08280746345894703   -0.025255046639245826   -0.005079107391906238
-0.08498897209368   -0.012685877384905698   0.010875539705821445
-0.08498897209368   -0.012685877384905698   0.010875539705821445
-0.08498897209368   -0.012685877384905698   0.010875539705821445
-0.08498897209368   -0.012685877384905698   0.010875539705821445
-0.08094437855237693   -0.042449476318423066   -0.008063321191962004
-0.08094437855237693   -0.042449476318423066   -0.008063321191962004
-0.08094437855237693   -0.042449476318423066   -0.008063321191962004
-0.08094437855237693   -0.042449476318423066   -0.008063321191962004
-0.07045089699902979   -0.01433424960136023   0.011931421535618351
-0.07045089699902979   -0.01433424960136023   0.011931421535618351
-0.07045089699902979   -0.01433424960136023   0.011931421535618351
-0.07045089699902979   -0.01433424960136023   0.011931421535618351
-0.09350660883371079   -0.047270814431677424   -0.0037799331522457586
-0.09350660883371079   -0.047270814431677424   -0.0037799331522457586
-0.09350660883371079   -0.047270814431677424   -0.0037799331522457586
-0.09350660883371079   -0.047270814431677424   -0.0037799331522457586
-0.0828532413898196   -0.028490909874996556   -0.006576385584828589
-0.0828532413898196   -0.028490909874996556   -0.006576385584828589
-0.0828532413898196   -0.028490909874996556   -0.006576385584828589
-0.0828532413898196   -0.028490909874996556   -0.006576385584828589
-0.06802425797569027   0.009632025823545883   0.013019181932755659
-0.06802425797569027   0.009632025823545883   0.013019181932755659
-0.06802425797569027   0.009632025823545883   0.013019181932755659
-0.06802425797569027   0.009632025823545883   0.013019181932755659
-0.04726189936457953   -0.012326214453221414   -0.00456567513481809
-0.04726189936457953   -0.012326214453221414   -0.00456567513481809
-0.04726189936457953   -0.012326214453221414   -0.00456567513481809
-0.04726189936457953   -0.012326214453221414   -0.00456567513481809
-0.041825247670889014   0.010920622697230379   0.012892161101041664
-0.041825247670889014   0.010920622697230379   0.012892161101041664
-0.041825247670889014   0.010920622697230379   0.012892161101041664
-0.041825247670889014   0.010920622697230379   0.012892161101041664
-0.07541587197597263   -0.018365984583332128   -0.0023844700231255224
-0.07541587197597263   -0.018365984583332128   -0.0023844700231255224
-0.07541587197597263   -0.018365984583332128   -0.0023844700231255224
-0.07541587197597263   -0.018365984583332128   -0.0023844700231255224
-0.05724911298313764   -0.0012468094405264467   -0.002233328305136893
-0.05724911298313764   -0.0012468094405264467   -0.002233328305136893
-0.05724911298313764   -0.0012468094405264467   -0.002233328305136893
-0.05724911298313764   -0.0012468094405264467   -0.002233328305136893
-0.06720077705519832   0.0061100738330351675   0.014214946164382593
-0.06720077705519832   0.0061100738330351675   0.014214946164382593
-0.06720077705519832   0.0061100738330351675   0.014214946164382593
-0.06720077705519832   0.0061100738330351675   0.014214946164382593
-0.050138535393961306   -0.013653628521435538   -0.004100026295653892
-0.050138535393961306   -0.013653628521435538   -0.004100026295653892
-0.050138535393961306   -0.013653628521435538   -0.004100026295653892
-0.050138535393961306   -0.013653628521435538   -0.004100026295653892
-0.04387970900413597   0.008612766618310438   0.016200086596866815
-0.04387970900413597   0.008612766618310438   0.016200086596866815
-0.04387970900413597   0.008612766618310438   0.016200086596866815
-0.04387970900413597   0.008612766618310438   0.016200086596866815
-0.07535554713502787   -0.01959247256119253   -0.00297616786244721
-0.07535554713502787   -0.01959247256119253   -0.00297616786244721
-0.07535554713502787   -0.01959247256119253   -0.00297616786244721
-0.07535554713502787   -0.01959247256119253   -0.00297616786244721
-0.05924520594420954   -0.0037594002137122176   -0.0033118120961225465
-0.05924520594420954   -0.0037594002137122176   -0.0033118120961225465
-0.05924520594420954   -0.0037594002137122176   -0.0033118120961225465
-0.05924520594420954   -0.0037594002137122176   -0.0033118120961225465
-0.0667583706238164   0.004067054501237087   0.016350187631180492
-0.0667583706238164   0.004067054501237087   0.016350187631180492
-0.0667583706238164   0.004067054501237087   0.016350187631180492
-0.0667583706238164   0.004067054501237087   0.016350187631180492
-0.053065798042603564   -0.015635672971375306   -0.005481919005789235
-0.053065798042603564   -0.015635672971375306   -0.005481919005789235
-0.053065798042603564   -0.015635672971375306   -0.005481919005789235
-0.053065798042603564   -0.015635672971375306   -0.005481919005789235
-0.050103960948916594   0.002256575266538099   0.016862279957882507
-0.050103960948916594   0.002256575266538099   0.016862279957882507
-0.050103960948916594   0.002256575266538099   0.016862279957882507
-0.050103960948916594   0.002256575266538099   0.016862279957882507
-0.07462020912614989   -0.020783997215258594   -0.0024653914860837713
-0.07462020912614989   -0.020783997215258594   -0.0024653914860837713
-0.07462020912614989   -0.020783997215258594   -0.0024653914860837713
-0.07462020912614989   -0.020783997215258594   -0.0024653914860837713
-0.060314952087172774   -0.005629903355330148   -0.00495990450210168
-0.060314952087172774   -0.005629903355330148   -0.00495990450210168
-0.060314952087172774   -0.005629903355330148   -0.00495990450210168
-0.060314952087172774   -0.005629903355330148   -0.00495990450210168
-0.6791836071308128   -0.09753248962658495   -0.057459320841215106
-0.6791836071308128   -0.09753248962658495   -0.057459320841215106
-0.6791836071308128   -0.09753248962658495   -0.057459320841215106
-0.6791836071308128   -0.09753248962658495   -0.057459320841215106
-0.23747617036926388   -0.38749997743165593   -0.04470469375733586
-0.23747617036926388   -0.38749997743165593   -0.04470469375733586
-0.23747617036926388   -0.38749997743165593   -0.04470469375733586
-0.23747617036926388   -0.38749997743165593   -0.04470469375733586
-0.18159162453572955   -0.01702526873634591   5.619024289487892e-05
-0.18159162453572955   -0.01702526873634591   5.619024289487892e-05
-0.18159162453572955   -0.01702526873634591   5.619024289487892e-05
-0.18159162453572955   -0.01702526873634591   5.619024289487892e-05
-0.7289376289679972   -0.45252914308759695   -0.23629335441111882
-0.7289376289679972   -0.45252914308759695   -0.23629335441111882
-0.7289376289679972   -0.45252914308759695   -0.23629335441111882
-0.7289376289679972   -0.45252914308759695   -0.23629335441111882
-0.44530831746359617   -0.22470841872789965   -0.03279672901909194
-0.44530831746359617   -0.22470841872789965   -0.03279672901909194
-0.44530831746359617   -0.22470841872789965   -0.03279672901909194
-0.44530831746359617   -0.22470841872789965   -0.03279672901909194
-0.631317672828475   -0.12260521650308005   -0.07811750029803038
-0.631317672828475   -0.12260521650308005   -0.07811750029803038
-0.631317672828475   -0.12260521650308005   -0.07811750029803038
-0.631317672828475   -0.12260521650308005   -0.07811750029803038
-0.25701908278385743   -0.3247566974294691   -0.06934967230461936
-0.25701908278385743   -0.3247566974294691   -0.06934967230461936
-0.25701908278385743   -0.3247566974294691   -0.06934967230461936
-0.25701908278385743   -0.3247566974294691   -0.06934967230461936
-0.18575834236361674   -0.02225204696656059   0.0068982232904975455
-0.18575834236361674   -0.02225204696656059   0.0068982232904975455
-0.18575834236361674   -0.02225204696656059   0.0068982232904975455
-0.18575834236361674   -0.02225204696656059   0.0068982232904975455
-0.6824552189244468   -0.4052804474275058   -0.21754713327039052
-0.6824552189244468   -0.4052804474275058   -0.21754713327039052
-0.6824552189244468   -0.4052804474275058   -0.21754713327039052
-0.6824552189244468   -0.4052804474275058   -0.21754713327039052
-0.41970455615084673   -0.20315099319286406   0.016582004554973315
-0.41970455615084673   -0.20315099319286406   0.016582004554973315
-0.41970455615084673   -0.20315099319286406   0.016582004554973315
-0.41970455615084673   -0.20315099319286406   0.016582004554973315
-0.5929593912769558   -0.11678465824951426   -0.05856378421093165
-0.5929593912769558   -0.11678465824951426   -0.05856378421093165
-0.5929593912769558   -0.11678465824951426   -0.05856378421093165
-0.5929593912769558   -0.11678465824951426   -0.05856378421093165
-0.2505416162350684   -0.2860352823685133   -0.053234910664806526
-0.2505416162350684   -0.2860352823685133   -0.053234910664806526
-0.2505416162350684   -0.2860352823685133   -0.053234910664806526
-0.2505416162350684   -0.2860352823685133   -0.053234910664806526
-0.2146472799872458   -0.05641105140368024   -0.011558649915010637
-0.2146472799872458   -0.05641105140368024   -0.011558649915010637
-0.2146472799872458   -0.05641105140368024   -0.011558649915010637
-0.2146472799872458   -0.05641105140368024   -0.011558649915010637
-0.6222111346307267   -0.34271272289399185   -0.19298477150494373
-0.6222111346307267   -0.34271272289399185   -0.19298477150494373
-0.6222111346307267   -0.34271272289399185   -0.19298477150494373
-0.6222111346307267   -0.34271272289399185   -0.19298477150494373
-0.3890883583134143   -0.17651995921544725   0.07251404771481273
-0.3890883583134143   -0.17651995921544725   0.07251404771481273
-0.3890883583134143   -0.17651995921544725   0.07251404771481273
-0.3890883583134143   -0.17651995921544725   0.07251404771481273
-0.1731825220723743   -0.09656624515615038   -0.014170184548394967
-0.1731825220723743   -0.09656624515615038   -0.014170184548394967
-0.1731825220723743   -0.09656624515615038   -0.014170184548394967
-0.1731825220723743   -0.09656624515615038   -0.014170184548394967
-0.0816624995161973   -0.1269696811140053   -0.020252830998434806
-0.0816624995161973   -0.1269696811140053   -0.020252830998434806
-0.0816624995161973   -0.1269696811140053   -0.020252830998434806
-0.0816624995161973   -0.1269696811140053   -0.020252830998434806
-0.07104261106022086   -0.06254770726841478   0.0017062905960109256
-0.07104261106022086   -0.06254770726841478   0.0017062905960109256
-0.07104261106022086   -0.06254770726841478   0.0017062905960109256
-0.07104261106022086   -0.06254770726841478   0.0017062905960109256
-0.21448955760901056   -0.18237614011741693   0.0009173962575625902
-0.21448955760901056   -0.18237614011741693   0.0009173962575625902
-0.21448955760901056   -0.18237614011741693   0.0009173962575625902
-0.21448955760901056   -0.18237614011741693   0.0009173962575625902
-0.11448861496351237   -0.08802365750550532   0.03724593758032137
-0.11448861496351237   -0.08802365750550532   0.03724593758032137
-0.11448861496351237   -0.08802365750550532   0.03724593758032137
-0.11448861496351237   -0.08802365750550532   0.03724593758032137
-0.19804760482422132   -0.09011646677299928   -0.009132513162911108
-0.19804760482422132   -0.09011646677299928   -0.009132513162911108
-0.19804760482422132   -0.09011646677299928   -0.009132513162911108
-0.19804760482422132   -0.09011646677299928   -0.009132513162911108
-0.09371401344077757   -0.16103683020860027   -0.013161598366587101
-0.09371401344077757   -0.16103683020860027   -0.013161598366587101
-0.09371401344077757   -0.16103683020860027   -0.013161598366587101
-0.09371401344077757   -0.16103683020860027   -0.013161598366587101
-0.07719848178933492   -0.06475510939975034   0.0018563259994162588
-0.07719848178933492   -0.06475510939975034   0.0018563259994162588
-0.07719848178933492   -0.06475510939975034   0.0018563259994162588
-0.07719848178933492   -0.06475510939975034   0.0018563259994162588
-0.22566455091699605   -0.18063119999800425   -0.034253666444954076
-0.22566455091699605   -0.18063119999800425   -0.034253666444954076
-0.22566455091699605   -0.18063119999800425   -0.034253666444954076
-0.22566455091699605   -0.18063119999800425   -0.034253666444954076
-0.1374183970185022   -0.11237743402762494   0.01657621659251725
-0.1374183970185022   -0.11237743402762494   0.01657621659251725
-0.1374183970185022   -0.11237743402762494   0.01657621659251725
-0.1374183970185022   -0.11237743402762494   0.01657621659251725
-0.20493999233116905   -0.0941059095089711   -0.01715616400485346
-0.20493999233116905   -0.0941059095089711   -0.01715616400485346
-0.20493999233116905   -0.0941059095089711   -0.01715616400485346
-0.20493999233116905   -0.0941059095089711   -0.01715616400485346
-0.09736603830382698   -0.15072339781744842   -0.013013168155344118
-0.09736603830382698   -0.15072339781744842   -0.013013168155344118
-0.09736603830382698   -0.15072339781744842   -0.013013168155344118
-0.09736603830382698   -0.15072339781744842   -0.013013168155344118
-0.08683963626118948   -0.0666820727174033   0.002751635979395352
-0.08683963626118948   -0.0666820727174033   0.002751635979395352
-0.08683963626118948   -0.0666820727174033   0.002751635979395352
-0.08683963626118948   -0.0666820727174033   0.002751635979395352
-0.24214893281439648   -0.1759405399562281   -0.02953742549821501
-0.24214893281439648   -0.1759405399562281   -0.02953742549821501
-0.24214893281439648   -0.1759405399562281   -0.02953742549821501
-0.24214893281439648   -0.1759405399562281   -0.02953742549821501
-0.14441315635294485   -0.10601740560026776   0.017451874139503342
-0.14441315635294485   -0.10601740560026776   0.017451874139503342
-0.14441315635294485   -0.10601740560026776   0.017451874139503342
-0.14441315635294485   -0.10601740560026776   0.017451874139503342
-0.06295692343088097   -0.0579396677178519   0.004245036031991535
-0.06295692343088097   -0.0579396677178519   0.004245036031991535
-0.06295692343088097   -0.0579396677178519   0.004245036031991535
-0.06295692343088097   -0.0579396677178519   0.004245036031991535
-0.039773197904259774   -0.04197232547248529   -0.010006738192377074
-0.039773197904259774   -0.04197232547248529   -0.010006738192377074
-0.039773197904259774   -0.04197232547248529   -0.010006738192377074
-0.039773197904259774   -0.04197232547248529   -0.010006738192377074
-0.03811661251641636   -0.05216110836522879   0.004173484757221008
-0.03811661251641636   -0.05216110836522879   0.004173484757221008
-0.03811661251641636   -0.05216110836522879   0.004173484757221008
-0.03811661251641636   -0.05216110836522879   0.004173484757221008
-0.07088800015673359   -0.05613697270935549   -0.003931389445612067
-0.07088800015673359   -0.05613697270935549   -0.003931389445612067
-0.07088800015673359   -0.05613697270935549   -0.003931389445612067
-0.07088800015673359   -0.05613697270935549   -0.003931389445612067
-0.044546598975402724   -0.04377972980688827   0.018781877186070217
-0.044546598975402724   -0.04377972980688827   0.018781877186070217
-0.044546598975402724   -0.04377972980688827   0.018781877186070217
-0.044546598975402724   -0.04377972980688827   0.018781877186070217
-0.06961743041086556   -0.05836589298390786   0.0046503795582786295
-0.06961743041086556   -0.05836589298390786   0.0046503795582786295
-0.06961743041086556   -0.05836589298390786   0.0046503795582786295
-0.06961743041086556   -0.05836589298390786   0.0046503795582786295
-0.04009580909664813   -0.050640814925041085   -0.007242791584125514
-0.04009580909664813   -0.050640814925041085   -0.007242791584125514
-0.04009580909664813   -0.050640814925041085   -0.007242791584125514
-0.04009580909664813   -0.050640814925041085   -0.007242791584125514
-0.0388514702239472   -0.05371963545288025   0.0037605513587512292
-0.0388514702239472   -0.05371963545288025   0.0037605513587512292
-0.0388514702239472   -0.05371963545288025   0.0037605513587512292
-0.0388514702239472   -0.05371963545288025   0.0037605513587512292
-0.07574316399578293   -0.06521844333058692   0.009596248898014569
-0.07574316399578293   -0.06521844333058692   0.009596248898014569
-0.07574316399578293   -0.06521844333058692   0.009596248898014569
-0.07574316399578293   -0.06521844333058692   0.009596248898014569
-0.04895197870142982   -0.04888513377125173   0.015604192146137058
-0.04895197870142982   -0.04888513377125173   0.015604192146137058
-0.04895197870142982   -0.04888513377125173   0.015604192146137058
-0.04895197870142982   -0.04888513377125173   0.015604192146137058
-0.075477881761611   -0.060546820570421794   0.006251037308707295
-0.075477881761611   -0.060546820570421794   0.006251037308707295
-0.075477881761611   -0.060546820570421794   0.006251037308707295
-0.075477881761611   -0.060546820570421794   0.006251037308707295
-0.0424991064252059   -0.06177361218013245   -0.006423652920290084
-0.0424991064252059   -0.06177361218013245   -0.006423652920290084
-0.0424991064252059   -0.06177361218013245   -0.006423652920290084
-0.0424991064252059   -0.06177361218013245   -0.006423652920290084
-0.03983945490130983   -0.0553939687739151   0.005328866765786956
-0.03983945490130983   -0.0553939687739151   0.005328866765786956
-0.03983945490130983   -0.0553939687739151   0.005328866765786956
-0.03983945490130983   -0.0553939687739151   0.005328866765786956
-0.08939822191128449   -0.07954036639594916   0.002817001407464298
-0.08939822191128449   -0.07954036639594916   0.002817001407464298
-0.08939822191128449   -0.07954036639594916   0.002817001407464298
-0.08939822191128449   -0.07954036639594916   0.002817001407464298
-0.055204714669186236   -0.05548372663790128   0.006945689238499045
-0.055204714669186236   -0.05548372663790128   0.006945689238499045
-0.055204714669186236   -0.05548372663790128   0.006945689238499045
-0.055204714669186236   -0.05548372663790128   0.006945689238499045
-0.03176206102498605   -0.023166663330872167   0.011243284062378421
-0.03176206102498605   -0.023166663330872167   0.011243284062378421
-0.03176206102498605   -0.023166663330872167   0.011243284062378421
-0.03176206102498605   -0.023166663330872167   0.011243284062378421
-0.023265126067906972   -0.0021613252309640382   -0.002310354618161094
-0.023265126067906972   -0.0021613252309640382   -0.002310354618161094
-0.023265126067906972   -0.0021613252309640382   -0.002310354618161094
-0.023265126067906972   -0.0021613252309640382   -0.002310354618161094
-0.022007971201285833   -0.02523198250060986   0.006923910548356313
-0.022007971201285833   -0.02523198250060986   0.006923910548356313
-0.022007971201285833   -0.02523198250060986   0.006923910548356313
-0.022007971201285833   -0.02523198250060986   0.006923910548356313
-0.030072689302933976   -0.006746530135817492   -0.001021477404778355
-0.030072689302933976   -0.006746530135817492   -0.001021477404778355
-0.030072689302933976   -0.006746530135817492   -0.001021477404778355
-0.030072689302933976   -0.006746530135817492   -0.001021477404778355
-0.024707399006059345   -0.013554826541032454   0.005571652711198373
-0.024707399006059345   -0.013554826541032454   0.005571652711198373
-0.024707399006059345   -0.013554826541032454   0.005571652711198373
-0.024707399006059345   -0.013554826541032454   0.005571652711198373
-0.0316713191819907   -0.026418054661331652   0.010656897725452214
-0.0316713191819907   -0.026418054661331652   0.010656897725452214
-0.0316713191819907   -0.026418054661331652   0.010656897725452214
-0.0316713191819907   -0.026418054661331652   0.010656897725452214
-0.019902807753503577   -0.005053924406370162   -0.002728330306972104
-0.019902807753503577   -0.005053924406370162   -0.002728330306972104
-0.019902807753503577   -0.005053924406370162   -0.002728330306972104
-0.019902807753503577   -0.005053924406370162   -0.002728330306972104
-0.020446709598532935   -0.027450478601921426   0.006433998436706021
-0.020446709598532935   -0.027450478601921426   0.006433998436706021
-0.020446709598532935   -0.027450478601921426   0.006433998436706021
-0.020446709598532935   -0.027450478601921426   0.006433998436706021
-0.03065165375249971   -0.011445170172169972   0.0024851684352783987
-0.03065165375249971   -0.011445170172169972   0.0024851684352783987
-0.03065165375249971   -0.011445170172169972   0.0024851684352783987
-0.03065165375249971   -0.011445170172169972   0.0024851684352783987
-0.023016146896463176   -0.01561305059530237   0.006410018745969616
-0.023016146896463176   -0.01561305059530237   0.006410018745969616
-0.023016146896463176   -0.01561305059530237   0.006410018745969616
-0.023016146896463176   -0.01561305059530237   0.006410018745969616
-0.032141944024780045   -0.028632179828475907   0.01222072673018073
-0.032141944024780045   -0.028632179828475907   0.01222072673018073
-0.032141944024780045   -0.028632179828475907   0.01222072673018073
-0.032141944024780045   -0.028632179828475907   0.01222072673018073
-0.019203838905882044   -0.01051088852524526   -0.004291238176715702
-0.019203838905882044   -0.01051088852524526   -0.004291238176715702
-0.019203838905882044   -0.01051088852524526   -0.004291238176715702
-0.019203838905882044   -0.01051088852524526   -0.004291238176715702
-0.017591626975797782   -0.029908756825247906   0.007115373021988811
-0.017591626975797782   -0.029908756825247906   0.007115373021988811
-0.017591626975797782   -0.029908756825247906   0.007115373021988811
-0.017591626975797782   -0.029908756825247906   0.007115373021988811
-0.03367936056811563   -0.02246637419109304   0.0032017438489358703
-0.03367936056811563   -0.02246637419109304   0.0032017438489358703
-0.03367936056811563   -0.02246637419109304   0.0032017438489358703
-0.03367936056811563   -0.02246637419109304   0.0032017438489358703
-0.022577260035488   -0.019563855457882594   0.005262279902314848
-0.022577260035488   -0.019563855457882594   0.005262279902314848
-0.022577260035488   -0.019563855457882594   0.005262279902314848
-0.022577260035488   -0.019563855457882594   0.005262279902314848
-0.02085332184914838   -0.003844913061865   0.011432254306532826
-0.02085332184914838   -0.003844913061865   0.011432254306532826
-0.02085332184914838   -0.003844913061865   0.011432254306532826
-0.02085332184914838   -0.003844913061865   0.011432254306532826
-0.0043855641686781285   0.0020438319759578496   -0.0002315109556967087
-0.0043855641686781285   0.0020438319759578496   -0.0002315109556967087
-0.0043855641686781285   0.0020438319759578496   -0.0002315109556967087
-0.0043855641686781285   0.0020438319759578496   -0.0002315109556967087
0.00035417989389296706   -0.00130262862836434   0.007162257881847826
0.00035417989389296706   -0.00130262862836434   0.007162257881847826
0.00035417989389296706   -0.00130262862836434   0.007162257881847826
0.00035417989389296706   -0.00130262862836434   0.007162257881847826
-0.01821397198798322   0.0012748190585358844   -0.0006128949442763593
-0.01821397198798322   0.0012748190585358844   -0.0006128949442763593
-0.01821397198798322   0.0012748190585358844   -0.0006128949442763593
-0.01821397198798322   0.0012748190585358844   -0.0006128949442763593
-0.010914283926018052   -0.0009013913374586575   -0.0008065172395244252
-0.010914283926018052   -0.0009013913374586575   -0.0008065172395244252
-0.010914283926018052   -0.0009013913374586575   -0.0008065172395244252
-0.010914283926018052   -0.0009013913374586575   -0.0008065172395244252
-0.01671608537501558   -0.003765718185580056   0.01191707536467779
-0.01671608537501558   -0.003765718185580056   0.01191707536467779
-0.01671608537501558   -0.003765718185580056   0.01191707536467779
-0.01671608537501558   -0.003765718185580056   0.01191707536467779
-0.0005386670589096732   0.004342948275916601   -0.002947553786446319
-0.0005386670589096732   0.004342948275916601   -0.002947553786446319
-0.0005386670589096732   0.004342948275916601   -0.002947553786446319
-0.0005386670589096732   0.004342948275916601   -0.002947553786446319
0.0025707999814941805   -0.0016431836131802682   0.008843929761088212
0.0025707999814941805   -0.0016431836131802682   0.008843929761088212
0.0025707999814941805   -0.0016431836131802682   0.008843929761088212
0.0025707999814941805   -0.0016431836131802682   0.008843929761088212
-0.016292906074494098   0.0006234187873957776   -0.0008708813324169958
-0.016292906074494098   0.0006234187873957776   -0.0008708813324169958
-0.016292906074494098   0.0006234187873957776   -0.0008708813324169958
-0.016292906074494098   0.0006234187873957776   -0.0008708813324169958
-0.007591446728976674   -0.00038717470345421513   0.0010499649149817538
-0.007591446728976674   -0.00038717470345421513   0.0010499649149817538
-0.007591446728976674   -0.00038717470345421513   0.0010499649149817538
-0.007591446728976674   -0.00038717470345421513   0.0010499649149817538
-0.014523426122627282   -0.004259022786133025   0.012858960000445889
-0.014523426122627282   -0.004259022786133025   0.012858960000445889
-0.014523426122627282   -0.004259022786133025   0.012858960000445889
-0.014523426122627282   -0.004259022786133025   0.012858960000445889
0.0013136390360347823   0.0037515769667559526   -0.002836635546145
0.0013136390360347823   0.0037515769667559526   -0.002836635546145
0.0013136390360347823   0.0037515769667559526   -0.002836635546145
0.0013136390360347823   0.0037515769667559526   -0.002836635546145
0.004672556071111687   -0.0027018631211914047   0.008652513786990597
0.004672556071111687   -0.0027018631211914047   0.008652513786990597
0.004672556071111687   -0.0027018631211914047   0.008652513786990597
0.004672556071111687   -0.0027018631211914047   0.008652513786990597
-0.013193848775018432   0.00015214137177633168   -0.0009566341711386616
-0.013193848775018432   0.00015214137177633168   -0.0009566341711386616
-0.013193848775018432   0.00015214137177633168   -0.0009566341711386616
-0.013193848775018432   0.00015214137177633168   -0.0009566341711386616
-0.004688046527417109   -0.0001788272332987048   0.0025944886608581332
-0.004688046527417109   -0.0001788272332987048   0.0025944886608581332
-0.004688046527417109   -0.0001788272332987048   0.0025944886608581332
-0.004688046527417109   -0.0001788272332987048   0.0025944886608581332
              </DataArray>   
             <DataArray type="Float64" NumberOfComponents="3" Name="Displacements" format="ascii">   
0.0   0.0   0.0
-0.001902297423271082   -0.0012563070229923163   -0.0006377611466564247
0.0   0.0   0.0
0.0   0.0   0.0
-0.001902297423271082   -0.0012563070229923163   -0.0006377611466564247
-0.0012096945796596307   -0.0011304872240838542   -0.00046866224993263465
0.0   0.0   0.0
-0.0011852386401799662   -0.0011867366777907492   -0.0003928105159479249
0.0   0.0   0.0
0.0   0.0   0.0
-0.0011852386401799662   -0.0011867366777907492   -0.0003928105159479249
0.0   0.0   0.0
0.0   0.0   0.0
-0.0011852386401799662   -0.0011867366777907492   -0.0003928105159479249
-0.0019901862908301296   -0.0013380241105899128   -0.0005122917070120366
-0.001902297423271082   -0.0012563070229923163   -0.0006377611466564247
0.0   0.0   0.0
-0.0011852386401799662   -0.0011867366777907492   -0.0003928105159479249
-0.001902297423271082   -0.0012563070229923163   -0.0006377611466564247
0.0   0.0   0.0
0.0   0.0   0.0
-0.0019901862908301296   -0.0013380241105899128   -0.0005122917070120366
0.0   0.0   0.0
0.0   0.0   0.0
-0.0019901862908301296   -0.0013380241105899128   -0.0005122917070120366
-0.0011852386401799662   -0.0011867366777907492   -0.0003928105159479249
0.0   0.0   0.0
-0.0011880058530794055   -0.0012156289544589102   -0.00031713364311298804
0.0   0.0   0.0
0.0   0.0   0.0
-0.0011880058530794055   -0.0012156289544589102   -0.00031713364311298804
0.0   0.0   0.0
0.0   0.0   0.0
-0.0011880058530794055   -0.0012156289544589102   -0.00031713364311298804
-0.0020516456405146963   -0.001377791600892269   -0.0003921969802885256
-0.0019901862908301296   -0.0013380241105899128   -0.0005122917070120366
0.0   0.0   0.0
-0.0011880058530794055   -0.0012156289544589102   -0.00031713364311298804
-0.0019901862908301296   -0.0013380241105899128   -0.0005122917070120366
0.0   0.0   0.0
0.0   0.0   0.0
-0.0020516456405146963   -0.001377791600892269   -0.0003921969802885256
0.0   0.0   0.0
0.0   0.0   0.0
-0.0020516456405146963   -0.001377791600892269   -0.0003921969802885256
-0.0011880058530794055   -0.0012156289544589102   -0.00031713364311298804
0.0   0.0   0.0
-0.0011867328085002676   -0.0012231438470449683   -0.00023896455260207818
0.0   0.0   0.0
0.0   0.0   0.0
-0.0011867328085002676   -0.0012231438470449683   -0.00023896455260207818
0.0   0.0   0.0
0.0   0.0   0.0
-0.0011867328085002676   -0.0012231438470449683   -0.00023896455260207818
-0.0021846170030031717   -0.0014081331631703028   -0.0002529510186801081
-0.0020516456405146963   -0.001377791600892269   -0.0003921969802885256
0.0   0.0   0.0
-0.0011867328085002676   -0.0012231438470449683   -0.00023896455260207818
-0.0020516456405146963   -0.001377791600892269   -0.0003921969802885256
0.0   0.0   0.0
0.0   0.0   0.0
-0.0012096945796596307   -0.0011304872240838542   -0.00046866224993263465
0.0   0.0   0.0
0.0   0.0   0.0
-0.0012096945796596307   -0.0011304872240838542   -0.00046866224993263465
-0.0005515668263308019   -0.0010844616817685228   -0.0003567209578813782
0.0   0.0   0.0
-0.0005299283929431977   -0.00112100531474379   -0.0003208428072940178
0.0   0.0   0.0
0.0   0.0   0.0
-0.0005299283929431977   -0.00112100531474379   -0.0003208428072940178
0.0   0.0   0.0
0.0   0.0   0.0
-0.0005299283929431977   -0.00112100531474379   -0.0003208428072940178
-0.0011852386401799662   -0.0011867366777907492   -0.0003928105159479249
-0.0012096945796596307   -0.0011304872240838542   -0.00046866224993263465
0.0   0.0   0.0
-0.0005299283929431977   -0.00112100531474379   -0.0003208428072940178
-0.0012096945796596307   -0.0011304872240838542   -0.00046866224993263465
0.0   0.0   0.0
0.0   0.0   0.0
-0.0011852386401799662   -0.0011867366777907492   -0.0003928105159479249
0.0   0.0   0.0
0.0   0.0   0.0
-0.0011852386401799662   -0.0011867366777907492   -0.0003928105159479249
-0.0005299283929431977   -0.00112100531474379   -0.0003208428072940178
0.0   0.0   0.0
-0.0005175403858094545   -0.0011349579683847487   -0.0002859662159386966
0.0   0.0   0.0
0.0   0.0   0.0
-0.0005175403858094545   -0.0011349579683847487   -0.0002859662159386966
0.0   0.0   0.0
0.0   0.0   0.0
-0.0005175403858094545   -0.0011349579683847487   -0.0002859662159386966
-0.0011880058530794055   -0.0012156289544589102   -0.00031713364311298804
-0.0011852386401799662   -0.0011867366777907492   -0.0003928105159479249
0.0   0.0   0.0
-0.0005175403858094545   -0.0011349579683847487   -0.0002859662159386966
-0.0011852386401799662   -0.0011867366777907492   -0.0003928105159479249
0.0   0.0   0.0
0.0   0.0   0.0
-0.0011880058530794055   -0.0012156289544589102   -0.00031713364311298804
0.0   0.0   0.0
0.0   0.0   0.0
-0.0011880058530794055   -0.0012156289544589102   -0.00031713364311298804
-0.0005175403858094545   -0.0011349579683847487   -0.0002859662159386966
0.0   0.0   0.0
-0.0005061650871285387   -0.0011291918533921322   -0.0002499775478898477
0.0   0.0   0.0
0.0   0.0   0.0
-0.0005061650871285387   -0.0011291918533921322   -0.0002499775478898477
0.0   0.0   0.0
0.0   0.0   0.0
-0.0005061650871285387   -0.0011291918533921322   -0.0002499775478898477
-0.0011867328085002676   -0.0012231438470449683   -0.00023896455260207818
-0.0011880058530794055   -0.0012156289544589102   -0.00031713364311298804
0.0   0.0   0.0
-0.0005061650871285387   -0.0011291918533921322   -0.0002499775478898477
-0.0011880058530794055   -0.0012156289544589102   -0.00031713364311298804
0.0   0.0   0.0
0.0   0.0   0.0
-0.0005515668263308019   -0.0010844616817685228   -0.0003567209578813782
0.0   0.0   0.0
0.0   0.0   0.0
-0.0005515668263308019   -0.0010844616817685228   -0.0003567209578813782
6.974853738959528e-05   -0.0010904487079499274   -0.0002855587980128683
0.0   0.0   0.0
8.382702981741016e-05   -0.0011093123666596344   -0.00029035725482745426
0.0   0.0   0.0
0.0   0.0   0.0
8.382702981741016e-05   -0.0011093123666596344   -0.00029035725482745426
0.0   0.0   0.0
0.0   0.0   0.0
8.382702981741016e-05   -0.0011093123666596344   -0.00029035725482745426
-0.0005299283929431977   -0.00112100531474379   -0.0003208428072940178
-0.0005515668263308019   -0.0010844616817685228   -0.0003567209578813782
0.0   0.0   0.0
8.382702981741016e-05   -0.0011093123666596344   -0.00029035725482745426
-0.0005515668263308019   -0.0010844616817685228   -0.0003567209578813782
0.0   0.0   0.0
0.0   0.0   0.0
-0.0005299283929431977   -0.00112100531474379   -0.0003208428072940178
0.0   0.0   0.0
0.0   0.0   0.0
-0.0005299283929431977   -0.00112100531474379   -0.0003208428072940178
8.382702981741016e-05   -0.0011093123666596344   -0.00029035725482745426
0.0   0.0   0.0
9.501471758187162e-05   -0.0011076811434490292   -0.00029474739030487885
0.0   0.0   0.0
0.0   0.0   0.0
9.501471758187162e-05   -0.0011076811434490292   -0.00029474739030487885
0.0   0.0   0.0
0.0   0.0   0.0
9.501471758187162e-05   -0.0011076811434490292   -0.00029474739030487885
-0.0005175403858094545   -0.0011349579683847487   -0.0002859662159386966
-0.0005299283929431977   -0.00112100531474379   -0.0003208428072940178
0.0   0.0   0.0
9.501471758187162e-05   -0.0011076811434490292   -0.00029474739030487885
-0.0005299283929431977   -0.00112100531474379   -0.0003208428072940178
0.0   0.0   0.0
0.0   0.0   0.0
-0.0005175403858094545   -0.0011349579683847487   -0.0002859662159386966
0.0   0.0   0.0
0.0   0.0   0.0
-0.0005175403858094545   -0.0011349579683847487   -0.0002859662159386966
9.501471758187162e-05   -0.0011076811434490292   -0.00029474739030487885
0.0   0.0   0.0
0.00010987680740283592   -0.0010838854530024126   -0.00029932683361046683
0.0   0.0   0.0
0.0   0.0   0.0
0.00010987680740283592   -0.0010838854530024126   -0.00029932683361046683
0.0   0.0   0.0
0.0   0.0   0.0
0.00010987680740283592   -0.0010838854530024126   -0.00029932683361046683
-0.0005061650871285387   -0.0011291918533921322   -0.0002499775478898477
-0.0005175403858094545   -0.0011349579683847487   -0.0002859662159386966
0.0   0.0   0.0
0.00010987680740283592   -0.0010838854530024126   -0.00029932683361046683
-0.0005175403858094545   -0.0011349579683847487   -0.0002859662159386966
0.0   0.0   0.0
0.0   0.0   0.0
6.974853738959528e-05   -0.0010904487079499274   -0.0002855587980128683
0.0   0.0   0.0
0.0   0.0   0.0
6.974853738959528e-05   -0.0010904487079499274   -0.0002855587980128683
0.0007446664740960693   -0.0011428555897183548   -0.00025058981619596087
0.0   0.0   0.0
0.000746702010306158   -0.0011487229123624077   -0.0002981944102151266
0.0   0.0   0.0
0.0   0.0   0.0
0.000746702010306158   -0.0011487229123624077   -0.0002981944102151266
0.0   0.0   0.0
0.0   0.0   0.0
0.000746702010306158   -0.0011487229123624077   -0.0002981944102151266
8.382702981741016e-05   -0.0011093123666596344   -0.00029035725482745426
6.974853738959528e-05   -0.0010904487079499274   -0.0002855587980128683
0.0   0.0   0.0
0.000746702010306158   -0.0011487229123624077   -0.0002981944102151266
6.974853738959528e-05   -0.0010904487079499274   -0.0002855587980128683
0.0   0.0   0.0
0.0   0.0   0.0
8.382702981741016e-05   -0.0011093123666596344   -0.00029035725482745426
0.0   0.0   0.0
0.0   0.0   0.0
8.382702981741016e-05   -0.0011093123666596344   -0.00029035725482745426
0.000746702010306158   -0.0011487229123624077   -0.0002981944102151266
0.0   0.0   0.0
0.0007441170596650752   -0.001132324679417441   -0.0003439440503770128
0.0   0.0   0.0
0.0   0.0   0.0
0.0007441170596650752   -0.001132324679417441   -0.0003439440503770128
0.0   0.0   0.0
0.0   0.0   0.0
0.0007441170596650752   -0.001132324679417441   -0.0003439440503770128
9.501471758187162e-05   -0.0011076811434490292   -0.00029474739030487885
8.382702981741016e-05   -0.0011093123666596344   -0.00029035725482745426
0.0   0.0   0.0
0.0007441170596650752   -0.001132324679417441   -0.0003439440503770128
8.382702981741016e-05   -0.0011093123666596344   -0.00029035725482745426
0.0   0.0   0.0
0.0   0.0   0.0
9.501471758187162e-05   -0.0011076811434490292   -0.00029474739030487885
0.0   0.0   0.0
0.0   0.0   0.0
9.501471758187162e-05   -0.0011076811434490292   -0.00029474739030487885
0.0007441170596650752   -0.001132324679417441   -0.0003439440503770128
0.0   0.0   0.0
0.0007591174428374933   -0.0010887078406397403   -0.0003888871772043285
0.0   0.0   0.0
0.0   0.0   0.0
0.0007591174428374933   -0.0010887078406397403   -0.0003888871772043285
0.0   0.0   0.0
0.0   0.0   0.0
0.0007591174428374933   -0.0010887078406397403   -0.0003888871772043285
0.00010987680740283592   -0.0010838854530024126   -0.00029932683361046683
9.501471758187162e-05   -0.0011076811434490292   -0.00029474739030487885
0.0   0.0   0.0
0.0007591174428374933   -0.0010887078406397403   -0.0003888871772043285
9.501471758187162e-05   -0.0011076811434490292   -0.00029474739030487885
0.0   0.0   0.0
0.0   0.0   0.0
0.0007446664740960693   -0.0011428555897183548   -0.00025058981619596087
0.0   0.0   0.0
0.0   0.0   0.0
0.0007446664740960693   -0.0011428555897183548   -0.00025058981619596087
0.0016849523177903637   -0.0012759939422862722   -0.00023701167533658903
0.0   0.0   0.0
0.0015833661906232528   -0.0012617770206526484   -0.0003451707385539916
0.0   0.0   0.0
0.0   0.0   0.0
0.0015833661906232528   -0.0012617770206526484   -0.0003451707385539916
0.0   0.0   0.0
0.0   0.0   0.0
0.0015833661906232528   -0.0012617770206526484   -0.0003451707385539916
0.000746702010306158   -0.0011487229123624077   -0.0002981944102151266
0.0007446664740960693   -0.0011428555897183548   -0.00025058981619596087
0.0   0.0   0.0
0.0015833661906232528   -0.0012617770206526484   -0.0003451707385539916
0.0007446664740960693   -0.0011428555897183548   -0.00025058981619596087
0.0   0.0   0.0
0.0   0.0   0.0
0.000746702010306158   -0.0011487229123624077   -0.0002981944102151266
0.0   0.0   0.0
0.0   0.0   0.0
0.000746702010306158   -0.0011487229123624077   -0.0002981944102151266
0.0015833661906232528   -0.0012617770206526484   -0.0003451707385539916
0.0   0.0   0.0
0.0015367976811274595   -0.0012355507063028716   -0.00043669773148272075
0.0   0.0   0.0
0.0   0.0   0.0
0.0015367976811274595   -0.0012355507063028716   -0.00043669773148272075
0.0   0.0   0.0
0.0   0.0   0.0
0.0015367976811274595   -0.0012355507063028716   -0.00043669773148272075
0.0007441170596650752   -0.001132324679417441   -0.0003439440503770128
0.000746702010306158   -0.0011487229123624077   -0.0002981944102151266
0.0   0.0   0.0
0.0015367976811274595   -0.0012355507063028716   -0.00043669773148272075
0.000746702010306158   -0.0011487229123624077   -0.0002981944102151266
0.0   0.0   0.0
0.0   0.0   0.0
0.0007441170596650752   -0.001132324679417441   -0.0003439440503770128
0.0   0.0   0.0
0.0   0.0   0.0
0.0007441170596650752   -0.001132324679417441   -0.0003439440503770128
0.0015367976811274595   -0.0012355507063028716   -0.00043669773148272075
0.0   0.0   0.0
0.001467041770934038   -0.0011686726098593002   -0.0005336960225101652
0.0   0.0   0.0
0.0   0.0   0.0
0.001467041770934038   -0.0011686726098593002   -0.0005336960225101652
0.0   0.0   0.0
0.0   0.0   0.0
0.001467041770934038   -0.0011686726098593002   -0.0005336960225101652
0.0007591174428374933   -0.0010887078406397403   -0.0003888871772043285
0.0007441170596650752   -0.001132324679417441   -0.0003439440503770128
0.0   0.0   0.0
0.001467041770934038   -0.0011686726098593002   -0.0005336960225101652
0.0007441170596650752   -0.001132324679417441   -0.0003439440503770128
0.0   0.0   0.0
-0.001902297423271082   -0.0012563070229923163   -0.0006377611466564247
-0.0035470172693590723   -0.0034949983156657006   -0.0008595277100722441
-0.0012096945796596307   -0.0011304872240838542   -0.00046866224993263465
-0.0019901862908301296   -0.0013380241105899128   -0.0005122917070120366
-0.0035470172693590723   -0.0034949983156657006   -0.0008595277100722441
-0.002263645166144874   -0.003382061188266819   -0.0007081153572855408
-0.0012096945796596307   -0.0011304872240838542   -0.00046866224993263465
-0.0022654000182301998   -0.0034394925879961675   -0.0006381212682902836
-0.0019901862908301296   -0.0013380241105899128   -0.0005122917070120366
-0.0011852386401799662   -0.0011867366777907492   -0.0003928105159479249
-0.0022654000182301998   -0.0034394925879961675   -0.0006381212682902836
-0.0012096945796596307   -0.0011304872240838542   -0.00046866224993263465
-0.0019901862908301296   -0.0013380241105899128   -0.0005122917070120366
-0.0022654000182301998   -0.0034394925879961675   -0.0006381212682902836
-0.0036520673472444586   -0.003575234318530798   -0.0007460068835435934
-0.0035470172693590723   -0.0034949983156657006   -0.0008595277100722441
-0.0019901862908301296   -0.0013380241105899128   -0.0005122917070120366
-0.0022654000182301998   -0.0034394925879961675   -0.0006381212682902836
-0.0035470172693590723   -0.0034949983156657006   -0.0008595277100722441
-0.0012096945796596307   -0.0011304872240838542   -0.00046866224993263465
-0.0019901862908301296   -0.0013380241105899128   -0.0005122917070120366
-0.0036520673472444586   -0.003575234318530798   -0.0007460068835435934
-0.0011852386401799662   -0.0011867366777907492   -0.0003928105159479249
-0.0020516456405146963   -0.001377791600892269   -0.0003921969802885256
-0.0036520673472444586   -0.003575234318530798   -0.0007460068835435934
-0.0022654000182301998   -0.0034394925879961675   -0.0006381212682902836
-0.0011852386401799662   -0.0011867366777907492   -0.0003928105159479249
-0.0022733339291004387   -0.003474587741485055   -0.000570919739583347
-0.0020516456405146963   -0.001377791600892269   -0.0003921969802885256
-0.0011880058530794055   -0.0012156289544589102   -0.00031713364311298804
-0.0022733339291004387   -0.003474587741485055   -0.000570919739583347
-0.0011852386401799662   -0.0011867366777907492   -0.0003928105159479249
-0.0020516456405146963   -0.001377791600892269   -0.0003921969802885256
-0.0022733339291004387   -0.003474587741485055   -0.000570919739583347
-0.0037246673383934392   -0.0036206292234489063   -0.0006349333719101046
-0.0036520673472444586   -0.003575234318530798   -0.0007460068835435934
-0.0020516456405146963   -0.001377791600892269   -0.0003921969802885256
-0.0022733339291004387   -0.003474587741485055   -0.000570919739583347
-0.0036520673472444586   -0.003575234318530798   -0.0007460068835435934
-0.0011852386401799662   -0.0011867366777907492   -0.0003928105159479249
-0.0020516456405146963   -0.001377791600892269   -0.0003921969802885256
-0.0037246673383934392   -0.0036206292234489063   -0.0006349333719101046
-0.0011880058530794055   -0.0012156289544589102   -0.00031713364311298804
-0.0021846170030031717   -0.0014081331631703028   -0.0002529510186801081
-0.0037246673383934392   -0.0036206292234489063   -0.0006349333719101046
-0.0022733339291004387   -0.003474587741485055   -0.000570919739583347
-0.0011880058530794055   -0.0012156289544589102   -0.00031713364311298804
-0.0022655360042629752   -0.0034929402023558733   -0.0005080766639195868
-0.0021846170030031717   -0.0014081331631703028   -0.0002529510186801081
-0.0011867328085002676   -0.0012231438470449683   -0.00023896455260207818
-0.0022655360042629752   -0.0034929402023558733   -0.0005080766639195868
-0.0011880058530794055   -0.0012156289544589102   -0.00031713364311298804
-0.0021846170030031717   -0.0014081331631703028   -0.0002529510186801081
-0.0022655360042629752   -0.0034929402023558733   -0.0005080766639195868
-0.0038104355074656464   -0.0036472745204428926   -0.0005340100416477953
-0.0037246673383934392   -0.0036206292234489063   -0.0006349333719101046
-0.0021846170030031717   -0.0014081331631703028   -0.0002529510186801081
-0.0022655360042629752   -0.0034929402023558733   -0.0005080766639195868
-0.0037246673383934392   -0.0036206292234489063   -0.0006349333719101046
-0.0011880058530794055   -0.0012156289544589102   -0.00031713364311298804
-0.0012096945796596307   -0.0011304872240838542   -0.00046866224993263465
-0.002263645166144874   -0.003382061188266819   -0.0007081153572855408
-0.0005515668263308019   -0.0010844616817685228   -0.0003567209578813782
-0.0011852386401799662   -0.0011867366777907492   -0.0003928105159479249
-0.002263645166144874   -0.003382061188266819   -0.0007081153572855408
-0.0010519180390802826   -0.0033295031987399678   -0.0006048439628681865
-0.0005515668263308019   -0.0010844616817685228   -0.0003567209578813782
-0.0010419068757627449   -0.0033659687898687273   -0.0005688892446648585
-0.0011852386401799662   -0.0011867366777907492   -0.0003928105159479249
-0.0005299283929431977   -0.00112100531474379   -0.0003208428072940178
-0.0010419068757627449   -0.0033659687898687273   -0.0005688892446648585
-0.0005515668263308019   -0.0010844616817685228   -0.0003567209578813782
-0.0011852386401799662   -0.0011867366777907492   -0.0003928105159479249
-0.0010419068757627449   -0.0033659687898687273   -0.0005688892446648585
-0.0022654000182301998   -0.0034394925879961675   -0.0006381212682902836
-0.002263645166144874   -0.003382061188266819   -0.0007081153572855408
-0.0011852386401799662   -0.0011867366777907492   -0.0003928105159479249
-0.0010419068757627449   -0.0033659687898687273   -0.0005688892446648585
-0.002263645166144874   -0.003382061188266819   -0.0007081153572855408
-0.0005515668263308019   -0.0010844616817685228   -0.0003567209578813782
-0.0011852386401799662   -0.0011867366777907492   -0.0003928105159479249
-0.0022654000182301998   -0.0034394925879961675   -0.0006381212682902836
-0.0005299283929431977   -0.00112100531474379   -0.0003208428072940178
-0.0011880058530794055   -0.0012156289544589102   -0.00031713364311298804
-0.0022654000182301998   -0.0034394925879961675   -0.0006381212682902836
-0.0010419068757627449   -0.0033659687898687273   -0.0005688892446648585
-0.0005299283929431977   -0.00112100531474379   -0.0003208428072940178
-0.0010329299477664104   -0.0033836865518071567   -0.0005363357140877194
-0.0011880058530794055   -0.0012156289544589102   -0.00031713364311298804
-0.0005175403858094545   -0.0011349579683847487   -0.0002859662159386966
-0.0010329299477664104   -0.0033836865518071567   -0.0005363357140877194
-0.0005299283929431977   -0.00112100531474379   -0.0003208428072940178
-0.0011880058530794055   -0.0012156289544589102   -0.00031713364311298804
-0.0010329299477664104   -0.0033836865518071567   -0.0005363357140877194
-0.0022733339291004387   -0.003474587741485055   -0.000570919739583347
-0.0022654000182301998   -0.0034394925879961675   -0.0006381212682902836
-0.0011880058530794055   -0.0012156289544589102   -0.00031713364311298804
-0.0010329299477664104   -0.0033836865518071567   -0.0005363357140877194
-0.0022654000182301998   -0.0034394925879961675   -0.0006381212682902836
-0.0005299283929431977   -0.00112100531474379   -0.0003208428072940178
-0.0011880058530794055   -0.0012156289544589102   -0.00031713364311298804
-0.0022733339291004387   -0.003474587741485055   -0.000570919739583347
-0.0005175403858094545   -0.0011349579683847487   -0.0002859662159386966
-0.0011867328085002676   -0.0012231438470449683   -0.00023896455260207818
-0.0022733339291004387   -0.003474587741485055   -0.000570919739583347
-0.0010329299477664104   -0.0033836865518071567   -0.0005363357140877194
-0.0005175403858094545   -0.0011349579683847487   -0.0002859662159386966
-0.0010199703062339922   -0.0033833219712066966   -0.0005080415876749054
-0.0011867328085002676   -0.0012231438470449683   -0.00023896455260207818
-0.0005061650871285387   -0.0011291918533921322   -0.0002499775478898477
-0.0010199703062339922   -0.0033833219712066966   -0.0005080415876749054
-0.0005175403858094545   -0.0011349579683847487   -0.0002859662159386966
-0.0011867328085002676   -0.0012231438470449683   -0.00023896455260207818
-0.0010199703062339922   -0.0033833219712066966   -0.0005080415876749054
-0.0022655360042629752   -0.0034929402023558733   -0.0005080766639195868
-0.0022733339291004387   -0.003474587741485055   -0.000570919739583347
-0.0011867328085002676   -0.0012231438470449683   -0.00023896455260207818
-0.0010199703062339922   -0.0033833219712066966   -0.0005080415876749054
-0.0022733339291004387   -0.003474587741485055   -0.000570919739583347
-0.0005175403858094545   -0.0011349579683847487   -0.0002859662159386966
-0.0005515668263308019   -0.0010844616817685228   -0.0003567209578813782
-0.0010519180390802826   -0.0033295031987399678   -0.0006048439628681865
6.974853738959528e-05   -0.0010904487079499274   -0.0002855587980128683
-0.0005299283929431977   -0.00112100531474379   -0.0003208428072940178
-0.0010519180390802826   -0.0033295031987399678   -0.0006048439628681865
0.00011595739628410207   -0.003331124196117663   -0.0005397664552401177
6.974853738959528e-05   -0.0010904487079499274   -0.0002855587980128683
0.0001280997552397004   -0.003348262130737822   -0.0005372125998741882
-0.0005299283929431977   -0.00112100531474379   -0.0003208428072940178
8.382702981741016e-05   -0.0011093123666596344   -0.00029035725482745426
0.0001280997552397004   -0.003348262130737822   -0.0005372125998741882
6.974853738959528e-05   -0.0010904487079499274   -0.0002855587980128683
-0.0005299283929431977   -0.00112100531474379   -0.0003208428072940178
0.0001280997552397004   -0.003348262130737822   -0.0005372125998741882
-0.0010419068757627449   -0.0033659687898687273   -0.0005688892446648585
-0.0010519180390802826   -0.0033295031987399678   -0.0006048439628681865
-0.0005299283929431977   -0.00112100531474379   -0.0003208428072940178
0.0001280997552397004   -0.003348262130737822   -0.0005372125998741882
-0.0010519180390802826   -0.0033295031987399678   -0.0006048439628681865
6.974853738959528e-05   -0.0010904487079499274   -0.0002855587980128683
-0.0005299283929431977   -0.00112100531474379   -0.0003208428072940178
-0.0010419068757627449   -0.0033659687898687273   -0.0005688892446648585
8.382702981741016e-05   -0.0011093123666596344   -0.00029035725482745426
-0.0005175403858094545   -0.0011349579683847487   -0.0002859662159386966
-0.0010419068757627449   -0.0033659687898687273   -0.0005688892446648585
0.0001280997552397004   -0.003348262130737822   -0.0005372125998741882
8.382702981741016e-05   -0.0011093123666596344   -0.00029035725482745426
0.00013656695094153168   -0.0033470884655002102   -0.0005385154738847577
-0.0005175403858094545   -0.0011349579683847487   -0.0002859662159386966
9.501471758187162e-05   -0.0011076811434490292   -0.00029474739030487885
0.00013656695094153168   -0.0033470884655002102   -0.0005385154738847577
8.382702981741016e-05   -0.0011093123666596344   -0.00029035725482745426
-0.0005175403858094545   -0.0011349579683847487   -0.0002859662159386966
0.00013656695094153168   -0.0033470884655002102   -0.0005385154738847577
-0.0010329299477664104   -0.0033836865518071567   -0.0005363357140877194
-0.0010419068757627449   -0.0033659687898687273   -0.0005688892446648585
-0.0005175403858094545   -0.0011349579683847487   -0.0002859662159386966
0.00013656695094153168   -0.0033470884655002102   -0.0005385154738847577
-0.0010419068757627449   -0.0033659687898687273   -0.0005688892446648585
8.382702981741016e-05   -0.0011093123666596344   -0.00029035725482745426
-0.0005175403858094545   -0.0011349579683847487   -0.0002859662159386966
-0.0010329299477664104   -0.0033836865518071567   -0.0005363357140877194
9.501471758187162e-05   -0.0011076811434490292   -0.00029474739030487885
-0.0005061650871285387   -0.0011291918533921322   -0.0002499775478898477
-0.0010329299477664104   -0.0033836865518071567   -0.0005363357140877194
0.00013656695094153168   -0.0033470884655002102   -0.0005385154738847577
9.501471758187162e-05   -0.0011076811434490292   -0.00029474739030487885
0.00014558124670112192   -0.0033270489831616888   -0.0005437348811601138
-0.0005061650871285387   -0.0011291918533921322   -0.0002499775478898477
0.00010987680740283592   -0.0010838854530024126   -0.00029932683361046683
0.00014558124670112192   -0.0033270489831616888   -0.0005437348811601138
9.501471758187162e-05   -0.0011076811434490292   -0.00029474739030487885
-0.0005061650871285387   -0.0011291918533921322   -0.0002499775478898477
0.00014558124670112192   -0.0033270489831616888   -0.0005437348811601138
-0.0010199703062339922   -0.0033833219712066966   -0.0005080415876749054
-0.0010329299477664104   -0.0033836865518071567   -0.0005363357140877194
-0.0005061650871285387   -0.0011291918533921322   -0.0002499775478898477
0.00014558124670112192   -0.0033270489831616888   -0.0005437348811601138
-0.0010329299477664104   -0.0033836865518071567   -0.0005363357140877194
9.501471758187162e-05   -0.0011076811434490292   -0.00029474739030487885
6.974853738959528e-05   -0.0010904487079499274   -0.0002855587980128683
0.00011595739628410207   -0.003331124196117663   -0.0005397664552401177
0.0007446664740960693   -0.0011428555897183548   -0.00025058981619596087
8.382702981741016e-05   -0.0011093123666596344   -0.00029035725482745426
0.00011595739628410207   -0.003331124196117663   -0.0005397664552401177
0.0013540982101964928   -0.0033849868255685926   -0.0005097493982575496
0.0007446664740960693   -0.0011428555897183548   -0.00025058981619596087
0.0013615070290641353   -0.0033845247921405128   -0.0005416730265173415
8.382702981741016e-05   -0.0011093123666596344   -0.00029035725482745426
0.000746702010306158   -0.0011487229123624077   -0.0002981944102151266
0.0013615070290641353   -0.0033845247921405128   -0.0005416730265173415
0.0007446664740960693   -0.0011428555897183548   -0.00025058981619596087
8.382702981741016e-05   -0.0011093123666596344   -0.00029035725482745426
0.0013615070290641353   -0.0033845247921405128   -0.0005416730265173415
0.0001280997552397004   -0.003348262130737822   -0.0005372125998741882
0.00011595739628410207   -0.003331124196117663   -0.0005397664552401177
8.382702981741016e-05   -0.0011093123666596344   -0.00029035725482745426
0.0013615070290641353   -0.0033845247921405128   -0.0005416730265173415
0.00011595739628410207   -0.003331124196117663   -0.0005397664552401177
0.0007446664740960693   -0.0011428555897183548   -0.00025058981619596087
8.382702981741016e-05   -0.0011093123666596344   -0.00029035725482745426
0.0001280997552397004   -0.003348262130737822   -0.0005372125998741882
0.000746702010306158   -0.0011487229123624077   -0.0002981944102151266
9.501471758187162e-05   -0.0011076811434490292   -0.00029474739030487885
0.0001280997552397004   -0.003348262130737822   -0.0005372125998741882
0.0013615070290641353   -0.0033845247921405128   -0.0005416730265173415
0.000746702010306158   -0.0011487229123624077   -0.0002981944102151266
0.001356279544830373   -0.003366135396790773   -0.000577959326435815
9.501471758187162e-05   -0.0011076811434490292   -0.00029474739030487885
0.0007441170596650752   -0.001132324679417441   -0.0003439440503770128
0.001356279544830373   -0.003366135396790773   -0.000577959326435815
0.000746702010306158   -0.0011487229123624077   -0.0002981944102151266
9.501471758187162e-05   -0.0011076811434490292   -0.00029474739030487885
0.001356279544830373   -0.003366135396790773   -0.000577959326435815
0.00013656695094153168   -0.0033470884655002102   -0.0005385154738847577
0.0001280997552397004   -0.003348262130737822   -0.0005372125998741882
9.501471758187162e-05   -0.0011076811434490292   -0.00029474739030487885
0.001356279544830373   -0.003366135396790773   -0.000577959326435815
0.0001280997552397004   -0.003348262130737822   -0.0005372125998741882
0.000746702010306158   -0.0011487229123624077   -0.0002981944102151266
9.501471758187162e-05   -0.0011076811434490292   -0.00029474739030487885
0.00013656695094153168   -0.0033470884655002102   -0.0005385154738847577
0.0007441170596650752   -0.001132324679417441   -0.0003439440503770128
0.00010987680740283592   -0.0010838854530024126   -0.00029932683361046683
0.00013656695094153168   -0.0033470884655002102   -0.0005385154738847577
0.001356279544830373   -0.003366135396790773   -0.000577959326435815
0.0007441170596650752   -0.001132324679417441   -0.0003439440503770128
0.0013536698079905075   -0.003324832528760658   -0.0006172621234717743
0.00010987680740283592   -0.0010838854530024126   -0.00029932683361046683
0.0007591174428374933   -0.0010887078406397403   -0.0003888871772043285
0.0013536698079905075   -0.003324832528760658   -0.0006172621234717743
0.0007441170596650752   -0.001132324679417441   -0.0003439440503770128
0.00010987680740283592   -0.0010838854530024126   -0.00029932683361046683
0.0013536698079905075   -0.003324832528760658   -0.0006172621234717743
0.00014558124670112192   -0.0033270489831616888   -0.0005437348811601138
0.00013656695094153168   -0.0033470884655002102   -0.0005385154738847577
0.00010987680740283592   -0.0010838854530024126   -0.00029932683361046683
0.0013536698079905075   -0.003324832528760658   -0.0006172621234717743
0.00013656695094153168   -0.0033470884655002102   -0.0005385154738847577
0.0007441170596650752   -0.001132324679417441   -0.0003439440503770128
0.0007446664740960693   -0.0011428555897183548   -0.00025058981619596087
0.0013540982101964928   -0.0033849868255685926   -0.0005097493982575496
0.0016849523177903637   -0.0012759939422862722   -0.00023701167533658903
0.000746702010306158   -0.0011487229123624077   -0.0002981944102151266
0.0013540982101964928   -0.0033849868255685926   -0.0005097493982575496
0.0028495618426502586   -0.003484915798367889   -0.0005023608792253977
0.0016849523177903637   -0.0012759939422862722   -0.00023701167533658903
0.002793164388136622   -0.0034749979439111928   -0.0005743244906924383
0.000746702010306158   -0.0011487229123624077   -0.0002981944102151266
0.0015833661906232528   -0.0012617770206526484   -0.0003451707385539916
0.002793164388136622   -0.0034749979439111928   -0.0005743244906924383
0.0016849523177903637   -0.0012759939422862722   -0.00023701167533658903
0.000746702010306158   -0.0011487229123624077   -0.0002981944102151266
0.002793164388136622   -0.0034749979439111928   -0.0005743244906924383
0.0013615070290641353   -0.0033845247921405128   -0.0005416730265173415
0.0013540982101964928   -0.0033849868255685926   -0.0005097493982575496
0.000746702010306158   -0.0011487229123624077   -0.0002981944102151266
0.002793164388136622   -0.0034749979439111928   -0.0005743244906924383
0.0013540982101964928   -0.0033849868255685926   -0.0005097493982575496
0.0016849523177903637   -0.0012759939422862722   -0.00023701167533658903
0.000746702010306158   -0.0011487229123624077   -0.0002981944102151266
0.0013615070290641353   -0.0033845247921405128   -0.0005416730265173415
0.0015833661906232528   -0.0012617770206526484   -0.0003451707385539916
0.0007441170596650752   -0.001132324679417441   -0.0003439440503770128
0.0013615070290641353   -0.0033845247921405128   -0.0005416730265173415
0.002793164388136622   -0.0034749979439111928   -0.0005743244906924383
0.0015833661906232528   -0.0012617770206526484   -0.0003451707385539916
0.0027426284918666776   -0.003446706333968925   -0.0006554547873102722
0.0007441170596650752   -0.001132324679417441   -0.0003439440503770128
0.0015367976811274595   -0.0012355507063028716   -0.00043669773148272075
0.0027426284918666776   -0.003446706333968925   -0.0006554547873102722
0.0015833661906232528   -0.0012617770206526484   -0.0003451707385539916
0.0007441170596650752   -0.001132324679417441   -0.0003439440503770128
0.0027426284918666776   -0.003446706333968925   -0.0006554547873102722
0.001356279544830373   -0.003366135396790773   -0.000577959326435815
0.0013615070290641353   -0.0033845247921405128   -0.0005416730265173415
0.0007441170596650752   -0.001132324679417441   -0.0003439440503770128
0.0027426284918666776   -0.003446706333968925   -0.0006554547873102722
0.0013615070290641353   -0.0033845247921405128   -0.0005416730265173415
0.0015833661906232528   -0.0012617770206526484   -0.0003451707385539916
0.0007441170596650752   -0.001132324679417441   -0.0003439440503770128
0.001356279544830373   -0.003366135396790773   -0.000577959326435815
0.0015367976811274595   -0.0012355507063028716   -0.00043669773148272075
0.0007591174428374933   -0.0010887078406397403   -0.0003888871772043285
0.001356279544830373   -0.003366135396790773   -0.000577959326435815
0.0027426284918666776   -0.003446706333968925   -0.0006554547873102722
0.0015367976811274595   -0.0012355507063028716   -0.00043669773148272075
0.002666231857520188   -0.003384110871095407   -0.0007400135647266544
0.0007591174428374933   -0.0010887078406397403   -0.0003888871772043285
0.001467041770934038   -0.0011686726098593002   -0.0005336960225101652
0.002666231857520188   -0.003384110871095407   -0.0007400135647266544
0.0015367976811274595   -0.0012355507063028716   -0.00043669773148272075
0.0007591174428374933   -0.0010887078406397403   -0.0003888871772043285
0.002666231857520188   -0.003384110871095407   -0.0007400135647266544
0.0013536698079905075   -0.003324832528760658   -0.0006172621234717743
0.001356279544830373   -0.003366135396790773   -0.000577959326435815
0.0007591174428374933   -0.0010887078406397403   -0.0003888871772043285
0.002666231857520188   -0.003384110871095407   -0.0007400135647266544
0.001356279544830373   -0.003366135396790773   -0.000577959326435815
0.0015367976811274595   -0.0012355507063028716   -0.00043669773148272075
-0.0035470172693590723   -0.0034949983156657006   -0.0008595277100722441
-0.004852419979828733   -0.0065385552607905165   -0.0009798935083488
-0.002263645166144874   -0.003382061188266819   -0.0007081153572855408
-0.0036520673472444586   -0.003575234318530798   -0.0007460068835435934
-0.004852419979828733   -0.0065385552607905165   -0.0009798935083488
-0.0031206068341659925   -0.0064525080461490655   -0.0008575579044452117
-0.002263645166144874   -0.003382061188266819   -0.0007081153572855408
-0.0031263236902561125   -0.0065019130469826025   -0.0008034094096463256
-0.0036520673472444586   -0.003575234318530798   -0.0007460068835435934
-0.0022654000182301998   -0.0034394925879961675   -0.0006381212682902836
-0.0031263236902561125   -0.0065019130469826025   -0.0008034094096463256
-0.002263645166144874   -0.003382061188266819   -0.0007081153572855408
-0.0036520673472444586   -0.003575234318530798   -0.0007460068835435934
-0.0031263236902561125   -0.0065019130469826025   -0.0008034094096463256
-0.004937160355235183   -0.006606139909923645   -0.0008955869684413953
-0.004852419979828733   -0.0065385552607905165   -0.0009798935083488
-0.0036520673472444586   -0.003575234318530798   -0.0007460068835435934
-0.0031263236902561125   -0.0065019130469826025   -0.0008034094096463256
-0.004852419979828733   -0.0065385552607905165   -0.0009798935083488
-0.002263645166144874   -0.003382061188266819   -0.0007081153572855408
-0.0036520673472444586   -0.003575234318530798   -0.0007460068835435934
-0.004937160355235183   -0.006606139909923645   -0.0008955869684413953
-0.0022654000182301998   -0.0034394925879961675   -0.0006381212682902836
-0.0037246673383934392   -0.0036206292234489063   -0.0006349333719101046
-0.004937160355235183   -0.006606139909923645   -0.0008955869684413953
-0.0031263236902561125   -0.0065019130469826025   -0.0008034094096463256
-0.0022654000182301998   -0.0034394925879961675   -0.0006381212682902836
-0.0031331929788678777   -0.006536387591315591   -0.0007532205824540753
-0.0037246673383934392   -0.0036206292234489063   -0.0006349333719101046
-0.0022733339291004387   -0.003474587741485055   -0.000570919739583347
-0.0031331929788678777   -0.006536387591315591   -0.0007532205824540753
-0.0022654000182301998   -0.0034394925879961675   -0.0006381212682902836
-0.0037246673383934392   -0.0036206292234489063   -0.0006349333719101046
-0.0031331929788678777   -0.006536387591315591   -0.0007532205824540753
-0.004990065417828198   -0.006648625281027995   -0.0008170807576928743
-0.004937160355235183   -0.006606139909923645   -0.0008955869684413953
-0.0037246673383934392   -0.0036206292234489063   -0.0006349333719101046
-0.0031331929788678777   -0.006536387591315591   -0.0007532205824540753
-0.004937160355235183   -0.006606139909923645   -0.0008955869684413953
-0.0022654000182301998   -0.0034394925879961675   -0.0006381212682902836
-0.0037246673383934392   -0.0036206292234489063   -0.0006349333719101046
-0.004990065417828198   -0.006648625281027995   -0.0008170807576928743
-0.0022733339291004387   -0.003474587741485055   -0.000570919739583347
-0.0038104355074656464   -0.0036472745204428926   -0.0005340100416477953
-0.004990065417828198   -0.006648625281027995   -0.0008170807576928743
-0.0031331929788678777   -0.006536387591315591   -0.0007532205824540753
-0.0022733339291004387   -0.003474587741485055   -0.000570919739583347
-0.0031261293689504336   -0.006559211215596968   -0.0007061450546146687
-0.0038104355074656464   -0.0036472745204428926   -0.0005340100416477953
-0.0022655360042629752   -0.0034929402023558733   -0.0005080766639195868
-0.0031261293689504336   -0.006559211215596968   -0.0007061450546146687
-0.0022733339291004387   -0.003474587741485055   -0.000570919739583347
-0.0038104355074656464   -0.0036472745204428926   -0.0005340100416477953
-0.0031261293689504336   -0.006559211215596968   -0.0007061450546146687
-0.005050259760908229   -0.006679411081708126   -0.0007449183221920644
-0.004990065417828198   -0.006648625281027995   -0.0008170807576928743
-0.0038104355074656464   -0.0036472745204428926   -0.0005340100416477953
-0.0031261293689504336   -0.006559211215596968   -0.0007061450546146687
-0.004990065417828198   -0.006648625281027995   -0.0008170807576928743
-0.0022733339291004387   -0.003474587741485055   -0.000570919739583347
-0.002263645166144874   -0.003382061188266819   -0.0007081153572855408
-0.0031206068341659925   -0.0064525080461490655   -0.0008575579044452117
-0.0010519180390802826   -0.0033295031987399678   -0.0006048439628681865
-0.0022654000182301998   -0.0034394925879961675   -0.0006381212682902836
-0.0031206068341659925   -0.0064525080461490655   -0.0008575579044452117
-0.001489331696471182   -0.006409508420496295   -0.0007726147056172942
-0.0010519180390802826   -0.0033295031987399678   -0.0006048439628681865
-0.0014844850430314042   -0.006441013888091839   -0.0007419027507737959
-0.0022654000182301998   -0.0034394925879961675   -0.0006381212682902836
-0.0010419068757627449   -0.0033659687898687273   -0.0005688892446648585
-0.0014844850430314042   -0.006441013888091839   -0.0007419027507737959
-0.0010519180390802826   -0.0033295031987399678   -0.0006048439628681865
-0.0022654000182301998   -0.0034394925879961675   -0.0006381212682902836
-0.0014844850430314042   -0.006441013888091839   -0.0007419027507737959
-0.0031263236902561125   -0.0065019130469826025   -0.0008034094096463256
-0.0031206068341659925   -0.0064525080461490655   -0.0008575579044452117
-0.0022654000182301998   -0.0034394925879961675   -0.0006381212682902836
-0.0014844850430314042   -0.006441013888091839   -0.0007419027507737959
-0.0031206068341659925   -0.0064525080461490655   -0.0008575579044452117
-0.0010519180390802826   -0.0033295031987399678   -0.0006048439628681865
-0.0022654000182301998   -0.0034394925879961675   -0.0006381212682902836
-0.0031263236902561125   -0.0065019130469826025   -0.0008034094096463256
-0.0010419068757627449   -0.0033659687898687273   -0.0005688892446648585
-0.0022733339291004387   -0.003474587741485055   -0.000570919739583347
-0.0031263236902561125   -0.0065019130469826025   -0.0008034094096463256
-0.0014844850430314042   -0.006441013888091839   -0.0007419027507737959
-0.0010419068757627449   -0.0033659687898687273   -0.0005688892446648585
-0.0014788060845681108   -0.006459556450212812   -0.0007149543267891709
-0.0022733339291004387   -0.003474587741485055   -0.000570919739583347
-0.0010329299477664104   -0.0033836865518071567   -0.0005363357140877194
-0.0014788060845681108   -0.006459556450212812   -0.0007149543267891709
-0.0010419068757627449   -0.0033659687898687273   -0.0005688892446648585
-0.0022733339291004387   -0.003474587741485055   -0.000570919739583347
-0.0014788060845681108   -0.006459556450212812   -0.0007149543267891709
-0.0031331929788678777   -0.006536387591315591   -0.0007532205824540753
-0.0031263236902561125   -0.0065019130469826025   -0.0008034094096463256
-0.0022733339291004387   -0.003474587741485055   -0.000570919739583347
-0.0014788060845681108   -0.006459556450212812   -0.0007149543267891709
-0.0031263236902561125   -0.0065019130469826025   -0.0008034094096463256
-0.0010419068757627449   -0.0033659687898687273   -0.0005688892446648585
-0.0022733339291004387   -0.003474587741485055   -0.000570919739583347
-0.0031331929788678777   -0.006536387591315591   -0.0007532205824540753
-0.0010329299477664104   -0.0033836865518071567   -0.0005363357140877194
-0.0022655360042629752   -0.0034929402023558733   -0.0005080766639195868
-0.0031331929788678777   -0.006536387591315591   -0.0007532205824540753
-0.0014788060845681108   -0.006459556450212812   -0.0007149543267891709
-0.0010329299477664104   -0.0033836865518071567   -0.0005363357140877194
-0.001470168959603598   -0.006465400950127406   -0.0006917614768339447
-0.0022655360042629752   -0.0034929402023558733   -0.0005080766639195868
-0.0010199703062339922   -0.0033833219712066966   -0.0005080415876749054
-0.001470168959603598   -0.006465400950127406   -0.0006917614768339447
-0.0010329299477664104   -0.0033836865518071567   -0.0005363357140877194
-0.0022655360042629752   -0.0034929402023558733   -0.0005080766639195868
-0.001470168959603598   -0.006465400950127406   -0.0006917614768339447
-0.0031261293689504336   -0.006559211215596968   -0.0007061450546146687
-0.0031331929788678777   -0.006536387591315591   -0.0007532205824540753
-0.0022655360042629752   -0.0034929402023558733   -0.0005080766639195868
-0.001470168959603598   -0.006465400950127406   -0.0006917614768339447
-0.0031331929788678777   -0.006536387591315591   -0.0007532205824540753
-0.0010329299477664104   -0.0033836865518071567   -0.0005363357140877194
-0.0010519180390802826   -0.0033295031987399678   -0.0006048439628681865
-0.001489331696471182   -0.006409508420496295   -0.0007726147056172942
0.00011595739628410207   -0.003331124196117663   -0.0005397664552401177
-0.0010419068757627449   -0.0033659687898687273   -0.0005688892446648585
-0.001489331696471182   -0.006409508420496295   -0.0007726147056172942
9.355720315880473e-05   -0.006407200710334944   -0.0007201771884875192
0.00011595739628410207   -0.003331124196117663   -0.0005397664552401177
0.00010157445990440938   -0.006421059417251561   -0.0007127834302092028
-0.0010419068757627449   -0.0033659687898687273   -0.0005688892446648585
0.0001280997552397004   -0.003348262130737822   -0.0005372125998741882
0.00010157445990440938   -0.006421059417251561   -0.0007127834302092028
0.00011595739628410207   -0.003331124196117663   -0.0005397664552401177
-0.0010419068757627449   -0.0033659687898687273   -0.0005688892446648585
0.00010157445990440938   -0.006421059417251561   -0.0007127834302092028
-0.0014844850430314042   -0.006441013888091839   -0.0007419027507737959
-0.001489331696471182   -0.006409508420496295   -0.0007726147056172942
-0.0010419068757627449   -0.0033659687898687273   -0.0005688892446648585
0.00010157445990440938   -0.006421059417251561   -0.0007127834302092028
-0.001489331696471182   -0.006409508420496295   -0.0007726147056172942
0.00011595739628410207   -0.003331124196117663   -0.0005397664552401177
-0.0010419068757627449   -0.0033659687898687273   -0.0005688892446648585
-0.0014844850430314042   -0.006441013888091839   -0.0007419027507737959
0.0001280997552397004   -0.003348262130737822   -0.0005372125998741882
-0.0010329299477664104   -0.0033836865518071567   -0.0005363357140877194
-0.0014844850430314042   -0.006441013888091839   -0.0007419027507737959
0.00010157445990440938   -0.006421059417251561   -0.0007127834302092028
0.0001280997552397004   -0.003348262130737822   -0.0005372125998741882
0.000107112488198381   -0.006422005013695665   -0.0007090586976875742
-0.0010329299477664104   -0.0033836865518071567   -0.0005363357140877194
0.00013656695094153168   -0.0033470884655002102   -0.0005385154738847577
0.000107112488198381   -0.006422005013695665   -0.0007090586976875742
0.0001280997552397004   -0.003348262130737822   -0.0005372125998741882
-0.0010329299477664104   -0.0033836865518071567   -0.0005363357140877194
0.000107112488198381   -0.006422005013695665   -0.0007090586976875742
-0.0014788060845681108   -0.006459556450212812   -0.0007149543267891709
-0.0014844850430314042   -0.006441013888091839   -0.0007419027507737959
-0.0010329299477664104   -0.0033836865518071567   -0.0005363357140877194
0.000107112488198381   -0.006422005013695665   -0.0007090586976875742
-0.0014844850430314042   -0.006441013888091839   -0.0007419027507737959
0.0001280997552397004   -0.003348262130737822   -0.0005372125998741882
-0.0010329299477664104   -0.0033836865518071567   -0.0005363357140877194
-0.0014788060845681108   -0.006459556450212812   -0.0007149543267891709
0.00013656695094153168   -0.0033470884655002102   -0.0005385154738847577
-0.0010199703062339922   -0.0033833219712066966   -0.0005080415876749054
-0.0014788060845681108   -0.006459556450212812   -0.0007149543267891709
0.000107112488198381   -0.006422005013695665   -0.0007090586976875742
0.00013656695094153168   -0.0033470884655002102   -0.0005385154738847577
0.00011144000801763006   -0.006409846496068105   -0.0007092217012279056
-0.0010199703062339922   -0.0033833219712066966   -0.0005080415876749054
0.00014558124670112192   -0.0033270489831616888   -0.0005437348811601138
0.00011144000801763006   -0.006409846496068105   -0.0007092217012279056
0.00013656695094153168   -0.0033470884655002102   -0.0005385154738847577
-0.0010199703062339922   -0.0033833219712066966   -0.0005080415876749054
0.00011144000801763006   -0.006409846496068105   -0.0007092217012279056
-0.001470168959603598   -0.006465400950127406   -0.0006917614768339447
-0.0014788060845681108   -0.006459556450212812   -0.0007149543267891709
-0.0010199703062339922   -0.0033833219712066966   -0.0005080415876749054
0.00011144000801763006   -0.006409846496068105   -0.0007092217012279056
-0.0014788060845681108   -0.006459556450212812   -0.0007149543267891709
0.00013656695094153168   -0.0033470884655002102   -0.0005385154738847577
0.00011595739628410207   -0.003331124196117663   -0.0005397664552401177
9.355720315880473e-05   -0.006407200710334944   -0.0007201771884875192
0.0013540982101964928   -0.0033849868255685926   -0.0005097493982575496
0.0001280997552397004   -0.003348262130737822   -0.0005372125998741882
9.355720315880473e-05   -0.006407200710334944   -0.0007201771884875192
0.0017443212626117334   -0.006443156026562253   -0.0006993822402812209
0.0013540982101964928   -0.0033849868255685926   -0.0005097493982575496
0.0017515780489368452   -0.00644080041844206   -0.0007157818451755909
0.0001280997552397004   -0.003348262130737822   -0.0005372125998741882
0.0013615070290641353   -0.0033845247921405128   -0.0005416730265173415
0.0017515780489368452   -0.00644080041844206   -0.0007157818451755909
0.0013540982101964928   -0.0033849868255685926   -0.0005097493982575496
0.0001280997552397004   -0.003348262130737822   -0.0005372125998741882
0.0017515780489368452   -0.00644080041844206   -0.0007157818451755909
0.00010157445990440938   -0.006421059417251561   -0.0007127834302092028
9.355720315880473e-05   -0.006407200710334944   -0.0007201771884875192
0.0001280997552397004   -0.003348262130737822   -0.0005372125998741882
0.0017515780489368452   -0.00644080041844206   -0.0007157818451755909
9.355720315880473e-05   -0.006407200710334944   -0.0007201771884875192
0.0013540982101964928   -0.0033849868255685926   -0.0005097493982575496
0.0001280997552397004   -0.003348262130737822   -0.0005372125998741882
0.00010157445990440938   -0.006421059417251561   -0.0007127834302092028
0.0013615070290641353   -0.0033845247921405128   -0.0005416730265173415
0.00013656695094153168   -0.0033470884655002102   -0.0005385154738847577
0.00010157445990440938   -0.006421059417251561   -0.0007127834302092028
0.0017515780489368452   -0.00644080041844206   -0.0007157818451755909
0.0013615070290641353   -0.0033845247921405128   -0.0005416730265173415
0.0017484157734016896   -0.006425846571833976   -0.0007355808941778611
0.00013656695094153168   -0.0033470884655002102   -0.0005385154738847577
0.001356279544830373   -0.003366135396790773   -0.000577959326435815
0.0017484157734016896   -0.006425846571833976   -0.0007355808941778611
0.0013615070290641353   -0.0033845247921405128   -0.0005416730265173415
0.00013656695094153168   -0.0033470884655002102   -0.0005385154738847577
0.0017484157734016896   -0.006425846571833976   -0.0007355808941778611
0.000107112488198381   -0.006422005013695665   -0.0007090586976875742
0.00010157445990440938   -0.006421059417251561   -0.0007127834302092028
0.00013656695094153168   -0.0033470884655002102   -0.0005385154738847577
0.0017484157734016896   -0.006425846571833976   -0.0007355808941778611
0.00010157445990440938   -0.006421059417251561   -0.0007127834302092028
0.0013615070290641353   -0.0033845247921405128   -0.0005416730265173415
0.00013656695094153168   -0.0033470884655002102   -0.0005385154738847577
0.000107112488198381   -0.006422005013695665   -0.0007090586976875742
0.001356279544830373   -0.003366135396790773   -0.000577959326435815
0.00014558124670112192   -0.0033270489831616888   -0.0005437348811601138
0.000107112488198381   -0.006422005013695665   -0.0007090586976875742
0.0017484157734016896   -0.006425846571833976   -0.0007355808941778611
0.001356279544830373   -0.003366135396790773   -0.000577959326435815
0.0017429641294939146   -0.006395132787822917   -0.000759185571974853
0.00014558124670112192   -0.0033270489831616888   -0.0005437348811601138
0.0013536698079905075   -0.003324832528760658   -0.0006172621234717743
0.0017429641294939146   -0.006395132787822917   -0.000759185571974853
0.001356279544830373   -0.003366135396790773   -0.000577959326435815
0.00014558124670112192   -0.0033270489831616888   -0.0005437348811601138
0.0017429641294939146   -0.006395132787822917   -0.000759185571974853
0.00011144000801763006   -0.006409846496068105   -0.0007092217012279056
0.000107112488198381   -0.006422005013695665   -0.0007090586976875742
0.00014558124670112192   -0.0033270489831616888   -0.0005437348811601138
0.0017429641294939146   -0.006395132787822917   -0.000759185571974853
0.000107112488198381   -0.006422005013695665   -0.0007090586976875742
0.001356279544830373   -0.003366135396790773   -0.000577959326435815
0.0013540982101964928   -0.0033849868255685926   -0.0005097493982575496
0.0017443212626117334   -0.006443156026562253   -0.0006993822402812209
0.0028495618426502586   -0.003484915798367889   -0.0005023608792253977
0.0013615070290641353   -0.0033845247921405128   -0.0005416730265173415
0.0017443212626117334   -0.006443156026562253   -0.0006993822402812209
0.0036249553152052846   -0.006508119132768978   -0.000700713896340737
0.0028495618426502586   -0.003484915798367889   -0.0005023608792253977
0.0035952907727886036   -0.00649635864148633   -0.0007438455232981609
0.0013615070290641353   -0.0033845247921405128   -0.0005416730265173415
0.002793164388136622   -0.0034749979439111928   -0.0005743244906924383
0.0035952907727886036   -0.00649635864148633   -0.0007438455232981609
0.0028495618426502586   -0.003484915798367889   -0.0005023608792253977
0.0013615070290641353   -0.0033845247921405128   -0.0005416730265173415
0.0035952907727886036   -0.00649635864148633   -0.0007438455232981609
0.0017515780489368452   -0.00644080041844206   -0.0007157818451755909
0.0017443212626117334   -0.006443156026562253   -0.0006993822402812209
0.0013615070290641353   -0.0033845247921405128   -0.0005416730265173415
0.0035952907727886036   -0.00649635864148633   -0.0007438455232981609
0.0017443212626117334   -0.006443156026562253   -0.0006993822402812209
0.0028495618426502586   -0.003484915798367889   -0.0005023608792253977
0.0013615070290641353   -0.0033845247921405128   -0.0005416730265173415
0.0017515780489368452   -0.00644080041844206   -0.0007157818451755909
0.002793164388136622   -0.0034749979439111928   -0.0005743244906924383
0.001356279544830373   -0.003366135396790773   -0.000577959326435815
0.0017515780489368452   -0.00644080041844206   -0.0007157818451755909
0.0035952907727886036   -0.00649635864148633   -0.0007438455232981609
0.002793164388136622   -0.0034749979439111928   -0.0005743244906924383
0.003565416479517398   -0.006473409226008569   -0.0007931081783701592
0.001356279544830373   -0.003366135396790773   -0.000577959326435815
0.0027426284918666776   -0.003446706333968925   -0.0006554547873102722
0.003565416479517398   -0.006473409226008569   -0.0007931081783701592
0.002793164388136622   -0.0034749979439111928   -0.0005743244906924383
0.001356279544830373   -0.003366135396790773   -0.000577959326435815
0.003565416479517398   -0.006473409226008569   -0.0007931081783701592
0.0017484157734016896   -0.006425846571833976   -0.0007355808941778611
0.0017515780489368452   -0.00644080041844206   -0.0007157818451755909
0.001356279544830373   -0.003366135396790773   -0.000577959326435815
0.003565416479517398   -0.006473409226008569   -0.0007931081783701592
0.0017515780489368452   -0.00644080041844206   -0.0007157818451755909
0.002793164388136622   -0.0034749979439111928   -0.0005743244906924383
0.001356279544830373   -0.003366135396790773   -0.000577959326435815
0.0017484157734016896   -0.006425846571833976   -0.0007355808941778611
0.0027426284918666776   -0.003446706333968925   -0.0006554547873102722
0.0013536698079905075   -0.003324832528760658   -0.0006172621234717743
0.0017484157734016896   -0.006425846571833976   -0.0007355808941778611
0.003565416479517398   -0.006473409226008569   -0.0007931081783701592
0.0027426284918666776   -0.003446706333968925   -0.0006554547873102722
0.0035111350062738147   -0.0064256726217648275   -0.0008485088362788567
0.0013536698079905075   -0.003324832528760658   -0.0006172621234717743
0.002666231857520188   -0.003384110871095407   -0.0007400135647266544
0.0035111350062738147   -0.0064256726217648275   -0.0008485088362788567
0.0027426284918666776   -0.003446706333968925   -0.0006554547873102722
0.0013536698079905075   -0.003324832528760658   -0.0006172621234717743
0.0035111350062738147   -0.0064256726217648275   -0.0008485088362788567
0.0017429641294939146   -0.006395132787822917   -0.000759185571974853
0.0017484157734016896   -0.006425846571833976   -0.0007355808941778611
0.0013536698079905075   -0.003324832528760658   -0.0006172621234717743
0.0035111350062738147   -0.0064256726217648275   -0.0008485088362788567
0.0017484157734016896   -0.006425846571833976   -0.0007355808941778611
0.0027426284918666776   -0.003446706333968925   -0.0006554547873102722
-0.004852419979828733   -0.0065385552607905165   -0.0009798935083488
-0.005786416945033059   -0.010138143930754753   -0.001046264396958275
-0.0031206068341659925   -0.0064525080461490655   -0.0008575579044452117
-0.004937160355235183   -0.006606139909923645   -0.0008955869684413953
-0.005786416945033059   -0.010138143930754753   -0.001046264396958275
-0.003758156192700311   -0.010083640551733428   -0.0009469407446272084
-0.0031206068341659925   -0.0064525080461490655   -0.0008575579044452117
-0.003761520962051571   -0.010125972254762186   -0.0009083056514079858
-0.004937160355235183   -0.006606139909923645   -0.0008955869684413953
-0.0031263236902561125   -0.0065019130469826025   -0.0008034094096463256
-0.003761520962051571   -0.010125972254762186   -0.0009083056514079858
-0.0031206068341659925   -0.0064525080461490655   -0.0008575579044452117
-0.004937160355235183   -0.006606139909923645   -0.0008955869684413953
-0.003761520962051571   -0.010125972254762186   -0.0009083056514079858
-0.0058428412436252   -0.01019547038786564   -0.0009905791738068033
-0.005786416945033059   -0.010138143930754753   -0.001046264396958275
-0.004937160355235183   -0.006606139909923645   -0.0008955869684413953
-0.003761520962051571   -0.010125972254762186   -0.0009083056514079858
-0.005786416945033059   -0.010138143930754753   -0.001046264396958275
-0.0031206068341659925   -0.0064525080461490655   -0.0008575579044452117
-0.004937160355235183   -0.006606139909923645   -0.0008955869684413953
-0.0058428412436252   -0.01019547038786564   -0.0009905791738068033
-0.0031263236902561125   -0.0065019130469826025   -0.0008034094096463256
-0.004990065417828198   -0.006648625281027995   -0.0008170807576928743
-0.0058428412436252   -0.01019547038786564   -0.0009905791738068033
-0.003761520962051571   -0.010125972254762186   -0.0009083056514079858
-0.0031263236902561125   -0.0065019130469826025   -0.0008034094096463256
-0.0037635518700571205   -0.010159631386558869   -0.0008735408754799825
-0.004990065417828198   -0.006648625281027995   -0.0008170807576928743
-0.0031331929788678777   -0.006536387591315591   -0.0007532205824540753
-0.0037635518700571205   -0.010159631386558869   -0.0008735408754799825
-0.0031263236902561125   -0.0065019130469826025   -0.0008034094096463256
-0.004990065417828198   -0.006648625281027995   -0.0008170807576928743
-0.0037635518700571205   -0.010159631386558869   -0.0008735408754799825
-0.005874646434653423   -0.010236149150690403   -0.0009402867484983358
-0.0058428412436252   -0.01019547038786564   -0.0009905791738068033
-0.004990065417828198   -0.006648625281027995   -0.0008170807576928743
-0.0037635518700571205   -0.010159631386558869   -0.0008735408754799825
-0.0058428412436252   -0.01019547038786564   -0.0009905791738068033
-0.0031263236902561125   -0.0065019130469826025   -0.0008034094096463256
-0.004990065417828198   -0.006648625281027995   -0.0008170807576928743
-0.005874646434653423   -0.010236149150690403   -0.0009402867484983358
-0.0031331929788678777   -0.006536387591315591   -0.0007532205824540753
-0.005050259760908229   -0.006679411081708126   -0.0007449183221920644
-0.005874646434653423   -0.010236149150690403   -0.0009402867484983358
-0.0037635518700571205   -0.010159631386558869   -0.0008735408754799825
-0.0031331929788678777   -0.006536387591315591   -0.0007532205824540753
-0.0037545952971659055   -0.010187420107308217   -0.0008421246313304334
-0.005050259760908229   -0.006679411081708126   -0.0007449183221920644
-0.0031261293689504336   -0.006559211215596968   -0.0007061450546146687
-0.0037545952971659055   -0.010187420107308217   -0.0008421246313304334
-0.0031331929788678777   -0.006536387591315591   -0.0007532205824540753
-0.005050259760908229   -0.006679411081708126   -0.0007449183221920644
-0.0037545952971659055   -0.010187420107308217   -0.0008421246313304334
-0.005907311409189468   -0.010272815939599606   -0.0008960348508692532
-0.005874646434653423   -0.010236149150690403   -0.0009402867484983358
-0.005050259760908229   -0.006679411081708126   -0.0007449183221920644
-0.0037545952971659055   -0.010187420107308217   -0.0008421246313304334
-0.005874646434653423   -0.010236149150690403   -0.0009402867484983358
-0.0031331929788678777   -0.006536387591315591   -0.0007532205824540753
-0.0031206068341659925   -0.0064525080461490655   -0.0008575579044452117
-0.003758156192700311   -0.010083640551733428   -0.0009469407446272084
-0.001489331696471182   -0.006409508420496295   -0.0007726147056172942
-0.0031263236902561125   -0.0065019130469826025   -0.0008034094096463256
-0.003758156192700311   -0.010083640551733428   -0.0009469407446272084
-0.0018576828941849247   -0.010055304994085728   -0.000878201347739566
-0.001489331696471182   -0.006409508420496295   -0.0007726147056172942
-0.0018530305555642997   -0.010081783517875873   -0.0008525606229819183
-0.0031263236902561125   -0.0065019130469826025   -0.0008034094096463256
-0.0014844850430314042   -0.006441013888091839   -0.0007419027507737959
-0.0018530305555642997   -0.010081783517875873   -0.0008525606229819183
-0.001489331696471182   -0.006409508420496295   -0.0007726147056172942
-0.0031263236902561125   -0.0065019130469826025   -0.0008034094096463256
-0.0018530305555642997   -0.010081783517875873   -0.0008525606229819183
-0.003761520962051571   -0.010125972254762186   -0.0009083056514079858
-0.003758156192700311   -0.010083640551733428   -0.0009469407446272084
-0.0031263236902561125   -0.0065019130469826025   -0.0008034094096463256
-0.0018530305555642997   -0.010081783517875873   -0.0008525606229819183
-0.003758156192700311   -0.010083640551733428   -0.0009469407446272084
-0.001489331696471182   -0.006409508420496295   -0.0007726147056172942
-0.0031263236902561125   -0.0065019130469826025   -0.0008034094096463256
-0.003761520962051571   -0.010125972254762186   -0.0009083056514079858
-0.0014844850430314042   -0.006441013888091839   -0.0007419027507737959
-0.0031331929788678777   -0.006536387591315591   -0.0007532205824540753
-0.003761520962051571   -0.010125972254762186   -0.0009083056514079858
-0.0018530305555642997   -0.010081783517875873   -0.0008525606229819183
-0.0014844850430314042   -0.006441013888091839   -0.0007419027507737959
-0.001847101564402457   -0.01010098415435449   -0.0008307262031546241
-0.0031331929788678777   -0.006536387591315591   -0.0007532205824540753
-0.0014788060845681108   -0.006459556450212812   -0.0007149543267891709
-0.001847101564402457   -0.01010098415435449   -0.0008307262031546241
-0.0014844850430314042   -0.006441013888091839   -0.0007419027507737959
-0.0031331929788678777   -0.006536387591315591   -0.0007532205824540753
-0.001847101564402457   -0.01010098415435449   -0.0008307262031546241
-0.0037635518700571205   -0.010159631386558869   -0.0008735408754799825
-0.003761520962051571   -0.010125972254762186   -0.0009083056514079858
-0.0031331929788678777   -0.006536387591315591   -0.0007532205824540753
-0.001847101564402457   -0.01010098415435449   -0.0008307262031546241
-0.003761520962051571   -0.010125972254762186   -0.0009083056514079858
-0.0014844850430314042   -0.006441013888091839   -0.0007419027507737959
-0.0031331929788678777   -0.006536387591315591   -0.0007532205824540753
-0.0037635518700571205   -0.010159631386558869   -0.0008735408754799825
-0.0014788060845681108   -0.006459556450212812   -0.0007149543267891709
-0.0031261293689504336   -0.006559211215596968   -0.0007061450546146687
-0.0037635518700571205   -0.010159631386558869   -0.0008735408754799825
-0.001847101564402457   -0.01010098415435449   -0.0008307262031546241
-0.0014788060845681108   -0.006459556450212812   -0.0007149543267891709
-0.0018387923350654458   -0.010113033990688266   -0.0008127653986955019
-0.0031261293689504336   -0.006559211215596968   -0.0007061450546146687
-0.001470168959603598   -0.006465400950127406   -0.0006917614768339447
-0.0018387923350654458   -0.010113033990688266   -0.0008127653986955019
-0.0014788060845681108   -0.006459556450212812   -0.0007149543267891709
-0.0031261293689504336   -0.006559211215596968   -0.0007061450546146687
-0.0018387923350654458   -0.010113033990688266   -0.0008127653986955019
-0.0037545952971659055   -0.010187420107308217   -0.0008421246313304334
-0.0037635518700571205   -0.010159631386558869   -0.0008735408754799825
-0.0031261293689504336   -0.006559211215596968   -0.0007061450546146687
-0.0018387923350654458   -0.010113033990688266   -0.0008127653986955019
-0.0037635518700571205   -0.010159631386558869   -0.0008735408754799825
-0.0014788060845681108   -0.006459556450212812   -0.0007149543267891709
-0.001489331696471182   -0.006409508420496295   -0.0007726147056172942
-0.0018576828941849247   -0.010055304994085728   -0.000878201347739566
9.355720315880473e-05   -0.006407200710334944   -0.0007201771884875192
-0.0014844850430314042   -0.006441013888091839   -0.0007419027507737959
-0.0018576828941849247   -0.010055304994085728   -0.000878201347739566
-9.095454877915306e-06   -0.010050328676857373   -0.000838409930304382
9.355720315880473e-05   -0.006407200710334944   -0.0007201771884875192
-1.2990575321757918e-06   -0.010060833324921883   -0.0008258783841541765
-0.0014844850430314042   -0.006441013888091839   -0.0007419027507737959
0.00010157445990440938   -0.006421059417251561   -0.0007127834302092028
-1.2990575321757918e-06   -0.010060833324921883   -0.0008258783841541765
9.355720315880473e-05   -0.006407200710334944   -0.0007201771884875192
-0.0014844850430314042   -0.006441013888091839   -0.0007419027507737959
-1.2990575321757918e-06   -0.010060833324921883   -0.0008258783841541765
-0.0018530305555642997   -0.010081783517875873   -0.0008525606229819183
-0.0018576828941849247   -0.010055304994085728   -0.000878201347739566
-0.0014844850430314042   -0.006441013888091839   -0.0007419027507737959
-1.2990575321757918e-06   -0.010060833324921883   -0.0008258783841541765
-0.0018576828941849247   -0.010055304994085728   -0.000878201347739566
9.355720315880473e-05   -0.006407200710334944   -0.0007201771884875192
-0.0014844850430314042   -0.006441013888091839   -0.0007419027507737959
-0.0018530305555642997   -0.010081783517875873   -0.0008525606229819183
0.00010157445990440938   -0.006421059417251561   -0.0007127834302092028
-0.0014788060845681108   -0.006459556450212812   -0.0007149543267891709
-0.0018530305555642997   -0.010081783517875873   -0.0008525606229819183
-1.2990575321757918e-06   -0.010060833324921883   -0.0008258783841541765
0.00010157445990440938   -0.006421059417251561   -0.0007127834302092028
4.572354848539527e-06   -0.010064008473451038   -0.0008171089645282372
-0.0014788060845681108   -0.006459556450212812   -0.0007149543267891709
0.000107112488198381   -0.006422005013695665   -0.0007090586976875742
4.572354848539527e-06   -0.010064008473451038   -0.0008171089645282372
0.00010157445990440938   -0.006421059417251561   -0.0007127834302092028
-0.0014788060845681108   -0.006459556450212812   -0.0007149543267891709
4.572354848539527e-06   -0.010064008473451038   -0.0008171089645282372
-0.001847101564402457   -0.01010098415435449   -0.0008307262031546241
-0.0018530305555642997   -0.010081783517875873   -0.0008525606229819183
-0.0014788060845681108   -0.006459556450212812   -0.0007149543267891709
4.572354848539527e-06   -0.010064008473451038   -0.0008171089645282372
-0.0018530305555642997   -0.010081783517875873   -0.0008525606229819183
0.00010157445990440938   -0.006421059417251561   -0.0007127834302092028
-0.0014788060845681108   -0.006459556450212812   -0.0007149543267891709
-0.001847101564402457   -0.01010098415435449   -0.0008307262031546241
0.000107112488198381   -0.006422005013695665   -0.0007090586976875742
-0.001470168959603598   -0.006465400950127406   -0.0006917614768339447
-0.001847101564402457   -0.01010098415435449   -0.0008307262031546241
4.572354848539527e-06   -0.010064008473451038   -0.0008171089645282372
0.000107112488198381   -0.006422005013695665   -0.0007090586976875742
8.73005193276145e-06   -0.010059752651837455   -0.0008122647217689602
-0.001470168959603598   -0.006465400950127406   -0.0006917614768339447
0.00011144000801763006   -0.006409846496068105   -0.0007092217012279056
8.73005193276145e-06   -0.010059752651837455   -0.0008122647217689602
0.000107112488198381   -0.006422005013695665   -0.0007090586976875742
-0.001470168959603598   -0.006465400950127406   -0.0006917614768339447
8.73005193276145e-06   -0.010059752651837455   -0.0008122647217689602
-0.0018387923350654458   -0.010113033990688266   -0.0008127653986955019
-0.001847101564402457   -0.01010098415435449   -0.0008307262031546241
-0.001470168959603598   -0.006465400950127406   -0.0006917614768339447
8.73005193276145e-06   -0.010059752651837455   -0.0008122647217689602
-0.001847101564402457   -0.01010098415435449   -0.0008307262031546241
0.000107112488198381   -0.006422005013695665   -0.0007090586976875742
9.355720315880473e-05   -0.006407200710334944   -0.0007201771884875192
-9.095454877915306e-06   -0.010050328676857373   -0.000838409930304382
0.0017443212626117334   -0.006443156026562253   -0.0006993822402812209
0.00010157445990440938   -0.006421059417251561   -0.0007127834302092028
-9.095454877915306e-06   -0.010050328676857373   -0.000838409930304382
0.0019031270569099322   -0.010066687960046497   -0.0008274483358846964
0.0017443212626117334   -0.006443156026562253   -0.0006993822402812209
0.0019125052334567339   -0.010062111785090708   -0.0008282932814799525
0.00010157445990440938   -0.006421059417251561   -0.0007127834302092028
0.0017515780489368452   -0.00644080041844206   -0.0007157818451755909
0.0019125052334567339   -0.010062111785090708   -0.0008282932814799525
0.0017443212626117334   -0.006443156026562253   -0.0006993822402812209
0.00010157445990440938   -0.006421059417251561   -0.0007127834302092028
0.0019125052334567339   -0.010062111785090708   -0.0008282932814799525
-1.2990575321757918e-06   -0.010060833324921883   -0.0008258783841541765
-9.095454877915306e-06   -0.010050328676857373   -0.000838409930304382
0.00010157445990440938   -0.006421059417251561   -0.0007127834302092028
0.0019125052334567339   -0.010062111785090708   -0.0008282932814799525
-9.095454877915306e-06   -0.010050328676857373   -0.000838409930304382
0.0017443212626117334   -0.006443156026562253   -0.0006993822402812209
0.00010157445990440938   -0.006421059417251561   -0.0007127834302092028
-1.2990575321757918e-06   -0.010060833324921883   -0.0008258783841541765
0.0017515780489368452   -0.00644080041844206   -0.0007157818451755909
0.000107112488198381   -0.006422005013695665   -0.0007090586976875742
-1.2990575321757918e-06   -0.010060833324921883   -0.0008258783841541765
0.0019125052334567339   -0.010062111785090708   -0.0008282932814799525
0.0017515780489368452   -0.00644080041844206   -0.0007157818451755909
0.001914436739276313   -0.010050811066662838   -0.000832694793402621
0.000107112488198381   -0.006422005013695665   -0.0007090586976875742
0.0017484157734016896   -0.006425846571833976   -0.0007355808941778611
0.001914436739276313   -0.010050811066662838   -0.000832694793402621
0.0017515780489368452   -0.00644080041844206   -0.0007157818451755909
0.000107112488198381   -0.006422005013695665   -0.0007090586976875742
0.001914436739276313   -0.010050811066662838   -0.000832694793402621
4.572354848539527e-06   -0.010064008473451038   -0.0008171089645282372
-1.2990575321757918e-06   -0.010060833324921883   -0.0008258783841541765
0.000107112488198381   -0.006422005013695665   -0.0007090586976875742
0.001914436739276313   -0.010050811066662838   -0.000832694793402621
-1.2990575321757918e-06   -0.010060833324921883   -0.0008258783841541765
0.0017515780489368452   -0.00644080041844206   -0.0007157818451755909
0.000107112488198381   -0.006422005013695665   -0.0007090586976875742
4.572354848539527e-06   -0.010064008473451038   -0.0008171089645282372
0.0017484157734016896   -0.006425846571833976   -0.0007355808941778611
0.00011144000801763006   -0.006409846496068105   -0.0007092217012279056
4.572354848539527e-06   -0.010064008473451038   -0.0008171089645282372
0.001914436739276313   -0.010050811066662838   -0.000832694793402621
0.0017484157734016896   -0.006425846571833976   -0.0007355808941778611
0.001911502000672241   -0.010030000142496017   -0.000840792331427685
0.00011144000801763006   -0.006409846496068105   -0.0007092217012279056
0.0017429641294939146   -0.006395132787822917   -0.000759185571974853
0.001911502000672241   -0.010030000142496017   -0.000840792331427685
0.0017484157734016896   -0.006425846571833976   -0.0007355808941778611
0.00011144000801763006   -0.006409846496068105   -0.0007092217012279056
0.001911502000672241   -0.010030000142496017   -0.000840792331427685
8.73005193276145e-06   -0.010059752651837455   -0.0008122647217689602
4.572354848539527e-06   -0.010064008473451038   -0.0008171089645282372
0.00011144000801763006   -0.006409846496068105   -0.0007092217012279056
0.001911502000672241   -0.010030000142496017   -0.000840792331427685
4.572354848539527e-06   -0.010064008473451038   -0.0008171089645282372
0.0017484157734016896   -0.006425846571833976   -0.0007355808941778611
0.0017443212626117334   -0.006443156026562253   -0.0006993822402812209
0.0019031270569099322   -0.010066687960046497   -0.0008274483358846964
0.0036249553152052846   -0.006508119132768978   -0.000700713896340737
0.0017515780489368452   -0.00644080041844206   -0.0007157818451755909
0.0019031270569099322   -0.010066687960046497   -0.0008274483358846964
0.004014571740911569   -0.010096548839073679   -0.0008392275962939754
0.0036249553152052846   -0.006508119132768978   -0.000700713896340737
0.004012821274035634   -0.010081712794710172   -0.0008543731060746015
0.0017515780489368452   -0.00644080041844206   -0.0007157818451755909
0.0035952907727886036   -0.00649635864148633   -0.0007438455232981609
0.004012821274035634   -0.010081712794710172   -0.0008543731060746015
0.0036249553152052846   -0.006508119132768978   -0.000700713896340737
0.0017515780489368452   -0.00644080041844206   -0.0007157818451755909
0.004012821274035634   -0.010081712794710172   -0.0008543731060746015
0.0019125052334567339   -0.010062111785090708   -0.0008282932814799525
0.0019031270569099322   -0.010066687960046497   -0.0008274483358846964
0.0017515780489368452   -0.00644080041844206   -0.0007157818451755909
0.004012821274035634   -0.010081712794710172   -0.0008543731060746015
0.0019031270569099322   -0.010066687960046497   -0.0008274483358846964
0.0036249553152052846   -0.006508119132768978   -0.000700713896340737
0.0017515780489368452   -0.00644080041844206   -0.0007157818451755909
0.0019125052334567339   -0.010062111785090708   -0.0008282932814799525
0.0035952907727886036   -0.00649635864148633   -0.0007438455232981609
0.0017484157734016896   -0.006425846571833976   -0.0007355808941778611
0.0019125052334567339   -0.010062111785090708   -0.0008282932814799525
0.004012821274035634   -0.010081712794710172   -0.0008543731060746015
0.0035952907727886036   -0.00649635864148633   -0.0007438455232981609
0.004004493952258139   -0.010063369363200002   -0.0008752971297921433
0.0017484157734016896   -0.006425846571833976   -0.0007355808941778611
0.003565416479517398   -0.006473409226008569   -0.0007931081783701592
0.004004493952258139   -0.010063369363200002   -0.0008752971297921433
0.0035952907727886036   -0.00649635864148633   -0.0007438455232981609
0.0017484157734016896   -0.006425846571833976   -0.0007355808941778611
0.004004493952258139   -0.010063369363200002   -0.0008752971297921433
0.001914436739276313   -0.010050811066662838   -0.000832694793402621
0.0019125052334567339   -0.010062111785090708   -0.0008282932814799525
0.0017484157734016896   -0.006425846571833976   -0.0007355808941778611
0.004004493952258139   -0.010063369363200002   -0.0008752971297921433
0.0019125052334567339   -0.010062111785090708   -0.0008282932814799525
0.0035952907727886036   -0.00649635864148633   -0.0007438455232981609
0.0017484157734016896   -0.006425846571833976   -0.0007355808941778611
0.001914436739276313   -0.010050811066662838   -0.000832694793402621
0.003565416479517398   -0.006473409226008569   -0.0007931081783701592
0.0017429641294939146   -0.006395132787822917   -0.000759185571974853
0.001914436739276313   -0.010050811066662838   -0.000832694793402621
0.004004493952258139   -0.010063369363200002   -0.0008752971297921433
0.003565416479517398   -0.006473409226008569   -0.0007931081783701592
0.003978933769633246   -0.010028790020008404   -0.0009019575916139477
0.0017429641294939146   -0.006395132787822917   -0.000759185571974853
0.0035111350062738147   -0.0064256726217648275   -0.0008485088362788567
0.003978933769633246   -0.010028790020008404   -0.0009019575916139477
0.003565416479517398   -0.006473409226008569   -0.0007931081783701592
0.0017429641294939146   -0.006395132787822917   -0.000759185571974853
0.003978933769633246   -0.010028790020008404   -0.0009019575916139477
0.001911502000672241   -0.010030000142496017   -0.000840792331427685
0.001914436739276313   -0.010050811066662838   -0.000832694793402621
0.0017429641294939146   -0.006395132787822917   -0.000759185571974853
0.003978933769633246   -0.010028790020008404   -0.0009019575916139477
0.001914436739276313   -0.010050811066662838   -0.000832694793402621
0.003565416479517398   -0.006473409226008569   -0.0007931081783701592
-0.005786416945033059   -0.010138143930754753   -0.001046264396958275
-0.006348155646207378   -0.014047446871322984   -0.0010667813222960715
-0.003758156192700311   -0.010083640551733428   -0.0009469407446272084
-0.0058428412436252   -0.01019547038786564   -0.0009905791738068033
-0.006348155646207378   -0.014047446871322984   -0.0010667813222960715
-0.004175086793119055   -0.014025456388525545   -0.0009880379584008597
-0.003758156192700311   -0.010083640551733428   -0.0009469407446272084
-0.00417243891970567   -0.014061410768025721   -0.0009644270102008919
-0.0058428412436252   -0.01019547038786564   -0.0009905791738068033
-0.003761520962051571   -0.010125972254762186   -0.0009083056514079858
-0.00417243891970567   -0.014061410768025721   -0.0009644270102008919
-0.003758156192700311   -0.010083640551733428   -0.0009469407446272084
-0.0058428412436252   -0.01019547038786564   -0.0009905791738068033
-0.00417243891970567   -0.014061410768025721   -0.0009644270102008919
-0.006373790876701246   -0.014095832192205672   -0.0010383353736583443
-0.006348155646207378   -0.014047446871322984   -0.0010667813222960715
-0.0058428412436252   -0.01019547038786564   -0.0009905791738068033
-0.00417243891970567   -0.014061410768025721   -0.0009644270102008919
-0.006348155646207378   -0.014047446871322984   -0.0010667813222960715
-0.003758156192700311   -0.010083640551733428   -0.0009469407446272084
-0.0058428412436252   -0.01019547038786564   -0.0009905791738068033
-0.006373790876701246   -0.014095832192205672   -0.0010383353736583443
-0.003761520962051571   -0.010125972254762186   -0.0009083056514079858
-0.005874646434653423   -0.010236149150690403   -0.0009402867484983358
-0.006373790876701246   -0.014095832192205672   -0.0010383353736583443
-0.00417243891970567   -0.014061410768025721   -0.0009644270102008919
-0.003761520962051571   -0.010125972254762186   -0.0009083056514079858
-0.004165851644141966   -0.014094694842308277   -0.0009447402249897779
-0.005874646434653423   -0.010236149150690403   -0.0009402867484983358
-0.0037635518700571205   -0.010159631386558869   -0.0008735408754799825
-0.004165851644141966   -0.014094694842308277   -0.0009447402249897779
-0.003761520962051571   -0.010125972254762186   -0.0009083056514079858
-0.005874646434653423   -0.010236149150690403   -0.0009402867484983358
-0.004165851644141966   -0.014094694842308277   -0.0009447402249897779
-0.006381143947904161   -0.014135437459041715   -0.0010155340697942715
-0.006373790876701246   -0.014095832192205672   -0.0010383353736583443
-0.005874646434653423   -0.010236149150690403   -0.0009402867484983358
-0.004165851644141966   -0.014094694842308277   -0.0009447402249897779
-0.006373790876701246   -0.014095832192205672   -0.0010383353736583443
-0.003761520962051571   -0.010125972254762186   -0.0009083056514079858
-0.005874646434653423   -0.010236149150690403   -0.0009402867484983358
-0.006381143947904161   -0.014135437459041715   -0.0010155340697942715
-0.0037635518700571205   -0.010159631386558869   -0.0008735408754799825
-0.005907311409189468   -0.010272815939599606   -0.0008960348508692532
-0.006381143947904161   -0.014135437459041715   -0.0010155340697942715
-0.004165851644141966   -0.014094694842308277   -0.0009447402249897779
-0.0037635518700571205   -0.010159631386558869   -0.0008735408754799825
-0.004151119951247752   -0.01412785664052992   -0.0009286927022865451
-0.005907311409189468   -0.010272815939599606   -0.0008960348508692532
-0.0037545952971659055   -0.010187420107308217   -0.0008421246313304334
-0.004151119951247752   -0.01412785664052992   -0.0009286927022865451
-0.0037635518700571205   -0.010159631386558869   -0.0008735408754799825
-0.005907311409189468   -0.010272815939599606   -0.0008960348508692532
-0.004151119951247752   -0.01412785664052992   -0.0009286927022865451
-0.006382698821109197   -0.014178632210648455   -0.0009988733689384583
-0.006381143947904161   -0.014135437459041715   -0.0010155340697942715
-0.005907311409189468   -0.010272815939599606   -0.0008960348508692532
-0.004151119951247752   -0.01412785664052992   -0.0009286927022865451
-0.006381143947904161   -0.014135437459041715   -0.0010155340697942715
-0.0037635518700571205   -0.010159631386558869   -0.0008735408754799825
-0.003758156192700311   -0.010083640551733428   -0.0009469407446272084
-0.004175086793119055   -0.014025456388525545   -0.0009880379584008597
-0.0018576828941849247   -0.010055304994085728   -0.000878201347739566
-0.003761520962051571   -0.010125972254762186   -0.0009083056514079858
-0.004175086793119055   -0.014025456388525545   -0.0009880379584008597
-0.0021566904844127427   -0.014012612997043573   -0.000934464478353337
-0.0018576828941849247   -0.010055304994085728   -0.000878201347739566
-0.002148183720827575   -0.014034291264903836   -0.0009137188450098072
-0.003761520962051571   -0.010125972254762186   -0.0009083056514079858
-0.0018530305555642997   -0.010081783517875873   -0.0008525606229819183
-0.002148183720827575   -0.014034291264903836   -0.0009137188450098072
-0.0018576828941849247   -0.010055304994085728   -0.000878201347739566
-0.003761520962051571   -0.010125972254762186   -0.0009083056514079858
-0.002148183720827575   -0.014034291264903836   -0.0009137188450098072
-0.00417243891970567   -0.014061410768025721   -0.0009644270102008919
-0.004175086793119055   -0.014025456388525545   -0.0009880379584008597
-0.003761520962051571   -0.010125972254762186   -0.0009083056514079858
-0.002148183720827575   -0.014034291264903836   -0.0009137188450098072
-0.004175086793119055   -0.014025456388525545   -0.0009880379584008597
-0.0018576828941849247   -0.010055304994085728   -0.000878201347739566
-0.003761520962051571   -0.010125972254762186   -0.0009083056514079858
-0.00417243891970567   -0.014061410768025721   -0.0009644270102008919
-0.0018530305555642997   -0.010081783517875873   -0.0008525606229819183
-0.0037635518700571205   -0.010159631386558869   -0.0008735408754799825
-0.00417243891970567   -0.014061410768025721   -0.0009644270102008919
-0.002148183720827575   -0.014034291264903836   -0.0009137188450098072
-0.0018530305555642997   -0.010081783517875873   -0.0008525606229819183
-0.0021379865991805976   -0.01405426682130474   -0.0008968953203839452
-0.0037635518700571205   -0.010159631386558869   -0.0008735408754799825
-0.001847101564402457   -0.01010098415435449   -0.0008307262031546241
-0.0021379865991805976   -0.01405426682130474   -0.0008968953203839452
-0.0018530305555642997   -0.010081783517875873   -0.0008525606229819183
-0.0037635518700571205   -0.010159631386558869   -0.0008735408754799825
-0.0021379865991805976   -0.01405426682130474   -0.0008968953203839452
-0.004165851644141966   -0.014094694842308277   -0.0009447402249897779
-0.00417243891970567   -0.014061410768025721   -0.0009644270102008919
-0.0037635518700571205   -0.010159631386558869   -0.0008735408754799825
-0.0021379865991805976   -0.01405426682130474   -0.0008968953203839452
-0.00417243891970567   -0.014061410768025721   -0.0009644270102008919
-0.0018530305555642997   -0.010081783517875873   -0.0008525606229819183
-0.0037635518700571205   -0.010159631386558869   -0.0008735408754799825
-0.004165851644141966   -0.014094694842308277   -0.0009447402249897779
-0.001847101564402457   -0.01010098415435449   -0.0008307262031546241
-0.0037545952971659055   -0.010187420107308217   -0.0008421246313304334
-0.004165851644141966   -0.014094694842308277   -0.0009447402249897779
-0.0021379865991805976   -0.01405426682130474   -0.0008968953203839452
-0.001847101564402457   -0.01010098415435449   -0.0008307262031546241
-0.0021259137676221816   -0.014072607311151947   -0.0008840932488384075
-0.0037545952971659055   -0.010187420107308217   -0.0008421246313304334
-0.0018387923350654458   -0.010113033990688266   -0.0008127653986955019
-0.0021259137676221816   -0.014072607311151947   -0.0008840932488384075
-0.001847101564402457   -0.01010098415435449   -0.0008307262031546241
-0.0037545952971659055   -0.010187420107308217   -0.0008421246313304334
-0.0021259137676221816   -0.014072607311151947   -0.0008840932488384075
-0.004151119951247752   -0.01412785664052992   -0.0009286927022865451
-0.004165851644141966   -0.014094694842308277   -0.0009447402249897779
-0.0037545952971659055   -0.010187420107308217   -0.0008421246313304334
-0.0021259137676221816   -0.014072607311151947   -0.0008840932488384075
-0.004165851644141966   -0.014094694842308277   -0.0009447402249897779
-0.001847101564402457   -0.01010098415435449   -0.0008307262031546241
-0.0018576828941849247   -0.010055304994085728   -0.000878201347739566
-0.0021566904844127427   -0.014012612997043573   -0.000934464478353337
-9.095454877915306e-06   -0.010050328676857373   -0.000838409930304382
-0.0018530305555642997   -0.010081783517875873   -0.0008525606229819183
-0.0021566904844127427   -0.014012612997043573   -0.000934464478353337
-0.0001929676450065747   -0.01400510745936217   -0.0009070197674946193
-9.095454877915306e-06   -0.010050328676857373   -0.000838409930304382
-0.00018143456308934212   -0.014012207110417787   -0.0008893586627993104
-0.0018530305555642997   -0.010081783517875873   -0.0008525606229819183
-1.2990575321757918e-06   -0.010060833324921883   -0.0008258783841541765
-0.00018143456308934212   -0.014012207110417787   -0.0008893586627993104
-9.095454877915306e-06   -0.010050328676857373   -0.000838409930304382
-0.0018530305555642997   -0.010081783517875873   -0.0008525606229819183
-0.00018143456308934212   -0.014012207110417787   -0.0008893586627993104
-0.002148183720827575   -0.014034291264903836   -0.0009137188450098072
-0.0021566904844127427   -0.014012612997043573   -0.000934464478353337
-0.0018530305555642997   -0.010081783517875873   -0.0008525606229819183
-0.00018143456308934212   -0.014012207110417787   -0.0008893586627993104
-0.0021566904844127427   -0.014012612997043573   -0.000934464478353337
-9.095454877915306e-06   -0.010050328676857373   -0.000838409930304382
-0.0018530305555642997   -0.010081783517875873   -0.0008525606229819183
-0.002148183720827575   -0.014034291264903836   -0.0009137188450098072
-1.2990575321757918e-06   -0.010060833324921883   -0.0008258783841541765
-0.001847101564402457   -0.01010098415435449   -0.0008307262031546241
-0.002148183720827575   -0.014034291264903836   -0.0009137188450098072
-0.00018143456308934212   -0.014012207110417787   -0.0008893586627993104
-1.2990575321757918e-06   -0.010060833324921883   -0.0008258783841541765
-0.00017132320514623293   -0.014017478080059513   -0.0008755901700236146
-0.001847101564402457   -0.01010098415435449   -0.0008307262031546241
4.572354848539527e-06   -0.010064008473451038   -0.0008171089645282372
-0.00017132320514623293   -0.014017478080059513   -0.0008755901700236146
-1.2990575321757918e-06   -0.010060833324921883   -0.0008258783841541765
-0.001847101564402457   -0.01010098415435449   -0.0008307262031546241
-0.00017132320514623293   -0.014017478080059513   -0.0008755901700236146
-0.0021379865991805976   -0.01405426682130474   -0.0008968953203839452
-0.002148183720827575   -0.014034291264903836   -0.0009137188450098072
-0.001847101564402457   -0.01010098415435449   -0.0008307262031546241
-0.00017132320514623293   -0.014017478080059513   -0.0008755901700236146
-0.002148183720827575   -0.014034291264903836   -0.0009137188450098072
-1.2990575321757918e-06   -0.010060833324921883   -0.0008258783841541765
-0.001847101564402457   -0.01010098415435449   -0.0008307262031546241
-0.0021379865991805976   -0.01405426682130474   -0.0008968953203839452
4.572354848539527e-06   -0.010064008473451038   -0.0008171089645282372
-0.0018387923350654458   -0.010113033990688266   -0.0008127653986955019
-0.0021379865991805976   -0.01405426682130474   -0.0008968953203839452
-0.00017132320514623293   -0.014017478080059513   -0.0008755901700236146
4.572354848539527e-06   -0.010064008473451038   -0.0008171089645282372
-0.00016336658641887455   -0.014020890043105805   -0.0008658534549870861
-0.0018387923350654458   -0.010113033990688266   -0.0008127653986955019
8.73005193276145e-06   -0.010059752651837455   -0.0008122647217689602
-0.00016336658641887455   -0.014020890043105805   -0.0008658534549870861
4.572354848539527e-06   -0.010064008473451038   -0.0008171089645282372
-0.0018387923350654458   -0.010113033990688266   -0.0008127653986955019
-0.00016336658641887455   -0.014020890043105805   -0.0008658534549870861
-0.0021259137676221816   -0.014072607311151947   -0.0008840932488384075
-0.0021379865991805976   -0.01405426682130474   -0.0008968953203839452
-0.0018387923350654458   -0.010113033990688266   -0.0008127653986955019
-0.00016336658641887455   -0.014020890043105805   -0.0008658534549870861
-0.0021379865991805976   -0.01405426682130474   -0.0008968953203839452
4.572354848539527e-06   -0.010064008473451038   -0.0008171089645282372
-9.095454877915306e-06   -0.010050328676857373   -0.000838409930304382
-0.0001929676450065747   -0.01400510745936217   -0.0009070197674946193
0.0019031270569099322   -0.010066687960046497   -0.0008274483358846964
-1.2990575321757918e-06   -0.010060833324921883   -0.0008258783841541765
-0.0001929676450065747   -0.01400510745936217   -0.0009070197674946193
0.0018304742848822893   -0.014001638974173246   -0.0009059885599397987
0.0019031270569099322   -0.010066687960046497   -0.0008274483358846964
0.001845521688503114   -0.013994587364046036   -0.0008915616197204386
-1.2990575321757918e-06   -0.010060833324921883   -0.0008258783841541765
0.0019125052334567339   -0.010062111785090708   -0.0008282932814799525
0.001845521688503114   -0.013994587364046036   -0.0008915616197204386
0.0019031270569099322   -0.010066687960046497   -0.0008274483358846964
-1.2990575321757918e-06   -0.010060833324921883   -0.0008258783841541765
0.001845521688503114   -0.013994587364046036   -0.0008915616197204386
-0.00018143456308934212   -0.014012207110417787   -0.0008893586627993104
-0.0001929676450065747   -0.01400510745936217   -0.0009070197674946193
-1.2990575321757918e-06   -0.010060833324921883   -0.0008258783841541765
0.001845521688503114   -0.013994587364046036   -0.0008915616197204386
-0.0001929676450065747   -0.01400510745936217   -0.0009070197674946193
0.0019031270569099322   -0.010066687960046497   -0.0008274483358846964
-1.2990575321757918e-06   -0.010060833324921883   -0.0008258783841541765
-0.00018143456308934212   -0.014012207110417787   -0.0008893586627993104
0.0019125052334567339   -0.010062111785090708   -0.0008282932814799525
4.572354848539527e-06   -0.010064008473451038   -0.0008171089645282372
-0.00018143456308934212   -0.014012207110417787   -0.0008893586627993104
0.001845521688503114   -0.013994587364046036   -0.0008915616197204386
0.0019125052334567339   -0.010062111785090708   -0.0008282932814799525
0.0018560101981629528   -0.013986552100738658   -0.0008809123188092245
4.572354848539527e-06   -0.010064008473451038   -0.0008171089645282372
0.001914436739276313   -0.010050811066662838   -0.000832694793402621
0.0018560101981629528   -0.013986552100738658   -0.0008809123188092245
0.0019125052334567339   -0.010062111785090708   -0.0008282932814799525
4.572354848539527e-06   -0.010064008473451038   -0.0008171089645282372
0.0018560101981629528   -0.013986552100738658   -0.0008809123188092245
-0.00017132320514623293   -0.014017478080059513   -0.0008755901700236146
-0.00018143456308934212   -0.014012207110417787   -0.0008893586627993104
4.572354848539527e-06   -0.010064008473451038   -0.0008171089645282372
0.0018560101981629528   -0.013986552100738658   -0.0008809123188092245
-0.00018143456308934212   -0.014012207110417787   -0.0008893586627993104
0.0019125052334567339   -0.010062111785090708   -0.0008282932814799525
4.572354848539527e-06   -0.010064008473451038   -0.0008171089645282372
-0.00017132320514623293   -0.014017478080059513   -0.0008755901700236146
0.001914436739276313   -0.010050811066662838   -0.000832694793402621
8.73005193276145e-06   -0.010059752651837455   -0.0008122647217689602
-0.00017132320514623293   -0.014017478080059513   -0.0008755901700236146
0.0018560101981629528   -0.013986552100738658   -0.0008809123188092245
0.001914436739276313   -0.010050811066662838   -0.000832694793402621
0.0018590262138664412   -0.013974955465059983   -0.0008739657151746664
8.73005193276145e-06   -0.010059752651837455   -0.0008122647217689602
0.001911502000672241   -0.010030000142496017   -0.000840792331427685
0.0018590262138664412   -0.013974955465059983   -0.0008739657151746664
0.001914436739276313   -0.010050811066662838   -0.000832694793402621
8.73005193276145e-06   -0.010059752651837455   -0.0008122647217689602
0.0018590262138664412   -0.013974955465059983   -0.0008739657151746664
-0.00016336658641887455   -0.014020890043105805   -0.0008658534549870861
-0.00017132320514623293   -0.014017478080059513   -0.0008755901700236146
8.73005193276145e-06   -0.010059752651837455   -0.0008122647217689602
0.0018590262138664412   -0.013974955465059983   -0.0008739657151746664
-0.00017132320514623293   -0.014017478080059513   -0.0008755901700236146
0.001914436739276313   -0.010050811066662838   -0.000832694793402621
0.0019031270569099322   -0.010066687960046497   -0.0008274483358846964
0.0018304742848822893   -0.014001638974173246   -0.0009059885599397987
0.004014571740911569   -0.010096548839073679   -0.0008392275962939754
0.0019125052334567339   -0.010062111785090708   -0.0008282932814799525
0.0018304742848822893   -0.014001638974173246   -0.0009059885599397987
0.0040223951168330725   -0.013996538453954533   -0.0009288938775529716
0.004014571740911569   -0.010096548839073679   -0.0008392275962939754
0.0040514651618237295   -0.013978265110508443   -0.0009166809807486563
0.0019125052334567339   -0.010062111785090708   -0.0008282932814799525
0.004012821274035634   -0.010081712794710172   -0.0008543731060746015
0.0040514651618237295   -0.013978265110508443   -0.0009166809807486563
0.004014571740911569   -0.010096548839073679   -0.0008392275962939754
0.0019125052334567339   -0.010062111785090708   -0.0008282932814799525
0.0040514651618237295   -0.013978265110508443   -0.0009166809807486563
0.001845521688503114   -0.013994587364046036   -0.0008915616197204386
0.0018304742848822893   -0.014001638974173246   -0.0009059885599397987
0.0019125052334567339   -0.010062111785090708   -0.0008282932814799525
0.0040514651618237295   -0.013978265110508443   -0.0009166809807486563
0.0018304742848822893   -0.014001638974173246   -0.0009059885599397987
0.004014571740911569   -0.010096548839073679   -0.0008392275962939754
0.0019125052334567339   -0.010062111785090708   -0.0008282932814799525
0.001845521688503114   -0.013994587364046036   -0.0008915616197204386
0.004012821274035634   -0.010081712794710172   -0.0008543731060746015
0.001914436739276313   -0.010050811066662838   -0.000832694793402621
0.001845521688503114   -0.013994587364046036   -0.0008915616197204386
0.0040514651618237295   -0.013978265110508443   -0.0009166809807486563
0.004012821274035634   -0.010081712794710172   -0.0008543731060746015
0.00406749459171377   -0.013963937740152007   -0.0009102199425972938
0.001914436739276313   -0.010050811066662838   -0.000832694793402621
0.004004493952258139   -0.010063369363200002   -0.0008752971297921433
0.00406749459171377   -0.013963937740152007   -0.0009102199425972938
0.004012821274035634   -0.010081712794710172   -0.0008543731060746015
0.001914436739276313   -0.010050811066662838   -0.000832694793402621
0.00406749459171377   -0.013963937740152007   -0.0009102199425972938
0.0018560101981629528   -0.013986552100738658   -0.0008809123188092245
0.001845521688503114   -0.013994587364046036   -0.0008915616197204386
0.001914436739276313   -0.010050811066662838   -0.000832694793402621
0.00406749459171377   -0.013963937740152007   -0.0009102199425972938
0.001845521688503114   -0.013994587364046036   -0.0008915616197204386
0.004012821274035634   -0.010081712794710172   -0.0008543731060746015
0.001914436739276313   -0.010050811066662838   -0.000832694793402621
0.0018560101981629528   -0.013986552100738658   -0.0008809123188092245
0.004004493952258139   -0.010063369363200002   -0.0008752971297921433
0.001911502000672241   -0.010030000142496017   -0.000840792331427685
0.0018560101981629528   -0.013986552100738658   -0.0008809123188092245
0.00406749459171377   -0.013963937740152007   -0.0009102199425972938
0.004004493952258139   -0.010063369363200002   -0.0008752971297921433
0.0040727958119457335   -0.013941271433492582   -0.000909609301688268
0.001911502000672241   -0.010030000142496017   -0.000840792331427685
0.003978933769633246   -0.010028790020008404   -0.0009019575916139477
0.0040727958119457335   -0.013941271433492582   -0.000909609301688268
0.004004493952258139   -0.010063369363200002   -0.0008752971297921433
0.001911502000672241   -0.010030000142496017   -0.000840792331427685
0.0040727958119457335   -0.013941271433492582   -0.000909609301688268
0.0018590262138664412   -0.013974955465059983   -0.0008739657151746664
0.0018560101981629528   -0.013986552100738658   -0.0008809123188092245
0.001911502000672241   -0.010030000142496017   -0.000840792331427685
0.0040727958119457335   -0.013941271433492582   -0.000909609301688268
0.0018560101981629528   -0.013986552100738658   -0.0008809123188092245
0.004004493952258139   -0.010063369363200002   -0.0008752971297921433
-0.006348155646207378   -0.014047446871322984   -0.0010667813222960715
-0.006539956631340743   -0.01801876668385926   -0.001050057493124683
-0.004175086793119055   -0.014025456388525545   -0.0009880379584008597
-0.006373790876701246   -0.014095832192205672   -0.0010383353736583443
-0.006539956631340743   -0.01801876668385926   -0.001050057493124683
-0.004373220212300545   -0.018029337148449193   -0.000992152257788951
-0.004175086793119055   -0.014025456388525545   -0.0009880379584008597
-0.004360866705989481   -0.018058839764556675   -0.0009832537505766923
-0.006373790876701246   -0.014095832192205672   -0.0010383353736583443
-0.00417243891970567   -0.014061410768025721   -0.0009644270102008919
-0.004360866705989481   -0.018058839764556675   -0.0009832537505766923
-0.004175086793119055   -0.014025456388525545   -0.0009880379584008597
-0.006373790876701246   -0.014095832192205672   -0.0010383353736583443
-0.004360866705989481   -0.018058839764556675   -0.0009832537505766923
-0.006531423986266098   -0.01805828115315615   -0.001048575099043022
-0.006539956631340743   -0.01801876668385926   -0.001050057493124683
-0.006373790876701246   -0.014095832192205672   -0.0010383353736583443
-0.004360866705989481   -0.018058839764556675   -0.0009832537505766923
-0.006539956631340743   -0.01801876668385926   -0.001050057493124683
-0.004175086793119055   -0.014025456388525545   -0.0009880379584008597
-0.006373790876701246   -0.014095832192205672   -0.0010383353736583443
-0.006531423986266098   -0.01805828115315615   -0.001048575099043022
-0.00417243891970567   -0.014061410768025721   -0.0009644270102008919
-0.006381143947904161   -0.014135437459041715   -0.0010155340697942715
-0.006531423986266098   -0.01805828115315615   -0.001048575099043022
-0.004360866705989481   -0.018058839764556675   -0.0009832537505766923
-0.00417243891970567   -0.014061410768025721   -0.0009644270102008919
-0.004341990976108886   -0.018091673121252597   -0.0009783699133004854
-0.006381143947904161   -0.014135437459041715   -0.0010155340697942715
-0.004165851644141966   -0.014094694842308277   -0.0009447402249897779
-0.004341990976108886   -0.018091673121252597   -0.0009783699133004854
-0.00417243891970567   -0.014061410768025721   -0.0009644270102008919
-0.006381143947904161   -0.014135437459041715   -0.0010155340697942715
-0.004341990976108886   -0.018091673121252597   -0.0009783699133004854
-0.006510649103420741   -0.018096824714575247   -0.0010530886173392346
-0.006531423986266098   -0.01805828115315615   -0.001048575099043022
-0.006381143947904161   -0.014135437459041715   -0.0010155340697942715
-0.004341990976108886   -0.018091673121252597   -0.0009783699133004854
-0.006531423986266098   -0.01805828115315615   -0.001048575099043022
-0.00417243891970567   -0.014061410768025721   -0.0009644270102008919
-0.006381143947904161   -0.014135437459041715   -0.0010155340697942715
-0.006510649103420741   -0.018096824714575247   -0.0010530886173392346
-0.004165851644141966   -0.014094694842308277   -0.0009447402249897779
-0.006382698821109197   -0.014178632210648455   -0.0009988733689384583
-0.006510649103420741   -0.018096824714575247   -0.0010530886173392346
-0.004341990976108886   -0.018091673121252597   -0.0009783699133004854
-0.004165851644141966   -0.014094694842308277   -0.0009447402249897779
-0.004317780043193506   -0.01813010822061931   -0.0009774250653274226
-0.006382698821109197   -0.014178632210648455   -0.0009988733689384583
-0.004151119951247752   -0.01412785664052992   -0.0009286927022865451
-0.004317780043193506   -0.01813010822061931   -0.0009774250653274226
-0.004165851644141966   -0.014094694842308277   -0.0009447402249897779
-0.006382698821109197   -0.014178632210648455   -0.0009988733689384583
-0.004317780043193506   -0.01813010822061931   -0.0009774250653274226
-0.006477474816271623   -0.018146632270810294   -0.0010639145465653063
-0.006510649103420741   -0.018096824714575247   -0.0010530886173392346
-0.006382698821109197   -0.014178632210648455   -0.0009988733689384583
-0.004317780043193506   -0.01813010822061931   -0.0009774250653274226
-0.006510649103420741   -0.018096824714575247   -0.0010530886173392346
-0.004165851644141966   -0.014094694842308277   -0.0009447402249897779
-0.004175086793119055   -0.014025456388525545   -0.0009880379584008597
-0.004373220212300545   -0.018029337148449193   -0.000992152257788951
-0.0021566904844127427   -0.014012612997043573   -0.000934464478353337
-0.00417243891970567   -0.014061410768025721   -0.0009644270102008919
-0.004373220212300545   -0.018029337148449193   -0.000992152257788951
-0.0023878884945621732   -0.018031474687837896   -0.0009537047841090783
-0.0021566904844127427   -0.014012612997043573   -0.000934464478353337
-0.002371623739639411   -0.01804831452730022   -0.0009376872679456586
-0.00417243891970567   -0.014061410768025721   -0.0009644270102008919
-0.002148183720827575   -0.014034291264903836   -0.0009137188450098072
-0.002371623739639411   -0.01804831452730022   -0.0009376872679456586
-0.0021566904844127427   -0.014012612997043573   -0.000934464478353337
-0.00417243891970567   -0.014061410768025721   -0.0009644270102008919
-0.002371623739639411   -0.01804831452730022   -0.0009376872679456586
-0.004360866705989481   -0.018058839764556675   -0.0009832537505766923
-0.004373220212300545   -0.018029337148449193   -0.000992152257788951
-0.00417243891970567   -0.014061410768025721   -0.0009644270102008919
-0.002371623739639411   -0.01804831452730022   -0.0009376872679456586
-0.004373220212300545   -0.018029337148449193   -0.000992152257788951
-0.0021566904844127427   -0.014012612997043573   -0.000934464478353337
-0.00417243891970567   -0.014061410768025721   -0.0009644270102008919
-0.004360866705989481   -0.018058839764556675   -0.0009832537505766923
-0.002148183720827575   -0.014034291264903836   -0.0009137188450098072
-0.004165851644141966   -0.014094694842308277   -0.0009447402249897779
-0.004360866705989481   -0.018058839764556675   -0.0009832537505766923
-0.002371623739639411   -0.01804831452730022   -0.0009376872679456586
-0.002148183720827575   -0.014034291264903836   -0.0009137188450098072
-0.0023533505466380076   -0.01806892570333766   -0.0009256955725829637
-0.004165851644141966   -0.014094694842308277   -0.0009447402249897779
-0.0021379865991805976   -0.01405426682130474   -0.0008968953203839452
-0.0023533505466380076   -0.01806892570333766   -0.0009256955725829637
-0.002148183720827575   -0.014034291264903836   -0.0009137188450098072
-0.004165851644141966   -0.014094694842308277   -0.0009447402249897779
-0.0023533505466380076   -0.01806892570333766   -0.0009256955725829637
-0.004341990976108886   -0.018091673121252597   -0.0009783699133004854
-0.004360866705989481   -0.018058839764556675   -0.0009832537505766923
-0.004165851644141966   -0.014094694842308277   -0.0009447402249897779
-0.0023533505466380076   -0.01806892570333766   -0.0009256955725829637
-0.004360866705989481   -0.018058839764556675   -0.0009832537505766923
-0.002148183720827575   -0.014034291264903836   -0.0009137188450098072
-0.004165851644141966   -0.014094694842308277   -0.0009447402249897779
-0.004341990976108886   -0.018091673121252597   -0.0009783699133004854
-0.0021379865991805976   -0.01405426682130474   -0.0008968953203839452
-0.004151119951247752   -0.01412785664052992   -0.0009286927022865451
-0.004341990976108886   -0.018091673121252597   -0.0009783699133004854
-0.0023533505466380076   -0.01806892570333766   -0.0009256955725829637
-0.0021379865991805976   -0.01405426682130474   -0.0008968953203839452
-0.0023337008570650324   -0.01809337278401484   -0.000917865811951796
-0.004151119951247752   -0.01412785664052992   -0.0009286927022865451
-0.0021259137676221816   -0.014072607311151947   -0.0008840932488384075
-0.0023337008570650324   -0.01809337278401484   -0.000917865811951796
-0.0021379865991805976   -0.01405426682130474   -0.0008968953203839452
-0.004151119951247752   -0.01412785664052992   -0.0009286927022865451
-0.0023337008570650324   -0.01809337278401484   -0.000917865811951796
-0.004317780043193506   -0.01813010822061931   -0.0009774250653274226
-0.004341990976108886   -0.018091673121252597   -0.0009783699133004854
-0.004151119951247752   -0.01412785664052992   -0.0009286927022865451
-0.0023337008570650324   -0.01809337278401484   -0.000917865811951796
-0.004341990976108886   -0.018091673121252597   -0.0009783699133004854
-0.0021379865991805976   -0.01405426682130474   -0.0008968953203839452
-0.0021566904844127427   -0.014012612997043573   -0.000934464478353337
-0.0023878884945621732   -0.018031474687837896   -0.0009537047841090783
-0.0001929676450065747   -0.01400510745936217   -0.0009070197674946193
-0.002148183720827575   -0.014034291264903836   -0.0009137188450098072
-0.0023878884945621732   -0.018031474687837896   -0.0009537047841090783
-0.0004585865781271486   -0.018020762147389943   -0.000938297062271115
-0.0001929676450065747   -0.01400510745936217   -0.0009070197674946193
-0.0004394490773317943   -0.01802447427421087   -0.0009155168310104675
-0.002148183720827575   -0.014034291264903836   -0.0009137188450098072
-0.00018143456308934212   -0.014012207110417787   -0.0008893586627993104
-0.0004394490773317943   -0.01802447427421087   -0.0009155168310104675
-0.0001929676450065747   -0.01400510745936217   -0.0009070197674946193
-0.002148183720827575   -0.014034291264903836   -0.0009137188450098072
-0.0004394490773317943   -0.01802447427421087   -0.0009155168310104675
-0.002371623739639411   -0.01804831452730022   -0.0009376872679456586
-0.0023878884945621732   -0.018031474687837896   -0.0009537047841090783
-0.002148183720827575   -0.014034291264903836   -0.0009137188450098072
-0.0004394490773317943   -0.01802447427421087   -0.0009155168310104675
-0.0023878884945621732   -0.018031474687837896   -0.0009537047841090783
-0.0001929676450065747   -0.01400510745936217   -0.0009070197674946193
-0.002148183720827575   -0.014034291264903836   -0.0009137188450098072
-0.002371623739639411   -0.01804831452730022   -0.0009376872679456586
-0.00018143456308934212   -0.014012207110417787   -0.0008893586627993104
-0.0021379865991805976   -0.01405426682130474   -0.0008968953203839452
-0.002371623739639411   -0.01804831452730022   -0.0009376872679456586
-0.0004394490773317943   -0.01802447427421087   -0.0009155168310104675
-0.00018143456308934212   -0.014012207110417787   -0.0008893586627993104
-0.00042130961048971973   -0.018031675441356056   -0.0008967385427431859
-0.0021379865991805976   -0.01405426682130474   -0.0008968953203839452
-0.00017132320514623293   -0.014017478080059513   -0.0008755901700236146
-0.00042130961048971973   -0.018031675441356056   -0.0008967385427431859
-0.00018143456308934212   -0.014012207110417787   -0.0008893586627993104
-0.0021379865991805976   -0.01405426682130474   -0.0008968953203839452
-0.00042130961048971973   -0.018031675441356056   -0.0008967385427431859
-0.0023533505466380076   -0.01806892570333766   -0.0009256955725829637
-0.002371623739639411   -0.01804831452730022   -0.0009376872679456586
-0.0021379865991805976   -0.01405426682130474   -0.0008968953203839452
-0.00042130961048971973   -0.018031675441356056   -0.0008967385427431859
-0.002371623739639411   -0.01804831452730022   -0.0009376872679456586
-0.00018143456308934212   -0.014012207110417787   -0.0008893586627993104
-0.0021379865991805976   -0.01405426682130474   -0.0008968953203839452
-0.0023533505466380076   -0.01806892570333766   -0.0009256955725829637
-0.00017132320514623293   -0.014017478080059513   -0.0008755901700236146
-0.0021259137676221816   -0.014072607311151947   -0.0008840932488384075
-0.0023533505466380076   -0.01806892570333766   -0.0009256955725829637
-0.00042130961048971973   -0.018031675441356056   -0.0008967385427431859
-0.00017132320514623293   -0.014017478080059513   -0.0008755901700236146
-0.00040578922039401715   -0.01804252387277279   -0.0008820994703915759
-0.0021259137676221816   -0.014072607311151947   -0.0008840932488384075
-0.00016336658641887455   -0.014020890043105805   -0.0008658534549870861
-0.00040578922039401715   -0.01804252387277279   -0.0008820994703915759
-0.00017132320514623293   -0.014017478080059513   -0.0008755901700236146
-0.0021259137676221816   -0.014072607311151947   -0.0008840932488384075
-0.00040578922039401715   -0.01804252387277279   -0.0008820994703915759
-0.0023337008570650324   -0.01809337278401484   -0.000917865811951796
-0.0023533505466380076   -0.01806892570333766   -0.0009256955725829637
-0.0021259137676221816   -0.014072607311151947   -0.0008840932488384075
-0.00040578922039401715   -0.01804252387277279   -0.0008820994703915759
-0.0023533505466380076   -0.01806892570333766   -0.0009256955725829637
-0.00017132320514623293   -0.014017478080059513   -0.0008755901700236146
-0.0001929676450065747   -0.01400510745936217   -0.0009070197674946193
-0.0004585865781271486   -0.018020762147389943   -0.000938297062271115
0.0018304742848822893   -0.014001638974173246   -0.0009059885599397987
-0.00018143456308934212   -0.014012207110417787   -0.0008893586627993104
-0.0004585865781271486   -0.018020762147389943   -0.000938297062271115
0.0015282290159839868   -0.01799703705886315   -0.0009467133433637266
0.0018304742848822893   -0.014001638974173246   -0.0009059885599397987
0.0015525363516894829   -0.01798755616550913   -0.0009172720460936394
-0.00018143456308934212   -0.014012207110417787   -0.0008893586627993104
0.001845521688503114   -0.013994587364046036   -0.0008915616197204386
0.0015525363516894829   -0.01798755616550913   -0.0009172720460936394
0.0018304742848822893   -0.014001638974173246   -0.0009059885599397987
-0.00018143456308934212   -0.014012207110417787   -0.0008893586627993104
0.0015525363516894829   -0.01798755616550913   -0.0009172720460936394
-0.0004394490773317943   -0.01802447427421087   -0.0009155168310104675
-0.0004585865781271486   -0.018020762147389943   -0.000938297062271115
-0.00018143456308934212   -0.014012207110417787   -0.0008893586627993104
0.0015525363516894829   -0.01798755616550913   -0.0009172720460936394
-0.0004585865781271486   -0.018020762147389943   -0.000938297062271115
0.0018304742848822893   -0.014001638974173246   -0.0009059885599397987
-0.00018143456308934212   -0.014012207110417787   -0.0008893586627993104
-0.0004394490773317943   -0.01802447427421087   -0.0009155168310104675
0.001845521688503114   -0.013994587364046036   -0.0008915616197204386
-0.00017132320514623293   -0.014017478080059513   -0.0008755901700236146
-0.0004394490773317943   -0.01802447427421087   -0.0009155168310104675
0.0015525363516894829   -0.01798755616550913   -0.0009172720460936394
0.001845521688503114   -0.013994587364046036   -0.0008915616197204386
0.001575126480679485   -0.017982611984205428   -0.0008918177886009287
-0.00017132320514623293   -0.014017478080059513   -0.0008755901700236146
0.0018560101981629528   -0.013986552100738658   -0.0008809123188092245
0.001575126480679485   -0.017982611984205428   -0.0008918177886009287
0.001845521688503114   -0.013994587364046036   -0.0008915616197204386
-0.00017132320514623293   -0.014017478080059513   -0.0008755901700236146
0.001575126480679485   -0.017982611984205428   -0.0008918177886009287
-0.00042130961048971973   -0.018031675441356056   -0.0008967385427431859
-0.0004394490773317943   -0.01802447427421087   -0.0009155168310104675
-0.00017132320514623293   -0.014017478080059513   -0.0008755901700236146
0.001575126480679485   -0.017982611984205428   -0.0008918177886009287
-0.0004394490773317943   -0.01802447427421087   -0.0009155168310104675
0.001845521688503114   -0.013994587364046036   -0.0008915616197204386
-0.00017132320514623293   -0.014017478080059513   -0.0008755901700236146
-0.00042130961048971973   -0.018031675441356056   -0.0008967385427431859
0.0018560101981629528   -0.013986552100738658   -0.0008809123188092245
-0.00016336658641887455   -0.014020890043105805   -0.0008658534549870861
-0.00042130961048971973   -0.018031675441356056   -0.0008967385427431859
0.001575126480679485   -0.017982611984205428   -0.0008918177886009287
0.0018560101981629528   -0.013986552100738658   -0.0008809123188092245
0.0015876152475093126   -0.017979889184829987   -0.0008700902169724851
-0.00016336658641887455   -0.014020890043105805   -0.0008658534549870861
0.0018590262138664412   -0.013974955465059983   -0.0008739657151746664
0.0015876152475093126   -0.017979889184829987   -0.0008700902169724851
0.0018560101981629528   -0.013986552100738658   -0.0008809123188092245
-0.00016336658641887455   -0.014020890043105805   -0.0008658534549870861
0.0015876152475093126   -0.017979889184829987   -0.0008700902169724851
-0.00040578922039401715   -0.01804252387277279   -0.0008820994703915759
-0.00042130961048971973   -0.018031675441356056   -0.0008967385427431859
-0.00016336658641887455   -0.014020890043105805   -0.0008658534549870861
0.0015876152475093126   -0.017979889184829987   -0.0008700902169724851
-0.00042130961048971973   -0.018031675441356056   -0.0008967385427431859
0.0018560101981629528   -0.013986552100738658   -0.0008809123188092245
0.0018304742848822893   -0.014001638974173246   -0.0009059885599397987
0.0015282290159839868   -0.01799703705886315   -0.0009467133433637266
0.0040223951168330725   -0.013996538453954533   -0.0009288938775529716
0.001845521688503114   -0.013994587364046036   -0.0008915616197204386
0.0015282290159839868   -0.01799703705886315   -0.0009467133433637266
0.0036538279857352782   -0.01795701187924702   -0.0009803225866953933
0.0040223951168330725   -0.013996538453954533   -0.0009288938775529716
0.003716653967141141   -0.017935535073052233   -0.0009414977674234087
0.001845521688503114   -0.013994587364046036   -0.0008915616197204386
0.0040514651618237295   -0.013978265110508443   -0.0009166809807486563
0.003716653967141141   -0.017935535073052233   -0.0009414977674234087
0.0040223951168330725   -0.013996538453954533   -0.0009288938775529716
0.001845521688503114   -0.013994587364046036   -0.0008915616197204386
0.003716653967141141   -0.017935535073052233   -0.0009414977674234087
0.0015525363516894829   -0.01798755616550913   -0.0009172720460936394
0.0015282290159839868   -0.01799703705886315   -0.0009467133433637266
0.001845521688503114   -0.013994587364046036   -0.0008915616197204386
0.003716653967141141   -0.017935535073052233   -0.0009414977674234087
0.0015282290159839868   -0.01799703705886315   -0.0009467133433637266
0.0040223951168330725   -0.013996538453954533   -0.0009288938775529716
0.001845521688503114   -0.013994587364046036   -0.0008915616197204386
0.0015525363516894829   -0.01798755616550913   -0.0009172720460936394
0.0040514651618237295   -0.013978265110508443   -0.0009166809807486563
0.0018560101981629528   -0.013986552100738658   -0.0008809123188092245
0.0015525363516894829   -0.01798755616550913   -0.0009172720460936394
0.003716653967141141   -0.017935535073052233   -0.0009414977674234087
0.0040514651618237295   -0.013978265110508443   -0.0009166809807486563
0.003760139034512295   -0.017925101519931565   -0.0009083640939183972
0.0018560101981629528   -0.013986552100738658   -0.0008809123188092245
0.00406749459171377   -0.013963937740152007   -0.0009102199425972938
0.003760139034512295   -0.017925101519931565   -0.0009083640939183972
0.0040514651618237295   -0.013978265110508443   -0.0009166809807486563
0.0018560101981629528   -0.013986552100738658   -0.0008809123188092245
0.003760139034512295   -0.017925101519931565   -0.0009083640939183972
0.001575126480679485   -0.017982611984205428   -0.0008918177886009287
0.0015525363516894829   -0.01798755616550913   -0.0009172720460936394
0.0018560101981629528   -0.013986552100738658   -0.0008809123188092245
0.003760139034512295   -0.017925101519931565   -0.0009083640939183972
0.0015525363516894829   -0.01798755616550913   -0.0009172720460936394
0.0040514651618237295   -0.013978265110508443   -0.0009166809807486563
0.0018560101981629528   -0.013986552100738658   -0.0008809123188092245
0.001575126480679485   -0.017982611984205428   -0.0008918177886009287
0.00406749459171377   -0.013963937740152007   -0.0009102199425972938
0.0018590262138664412   -0.013974955465059983   -0.0008739657151746664
0.001575126480679485   -0.017982611984205428   -0.0008918177886009287
0.003760139034512295   -0.017925101519931565   -0.0009083640939183972
0.00406749459171377   -0.013963937740152007   -0.0009102199425972938
0.003799166257970639   -0.01791397047186855   -0.000881161056232444
0.0018590262138664412   -0.013974955465059983   -0.0008739657151746664
0.0040727958119457335   -0.013941271433492582   -0.000909609301688268
0.003799166257970639   -0.01791397047186855   -0.000881161056232444
0.00406749459171377   -0.013963937740152007   -0.0009102199425972938
0.0018590262138664412   -0.013974955465059983   -0.0008739657151746664
0.003799166257970639   -0.01791397047186855   -0.000881161056232444
0.0015876152475093126   -0.017979889184829987   -0.0008700902169724851
0.001575126480679485   -0.017982611984205428   -0.0008918177886009287
0.0018590262138664412   -0.013974955465059983   -0.0008739657151746664
0.003799166257970639   -0.01791397047186855   -0.000881161056232444
0.001575126480679485   -0.017982611984205428   -0.0008918177886009287
0.00406749459171377   -0.013963937740152007   -0.0009102199425972938
-0.006539956631340743   -0.01801876668385926   -0.001050057493124683
-0.006361082069233428   -0.021803477508016537   -0.0010050317939949349
-0.004373220212300545   -0.018029337148449193   -0.000992152257788951
-0.006531423986266098   -0.01805828115315615   -0.001048575099043022
-0.006361082069233428   -0.021803477508016537   -0.0010050317939949349
-0.00435417479598754   -0.021846981206310012   -0.0009703985341184383
-0.004373220212300545   -0.018029337148449193   -0.000992152257788951
-0.0043285671833663535   -0.021868920923342722   -0.0009757463925545184
-0.006531423986266098   -0.01805828115315615   -0.001048575099043022
-0.004360866705989481   -0.018058839764556675   -0.0009832537505766923
-0.0043285671833663535   -0.021868920923342722   -0.0009757463925545184
-0.004373220212300545   -0.018029337148449193   -0.000992152257788951
-0.006531423986266098   -0.01805828115315615   -0.001048575099043022
-0.0043285671833663535   -0.021868920923342722   -0.0009757463925545184
-0.006314808070405038   -0.02183311473179641   -0.0010304065702962872
-0.006361082069233428   -0.021803477508016537   -0.0010050317939949349
-0.006531423986266098   -0.01805828115315615   -0.001048575099043022
-0.0043285671833663535   -0.021868920923342722   -0.0009757463925545184
-0.006361082069233428   -0.021803477508016537   -0.0010050317939949349
-0.004373220212300545   -0.018029337148449193   -0.000992152257788951
-0.006531423986266098   -0.01805828115315615   -0.001048575099043022
-0.006314808070405038   -0.02183311473179641   -0.0010304065702962872
-0.004360866705989481   -0.018058839764556675   -0.0009832537505766923
-0.006510649103420741   -0.018096824714575247   -0.0010530886173392346
-0.006314808070405038   -0.02183311473179641   -0.0010304065702962872
-0.0043285671833663535   -0.021868920923342722   -0.0009757463925545184
-0.004360866705989481   -0.018058839764556675   -0.0009832537505766923
-0.00429402687001019   -0.021900338309199834   -0.0009851829084611197
-0.006510649103420741   -0.018096824714575247   -0.0010530886173392346
-0.004341990976108886   -0.018091673121252597   -0.0009783699133004854
-0.00429402687001019   -0.021900338309199834   -0.0009851829084611197
-0.004360866705989481   -0.018058839764556675   -0.0009832537505766923
-0.006510649103420741   -0.018096824714575247   -0.0010530886173392346
-0.00429402687001019   -0.021900338309199834   -0.0009851829084611197
-0.006262265976543938   -0.02186971798207534   -0.001062206820559164
-0.006314808070405038   -0.02183311473179641   -0.0010304065702962872
-0.006510649103420741   -0.018096824714575247   -0.0010530886173392346
-0.00429402687001019   -0.021900338309199834   -0.0009851829084611197
-0.006314808070405038   -0.02183311473179641   -0.0010304065702962872
-0.004360866705989481   -0.018058839764556675   -0.0009832537505766923
-0.006510649103420741   -0.018096824714575247   -0.0010530886173392346
-0.006262265976543938   -0.02186971798207534   -0.001062206820559164
-0.004341990976108886   -0.018091673121252597   -0.0009783699133004854
-0.006477474816271623   -0.018146632270810294   -0.0010639145465653063
-0.006262265976543938   -0.02186971798207534   -0.001062206820559164
-0.00429402687001019   -0.021900338309199834   -0.0009851829084611197
-0.004341990976108886   -0.018091673121252597   -0.0009783699133004854
-0.004257024223577941   -0.021943158710290126   -0.0009988195458269197
-0.006477474816271623   -0.018146632270810294   -0.0010639145465653063
-0.004317780043193506   -0.01813010822061931   -0.0009774250653274226
-0.004257024223577941   -0.021943158710290126   -0.0009988195458269197
-0.004341990976108886   -0.018091673121252597   -0.0009783699133004854
-0.006477474816271623   -0.018146632270810294   -0.0010639145465653063
-0.004257024223577941   -0.021943158710290126   -0.0009988195458269197
-0.00619091969592082   -0.021925552687762365   -0.0011005651739301244
-0.006262265976543938   -0.02186971798207534   -0.001062206820559164
-0.006477474816271623   -0.018146632270810294   -0.0010639145465653063
-0.004257024223577941   -0.021943158710290126   -0.0009988195458269197
-0.006262265976543938   -0.02186971798207534   -0.001062206820559164
-0.004341990976108886   -0.018091673121252597   -0.0009783699133004854
-0.004373220212300545   -0.018029337148449193   -0.000992152257788951
-0.00435417479598754   -0.021846981206310012   -0.0009703985341184383
-0.0023878884945621732   -0.018031474687837896   -0.0009537047841090783
-0.004360866705989481   -0.018058839764556675   -0.0009832537505766923
-0.00435417479598754   -0.021846981206310012   -0.0009703985341184383
-0.0025536944295837917   -0.02186396672714232   -0.0009482881198965691
-0.0023878884945621732   -0.018031474687837896   -0.0009537047841090783
-0.0025258811833587616   -0.021875293971659403   -0.000936614308242027
-0.004360866705989481   -0.018058839764556675   -0.0009832537505766923
-0.002371623739639411   -0.01804831452730022   -0.0009376872679456586
-0.0025258811833587616   -0.021875293971659403   -0.000936614308242027
-0.0023878884945621732   -0.018031474687837896   -0.0009537047841090783
-0.004360866705989481   -0.018058839764556675   -0.0009832537505766923
-0.0025258811833587616   -0.021875293971659403   -0.000936614308242027
-0.0043285671833663535   -0.021868920923342722   -0.0009757463925545184
-0.00435417479598754   -0.021846981206310012   -0.0009703985341184383
-0.004360866705989481   -0.018058839764556675   -0.0009832537505766923
-0.0025258811833587616   -0.021875293971659403   -0.000936614308242027
-0.00435417479598754   -0.021846981206310012   -0.0009703985341184383
-0.0023878884945621732   -0.018031474687837896   -0.0009537047841090783
-0.004360866705989481   -0.018058839764556675   -0.0009832537505766923
-0.0043285671833663535   -0.021868920923342722   -0.0009757463925545184
-0.002371623739639411   -0.01804831452730022   -0.0009376872679456586
-0.004341990976108886   -0.018091673121252597   -0.0009783699133004854
-0.0043285671833663535   -0.021868920923342722   -0.0009757463925545184
-0.0025258811833587616   -0.021875293971659403   -0.000936614308242027
-0.002371623739639411   -0.01804831452730022   -0.0009376872679456586
-0.002495990366674527   -0.021895718822778857   -0.0009289776169523031
-0.004341990976108886   -0.018091673121252597   -0.0009783699133004854
-0.0023533505466380076   -0.01806892570333766   -0.0009256955725829637
-0.002495990366674527   -0.021895718822778857   -0.0009289776169523031
-0.002371623739639411   -0.01804831452730022   -0.0009376872679456586
-0.004341990976108886   -0.018091673121252597   -0.0009783699133004854
-0.002495990366674527   -0.021895718822778857   -0.0009289776169523031
-0.00429402687001019   -0.021900338309199834   -0.0009851829084611197
-0.0043285671833663535   -0.021868920923342722   -0.0009757463925545184
-0.004341990976108886   -0.018091673121252597   -0.0009783699133004854
-0.002495990366674527   -0.021895718822778857   -0.0009289776169523031
-0.0043285671833663535   -0.021868920923342722   -0.0009757463925545184
-0.002371623739639411   -0.01804831452730022   -0.0009376872679456586
-0.004341990976108886   -0.018091673121252597   -0.0009783699133004854
-0.00429402687001019   -0.021900338309199834   -0.0009851829084611197
-0.0023533505466380076   -0.01806892570333766   -0.0009256955725829637
-0.004317780043193506   -0.01813010822061931   -0.0009774250653274226
-0.00429402687001019   -0.021900338309199834   -0.0009851829084611197
-0.002495990366674527   -0.021895718822778857   -0.0009289776169523031
-0.0023533505466380076   -0.01806892570333766   -0.0009256955725829637
-0.002465267644454072   -0.021925492052651072   -0.0009255812947029934
-0.004317780043193506   -0.01813010822061931   -0.0009774250653274226
-0.0023337008570650324   -0.01809337278401484   -0.000917865811951796
-0.002465267644454072   -0.021925492052651072   -0.0009255812947029934
-0.0023533505466380076   -0.01806892570333766   -0.0009256955725829637
-0.004317780043193506   -0.01813010822061931   -0.0009774250653274226
-0.002465267644454072   -0.021925492052651072   -0.0009255812947029934
-0.004257024223577941   -0.021943158710290126   -0.0009988195458269197
-0.00429402687001019   -0.021900338309199834   -0.0009851829084611197
-0.004317780043193506   -0.01813010822061931   -0.0009774250653274226
-0.002465267644454072   -0.021925492052651072   -0.0009255812947029934
-0.00429402687001019   -0.021900338309199834   -0.0009851829084611197
-0.0023533505466380076   -0.01806892570333766   -0.0009256955725829637
-0.0023878884945621732   -0.018031474687837896   -0.0009537047841090783
-0.0025536944295837917   -0.02186396672714232   -0.0009482881198965691
-0.0004585865781271486   -0.018020762147389943   -0.000938297062271115
-0.002371623739639411   -0.01804831452730022   -0.0009376872679456586
-0.0025536944295837917   -0.02186396672714232   -0.0009482881198965691
-0.000807495520326202   -0.021850476405459583   -0.0009450239852073088
-0.0004585865781271486   -0.018020762147389943   -0.000938297062271115
-0.0007767449287325907   -0.021850537427379947   -0.0009169123357809434
-0.002371623739639411   -0.01804831452730022   -0.0009376872679456586
-0.0004394490773317943   -0.01802447427421087   -0.0009155168310104675
-0.0007767449287325907   -0.021850537427379947   -0.0009169123357809434
-0.0004585865781271486   -0.018020762147389943   -0.000938297062271115
-0.002371623739639411   -0.01804831452730022   -0.0009376872679456586
-0.0007767449287325907   -0.021850537427379947   -0.0009169123357809434
-0.0025258811833587616   -0.021875293971659403   -0.000936614308242027
-0.0025536944295837917   -0.02186396672714232   -0.0009482881198965691
-0.002371623739639411   -0.01804831452730022   -0.0009376872679456586
-0.0007767449287325907   -0.021850537427379947   -0.0009169123357809434
-0.0025536944295837917   -0.02186396672714232   -0.0009482881198965691
-0.0004585865781271486   -0.018020762147389943   -0.000938297062271115
-0.002371623739639411   -0.01804831452730022   -0.0009376872679456586
-0.0025258811833587616   -0.021875293971659403   -0.000936614308242027
-0.0004394490773317943   -0.01802447427421087   -0.0009155168310104675
-0.0023533505466380076   -0.01806892570333766   -0.0009256955725829637
-0.0025258811833587616   -0.021875293971659403   -0.000936614308242027
-0.0007767449287325907   -0.021850537427379947   -0.0009169123357809434
-0.0004394490773317943   -0.01802447427421087   -0.0009155168310104675
-0.0007467809535047623   -0.02185905177825621   -0.0008928517186553859
-0.0023533505466380076   -0.01806892570333766   -0.0009256955725829637
-0.00042130961048971973   -0.018031675441356056   -0.0008967385427431859
-0.0007467809535047623   -0.02185905177825621   -0.0008928517186553859
-0.0004394490773317943   -0.01802447427421087   -0.0009155168310104675
-0.0023533505466380076   -0.01806892570333766   -0.0009256955725829637
-0.0007467809535047623   -0.02185905177825621   -0.0008928517186553859
-0.002495990366674527   -0.021895718822778857   -0.0009289776169523031
-0.0025258811833587616   -0.021875293971659403   -0.000936614308242027
-0.0023533505466380076   -0.01806892570333766   -0.0009256955725829637
-0.0007467809535047623   -0.02185905177825621   -0.0008928517186553859
-0.0025258811833587616   -0.021875293971659403   -0.000936614308242027
-0.0004394490773317943   -0.01802447427421087   -0.0009155168310104675
-0.0023533505466380076   -0.01806892570333766   -0.0009256955725829637
-0.002495990366674527   -0.021895718822778857   -0.0009289776169523031
-0.00042130961048971973   -0.018031675441356056   -0.0008967385427431859
-0.0023337008570650324   -0.01809337278401484   -0.000917865811951796
-0.002495990366674527   -0.021895718822778857   -0.0009289776169523031
-0.0007467809535047623   -0.02185905177825621   -0.0008928517186553859
-0.00042130961048971973   -0.018031675441356056   -0.0008967385427431859
-0.0007199899212980198   -0.021876706698035223   -0.0008729811852230791
-0.0023337008570650324   -0.01809337278401484   -0.000917865811951796
-0.00040578922039401715   -0.01804252387277279   -0.0008820994703915759
-0.0007199899212980198   -0.021876706698035223   -0.0008729811852230791
-0.00042130961048971973   -0.018031675441356056   -0.0008967385427431859
-0.0023337008570650324   -0.01809337278401484   -0.000917865811951796
-0.0007199899212980198   -0.021876706698035223   -0.0008729811852230791
-0.002465267644454072   -0.021925492052651072   -0.0009255812947029934
-0.002495990366674527   -0.021895718822778857   -0.0009289776169523031
-0.0023337008570650324   -0.01809337278401484   -0.000917865811951796
-0.0007199899212980198   -0.021876706698035223   -0.0008729811852230791
-0.002495990366674527   -0.021895718822778857   -0.0009289776169523031
-0.00042130961048971973   -0.018031675441356056   -0.0008967385427431859
-0.0004585865781271486   -0.018020762147389943   -0.000938297062271115
-0.000807495520326202   -0.021850476405459583   -0.0009450239852073088
0.0015282290159839868   -0.01799703705886315   -0.0009467133433637266
-0.0004394490773317943   -0.01802447427421087   -0.0009155168310104675
-0.000807495520326202   -0.021850476405459583   -0.0009450239852073088
0.000997841104323737   -0.021807310042281362   -0.0009620780810819445
0.0015282290159839868   -0.01799703705886315   -0.0009467133433637266
0.0010354611937523723   -0.021795342430325566   -0.000917663133792997
-0.0004394490773317943   -0.01802447427421087   -0.0009155168310104675
0.0015525363516894829   -0.01798755616550913   -0.0009172720460936394
0.0010354611937523723   -0.021795342430325566   -0.000917663133792997
0.0015282290159839868   -0.01799703705886315   -0.0009467133433637266
-0.0004394490773317943   -0.01802447427421087   -0.0009155168310104675
0.0010354611937523723   -0.021795342430325566   -0.000917663133792997
-0.0007767449287325907   -0.021850537427379947   -0.0009169123357809434
-0.000807495520326202   -0.021850476405459583   -0.0009450239852073088
-0.0004394490773317943   -0.01802447427421087   -0.0009155168310104675
0.0010354611937523723   -0.021795342430325566   -0.000917663133792997
-0.000807495520326202   -0.021850476405459583   -0.0009450239852073088
0.0015282290159839868   -0.01799703705886315   -0.0009467133433637266
-0.0004394490773317943   -0.01802447427421087   -0.0009155168310104675
-0.0007767449287325907   -0.021850537427379947   -0.0009169123357809434
0.0015525363516894829   -0.01798755616550913   -0.0009172720460936394
-0.00042130961048971973   -0.018031675441356056   -0.0008967385427431859
-0.0007767449287325907   -0.021850537427379947   -0.0009169123357809434
0.0010354611937523723   -0.021795342430325566   -0.000917663133792997
0.0015525363516894829   -0.01798755616550913   -0.0009172720460936394
0.001074113047040935   -0.021793042373576786   -0.000877553295982313
-0.00042130961048971973   -0.018031675441356056   -0.0008967385427431859
0.001575126480679485   -0.017982611984205428   -0.0008918177886009287
0.001074113047040935   -0.021793042373576786   -0.000877553295982313
0.0015525363516894829   -0.01798755616550913   -0.0009172720460936394
-0.00042130961048971973   -0.018031675441356056   -0.0008967385427431859
0.001074113047040935   -0.021793042373576786   -0.000877553295982313
-0.0007467809535047623   -0.02185905177825621   -0.0008928517186553859
-0.0007767449287325907   -0.021850537427379947   -0.0009169123357809434
-0.00042130961048971973   -0.018031675441356056   -0.0008967385427431859
0.001074113047040935   -0.021793042373576786   -0.000877553295982313
-0.0007767449287325907   -0.021850537427379947   -0.0009169123357809434
0.0015525363516894829   -0.01798755616550913   -0.0009172720460936394
-0.00042130961048971973   -0.018031675441356056   -0.0008967385427431859
-0.0007467809535047623   -0.02185905177825621   -0.0008928517186553859
0.001575126480679485   -0.017982611984205428   -0.0008918177886009287
-0.00040578922039401715   -0.01804252387277279   -0.0008820994703915759
-0.0007467809535047623   -0.02185905177825621   -0.0008928517186553859
0.001074113047040935   -0.021793042373576786   -0.000877553295982313
0.001575126480679485   -0.017982611984205428   -0.0008918177886009287
0.0010999517929159042   -0.02179864219174376   -0.0008411791529050606
-0.00040578922039401715   -0.01804252387277279   -0.0008820994703915759
0.0015876152475093126   -0.017979889184829987   -0.0008700902169724851
0.0010999517929159042   -0.02179864219174376   -0.0008411791529050606
0.001575126480679485   -0.017982611984205428   -0.0008918177886009287
-0.00040578922039401715   -0.01804252387277279   -0.0008820994703915759
0.0010999517929159042   -0.02179864219174376   -0.0008411791529050606
-0.0007199899212980198   -0.021876706698035223   -0.0008729811852230791
-0.0007467809535047623   -0.02185905177825621   -0.0008928517186553859
-0.00040578922039401715   -0.01804252387277279   -0.0008820994703915759
0.0010999517929159042   -0.02179864219174376   -0.0008411791529050606
-0.0007467809535047623   -0.02185905177825621   -0.0008928517186553859
0.001575126480679485   -0.017982611984205428   -0.0008918177886009287
0.0015282290159839868   -0.01799703705886315   -0.0009467133433637266
0.000997841104323737   -0.021807310042281362   -0.0009620780810819445
0.0036538279857352782   -0.01795701187924702   -0.0009803225866953933
0.0015525363516894829   -0.01798755616550913   -0.0009172720460936394
0.000997841104323737   -0.021807310042281362   -0.0009620780810819445
0.0029160036394435167   -0.021733032994562203   -0.0010053798507341342
0.0036538279857352782   -0.01795701187924702   -0.0009803225866953933
0.0030161786643941617   -0.021708540763549104   -0.0009406361054283887
0.0015525363516894829   -0.01798755616550913   -0.0009172720460936394
0.003716653967141141   -0.017935535073052233   -0.0009414977674234087
0.0030161786643941617   -0.021708540763549104   -0.0009406361054283887
0.0036538279857352782   -0.01795701187924702   -0.0009803225866953933
0.0015525363516894829   -0.01798755616550913   -0.0009172720460936394
0.0030161786643941617   -0.021708540763549104   -0.0009406361054283887
0.0010354611937523723   -0.021795342430325566   -0.000917663133792997
0.000997841104323737   -0.021807310042281362   -0.0009620780810819445
0.0015525363516894829   -0.01798755616550913   -0.0009172720460936394
0.0030161786643941617   -0.021708540763549104   -0.0009406361054283887
0.000997841104323737   -0.021807310042281362   -0.0009620780810819445
0.0036538279857352782   -0.01795701187924702   -0.0009803225866953933
0.0015525363516894829   -0.01798755616550913   -0.0009172720460936394
0.0010354611937523723   -0.021795342430325566   -0.000917663133792997
0.003716653967141141   -0.017935535073052233   -0.0009414977674234087
0.001575126480679485   -0.017982611984205428   -0.0008918177886009287
0.0010354611937523723   -0.021795342430325566   -0.000917663133792997
0.0030161786643941617   -0.021708540763549104   -0.0009406361054283887
0.003716653967141141   -0.017935535073052233   -0.0009414977674234087
0.0030905279846252117   -0.021701741046806174   -0.000881629113043192
0.001575126480679485   -0.017982611984205428   -0.0008918177886009287
0.003760139034512295   -0.017925101519931565   -0.0009083640939183972
0.0030905279846252117   -0.021701741046806174   -0.000881629113043192
0.003716653967141141   -0.017935535073052233   -0.0009414977674234087
0.001575126480679485   -0.017982611984205428   -0.0008918177886009287
0.0030905279846252117   -0.021701741046806174   -0.000881629113043192
0.001074113047040935   -0.021793042373576786   -0.000877553295982313
0.0010354611937523723   -0.021795342430325566   -0.000917663133792997
0.001575126480679485   -0.017982611984205428   -0.0008918177886009287
0.0030905279846252117   -0.021701741046806174   -0.000881629113043192
0.0010354611937523723   -0.021795342430325566   -0.000917663133792997
0.003716653967141141   -0.017935535073052233   -0.0009414977674234087
0.001575126480679485   -0.017982611984205428   -0.0008918177886009287
0.001074113047040935   -0.021793042373576786   -0.000877553295982313
0.003760139034512295   -0.017925101519931565   -0.0009083640939183972
0.0015876152475093126   -0.017979889184829987   -0.0008700902169724851
0.001074113047040935   -0.021793042373576786   -0.000877553295982313
0.0030905279846252117   -0.021701741046806174   -0.000881629113043192
0.003760139034512295   -0.017925101519931565   -0.0009083640939183972
0.0031662139876263897   -0.02170174009688791   -0.0008286287574857129
0.0015876152475093126   -0.017979889184829987   -0.0008700902169724851
0.003799166257970639   -0.01791397047186855   -0.000881161056232444
0.0031662139876263897   -0.02170174009688791   -0.0008286287574857129
0.003760139034512295   -0.017925101519931565   -0.0009083640939183972
0.0015876152475093126   -0.017979889184829987   -0.0008700902169724851
0.0031662139876263897   -0.02170174009688791   -0.0008286287574857129
0.0010999517929159042   -0.02179864219174376   -0.0008411791529050606
0.001074113047040935   -0.021793042373576786   -0.000877553295982313
0.0015876152475093126   -0.017979889184829987   -0.0008700902169724851
0.0031662139876263897   -0.02170174009688791   -0.0008286287574857129
0.001074113047040935   -0.021793042373576786   -0.000877553295982313
0.003760139034512295   -0.017925101519931565   -0.0009083640939183972
-0.006361082069233428   -0.021803477508016537   -0.0010050317939949349
-0.0058064454196937645   -0.025146521524693755   -0.0009380447603070609
-0.00435417479598754   -0.021846981206310012   -0.0009703985341184383
-0.006314808070405038   -0.02183311473179641   -0.0010304065702962872
-0.0058064454196937645   -0.025146521524693755   -0.0009380447603070609
-0.0041188428035022024   -0.025224519521322555   -0.0009326321345762098
-0.00435417479598754   -0.021846981206310012   -0.0009703985341184383
-0.004077107657605275   -0.025235768890215927   -0.0009511454652401048
-0.006314808070405038   -0.02183311473179641   -0.0010304065702962872
-0.0043285671833663535   -0.021868920923342722   -0.0009757463925545184
-0.004077107657605275   -0.025235768890215927   -0.0009511454652401048
-0.00435417479598754   -0.021846981206310012   -0.0009703985341184383
-0.006314808070405038   -0.02183311473179641   -0.0010304065702962872
-0.004077107657605275   -0.025235768890215927   -0.0009511454652401048
-0.00571915453769107   -0.025163175633745035   -0.000990040612716851
-0.0058064454196937645   -0.025146521524693755   -0.0009380447603070609
-0.006314808070405038   -0.02183311473179641   -0.0010304065702962872
-0.004077107657605275   -0.025235768890215927   -0.0009511454652401048
-0.0058064454196937645   -0.025146521524693755   -0.0009380447603070609
-0.00435417479598754   -0.021846981206310012   -0.0009703985341184383
-0.006314808070405038   -0.02183311473179641   -0.0010304065702962872
-0.00571915453769107   -0.025163175633745035   -0.000990040612716851
-0.0043285671833663535   -0.021868920923342722   -0.0009757463925545184
-0.006262265976543938   -0.02186971798207534   -0.001062206820559164
-0.00571915453769107   -0.025163175633745035   -0.000990040612716851
-0.004077107657605275   -0.025235768890215927   -0.0009511454652401048
-0.0043285671833663535   -0.021868920923342722   -0.0009757463925545184
-0.004024671946778123   -0.025262881778255697   -0.000973781866037482
-0.006262265976543938   -0.02186971798207534   -0.001062206820559164
-0.00429402687001019   -0.021900338309199834   -0.0009851829084611197
-0.004024671946778123   -0.025262881778255697   -0.000973781866037482
-0.0043285671833663535   -0.021868920923342722   -0.0009757463925545184
-0.006262265976543938   -0.02186971798207534   -0.001062206820559164
-0.004024671946778123   -0.025262881778255697   -0.000973781866037482
-0.005632275442657436   -0.025195001636681914   -0.0010487476530371168
-0.00571915453769107   -0.025163175633745035   -0.000990040612716851
-0.006262265976543938   -0.02186971798207534   -0.001062206820559164
-0.004024671946778123   -0.025262881778255697   -0.000973781866037482
-0.00571915453769107   -0.025163175633745035   -0.000990040612716851
-0.0043285671833663535   -0.021868920923342722   -0.0009757463925545184
-0.006262265976543938   -0.02186971798207534   -0.001062206820559164
-0.005632275442657436   -0.025195001636681914   -0.0010487476530371168
-0.00429402687001019   -0.021900338309199834   -0.0009851829084611197
-0.00619091969592082   -0.021925552687762365   -0.0011005651739301244
-0.005632275442657436   -0.025195001636681914   -0.0010487476530371168
-0.004024671946778123   -0.025262881778255697   -0.000973781866037482
-0.00429402687001019   -0.021900338309199834   -0.0009851829084611197
-0.003972970808377737   -0.02530740144388136   -0.001000502053856753
-0.00619091969592082   -0.021925552687762365   -0.0011005651739301244
-0.004257024223577941   -0.021943158710290126   -0.0009988195458269197
-0.003972970808377737   -0.02530740144388136   -0.001000502053856753
-0.00429402687001019   -0.021900338309199834   -0.0009851829084611197
-0.00619091969592082   -0.021925552687762365   -0.0011005651739301244
-0.003972970808377737   -0.02530740144388136   -0.001000502053856753
-0.00552104307810568   -0.025254349435569985   -0.001114057248146369
-0.005632275442657436   -0.025195001636681914   -0.0010487476530371168
-0.00619091969592082   -0.021925552687762365   -0.0011005651739301244
-0.003972970808377737   -0.02530740144388136   -0.001000502053856753
-0.005632275442657436   -0.025195001636681914   -0.0010487476530371168
-0.00429402687001019   -0.021900338309199834   -0.0009851829084611197
-0.00435417479598754   -0.021846981206310012   -0.0009703985341184383
-0.0041188428035022024   -0.025224519521322555   -0.0009326321345762098
-0.0025536944295837917   -0.02186396672714232   -0.0009482881198965691
-0.0043285671833663535   -0.021868920923342722   -0.0009757463925545184
-0.0041188428035022024   -0.025224519521322555   -0.0009326321345762098
-0.002655245979533889   -0.025260692045288077   -0.0009305953635959553
-0.0025536944295837917   -0.02186396672714232   -0.0009482881198965691
-0.0026124942926581416   -0.025264324767014665   -0.0009222215223698537
-0.0043285671833663535   -0.021868920923342722   -0.0009757463925545184
-0.0025258811833587616   -0.021875293971659403   -0.000936614308242027
-0.0026124942926581416   -0.025264324767014665   -0.0009222215223698537
-0.0025536944295837917   -0.02186396672714232   -0.0009482881198965691
-0.0043285671833663535   -0.021868920923342722   -0.0009757463925545184
-0.0026124942926581416   -0.025264324767014665   -0.0009222215223698537
-0.004077107657605275   -0.025235768890215927   -0.0009511454652401048
-0.0041188428035022024   -0.025224519521322555   -0.0009326321345762098
-0.0043285671833663535   -0.021868920923342722   -0.0009757463925545184
-0.0026124942926581416   -0.025264324767014665   -0.0009222215223698537
-0.0041188428035022024   -0.025224519521322555   -0.0009326321345762098
-0.0025536944295837917   -0.02186396672714232   -0.0009482881198965691
-0.0043285671833663535   -0.021868920923342722   -0.0009757463925545184
-0.004077107657605275   -0.025235768890215927   -0.0009511454652401048
-0.0025258811833587616   -0.021875293971659403   -0.000936614308242027
-0.00429402687001019   -0.021900338309199834   -0.0009851829084611197
-0.004077107657605275   -0.025235768890215927   -0.0009511454652401048
-0.0026124942926581416   -0.025264324767014665   -0.0009222215223698537
-0.0025258811833587616   -0.021875293971659403   -0.000936614308242027
-0.0025683427760340933   -0.025282137570884187   -0.0009178482965218937
-0.00429402687001019   -0.021900338309199834   -0.0009851829084611197
-0.002495990366674527   -0.021895718822778857   -0.0009289776169523031
-0.0025683427760340933   -0.025282137570884187   -0.0009178482965218937
-0.0025258811833587616   -0.021875293971659403   -0.000936614308242027
-0.00429402687001019   -0.021900338309199834   -0.0009851829084611197
-0.0025683427760340933   -0.025282137570884187   -0.0009178482965218937
-0.004024671946778123   -0.025262881778255697   -0.000973781866037482
-0.004077107657605275   -0.025235768890215927   -0.0009511454652401048
-0.00429402687001019   -0.021900338309199834   -0.0009851829084611197
-0.0025683427760340933   -0.025282137570884187   -0.0009178482965218937
-0.004077107657605275   -0.025235768890215927   -0.0009511454652401048
-0.0025258811833587616   -0.021875293971659403   -0.000936614308242027
-0.00429402687001019   -0.021900338309199834   -0.0009851829084611197
-0.004024671946778123   -0.025262881778255697   -0.000973781866037482
-0.002495990366674527   -0.021895718822778857   -0.0009289776169523031
-0.004257024223577941   -0.021943158710290126   -0.0009988195458269197
-0.004024671946778123   -0.025262881778255697   -0.000973781866037482
-0.0025683427760340933   -0.025282137570884187   -0.0009178482965218937
-0.002495990366674527   -0.021895718822778857   -0.0009289776169523031
-0.002524249228306521   -0.025314932026153408   -0.0009174353488813217
-0.004257024223577941   -0.021943158710290126   -0.0009988195458269197
-0.002465267644454072   -0.021925492052651072   -0.0009255812947029934
-0.002524249228306521   -0.025314932026153408   -0.0009174353488813217
-0.002495990366674527   -0.021895718822778857   -0.0009289776169523031
-0.004257024223577941   -0.021943158710290126   -0.0009988195458269197
-0.002524249228306521   -0.025314932026153408   -0.0009174353488813217
-0.003972970808377737   -0.02530740144388136   -0.001000502053856753
-0.004024671946778123   -0.025262881778255697   -0.000973781866037482
-0.004257024223577941   -0.021943158710290126   -0.0009988195458269197
-0.002524249228306521   -0.025314932026153408   -0.0009174353488813217
-0.004024671946778123   -0.025262881778255697   -0.000973781866037482
-0.002495990366674527   -0.021895718822778857   -0.0009289776169523031
-0.0025536944295837917   -0.02186396672714232   -0.0009482881198965691
-0.002655245979533889   -0.025260692045288077   -0.0009305953635959553
-0.000807495520326202   -0.021850476405459583   -0.0009450239852073088
-0.0025258811833587616   -0.021875293971659403   -0.000936614308242027
-0.002655245979533889   -0.025260692045288077   -0.0009305953635959553
-0.0012399922606333544   -0.025253407911652908   -0.0009413809884893594
-0.000807495520326202   -0.021850476405459583   -0.0009450239852073088
-0.0011931714133770353   -0.025248459307978435   -0.0009070559811255384
-0.0025258811833587616   -0.021875293971659403   -0.000936614308242027
-0.0007767449287325907   -0.021850537427379947   -0.0009169123357809434
-0.0011931714133770353   -0.025248459307978435   -0.0009070559811255384
-0.000807495520326202   -0.021850476405459583   -0.0009450239852073088
-0.0025258811833587616   -0.021875293971659403   -0.000936614308242027
-0.0011931714133770353   -0.025248459307978435   -0.0009070559811255384
-0.0026124942926581416   -0.025264324767014665   -0.0009222215223698537
-0.002655245979533889   -0.025260692045288077   -0.0009305953635959553
-0.0025258811833587616   -0.021875293971659403   -0.000936614308242027
-0.0011931714133770353   -0.025248459307978435   -0.0009070559811255384
-0.002655245979533889   -0.025260692045288077   -0.0009305953635959553
-0.000807495520326202   -0.021850476405459583   -0.0009450239852073088
-0.0025258811833587616   -0.021875293971659403   -0.000936614308242027
-0.0026124942926581416   -0.025264324767014665   -0.0009222215223698537
-0.0007767449287325907   -0.021850537427379947   -0.0009169123357809434
-0.002495990366674527   -0.021895718822778857   -0.0009289776169523031
-0.0026124942926581416   -0.025264324767014665   -0.0009222215223698537
-0.0011931714133770353   -0.025248459307978435   -0.0009070559811255384
-0.0007767449287325907   -0.021850537427379947   -0.0009169123357809434
-0.0011476918857134205   -0.025256373752138263   -0.0008769970058797538
-0.002495990366674527   -0.021895718822778857   -0.0009289776169523031
-0.0007467809535047623   -0.02185905177825621   -0.0008928517186553859
-0.0011476918857134205   -0.025256373752138263   -0.0008769970058797538
-0.0007767449287325907   -0.021850537427379947   -0.0009169123357809434
-0.002495990366674527   -0.021895718822778857   -0.0009289776169523031
-0.0011476918857134205   -0.025256373752138263   -0.0008769970058797538
-0.0025683427760340933   -0.025282137570884187   -0.0009178482965218937
-0.0026124942926581416   -0.025264324767014665   -0.0009222215223698537
-0.002495990366674527   -0.021895718822778857   -0.0009289776169523031
-0.0011476918857134205   -0.025256373752138263   -0.0008769970058797538
-0.0026124942926581416   -0.025264324767014665   -0.0009222215223698537
-0.0007767449287325907   -0.021850537427379947   -0.0009169123357809434
-0.002495990366674527   -0.021895718822778857   -0.0009289776169523031
-0.0025683427760340933   -0.025282137570884187   -0.0009178482965218937
-0.0007467809535047623   -0.02185905177825621   -0.0008928517186553859
-0.002465267644454072   -0.021925492052651072   -0.0009255812947029934
-0.0025683427760340933   -0.025282137570884187   -0.0009178482965218937
-0.0011476918857134205   -0.025256373752138263   -0.0008769970058797538
-0.0007467809535047623   -0.02185905177825621   -0.0008928517186553859
-0.001106566305982042   -0.025278945963100184   -0.0008508403967016694
-0.002465267644454072   -0.021925492052651072   -0.0009255812947029934
-0.0007199899212980198   -0.021876706698035223   -0.0008729811852230791
-0.001106566305982042   -0.025278945963100184   -0.0008508403967016694
-0.0007467809535047623   -0.02185905177825621   -0.0008928517186553859
-0.002465267644454072   -0.021925492052651072   -0.0009255812947029934
-0.001106566305982042   -0.025278945963100184   -0.0008508403967016694
-0.002524249228306521   -0.025314932026153408   -0.0009174353488813217
-0.0025683427760340933   -0.025282137570884187   -0.0009178482965218937
-0.002465267644454072   -0.021925492052651072   -0.0009255812947029934
-0.001106566305982042   -0.025278945963100184   -0.0008508403967016694
-0.0025683427760340933   -0.025282137570884187   -0.0009178482965218937
-0.0007467809535047623   -0.02185905177825621   -0.0008928517186553859
-0.000807495520326202   -0.021850476405459583   -0.0009450239852073088
-0.0012399922606333544   -0.025253407911652908   -0.0009413809884893594
0.000997841104323737   -0.021807310042281362   -0.0009620780810819445
-0.0007767449287325907   -0.021850537427379947   -0.0009169123357809434
-0.0012399922606333544   -0.025253407911652908   -0.0009413809884893594
0.00023985575955358076   -0.02520109814279215   -0.0009672448575024745
0.000997841104323737   -0.021807310042281362   -0.0009620780810819445
0.0002968881221837378   -0.025185301062941163   -0.0009070364465581371
-0.0007767449287325907   -0.021850537427379947   -0.0009169123357809434
0.0010354611937523723   -0.021795342430325566   -0.000917663133792997
0.0002968881221837378   -0.025185301062941163   -0.0009070364465581371
0.000997841104323737   -0.021807310042281362   -0.0009620780810819445
-0.0007767449287325907   -0.021850537427379947   -0.0009169123357809434
0.0002968881221837378   -0.025185301062941163   -0.0009070364465581371
-0.0011931714133770353   -0.025248459307978435   -0.0009070559811255384
-0.0012399922606333544   -0.025253407911652908   -0.0009413809884893594
-0.0007767449287325907   -0.021850537427379947   -0.0009169123357809434
0.0002968881221837378   -0.025185301062941163   -0.0009070364465581371
-0.0012399922606333544   -0.025253407911652908   -0.0009413809884893594
0.000997841104323737   -0.021807310042281362   -0.0009620780810819445
-0.0007767449287325907   -0.021850537427379947   -0.0009169123357809434
-0.0011931714133770353   -0.025248459307978435   -0.0009070559811255384
0.0010354611937523723   -0.021795342430325566   -0.000917663133792997
-0.0007467809535047623   -0.02185905177825621   -0.0008928517186553859
-0.0011931714133770353   -0.025248459307978435   -0.0009070559811255384
0.0002968881221837378   -0.025185301062941163   -0.0009070364465581371
0.0010354611937523723   -0.021795342430325566   -0.000917663133792997
0.0003571144981068016   -0.025183880225763202   -0.0008522256556207607
-0.0007467809535047623   -0.02185905177825621   -0.0008928517186553859
0.001074113047040935   -0.021793042373576786   -0.000877553295982313
0.0003571144981068016   -0.025183880225763202   -0.0008522256556207607
0.0010354611937523723   -0.021795342430325566   -0.000917663133792997
-0.0007467809535047623   -0.02185905177825621   -0.0008928517186553859
0.0003571144981068016   -0.025183880225763202   -0.0008522256556207607
-0.0011476918857134205   -0.025256373752138263   -0.0008769970058797538
-0.0011931714133770353   -0.025248459307978435   -0.0009070559811255384
-0.0007467809535047623   -0.02185905177825621   -0.0008928517186553859
0.0003571144981068016   -0.025183880225763202   -0.0008522256556207607
-0.0011931714133770353   -0.025248459307978435   -0.0009070559811255384
0.0010354611937523723   -0.021795342430325566   -0.000917663133792997
-0.0007467809535047623   -0.02185905177825621   -0.0008928517186553859
-0.0011476918857134205   -0.025256373752138263   -0.0008769970058797538
0.001074113047040935   -0.021793042373576786   -0.000877553295982313
-0.0007199899212980198   -0.021876706698035223   -0.0008729811852230791
-0.0011476918857134205   -0.025256373752138263   -0.0008769970058797538
0.0003571144981068016   -0.025183880225763202   -0.0008522256556207607
0.001074113047040935   -0.021793042373576786   -0.000877553295982313
0.00040115897997653404   -0.025196163607016996   -0.0008011266813579919
-0.0007199899212980198   -0.021876706698035223   -0.0008729811852230791
0.0010999517929159042   -0.02179864219174376   -0.0008411791529050606
0.00040115897997653404   -0.025196163607016996   -0.0008011266813579919
0.001074113047040935   -0.021793042373576786   -0.000877553295982313
-0.0007199899212980198   -0.021876706698035223   -0.0008729811852230791
0.00040115897997653404   -0.025196163607016996   -0.0008011266813579919
-0.001106566305982042   -0.025278945963100184   -0.0008508403967016694
-0.0011476918857134205   -0.025256373752138263   -0.0008769970058797538
-0.0007199899212980198   -0.021876706698035223   -0.0008729811852230791
0.00040115897997653404   -0.025196163607016996   -0.0008011266813579919
-0.0011476918857134205   -0.025256373752138263   -0.0008769970058797538
0.001074113047040935   -0.021793042373576786   -0.000877553295982313
0.000997841104323737   -0.021807310042281362   -0.0009620780810819445
0.00023985575955358076   -0.02520109814279215   -0.0009672448575024745
0.0029160036394435167   -0.021733032994562203   -0.0010053798507341342
0.0010354611937523723   -0.021795342430325566   -0.000917663133792997
0.00023985575955358076   -0.02520109814279215   -0.0009672448575024745
0.001814253094762503   -0.02509885528333543   -0.001021950985113653
0.0029160036394435167   -0.021733032994562203   -0.0010053798507341342
0.0019596722477548175   -0.02506863678988149   -0.0009297481953695597
0.0010354611937523723   -0.021795342430325566   -0.000917663133792997
0.0030161786643941617   -0.021708540763549104   -0.0009406361054283887
0.0019596722477548175   -0.02506863678988149   -0.0009297481953695597
0.0029160036394435167   -0.021733032994562203   -0.0010053798507341342
0.0010354611937523723   -0.021795342430325566   -0.000917663133792997
0.0019596722477548175   -0.02506863678988149   -0.0009297481953695597
0.0002968881221837378   -0.025185301062941163   -0.0009070364465581371
0.00023985575955358076   -0.02520109814279215   -0.0009672448575024745
0.0010354611937523723   -0.021795342430325566   -0.000917663133792997
0.0019596722477548175   -0.02506863678988149   -0.0009297481953695597
0.00023985575955358076   -0.02520109814279215   -0.0009672448575024745
0.0029160036394435167   -0.021733032994562203   -0.0010053798507341342
0.0010354611937523723   -0.021795342430325566   -0.000917663133792997
0.0002968881221837378   -0.025185301062941163   -0.0009070364465581371
0.0030161786643941617   -0.021708540763549104   -0.0009406361054283887
0.001074113047040935   -0.021793042373576786   -0.000877553295982313
0.0002968881221837378   -0.025185301062941163   -0.0009070364465581371
0.0019596722477548175   -0.02506863678988149   -0.0009297481953695597
0.0030161786643941617   -0.021708540763549104   -0.0009406361054283887
0.002071239385383878   -0.025063400487679903   -0.0008442429727690826
0.001074113047040935   -0.021793042373576786   -0.000877553295982313
0.0030905279846252117   -0.021701741046806174   -0.000881629113043192
0.002071239385383878   -0.025063400487679903   -0.0008442429727690826
0.0030161786643941617   -0.021708540763549104   -0.0009406361054283887
0.001074113047040935   -0.021793042373576786   -0.000877553295982313
0.002071239385383878   -0.025063400487679903   -0.0008442429727690826
0.0003571144981068016   -0.025183880225763202   -0.0008522256556207607
0.0002968881221837378   -0.025185301062941163   -0.0009070364465581371
0.001074113047040935   -0.021793042373576786   -0.000877553295982313
0.002071239385383878   -0.025063400487679903   -0.0008442429727690826
0.0002968881221837378   -0.025185301062941163   -0.0009070364465581371
0.0030161786643941617   -0.021708540763549104   -0.0009406361054283887
0.001074113047040935   -0.021793042373576786   -0.000877553295982313
0.0003571144981068016   -0.025183880225763202   -0.0008522256556207607
0.0030905279846252117   -0.021701741046806174   -0.000881629113043192
0.0010999517929159042   -0.02179864219174376   -0.0008411791529050606
0.0003571144981068016   -0.025183880225763202   -0.0008522256556207607
0.002071239385383878   -0.025063400487679903   -0.0008442429727690826
0.0030905279846252117   -0.021701741046806174   -0.000881629113043192
0.002187243297258473   -0.025072516100940332   -0.0007661264466278235
0.0010999517929159042   -0.02179864219174376   -0.0008411791529050606
0.0031662139876263897   -0.02170174009688791   -0.0008286287574857129
0.002187243297258473   -0.025072516100940332   -0.0007661264466278235
0.0030905279846252117   -0.021701741046806174   -0.000881629113043192
0.0010999517929159042   -0.02179864219174376   -0.0008411791529050606
0.002187243297258473   -0.025072516100940332   -0.0007661264466278235
0.00040115897997653404   -0.025196163607016996   -0.0008011266813579919
0.0003571144981068016   -0.025183880225763202   -0.0008522256556207607
0.0010999517929159042   -0.02179864219174376   -0.0008411791529050606
0.002187243297258473   -0.025072516100940332   -0.0007661264466278235
0.0003571144981068016   -0.025183880225763202   -0.0008522256556207607
0.0030905279846252117   -0.021701741046806174   -0.000881629113043192
-0.0058064454196937645   -0.025146521524693755   -0.0009380447603070609
-0.004871710927151612   -0.027767968106384103   -0.0008517665889593899
-0.0041188428035022024   -0.025224519521322555   -0.0009326321345762098
-0.00571915453769107   -0.025163175633745035   -0.000990040612716851
-0.004871710927151612   -0.027767968106384103   -0.0008517665889593899
-0.0036697026461420704   -0.027882924144080962   -0.0008861326245017522
-0.0041188428035022024   -0.025224519521322555   -0.0009326321345762098
-0.0036101306567015734   -0.027877188007320728   -0.0009145944322215303
-0.00571915453769107   -0.025163175633745035   -0.000990040612716851
-0.004077107657605275   -0.025235768890215927   -0.0009511454652401048
-0.0036101306567015734   -0.027877188007320728   -0.0009145944322215303
-0.0041188428035022024   -0.025224519521322555   -0.0009326321345762098
-0.00571915453769107   -0.025163175633745035   -0.000990040612716851
-0.0036101306567015734   -0.027877188007320728   -0.0009145944322215303
-0.004742487248539734   -0.02776485343307534   -0.0009284716069153675
-0.004871710927151612   -0.027767968106384103   -0.0008517665889593899
-0.00571915453769107   -0.025163175633745035   -0.000990040612716851
-0.0036101306567015734   -0.027877188007320728   -0.0009145944322215303
-0.004871710927151612   -0.027767968106384103   -0.0008517665889593899
-0.0041188428035022024   -0.025224519521322555   -0.0009326321345762098
-0.00571915453769107   -0.025163175633745035   -0.000990040612716851
-0.004742487248539734   -0.02776485343307534   -0.0009284716069153675
-0.004077107657605275   -0.025235768890215927   -0.0009511454652401048
-0.005632275442657436   -0.025195001636681914   -0.0010487476530371168
-0.004742487248539734   -0.02776485343307534   -0.0009284716069153675
-0.0036101306567015734   -0.027877188007320728   -0.0009145944322215303
-0.004077107657605275   -0.025235768890215927   -0.0009511454652401048
-0.003539936923415544   -0.02789405920890371   -0.0009472447764957905
-0.005632275442657436   -0.025195001636681914   -0.0010487476530371168
-0.004024671946778123   -0.025262881778255697   -0.000973781866037482
-0.003539936923415544   -0.02789405920890371   -0.0009472447764957905
-0.004077107657605275   -0.025235768890215927   -0.0009511454652401048
-0.005632275442657436   -0.025195001636681914   -0.0010487476530371168
-0.003539936923415544   -0.02789405920890371   -0.0009472447764957905
-0.004623501704599182   -0.027785645839768884   -0.0010110850512879649
-0.004742487248539734   -0.02776485343307534   -0.0009284716069153675
-0.005632275442657436   -0.025195001636681914   -0.0010487476530371168
-0.003539936923415544   -0.02789405920890371   -0.0009472447764957905
-0.004742487248539734   -0.02776485343307534   -0.0009284716069153675
-0.004077107657605275   -0.025235768890215927   -0.0009511454652401048
-0.005632275442657436   -0.025195001636681914   -0.0010487476530371168
-0.004623501704599182   -0.027785645839768884   -0.0010110850512879649
-0.004024671946778123   -0.025262881778255697   -0.000973781866037482
-0.00552104307810568   -0.025254349435569985   -0.001114057248146369
-0.004623501704599182   -0.027785645839768884   -0.0010110850512879649
-0.003539936923415544   -0.02789405920890371   -0.0009472447764957905
-0.004024671946778123   -0.025262881778255697   -0.000973781866037482
-0.003476264489053182   -0.027933941531813947   -0.0009838184142543164
-0.00552104307810568   -0.025254349435569985   -0.001114057248146369
-0.003972970808377737   -0.02530740144388136   -0.001000502053856753
-0.003476264489053182   -0.027933941531813947   -0.0009838184142543164
-0.004024671946778123   -0.025262881778255697   -0.000973781866037482
-0.00552104307810568   -0.025254349435569985   -0.001114057248146369
-0.003476264489053182   -0.027933941531813947   -0.0009838184142543164
-0.004478289228718692   -0.0278407455490092   -0.0010992735376744564
-0.004623501704599182   -0.027785645839768884   -0.0010110850512879649
-0.00552104307810568   -0.025254349435569985   -0.001114057248146369
-0.003476264489053182   -0.027933941531813947   -0.0009838184142543164
-0.004623501704599182   -0.027785645839768884   -0.0010110850512879649
-0.004024671946778123   -0.025262881778255697   -0.000973781866037482
-0.0041188428035022024   -0.025224519521322555   -0.0009326321345762098
-0.0036697026461420704   -0.027882924144080962   -0.0008861326245017522
-0.002655245979533889   -0.025260692045288077   -0.0009305953635959553
-0.004077107657605275   -0.025235768890215927   -0.0009511454652401048
-0.0036697026461420704   -0.027882924144080962   -0.0008861326245017522
-0.002684798222043438   -0.027956566645563875   -0.0009130573056677708
-0.002655245979533889   -0.025260692045288077   -0.0009305953635959553
-0.002623788804149586   -0.02794718604419383   -0.0009043726329178276
-0.004077107657605275   -0.025235768890215927   -0.0009511454652401048
-0.0026124942926581416   -0.025264324767014665   -0.0009222215223698537
-0.002623788804149586   -0.02794718604419383   -0.0009043726329178276
-0.002655245979533889   -0.025260692045288077   -0.0009305953635959553
-0.004077107657605275   -0.025235768890215927   -0.0009511454652401048
-0.002623788804149586   -0.02794718604419383   -0.0009043726329178276
-0.0036101306567015734   -0.027877188007320728   -0.0009145944322215303
-0.0036697026461420704   -0.027882924144080962   -0.0008861326245017522
-0.004077107657605275   -0.025235768890215927   -0.0009511454652401048
-0.002623788804149586   -0.02794718604419383   -0.0009043726329178276
-0.0036697026461420704   -0.027882924144080962   -0.0008861326245017522
-0.002655245979533889   -0.025260692045288077   -0.0009305953635959553
-0.004077107657605275   -0.025235768890215927   -0.0009511454652401048
-0.0036101306567015734   -0.027877188007320728   -0.0009145944322215303
-0.0026124942926581416   -0.025264324767014665   -0.0009222215223698537
-0.004024671946778123   -0.025262881778255697   -0.000973781866037482
-0.0036101306567015734   -0.027877188007320728   -0.0009145944322215303
-0.002623788804149586   -0.02794718604419383   -0.0009043726329178276
-0.0026124942926581416   -0.025264324767014665   -0.0009222215223698537
-0.0025635640393257323   -0.027957359308123216   -0.000899764904812669
-0.004024671946778123   -0.025262881778255697   -0.000973781866037482
-0.0025683427760340933   -0.025282137570884187   -0.0009178482965218937
-0.0025635640393257323   -0.027957359308123216   -0.000899764904812669
-0.0026124942926581416   -0.025264324767014665   -0.0009222215223698537
-0.004024671946778123   -0.025262881778255697   -0.000973781866037482
-0.0025635640393257323   -0.027957359308123216   -0.000899764904812669
-0.003539936923415544   -0.02789405920890371   -0.0009472447764957905
-0.0036101306567015734   -0.027877188007320728   -0.0009145944322215303
-0.004024671946778123   -0.025262881778255697   -0.000973781866037482
-0.0025635640393257323   -0.027957359308123216   -0.000899764904812669
-0.0036101306567015734   -0.027877188007320728   -0.0009145944322215303
-0.0026124942926581416   -0.025264324767014665   -0.0009222215223698537
-0.004024671946778123   -0.025262881778255697   -0.000973781866037482
-0.003539936923415544   -0.02789405920890371   -0.0009472447764957905
-0.0025683427760340933   -0.025282137570884187   -0.0009178482965218937
-0.003972970808377737   -0.02530740144388136   -0.001000502053856753
-0.003539936923415544   -0.02789405920890371   -0.0009472447764957905
-0.0025635640393257323   -0.027957359308123216   -0.000899764904812669
-0.0025683427760340933   -0.025282137570884187   -0.0009178482965218937
-0.0025080715238019313   -0.02798770520102889   -0.0009000752006328023
-0.003972970808377737   -0.02530740144388136   -0.001000502053856753
-0.002524249228306521   -0.025314932026153408   -0.0009174353488813217
-0.0025080715238019313   -0.02798770520102889   -0.0009000752006328023
-0.0025683427760340933   -0.025282137570884187   -0.0009178482965218937
-0.003972970808377737   -0.02530740144388136   -0.001000502053856753
-0.0025080715238019313   -0.02798770520102889   -0.0009000752006328023
-0.003476264489053182   -0.027933941531813947   -0.0009838184142543164
-0.003539936923415544   -0.02789405920890371   -0.0009472447764957905
-0.003972970808377737   -0.02530740144388136   -0.001000502053856753
-0.0025080715238019313   -0.02798770520102889   -0.0009000752006328023
-0.003539936923415544   -0.02789405920890371   -0.0009472447764957905
-0.0025683427760340933   -0.025282137570884187   -0.0009178482965218937
-0.002655245979533889   -0.025260692045288077   -0.0009305953635959553
-0.002684798222043438   -0.027956566645563875   -0.0009130573056677708
-0.0012399922606333544   -0.025253407911652908   -0.0009413809884893594
-0.0026124942926581416   -0.025264324767014665   -0.0009222215223698537
-0.002684798222043438   -0.027956566645563875   -0.0009130573056677708
-0.0017411724071173436   -0.027993911818084333   -0.0009451692446580927
-0.0012399922606333544   -0.025253407911652908   -0.0009413809884893594
-0.0016724265069064448   -0.027980199884466584   -0.0009014008457782816
-0.0026124942926581416   -0.025264324767014665   -0.0009222215223698537
-0.0011931714133770353   -0.025248459307978435   -0.0009070559811255384
-0.0016724265069064448   -0.027980199884466584   -0.0009014008457782816
-0.0012399922606333544   -0.025253407911652908   -0.0009413809884893594
-0.0026124942926581416   -0.025264324767014665   -0.0009222215223698537
-0.0016724265069064448   -0.027980199884466584   -0.0009014008457782816
-0.002623788804149586   -0.02794718604419383   -0.0009043726329178276
-0.002684798222043438   -0.027956566645563875   -0.0009130573056677708
-0.0026124942926581416   -0.025264324767014665   -0.0009222215223698537
-0.0016724265069064448   -0.027980199884466584   -0.0009014008457782816
-0.002684798222043438   -0.027956566645563875   -0.0009130573056677708
-0.0012399922606333544   -0.025253407911652908   -0.0009413809884893594
-0.0026124942926581416   -0.025264324767014665   -0.0009222215223698537
-0.002623788804149586   -0.02794718604419383   -0.0009043726329178276
-0.0011931714133770353   -0.025248459307978435   -0.0009070559811255384
-0.0025683427760340933   -0.025282137570884187   -0.0009178482965218937
-0.002623788804149586   -0.02794718604419383   -0.0009043726329178276
-0.0016724265069064448   -0.027980199884466584   -0.0009014008457782816
-0.0011931714133770353   -0.025248459307978435   -0.0009070559811255384
-0.0016068341905124176   -0.02798375592463954   -0.0008612678064648288
-0.0025683427760340933   -0.025282137570884187   -0.0009178482965218937
-0.0011476918857134205   -0.025256373752138263   -0.0008769970058797538
-0.0016068341905124176   -0.02798375592463954   -0.0008612678064648288
-0.0011931714133770353   -0.025248459307978435   -0.0009070559811255384
-0.0025683427760340933   -0.025282137570884187   -0.0009178482965218937
-0.0016068341905124176   -0.02798375592463954   -0.0008612678064648288
-0.0025635640393257323   -0.027957359308123216   -0.000899764904812669
-0.002623788804149586   -0.02794718604419383   -0.0009043726329178276
-0.0025683427760340933   -0.025282137570884187   -0.0009178482965218937
-0.0016068341905124176   -0.02798375592463954   -0.0008612678064648288
-0.002623788804149586   -0.02794718604419383   -0.0009043726329178276
-0.0011931714133770353   -0.025248459307978435   -0.0009070559811255384
-0.0025683427760340933   -0.025282137570884187   -0.0009178482965218937
-0.0025635640393257323   -0.027957359308123216   -0.000899764904812669
-0.0011476918857134205   -0.025256373752138263   -0.0008769970058797538
-0.002524249228306521   -0.025314932026153408   -0.0009174353488813217
-0.0025635640393257323   -0.027957359308123216   -0.000899764904812669
-0.0016068341905124176   -0.02798375592463954   -0.0008612678064648288
-0.0011476918857134205   -0.025256373752138263   -0.0008769970058797538
-0.0015521651903185423   -0.02800780902588919   -0.0008269687392810748
-0.002524249228306521   -0.025314932026153408   -0.0009174353488813217
-0.001106566305982042   -0.025278945963100184   -0.0008508403967016694
-0.0015521651903185423   -0.02800780902588919   -0.0008269687392810748
-0.0011476918857134205   -0.025256373752138263   -0.0008769970058797538
-0.002524249228306521   -0.025314932026153408   -0.0009174353488813217
-0.0015521651903185423   -0.02800780902588919   -0.0008269687392810748
-0.0025080715238019313   -0.02798770520102889   -0.0009000752006328023
-0.0025635640393257323   -0.027957359308123216   -0.000899764904812669
-0.002524249228306521   -0.025314932026153408   -0.0009174353488813217
-0.0015521651903185423   -0.02800780902588919   -0.0008269687392810748
-0.0025635640393257323   -0.027957359308123216   -0.000899764904812669
-0.0011476918857134205   -0.025256373752138263   -0.0008769970058797538
-0.0012399922606333544   -0.025253407911652908   -0.0009413809884893594
-0.0017411724071173436   -0.027993911818084333   -0.0009451692446580927
0.00023985575955358076   -0.02520109814279215   -0.0009672448575024745
-0.0011931714133770353   -0.025248459307978435   -0.0009070559811255384
-0.0017411724071173436   -0.027993911818084333   -0.0009451692446580927
-0.0007398202600845213   -0.02798159238012527   -0.0009832461123782251
0.00023985575955358076   -0.02520109814279215   -0.0009672448575024745
-0.000651551672957493   -0.02796004751090398   -0.0009058403801764723
-0.0011931714133770353   -0.025248459307978435   -0.0009070559811255384
0.0002968881221837378   -0.025185301062941163   -0.0009070364465581371
-0.000651551672957493   -0.02796004751090398   -0.0009058403801764723
0.00023985575955358076   -0.02520109814279215   -0.0009672448575024745
-0.0011931714133770353   -0.025248459307978435   -0.0009070559811255384
-0.000651551672957493   -0.02796004751090398   -0.0009058403801764723
-0.0016724265069064448   -0.027980199884466584   -0.0009014008457782816
-0.0017411724071173436   -0.027993911818084333   -0.0009451692446580927
-0.0011931714133770353   -0.025248459307978435   -0.0009070559811255384
-0.000651551672957493   -0.02796004751090398   -0.0009058403801764723
-0.0017411724071173436   -0.027993911818084333   -0.0009451692446580927
0.00023985575955358076   -0.02520109814279215   -0.0009672448575024745
-0.0011931714133770353   -0.025248459307978435   -0.0009070559811255384
-0.0016724265069064448   -0.027980199884466584   -0.0009014008457782816
0.0002968881221837378   -0.025185301062941163   -0.0009070364465581371
-0.0011476918857134205   -0.025256373752138263   -0.0008769970058797538
-0.0016724265069064448   -0.027980199884466584   -0.0009014008457782816
-0.000651551672957493   -0.02796004751090398   -0.0009058403801764723
0.0002968881221837378   -0.025185301062941163   -0.0009070364465581371
-0.0005610306429091624   -0.02795641122129949   -0.0008323047792708735
-0.0011476918857134205   -0.025256373752138263   -0.0008769970058797538
0.0003571144981068016   -0.025183880225763202   -0.0008522256556207607
-0.0005610306429091624   -0.02795641122129949   -0.0008323047792708735
0.0002968881221837378   -0.025185301062941163   -0.0009070364465581371
-0.0011476918857134205   -0.025256373752138263   -0.0008769970058797538
-0.0005610306429091624   -0.02795641122129949   -0.0008323047792708735
-0.0016068341905124176   -0.02798375592463954   -0.0008612678064648288
-0.0016724265069064448   -0.027980199884466584   -0.0009014008457782816
-0.0011476918857134205   -0.025256373752138263   -0.0008769970058797538
-0.0005610306429091624   -0.02795641122129949   -0.0008323047792708735
-0.0016724265069064448   -0.027980199884466584   -0.0009014008457782816
0.0002968881221837378   -0.025185301062941163   -0.0009070364465581371
-0.0011476918857134205   -0.025256373752138263   -0.0008769970058797538
-0.0016068341905124176   -0.02798375592463954   -0.0008612678064648288
0.0003571144981068016   -0.025183880225763202   -0.0008522256556207607
-0.001106566305982042   -0.025278945963100184   -0.0008508403967016694
-0.0016068341905124176   -0.02798375592463954   -0.0008612678064648288
-0.0005610306429091624   -0.02795641122129949   -0.0008323047792708735
0.0003571144981068016   -0.025183880225763202   -0.0008522256556207607
-0.0004941491420499026   -0.027974419754758777   -0.0007653775890289837
-0.001106566305982042   -0.025278945963100184   -0.0008508403967016694
0.00040115897997653404   -0.025196163607016996   -0.0008011266813579919
-0.0004941491420499026   -0.027974419754758777   -0.0007653775890289837
0.0003571144981068016   -0.025183880225763202   -0.0008522256556207607
-0.001106566305982042   -0.025278945963100184   -0.0008508403967016694
-0.0004941491420499026   -0.027974419754758777   -0.0007653775890289837
-0.0015521651903185423   -0.02800780902588919   -0.0008269687392810748
-0.0016068341905124176   -0.02798375592463954   -0.0008612678064648288
-0.001106566305982042   -0.025278945963100184   -0.0008508403967016694
-0.0004941491420499026   -0.027974419754758777   -0.0007653775890289837
-0.0016068341905124176   -0.02798375592463954   -0.0008612678064648288
0.0003571144981068016   -0.025183880225763202   -0.0008522256556207607
0.00023985575955358076   -0.02520109814279215   -0.0009672448575024745
-0.0007398202600845213   -0.02798159238012527   -0.0009832461123782251
0.001814253094762503   -0.02509885528333543   -0.001021950985113653
0.0002968881221837378   -0.025185301062941163   -0.0009070364465581371
-0.0007398202600845213   -0.02798159238012527   -0.0009832461123782251
0.0003337992141410308   -0.027884515841737807   -0.0010604074135603884
0.001814253094762503   -0.02509885528333543   -0.001021950985113653
0.0005416289122381206   -0.02783790997222333   -0.0009339353580867853
0.0002968881221837378   -0.025185301062941163   -0.0009070364465581371
0.0019596722477548175   -0.02506863678988149   -0.0009297481953695597
0.0005416289122381206   -0.02783790997222333   -0.0009339353580867853
0.001814253094762503   -0.02509885528333543   -0.001021950985113653
0.0002968881221837378   -0.025185301062941163   -0.0009070364465581371
0.0005416289122381206   -0.02783790997222333   -0.0009339353580867853
-0.000651551672957493   -0.02796004751090398   -0.0009058403801764723
-0.0007398202600845213   -0.02798159238012527   -0.0009832461123782251
0.0002968881221837378   -0.025185301062941163   -0.0009070364465581371
0.0005416289122381206   -0.02783790997222333   -0.0009339353580867853
-0.0007398202600845213   -0.02798159238012527   -0.0009832461123782251
0.001814253094762503   -0.02509885528333543   -0.001021950985113653
0.0002968881221837378   -0.025185301062941163   -0.0009070364465581371
-0.000651551672957493   -0.02796004751090398   -0.0009058403801764723
0.0019596722477548175   -0.02506863678988149   -0.0009297481953695597
0.0003571144981068016   -0.025183880225763202   -0.0008522256556207607
-0.000651551672957493   -0.02796004751090398   -0.0009058403801764723
0.0005416289122381206   -0.02783790997222333   -0.0009339353580867853
0.0019596722477548175   -0.02506863678988149   -0.0009297481953695597
0.0007048396630294904   -0.02782860728523749   -0.0008150090488491745
0.0003571144981068016   -0.025183880225763202   -0.0008522256556207607
0.002071239385383878   -0.025063400487679903   -0.0008442429727690826
0.0007048396630294904   -0.02782860728523749   -0.0008150090488491745
0.0019596722477548175   -0.02506863678988149   -0.0009297481953695597
0.0003571144981068016   -0.025183880225763202   -0.0008522256556207607
0.0007048396630294904   -0.02782860728523749   -0.0008150090488491745
-0.0005610306429091624   -0.02795641122129949   -0.0008323047792708735
-0.000651551672957493   -0.02796004751090398   -0.0009058403801764723
0.0003571144981068016   -0.025183880225763202   -0.0008522256556207607
0.0007048396630294904   -0.02782860728523749   -0.0008150090488491745
-0.000651551672957493   -0.02796004751090398   -0.0009058403801764723
0.0019596722477548175   -0.02506863678988149   -0.0009297481953695597
0.0003571144981068016   -0.025183880225763202   -0.0008522256556207607
-0.0005610306429091624   -0.02795641122129949   -0.0008323047792708735
0.002071239385383878   -0.025063400487679903   -0.0008442429727690826
0.00040115897997653404   -0.025196163607016996   -0.0008011266813579919
-0.0005610306429091624   -0.02795641122129949   -0.0008323047792708735
0.0007048396630294904   -0.02782860728523749   -0.0008150090488491745
0.002071239385383878   -0.025063400487679903   -0.0008442429727690826
0.0008749819976285802   -0.02783711016427704   -0.000706183141311046
0.00040115897997653404   -0.025196163607016996   -0.0008011266813579919
0.002187243297258473   -0.025072516100940332   -0.0007661264466278235
0.0008749819976285802   -0.02783711016427704   -0.000706183141311046
0.002071239385383878   -0.025063400487679903   -0.0008442429727690826
0.00040115897997653404   -0.025196163607016996   -0.0008011266813579919
0.0008749819976285802   -0.02783711016427704   -0.000706183141311046
-0.0004941491420499026   -0.027974419754758777   -0.0007653775890289837
-0.0005610306429091624   -0.02795641122129949   -0.0008323047792708735
0.00040115897997653404   -0.025196163607016996   -0.0008011266813579919
0.0008749819976285802   -0.02783711016427704   -0.000706183141311046
-0.0005610306429091624   -0.02795641122129949   -0.0008323047792708735
0.002071239385383878   -0.025063400487679903   -0.0008442429727690826
-0.004871710927151612   -0.027767968106384103   -0.0008517665889593899
-0.003591744473947397   -0.02932999008762589   -0.0007501810105900932
-0.0036697026461420704   -0.027882924144080962   -0.0008861326245017522
-0.004742487248539734   -0.02776485343307534   -0.0009284716069153675
-0.003591744473947397   -0.02932999008762589   -0.0007501810105900932
-0.003027730954533423   -0.029474951788347598   -0.0008366972741875046
-0.0036697026461420704   -0.027882924144080962   -0.0008861326245017522
-0.0029529445156358776   -0.029446739907583376   -0.0008671345112186237
-0.004742487248539734   -0.02776485343307534   -0.0009284716069153675
-0.0036101306567015734   -0.027877188007320728   -0.0009145944322215303
-0.0029529445156358776   -0.029446739907583376   -0.0008671345112186237
-0.0036697026461420704   -0.027882924144080962   -0.0008861326245017522
-0.004742487248539734   -0.02776485343307534   -0.0009284716069153675
-0.0029529445156358776   -0.029446739907583376   -0.0008671345112186237
-0.0034312360249105145   -0.029298148947252942   -0.0008420999353765858
-0.003591744473947397   -0.02932999008762589   -0.0007501810105900932
-0.004742487248539734   -0.02776485343307534   -0.0009284716069153675
-0.0029529445156358776   -0.029446739907583376   -0.0008671345112186237
-0.003591744473947397   -0.02932999008762589   -0.0007501810105900932
-0.0036697026461420704   -0.027882924144080962   -0.0008861326245017522
-0.004742487248539734   -0.02776485343307534   -0.0009284716069153675
-0.0034312360249105145   -0.029298148947252942   -0.0008420999353765858
-0.0036101306567015734   -0.027877188007320728   -0.0009145944322215303
-0.004623501704599182   -0.027785645839768884   -0.0010110850512879649
-0.0034312360249105145   -0.029298148947252942   -0.0008420999353765858
-0.0029529445156358776   -0.029446739907583376   -0.0008671345112186237
-0.0036101306567015734   -0.027877188007320728   -0.0009145944322215303
-0.0028699018740102476   -0.029448708786570386   -0.000897890213040851
-0.004623501704599182   -0.027785645839768884   -0.0010110850512879649
-0.003539936923415544   -0.02789405920890371   -0.0009472447764957905
-0.0028699018740102476   -0.029448708786570386   -0.000897890213040851
-0.0036101306567015734   -0.027877188007320728   -0.0009145944322215303
-0.004623501704599182   -0.027785645839768884   -0.0010110850512879649
-0.0028699018740102476   -0.029448708786570386   -0.000897890213040851
-0.003292801420446502   -0.029301519097448287   -0.0009337155129392266
-0.0034312360249105145   -0.029298148947252942   -0.0008420999353765858
-0.004623501704599182   -0.027785645839768884   -0.0010110850512879649
-0.0028699018740102476   -0.029448708786570386   -0.000897890213040851
-0.0034312360249105145   -0.029298148947252942   -0.0008420999353765858
-0.0036101306567015734   -0.027877188007320728   -0.0009145944322215303
-0.004623501704599182   -0.027785645839768884   -0.0010110850512879649
-0.003292801420446502   -0.029301519097448287   -0.0009337155129392266
-0.003539936923415544   -0.02789405920890371   -0.0009472447764957905
-0.004478289228718692   -0.0278407455490092   -0.0010992735376744564
-0.003292801420446502   -0.029301519097448287   -0.0009337155129392266
-0.0028699018740102476   -0.029448708786570386   -0.000897890213040851
-0.003539936923415544   -0.02789405920890371   -0.0009472447764957905
-0.002792874492280598   -0.029481025478438536   -0.0009290918006026989
-0.004478289228718692   -0.0278407455490092   -0.0010992735376744564
-0.003476264489053182   -0.027933941531813947   -0.0009838184142543164
-0.002792874492280598   -0.029481025478438536   -0.0009290918006026989
-0.003539936923415544   -0.02789405920890371   -0.0009472447764957905
-0.004478289228718692   -0.0278407455490092   -0.0010992735376744564
-0.002792874492280598   -0.029481025478438536   -0.0009290918006026989
-0.003128432669342602   -0.029342184280488265   -0.0010272883569825354
-0.003292801420446502   -0.029301519097448287   -0.0009337155129392266
-0.004478289228718692   -0.0278407455490092   -0.0010992735376744564
-0.002792874492280598   -0.029481025478438536   -0.0009290918006026989
-0.003292801420446502   -0.029301519097448287   -0.0009337155129392266
-0.003539936923415544   -0.02789405920890371   -0.0009472447764957905
-0.0036697026461420704   -0.027882924144080962   -0.0008861326245017522
-0.003027730954533423   -0.029474951788347598   -0.0008366972741875046
-0.002684798222043438   -0.027956566645563875   -0.0009130573056677708
-0.0036101306567015734   -0.027877188007320728   -0.0009145944322215303
-0.003027730954533423   -0.029474951788347598   -0.0008366972741875046
-0.0026124180688890087   -0.029618336648175602   -0.0009130140434253018
-0.002684798222043438   -0.027956566645563875   -0.0009130573056677708
-0.0025337212052970004   -0.029589278768209087   -0.0008922957439239878
-0.0036101306567015734   -0.027877188007320728   -0.0009145944322215303
-0.002623788804149586   -0.02794718604419383   -0.0009043726329178276
-0.0025337212052970004   -0.029589278768209087   -0.0008922957439239878
-0.002684798222043438   -0.027956566645563875   -0.0009130573056677708
-0.0036101306567015734   -0.027877188007320728   -0.0009145944322215303
-0.0025337212052970004   -0.029589278768209087   -0.0008922957439239878
-0.0029529445156358776   -0.029446739907583376   -0.0008671345112186237
-0.003027730954533423   -0.029474951788347598   -0.0008366972741875046
-0.0036101306567015734   -0.027877188007320728   -0.0009145944322215303
-0.0025337212052970004   -0.029589278768209087   -0.0008922957439239878
-0.003027730954533423   -0.029474951788347598   -0.0008366972741875046
-0.002684798222043438   -0.027956566645563875   -0.0009130573056677708
-0.0036101306567015734   -0.027877188007320728   -0.0009145944322215303
-0.0029529445156358776   -0.029446739907583376   -0.0008671345112186237
-0.002623788804149586   -0.02794718604419383   -0.0009043726329178276
-0.003539936923415544   -0.02789405920890371   -0.0009472447764957905
-0.0029529445156358776   -0.029446739907583376   -0.0008671345112186237
-0.0025337212052970004   -0.029589278768209087   -0.0008922957439239878
-0.002623788804149586   -0.02794718604419383   -0.0009043726329178276
-0.0024575362554487825   -0.02958918554691788   -0.000871334474782679
-0.003539936923415544   -0.02789405920890371   -0.0009472447764957905
-0.0025635640393257323   -0.027957359308123216   -0.000899764904812669
-0.0024575362554487825   -0.02958918554691788   -0.000871334474782679
-0.002623788804149586   -0.02794718604419383   -0.0009043726329178276
-0.003539936923415544   -0.02789405920890371   -0.0009472447764957905
-0.0024575362554487825   -0.02958918554691788   -0.000871334474782679
-0.0028699018740102476   -0.029448708786570386   -0.000897890213040851
-0.0029529445156358776   -0.029446739907583376   -0.0008671345112186237
-0.003539936923415544   -0.02789405920890371   -0.0009472447764957905
-0.0024575362554487825   -0.02958918554691788   -0.000871334474782679
-0.0029529445156358776   -0.029446739907583376   -0.0008671345112186237
-0.002623788804149586   -0.02794718604419383   -0.0009043726329178276
-0.003539936923415544   -0.02789405920890371   -0.0009472447764957905
-0.0028699018740102476   -0.029448708786570386   -0.000897890213040851
-0.0025635640393257323   -0.027957359308123216   -0.000899764904812669
-0.003476264489053182   -0.027933941531813947   -0.0009838184142543164
-0.0028699018740102476   -0.029448708786570386   -0.000897890213040851
-0.0024575362554487825   -0.02958918554691788   -0.000871334474782679
-0.0025635640393257323   -0.027957359308123216   -0.000899764904812669
-0.002378185608600909   -0.029617478928284414   -0.0008512369316004091
-0.003476264489053182   -0.027933941531813947   -0.0009838184142543164
-0.0025080715238019313   -0.02798770520102889   -0.0009000752006328023
-0.002378185608600909   -0.029617478928284414   -0.0008512369316004091
-0.0025635640393257323   -0.027957359308123216   -0.000899764904812669
-0.003476264489053182   -0.027933941531813947   -0.0009838184142543164
-0.002378185608600909   -0.029617478928284414   -0.0008512369316004091
-0.002792874492280598   -0.029481025478438536   -0.0009290918006026989
-0.0028699018740102476   -0.029448708786570386   -0.000897890213040851
-0.003476264489053182   -0.027933941531813947   -0.0009838184142543164
-0.002378185608600909   -0.029617478928284414   -0.0008512369316004091
-0.0028699018740102476   -0.029448708786570386   -0.000897890213040851
-0.0025635640393257323   -0.027957359308123216   -0.000899764904812669
-0.002684798222043438   -0.027956566645563875   -0.0009130573056677708
-0.0026124180688890087   -0.029618336648175602   -0.0009130140434253018
-0.0017411724071173436   -0.027993911818084333   -0.0009451692446580927
-0.002623788804149586   -0.02794718604419383   -0.0009043726329178276
-0.0026124180688890087   -0.029618336648175602   -0.0009130140434253018
-0.002232336254451727   -0.029789143734377722   -0.0009973578692263087
-0.0017411724071173436   -0.027993911818084333   -0.0009451692446580927
-0.0021359975226852013   -0.02976369469148826   -0.0009226595338510064
-0.002623788804149586   -0.02794718604419383   -0.0009043726329178276
-0.0016724265069064448   -0.027980199884466584   -0.0009014008457782816
-0.0021359975226852013   -0.02976369469148826   -0.0009226595338510064
-0.0017411724071173436   -0.027993911818084333   -0.0009451692446580927
-0.002623788804149586   -0.02794718604419383   -0.0009043726329178276
-0.0021359975226852013   -0.02976369469148826   -0.0009226595338510064
-0.0025337212052970004   -0.029589278768209087   -0.0008922957439239878
-0.0026124180688890087   -0.029618336648175602   -0.0009130140434253018
-0.002623788804149586   -0.02794718604419383   -0.0009043726329178276
-0.0021359975226852013   -0.02976369469148826   -0.0009226595338510064
-0.0026124180688890087   -0.029618336648175602   -0.0009130140434253018
-0.0017411724071173436   -0.027993911818084333   -0.0009451692446580927
-0.002623788804149586   -0.02794718604419383   -0.0009043726329178276
-0.0025337212052970004   -0.029589278768209087   -0.0008922957439239878
-0.0016724265069064448   -0.027980199884466584   -0.0009014008457782816
-0.0025635640393257323   -0.027957359308123216   -0.000899764904812669
-0.0025337212052970004   -0.029589278768209087   -0.0008922957439239878
-0.0021359975226852013   -0.02976369469148826   -0.0009226595338510064
-0.0016724265069064448   -0.027980199884466584   -0.0009014008457782816
-0.0020465805292907016   -0.029762582102576728   -0.0008481236022299026
-0.0025635640393257323   -0.027957359308123216   -0.000899764904812669
-0.0016068341905124176   -0.02798375592463954   -0.0008612678064648288
-0.0020465805292907016   -0.029762582102576728   -0.0008481236022299026
-0.0016724265069064448   -0.027980199884466584   -0.0009014008457782816
-0.0025635640393257323   -0.027957359308123216   -0.000899764904812669
-0.0020465805292907016   -0.029762582102576728   -0.0008481236022299026
-0.0024575362554487825   -0.02958918554691788   -0.000871334474782679
-0.0025337212052970004   -0.029589278768209087   -0.0008922957439239878
-0.0025635640393257323   -0.027957359308123216   -0.000899764904812669
-0.0020465805292907016   -0.029762582102576728   -0.0008481236022299026
-0.0025337212052970004   -0.029589278768209087   -0.0008922957439239878
-0.0016724265069064448   -0.027980199884466584   -0.0009014008457782816
-0.0025635640393257323   -0.027957359308123216   -0.000899764904812669
-0.0024575362554487825   -0.02958918554691788   -0.000871334474782679
-0.0016068341905124176   -0.02798375592463954   -0.0008612678064648288
-0.0025080715238019313   -0.02798770520102889   -0.0009000752006328023
-0.0024575362554487825   -0.02958918554691788   -0.000871334474782679
-0.0020465805292907016   -0.029762582102576728   -0.0008481236022299026
-0.0016068341905124176   -0.02798375592463954   -0.0008612678064648288
-0.001950775590755965   -0.0297845570182422   -0.0007735744593926205
-0.0025080715238019313   -0.02798770520102889   -0.0009000752006328023
-0.0015521651903185423   -0.02800780902588919   -0.0008269687392810748
-0.001950775590755965   -0.0297845570182422   -0.0007735744593926205
-0.0016068341905124176   -0.02798375592463954   -0.0008612678064648288
-0.0025080715238019313   -0.02798770520102889   -0.0009000752006328023
-0.001950775590755965   -0.0297845570182422   -0.0007735744593926205
-0.002378185608600909   -0.029617478928284414   -0.0008512369316004091
-0.0024575362554487825   -0.02958918554691788   -0.000871334474782679
-0.0025080715238019313   -0.02798770520102889   -0.0009000752006328023
-0.001950775590755965   -0.0297845570182422   -0.0007735744593926205
-0.0024575362554487825   -0.02958918554691788   -0.000871334474782679
-0.0016068341905124176   -0.02798375592463954   -0.0008612678064648288
-0.0017411724071173436   -0.027993911818084333   -0.0009451692446580927
-0.002232336254451727   -0.029789143734377722   -0.0009973578692263087
-0.0007398202600845213   -0.02798159238012527   -0.0009832461123782251
-0.0016724265069064448   -0.027980199884466584   -0.0009014008457782816
-0.002232336254451727   -0.029789143734377722   -0.0009973578692263087
-0.0018582636036533274   -0.03   -0.0010633207408782387
-0.0007398202600845213   -0.02798159238012527   -0.0009832461123782251
-0.001736763921330515   -0.03   -0.0009489471790356441
-0.0016724265069064448   -0.027980199884466584   -0.0009014008457782816
-0.000651551672957493   -0.02796004751090398   -0.0009058403801764723
-0.001736763921330515   -0.03   -0.0009489471790356441
-0.0007398202600845213   -0.02798159238012527   -0.0009832461123782251
-0.0016724265069064448   -0.027980199884466584   -0.0009014008457782816
-0.001736763921330515   -0.03   -0.0009489471790356441
-0.0021359975226852013   -0.02976369469148826   -0.0009226595338510064
-0.002232336254451727   -0.029789143734377722   -0.0009973578692263087
-0.0016724265069064448   -0.027980199884466584   -0.0009014008457782816
-0.001736763921330515   -0.03   -0.0009489471790356441
-0.002232336254451727   -0.029789143734377722   -0.0009973578692263087
-0.0007398202600845213   -0.02798159238012527   -0.0009832461123782251
-0.0016724265069064448   -0.027980199884466584   -0.0009014008457782816
-0.0021359975226852013   -0.02976369469148826   -0.0009226595338510064
-0.000651551672957493   -0.02796004751090398   -0.0009058403801764723
-0.0016068341905124176   -0.02798375592463954   -0.0008612678064648288
-0.0021359975226852013   -0.02976369469148826   -0.0009226595338510064
-0.001736763921330515   -0.03   -0.0009489471790356441
-0.000651551672957493   -0.02796004751090398   -0.0009058403801764723
-0.0016144188701632774   -0.03   -0.0008332263441508605
-0.0016068341905124176   -0.02798375592463954   -0.0008612678064648288
-0.0005610306429091624   -0.02795641122129949   -0.0008323047792708735
-0.0016144188701632774   -0.03   -0.0008332263441508605
-0.000651551672957493   -0.02796004751090398   -0.0009058403801764723
-0.0016068341905124176   -0.02798375592463954   -0.0008612678064648288
-0.0016144188701632774   -0.03   -0.0008332263441508605
-0.0020465805292907016   -0.029762582102576728   -0.0008481236022299026
-0.0021359975226852013   -0.02976369469148826   -0.0009226595338510064
-0.0016068341905124176   -0.02798375592463954   -0.0008612678064648288
-0.0016144188701632774   -0.03   -0.0008332263441508605
-0.0021359975226852013   -0.02976369469148826   -0.0009226595338510064
-0.000651551672957493   -0.02796004751090398   -0.0009058403801764723
-0.0016068341905124176   -0.02798375592463954   -0.0008612678064648288
-0.0020465805292907016   -0.029762582102576728   -0.0008481236022299026
-0.0005610306429091624   -0.02795641122129949   -0.0008323047792708735
-0.0015521651903185423   -0.02800780902588919   -0.0008269687392810748
-0.0020465805292907016   -0.029762582102576728   -0.0008481236022299026
-0.0016144188701632774   -0.03   -0.0008332263441508605
-0.0005610306429091624   -0.02795641122129949   -0.0008323047792708735
-0.0014951596573020776   -0.03   -0.0007190584349290181
-0.0015521651903185423   -0.02800780902588919   -0.0008269687392810748
-0.0004941491420499026   -0.027974419754758777   -0.0007653775890289837
-0.0014951596573020776   -0.03   -0.0007190584349290181
-0.0005610306429091624   -0.02795641122129949   -0.0008323047792708735
-0.0015521651903185423   -0.02800780902588919   -0.0008269687392810748
-0.0014951596573020776   -0.03   -0.0007190584349290181
-0.001950775590755965   -0.0297845570182422   -0.0007735744593926205
-0.0020465805292907016   -0.029762582102576728   -0.0008481236022299026
-0.0015521651903185423   -0.02800780902588919   -0.0008269687392810748
-0.0014951596573020776   -0.03   -0.0007190584349290181
-0.0020465805292907016   -0.029762582102576728   -0.0008481236022299026
-0.0005610306429091624   -0.02795641122129949   -0.0008323047792708735
-0.0007398202600845213   -0.02798159238012527   -0.0009832461123782251
-0.0018582636036533274   -0.03   -0.0010633207408782387
0.0003337992141410308   -0.027884515841737807   -0.0010604074135603884
-0.000651551672957493   -0.02796004751090398   -0.0009058403801764723
-0.0018582636036533274   -0.03   -0.0010633207408782387
-0.0015839908634321092   -0.03   -0.0011431998637217856
0.0003337992141410308   -0.027884515841737807   -0.0010604074135603884
-0.0013277938107394843   -0.03   -0.0009772517584305087
-0.000651551672957493   -0.02796004751090398   -0.0009058403801764723
0.0005416289122381206   -0.02783790997222333   -0.0009339353580867853
-0.0013277938107394843   -0.03   -0.0009772517584305087
0.0003337992141410308   -0.027884515841737807   -0.0010604074135603884
-0.000651551672957493   -0.02796004751090398   -0.0009058403801764723
-0.0013277938107394843   -0.03   -0.0009772517584305087
-0.001736763921330515   -0.03   -0.0009489471790356441
-0.0018582636036533274   -0.03   -0.0010633207408782387
-0.000651551672957493   -0.02796004751090398   -0.0009058403801764723
-0.0013277938107394843   -0.03   -0.0009772517584305087
-0.0018582636036533274   -0.03   -0.0010633207408782387
0.0003337992141410308   -0.027884515841737807   -0.0010604074135603884
-0.000651551672957493   -0.02796004751090398   -0.0009058403801764723
-0.001736763921330515   -0.03   -0.0009489471790356441
0.0005416289122381206   -0.02783790997222333   -0.0009339353580867853
-0.0005610306429091624   -0.02795641122129949   -0.0008323047792708735
-0.001736763921330515   -0.03   -0.0009489471790356441
-0.0013277938107394843   -0.03   -0.0009772517584305087
0.0005416289122381206   -0.02783790997222333   -0.0009339353580867853
-0.0011235023061788446   -0.03   -0.0008185290345395019
-0.0005610306429091624   -0.02795641122129949   -0.0008323047792708735
0.0007048396630294904   -0.02782860728523749   -0.0008150090488491745
-0.0011235023061788446   -0.03   -0.0008185290345395019
0.0005416289122381206   -0.02783790997222333   -0.0009339353580867853
-0.0005610306429091624   -0.02795641122129949   -0.0008323047792708735
-0.0011235023061788446   -0.03   -0.0008185290345395019
-0.0016144188701632774   -0.03   -0.0008332263441508605
-0.001736763921330515   -0.03   -0.0009489471790356441
-0.0005610306429091624   -0.02795641122129949   -0.0008323047792708735
-0.0011235023061788446   -0.03   -0.0008185290345395019
-0.001736763921330515   -0.03   -0.0009489471790356441
0.0005416289122381206   -0.02783790997222333   -0.0009339353580867853
-0.0005610306429091624   -0.02795641122129949   -0.0008323047792708735
-0.0016144188701632774   -0.03   -0.0008332263441508605
0.0007048396630294904   -0.02782860728523749   -0.0008150090488491745
-0.0004941491420499026   -0.027974419754758777   -0.0007653775890289837
-0.0016144188701632774   -0.03   -0.0008332263441508605
-0.0011235023061788446   -0.03   -0.0008185290345395019
0.0007048396630294904   -0.02782860728523749   -0.0008150090488491745
-0.0008712276998313679   -0.03   -0.0006537332768062688
-0.0004941491420499026   -0.027974419754758777   -0.0007653775890289837
0.0008749819976285802   -0.02783711016427704   -0.000706183141311046
-0.0008712276998313679   -0.03   -0.0006537332768062688
0.0007048396630294904   -0.02782860728523749   -0.0008150090488491745
-0.0004941491420499026   -0.027974419754758777   -0.0007653775890289837
-0.0008712276998313679   -0.03   -0.0006537332768062688
-0.0014951596573020776   -0.03   -0.0007190584349290181
-0.0016144188701632774   -0.03   -0.0008332263441508605
-0.0004941491420499026   -0.027974419754758777   -0.0007653775890289837
-0.0008712276998313679   -0.03   -0.0006537332768062688
-0.0016144188701632774   -0.03   -0.0008332263441508605
0.0007048396630294904   -0.02782860728523749   -0.0008150090488491745
-0.003591744473947397   -0.02932999008762589   -0.0007501810105900932
-0.0021757865678375056   -0.029427618571628775   -0.0006424970604945438
-0.003027730954533423   -0.029474951788347598   -0.0008366972741875046
-0.0034312360249105145   -0.029298148947252942   -0.0008420999353765858
-0.0021757865678375056   -0.029427618571628775   -0.0006424970604945438
-0.0022949046725462144   -0.029540167261098944   -0.0007539522975601801
-0.003027730954533423   -0.029474951788347598   -0.0008366972741875046
-0.002238182862741197   -0.02950154367132927   -0.0007951899582638808
-0.0034312360249105145   -0.029298148947252942   -0.0008420999353765858
-0.0029529445156358776   -0.029446739907583376   -0.0008671345112186237
-0.002238182862741197   -0.02950154367132927   -0.0007951899582638808
-0.003027730954533423   -0.029474951788347598   -0.0008366972741875046
-0.0034312360249105145   -0.029298148947252942   -0.0008420999353765858
-0.002238182862741197   -0.02950154367132927   -0.0007951899582638808
-0.0020299075393680845   -0.029377958373153493   -0.0007391342836928481
-0.0021757865678375056   -0.029427618571628775   -0.0006424970604945438
-0.0034312360249105145   -0.029298148947252942   -0.0008420999353765858
-0.002238182862741197   -0.02950154367132927   -0.0007951899582638808
-0.0021757865678375056   -0.029427618571628775   -0.0006424970604945438
-0.003027730954533423   -0.029474951788347598   -0.0008366972741875046
-0.0034312360249105145   -0.029298148947252942   -0.0008420999353765858
-0.0020299075393680845   -0.029377958373153493   -0.0007391342836928481
-0.0029529445156358776   -0.029446739907583376   -0.0008671345112186237
-0.003292801420446502   -0.029301519097448287   -0.0009337155129392266
-0.0020299075393680845   -0.029377958373153493   -0.0007391342836928481
-0.002238182862741197   -0.02950154367132927   -0.0007951899582638808
-0.0029529445156358776   -0.029446739907583376   -0.0008671345112186237
-0.0021715167651468483   -0.029487867243493563   -0.00083332855683512
-0.003292801420446502   -0.029301519097448287   -0.0009337155129392266
-0.0028699018740102476   -0.029448708786570386   -0.000897890213040851
-0.0021715167651468483   -0.029487867243493563   -0.00083332855683512
-0.0029529445156358776   -0.029446739907583376   -0.0008671345112186237
-0.003292801420446502   -0.029301519097448287   -0.0009337155129392266
-0.0021715167651468483   -0.029487867243493563   -0.00083332855683512
-0.0019085262082616805   -0.02936333049987218   -0.000831930958753863
-0.0020299075393680845   -0.029377958373153493   -0.0007391342836928481
-0.003292801420446502   -0.029301519097448287   -0.0009337155129392266
-0.0021715167651468483   -0.029487867243493563   -0.00083332855683512
-0.0020299075393680845   -0.029377958373153493   -0.0007391342836928481
-0.0029529445156358776   -0.029446739907583376   -0.0008671345112186237
-0.003292801420446502   -0.029301519097448287   -0.0009337155129392266
-0.0019085262082616805   -0.02936333049987218   -0.000831930958753863
-0.0028699018740102476   -0.029448708786570386   -0.000897890213040851
-0.003128432669342602   -0.029342184280488265   -0.0010272883569825354
-0.0019085262082616805   -0.02936333049987218   -0.000831930958753863
-0.0021715167651468483   -0.029487867243493563   -0.00083332855683512
-0.0028699018740102476   -0.029448708786570386   -0.000897890213040851
-0.002114488029364997   -0.029499362086533684   -0.0008681783865204358
-0.003128432669342602   -0.029342184280488265   -0.0010272883569825354
-0.002792874492280598   -0.029481025478438536   -0.0009290918006026989
-0.002114488029364997   -0.029499362086533684   -0.0008681783865204358
-0.0028699018740102476   -0.029448708786570386   -0.000897890213040851
-0.003128432669342602   -0.029342184280488265   -0.0010272883569825354
-0.002114488029364997   -0.029499362086533684   -0.0008681783865204358
-0.001770889228992905   -0.029377641929669778   -0.0009204948620811508
-0.0019085262082616805   -0.02936333049987218   -0.000831930958753863
-0.003128432669342602   -0.029342184280488265   -0.0010272883569825354
-0.002114488029364997   -0.029499362086533684   -0.0008681783865204358
-0.0019085262082616805   -0.02936333049987218   -0.000831930958753863
-0.0028699018740102476   -0.029448708786570386   -0.000897890213040851
-0.003027730954533423   -0.029474951788347598   -0.0008366972741875046
-0.0022949046725462144   -0.029540167261098944   -0.0007539522975601801
-0.0026124180688890087   -0.029618336648175602   -0.0009130140434253018
-0.0029529445156358776   -0.029446739907583376   -0.0008671345112186237
-0.0022949046725462144   -0.029540167261098944   -0.0007539522975601801
-0.002461473715910998   -0.029608790463341104   -0.0008429218956543335
-0.0026124180688890087   -0.029618336648175602   -0.0009130140434253018
-0.0024113583100438306   -0.02957426068962913   -0.0008438661810122358
-0.0029529445156358776   -0.029446739907583376   -0.0008671345112186237
-0.0025337212052970004   -0.029589278768209087   -0.0008922957439239878
-0.0024113583100438306   -0.02957426068962913   -0.0008438661810122358
-0.0026124180688890087   -0.029618336648175602   -0.0009130140434253018
-0.0029529445156358776   -0.029446739907583376   -0.0008671345112186237
-0.0024113583100438306   -0.02957426068962913   -0.0008438661810122358
-0.002238182862741197   -0.02950154367132927   -0.0007951899582638808
-0.0022949046725462144   -0.029540167261098944   -0.0007539522975601801
-0.0029529445156358776   -0.029446739907583376   -0.0008671345112186237
-0.0024113583100438306   -0.02957426068962913   -0.0008438661810122358
-0.0022949046725462144   -0.029540167261098944   -0.0007539522975601801
-0.0026124180688890087   -0.029618336648175602   -0.0009130140434253018
-0.0029529445156358776   -0.029446739907583376   -0.0008671345112186237
-0.002238182862741197   -0.02950154367132927   -0.0007951899582638808
-0.0025337212052970004   -0.029589278768209087   -0.0008922957439239878
-0.0028699018740102476   -0.029448708786570386   -0.000897890213040851
-0.002238182862741197   -0.02950154367132927   -0.0007951899582638808
-0.0024113583100438306   -0.02957426068962913   -0.0008438661810122358
-0.0025337212052970004   -0.029589278768209087   -0.0008922957439239878
-0.002355611891328426   -0.029562319002311353   -0.0008407938612484604
-0.0028699018740102476   -0.029448708786570386   -0.000897890213040851
-0.0024575362554487825   -0.02958918554691788   -0.000871334474782679
-0.002355611891328426   -0.029562319002311353   -0.0008407938612484604
-0.0025337212052970004   -0.029589278768209087   -0.0008922957439239878
-0.0028699018740102476   -0.029448708786570386   -0.000897890213040851
-0.002355611891328426   -0.029562319002311353   -0.0008407938612484604
-0.0021715167651468483   -0.029487867243493563   -0.00083332855683512
-0.002238182862741197   -0.02950154367132927   -0.0007951899582638808
-0.0028699018740102476   -0.029448708786570386   -0.000897890213040851
-0.002355611891328426   -0.029562319002311353   -0.0008407938612484604
-0.002238182862741197   -0.02950154367132927   -0.0007951899582638808
-0.0025337212052970004   -0.029589278768209087   -0.0008922957439239878
-0.0028699018740102476   -0.029448708786570386   -0.000897890213040851
-0.0021715167651468483   -0.029487867243493563   -0.00083332855683512
-0.0024575362554487825   -0.02958918554691788   -0.000871334474782679
-0.002792874492280598   -0.029481025478438536   -0.0009290918006026989
-0.0021715167651468483   -0.029487867243493563   -0.00083332855683512
-0.002355611891328426   -0.029562319002311353   -0.0008407938612484604
-0.0024575362554487825   -0.02958918554691788   -0.000871334474782679
-0.0022989737454987337   -0.029571982590922297   -0.0008345675599774786
-0.002792874492280598   -0.029481025478438536   -0.0009290918006026989
-0.002378185608600909   -0.029617478928284414   -0.0008512369316004091
-0.0022989737454987337   -0.029571982590922297   -0.0008345675599774786
-0.0024575362554487825   -0.02958918554691788   -0.000871334474782679
-0.002792874492280598   -0.029481025478438536   -0.0009290918006026989
-0.0022989737454987337   -0.029571982590922297   -0.0008345675599774786
-0.002114488029364997   -0.029499362086533684   -0.0008681783865204358
-0.0021715167651468483   -0.029487867243493563   -0.00083332855683512
-0.002792874492280598   -0.029481025478438536   -0.0009290918006026989
-0.0022989737454987337   -0.029571982590922297   -0.0008345675599774786
-0.0021715167651468483   -0.029487867243493563   -0.00083332855683512
-0.0024575362554487825   -0.02958918554691788   -0.000871334474782679
-0.0026124180688890087   -0.029618336648175602   -0.0009130140434253018
-0.002461473715910998   -0.029608790463341104   -0.0008429218956543335
-0.002232336254451727   -0.029789143734377722   -0.0009973578692263087
-0.0025337212052970004   -0.029589278768209087   -0.0008922957439239878
-0.002461473715910998   -0.029608790463341104   -0.0008429218956543335
-0.0026407318032679148   -0.029636152137857922   -0.0009306426438836709
-0.002232336254451727   -0.029789143734377722   -0.0009973578692263087
-0.0025888122155795926   -0.029603105642083072   -0.0008928292242868549
-0.0025337212052970004   -0.029589278768209087   -0.0008922957439239878
-0.0021359975226852013   -0.02976369469148826   -0.0009226595338510064
-0.0025888122155795926   -0.029603105642083072   -0.0008928292242868549
-0.002232336254451727   -0.029789143734377722   -0.0009973578692263087
-0.0025337212052970004   -0.029589278768209087   -0.0008922957439239878
-0.0025888122155795926   -0.029603105642083072   -0.0008928292242868549
-0.0024113583100438306   -0.02957426068962913   -0.0008438661810122358
-0.002461473715910998   -0.029608790463341104   -0.0008429218956543335
-0.0025337212052970004   -0.029589278768209087   -0.0008922957439239878
-0.0025888122155795926   -0.029603105642083072   -0.0008928292242868549
-0.002461473715910998   -0.029608790463341104   -0.0008429218956543335
-0.002232336254451727   -0.029789143734377722   -0.0009973578692263087
-0.0025337212052970004   -0.029589278768209087   -0.0008922957439239878
-0.0024113583100438306   -0.02957426068962913   -0.0008438661810122358
-0.0021359975226852013   -0.02976369469148826   -0.0009226595338510064
-0.0024575362554487825   -0.02958918554691788   -0.000871334474782679
-0.0024113583100438306   -0.02957426068962913   -0.0008438661810122358
-0.0025888122155795926   -0.029603105642083072   -0.0008928292242868549
-0.0021359975226852013   -0.02976369469148826   -0.0009226595338510064
-0.002526638753432403   -0.02959300381314333   -0.0008501205121944641
-0.0024575362554487825   -0.02958918554691788   -0.000871334474782679
-0.0020465805292907016   -0.029762582102576728   -0.0008481236022299026
-0.002526638753432403   -0.02959300381314333   -0.0008501205121944641
-0.0021359975226852013   -0.02976369469148826   -0.0009226595338510064
-0.0024575362554487825   -0.02958918554691788   -0.000871334474782679
-0.002526638753432403   -0.02959300381314333   -0.0008501205121944641
-0.002355611891328426   -0.029562319002311353   -0.0008407938612484604
-0.0024113583100438306   -0.02957426068962913   -0.0008438661810122358
-0.0024575362554487825   -0.02958918554691788   -0.000871334474782679
-0.002526638753432403   -0.02959300381314333   -0.0008501205121944641
-0.0024113583100438306   -0.02957426068962913   -0.0008438661810122358
-0.0021359975226852013   -0.02976369469148826   -0.0009226595338510064
-0.0024575362554487825   -0.02958918554691788   -0.000871334474782679
-0.002355611891328426   -0.029562319002311353   -0.0008407938612484604
-0.0020465805292907016   -0.029762582102576728   -0.0008481236022299026
-0.002378185608600909   -0.029617478928284414   -0.0008512369316004091
-0.002355611891328426   -0.029562319002311353   -0.0008407938612484604
-0.002526638753432403   -0.02959300381314333   -0.0008501205121944641
-0.0020465805292907016   -0.029762582102576728   -0.0008481236022299026
-0.0024627639705846107   -0.02960236364430834   -0.0008046921403264469
-0.002378185608600909   -0.029617478928284414   -0.0008512369316004091
-0.001950775590755965   -0.0297845570182422   -0.0007735744593926205
-0.0024627639705846107   -0.02960236364430834   -0.0008046921403264469
-0.0020465805292907016   -0.029762582102576728   -0.0008481236022299026
-0.002378185608600909   -0.029617478928284414   -0.0008512369316004091
-0.0024627639705846107   -0.02960236364430834   -0.0008046921403264469
-0.0022989737454987337   -0.029571982590922297   -0.0008345675599774786
-0.002355611891328426   -0.029562319002311353   -0.0008407938612484604
-0.002378185608600909   -0.029617478928284414   -0.0008512369316004091
-0.0024627639705846107   -0.02960236364430834   -0.0008046921403264469
-0.002355611891328426   -0.029562319002311353   -0.0008407938612484604
-0.0020465805292907016   -0.029762582102576728   -0.0008481236022299026
-0.002232336254451727   -0.029789143734377722   -0.0009973578692263087
-0.0026407318032679148   -0.029636152137857922   -0.0009306426438836709
-0.0018582636036533274   -0.03   -0.0010633207408782387
-0.0021359975226852013   -0.02976369469148826   -0.0009226595338510064
-0.0026407318032679148   -0.029636152137857922   -0.0009306426438836709
-0.002900800578706837   -0.02960245749696744   -0.001014388677475438
-0.0018582636036533274   -0.03   -0.0010633207408782387
-0.00283302989628194   -0.029571034748240792   -0.0009395820235501305
-0.0021359975226852013   -0.02976369469148826   -0.0009226595338510064
-0.001736763921330515   -0.03   -0.0009489471790356441
-0.00283302989628194   -0.029571034748240792   -0.0009395820235501305
-0.0018582636036533274   -0.03   -0.0010633207408782387
-0.0021359975226852013   -0.02976369469148826   -0.0009226595338510064
-0.00283302989628194   -0.029571034748240792   -0.0009395820235501305
-0.0025888122155795926   -0.029603105642083072   -0.0008928292242868549
-0.0026407318032679148   -0.029636152137857922   -0.0009306426438836709
-0.0021359975226852013   -0.02976369469148826   -0.0009226595338510064
-0.00283302989628194   -0.029571034748240792   -0.0009395820235501305
-0.0026407318032679148   -0.029636152137857922   -0.0009306426438836709
-0.0018582636036533274   -0.03   -0.0010633207408782387
-0.0021359975226852013   -0.02976369469148826   -0.0009226595338510064
-0.0025888122155795926   -0.029603105642083072   -0.0008928292242868549
-0.001736763921330515   -0.03   -0.0009489471790356441
-0.0020465805292907016   -0.029762582102576728   -0.0008481236022299026
-0.0025888122155795926   -0.029603105642083072   -0.0008928292242868549
-0.00283302989628194   -0.029571034748240792   -0.0009395820235501305
-0.001736763921330515   -0.03   -0.0009489471790356441
-0.002743363364984375   -0.02956419527407235   -0.0008592865427238535
-0.0020465805292907016   -0.029762582102576728   -0.0008481236022299026
-0.0016144188701632774   -0.03   -0.0008332263441508605
-0.002743363364984375   -0.02956419527407235   -0.0008592865427238535
-0.001736763921330515   -0.03   -0.0009489471790356441
-0.0020465805292907016   -0.029762582102576728   -0.0008481236022299026
-0.002743363364984375   -0.02956419527407235   -0.0008592865427238535
-0.002526638753432403   -0.02959300381314333   -0.0008501205121944641
-0.0025888122155795926   -0.029603105642083072   -0.0008928292242868549
-0.0020465805292907016   -0.029762582102576728   -0.0008481236022299026
-0.002743363364984375   -0.02956419527407235   -0.0008592865427238535
-0.0025888122155795926   -0.029603105642083072   -0.0008928292242868549
-0.001736763921330515   -0.03   -0.0009489471790356441
-0.0020465805292907016   -0.029762582102576728   -0.0008481236022299026
-0.002526638753432403   -0.02959300381314333   -0.0008501205121944641
-0.0016144188701632774   -0.03   -0.0008332263441508605
-0.001950775590755965   -0.0297845570182422   -0.0007735744593926205
-0.002526638753432403   -0.02959300381314333   -0.0008501205121944641
-0.002743363364984375   -0.02956419527407235   -0.0008592865427238535
-0.0016144188701632774   -0.03   -0.0008332263441508605
-0.002659394446263652   -0.029577283779485476   -0.0007759742696560811
-0.001950775590755965   -0.0297845570182422   -0.0007735744593926205
-0.0014951596573020776   -0.03   -0.0007190584349290181
-0.002659394446263652   -0.029577283779485476   -0.0007759742696560811
-0.0016144188701632774   -0.03   -0.0008332263441508605
-0.001950775590755965   -0.0297845570182422   -0.0007735744593926205
-0.002659394446263652   -0.029577283779485476   -0.0007759742696560811
-0.0024627639705846107   -0.02960236364430834   -0.0008046921403264469
-0.002526638753432403   -0.02959300381314333   -0.0008501205121944641
-0.001950775590755965   -0.0297845570182422   -0.0007735744593926205
-0.002659394446263652   -0.029577283779485476   -0.0007759742696560811
-0.002526638753432403   -0.02959300381314333   -0.0008501205121944641
-0.0016144188701632774   -0.03   -0.0008332263441508605
-0.0018582636036533274   -0.03   -0.0010633207408782387
-0.002900800578706837   -0.02960245749696744   -0.001014388677475438
-0.0015839908634321092   -0.03   -0.0011431998637217856
-0.001736763921330515   -0.03   -0.0009489471790356441
-0.002900800578706837   -0.02960245749696744   -0.001014388677475438
-0.0034118076193902238   -0.029458085769613687   -0.0011039564122669228
-0.0015839908634321092   -0.03   -0.0011431998637217856
-0.003229045876100686   -0.029431217580582376   -0.0009812795646347019
-0.001736763921330515   -0.03   -0.0009489471790356441
-0.0013277938107394843   -0.03   -0.0009772517584305087
-0.003229045876100686   -0.029431217580582376   -0.0009812795646347019
-0.0015839908634321092   -0.03   -0.0011431998637217856
-0.001736763921330515   -0.03   -0.0009489471790356441
-0.003229045876100686   -0.029431217580582376   -0.0009812795646347019
-0.00283302989628194   -0.029571034748240792   -0.0009395820235501305
-0.002900800578706837   -0.02960245749696744   -0.001014388677475438
-0.001736763921330515   -0.03   -0.0009489471790356441
-0.003229045876100686   -0.029431217580582376   -0.0009812795646347019
-0.002900800578706837   -0.02960245749696744   -0.001014388677475438
-0.0015839908634321092   -0.03   -0.0011431998637217856
-0.001736763921330515   -0.03   -0.0009489471790356441
-0.00283302989628194   -0.029571034748240792   -0.0009395820235501305
-0.0013277938107394843   -0.03   -0.0009772517584305087
-0.0016144188701632774   -0.03   -0.0008332263441508605
-0.00283302989628194   -0.029571034748240792   -0.0009395820235501305
-0.003229045876100686   -0.029431217580582376   -0.0009812795646347019
-0.0013277938107394843   -0.03   -0.0009772517584305087
-0.00306165729539852   -0.029427787190786595   -0.0008505795380180854
-0.0016144188701632774   -0.03   -0.0008332263441508605
-0.0011235023061788446   -0.03   -0.0008185290345395019
-0.00306165729539852   -0.029427787190786595   -0.0008505795380180854
-0.0013277938107394843   -0.03   -0.0009772517584305087
-0.0016144188701632774   -0.03   -0.0008332263441508605
-0.00306165729539852   -0.029427787190786595   -0.0008505795380180854
-0.002743363364984375   -0.02956419527407235   -0.0008592865427238535
-0.00283302989628194   -0.029571034748240792   -0.0009395820235501305
-0.0016144188701632774   -0.03   -0.0008332263441508605
-0.00306165729539852   -0.029427787190786595   -0.0008505795380180854
-0.00283302989628194   -0.029571034748240792   -0.0009395820235501305
-0.0013277938107394843   -0.03   -0.0009772517584305087
-0.0016144188701632774   -0.03   -0.0008332263441508605
-0.002743363364984375   -0.02956419527407235   -0.0008592865427238535
-0.0011235023061788446   -0.03   -0.0008185290345395019
-0.0014951596573020776   -0.03   -0.0007190584349290181
-0.002743363364984375   -0.02956419527407235   -0.0008592865427238535
-0.00306165729539852   -0.029427787190786595   -0.0008505795380180854
-0.0011235023061788446   -0.03   -0.0008185290345395019
-0.002850164480028688   -0.029462944773180927   -0.0007140965661777761
-0.0014951596573020776   -0.03   -0.0007190584349290181
-0.0008712276998313679   -0.03   -0.0006537332768062688
-0.002850164480028688   -0.029462944773180927   -0.0007140965661777761
-0.0011235023061788446   -0.03   -0.0008185290345395019
-0.0014951596573020776   -0.03   -0.0007190584349290181
-0.002850164480028688   -0.029462944773180927   -0.0007140965661777761
-0.002659394446263652   -0.029577283779485476   -0.0007759742696560811
-0.002743363364984375   -0.02956419527407235   -0.0008592865427238535
-0.0014951596573020776   -0.03   -0.0007190584349290181
-0.002850164480028688   -0.029462944773180927   -0.0007140965661777761
-0.002743363364984375   -0.02956419527407235   -0.0008592865427238535
-0.0011235023061788446   -0.03   -0.0008185290345395019
-0.0021757865678375056   -0.029427618571628775   -0.0006424970604945438
-0.0009242406978406474   -0.02834592334640129   -0.0005540892068672692
-0.0022949046725462144   -0.029540167261098944   -0.0007539522975601801
-0.0020299075393680845   -0.029377958373153493   -0.0007391342836928481
-0.0009242406978406474   -0.02834592334640129   -0.0005540892068672692
-0.0016632036127283971   -0.02843150103878186   -0.000672651122209804
-0.0022949046725462144   -0.029540167261098944   -0.0007539522975601801
-0.0016227941783757713   -0.02838471965098018   -0.0007095756741470369
-0.0020299075393680845   -0.029377958373153493   -0.0007391342836928481
-0.002238182862741197   -0.02950154367132927   -0.0007951899582638808
-0.0016227941783757713   -0.02838471965098018   -0.0007095756741470369
-0.0022949046725462144   -0.029540167261098944   -0.0007539522975601801
-0.0020299075393680845   -0.029377958373153493   -0.0007391342836928481
-0.0016227941783757713   -0.02838471965098018   -0.0007095756741470369
-0.0008073283857330751   -0.028287912762133056   -0.0006380427479481776
-0.0009242406978406474   -0.02834592334640129   -0.0005540892068672692
-0.0020299075393680845   -0.029377958373153493   -0.0007391342836928481
-0.0016227941783757713   -0.02838471965098018   -0.0007095756741470369
-0.0009242406978406474   -0.02834592334640129   -0.0005540892068672692
-0.0022949046725462144   -0.029540167261098944   -0.0007539522975601801
-0.0020299075393680845   -0.029377958373153493   -0.0007391342836928481
-0.0008073283857330751   -0.028287912762133056   -0.0006380427479481776
-0.002238182862741197   -0.02950154367132927   -0.0007951899582638808
-0.0019085262082616805   -0.02936333049987218   -0.000831930958753863
-0.0008073283857330751   -0.028287912762133056   -0.0006380427479481776
-0.0016227941783757713   -0.02838471965098018   -0.0007095756741470369
-0.002238182862741197   -0.02950154367132927   -0.0007951899582638808
-0.001577140577134936   -0.028359394858113757   -0.00074325771935092
-0.0019085262082616805   -0.02936333049987218   -0.000831930958753863
-0.0021715167651468483   -0.029487867243493563   -0.00083332855683512
-0.001577140577134936   -0.028359394858113757   -0.00074325771935092
-0.002238182862741197   -0.02950154367132927   -0.0007951899582638808
-0.0019085262082616805   -0.02936333049987218   -0.000831930958753863
-0.001577140577134936   -0.028359394858113757   -0.00074325771935092
-0.0007153163316568983   -0.02826096346126991   -0.0007171952267485093
-0.0008073283857330751   -0.028287912762133056   -0.0006380427479481776
-0.0019085262082616805   -0.02936333049987218   -0.000831930958753863
-0.001577140577134936   -0.028359394858113757   -0.00074325771935092
-0.0008073283857330751   -0.028287912762133056   -0.0006380427479481776
-0.002238182862741197   -0.02950154367132927   -0.0007951899582638808
-0.0019085262082616805   -0.02936333049987218   -0.000831930958753863
-0.0007153163316568983   -0.02826096346126991   -0.0007171952267485093
-0.0021715167651468483   -0.029487867243493563   -0.00083332855683512
-0.001770889228992905   -0.029377641929669778   -0.0009204948620811508
-0.0007153163316568983   -0.02826096346126991   -0.0007171952267485093
-0.001577140577134936   -0.028359394858113757   -0.00074325771935092
-0.0021715167651468483   -0.029487867243493563   -0.00083332855683512
-0.0015421848123942442   -0.02835481163595378   -0.0007738062841186218
-0.001770889228992905   -0.029377641929669778   -0.0009204948620811508
-0.002114488029364997   -0.029499362086533684   -0.0008681783865204358
-0.0015421848123942442   -0.02835481163595378   -0.0007738062841186218
-0.0021715167651468483   -0.029487867243493563   -0.00083332855683512
-0.001770889228992905   -0.029377641929669778   -0.0009204948620811508
-0.0015421848123942442   -0.02835481163595378   -0.0007738062841186218
-0.0006144659441562705   -0.028257201015072064   -0.0007913505863094771
-0.0007153163316568983   -0.02826096346126991   -0.0007171952267485093
-0.001770889228992905   -0.029377641929669778   -0.0009204948620811508
-0.0015421848123942442   -0.02835481163595378   -0.0007738062841186218
-0.0007153163316568983   -0.02826096346126991   -0.0007171952267485093
-0.0021715167651468483   -0.029487867243493563   -0.00083332855683512
-0.0022949046725462144   -0.029540167261098944   -0.0007539522975601801
-0.0016632036127283971   -0.02843150103878186   -0.000672651122209804
-0.002461473715910998   -0.029608790463341104   -0.0008429218956543335
-0.002238182862741197   -0.02950154367132927   -0.0007951899582638808
-0.0016632036127283971   -0.02843150103878186   -0.000672651122209804
-0.0023953137620771345   -0.028461454688812785   -0.0007690991374417946
-0.002461473715910998   -0.029608790463341104   -0.0008429218956543335
-0.002361439186458925   -0.028420664002695783   -0.0007709881712542615
-0.002238182862741197   -0.02950154367132927   -0.0007951899582638808
-0.0024113583100438306   -0.02957426068962913   -0.0008438661810122358
-0.002361439186458925   -0.028420664002695783   -0.0007709881712542615
-0.002461473715910998   -0.029608790463341104   -0.0008429218956543335
-0.002238182862741197   -0.02950154367132927   -0.0007951899582638808
-0.002361439186458925   -0.028420664002695783   -0.0007709881712542615
-0.0016227941783757713   -0.02838471965098018   -0.0007095756741470369
-0.0016632036127283971   -0.02843150103878186   -0.000672651122209804
-0.002238182862741197   -0.02950154367132927   -0.0007951899582638808
-0.002361439186458925   -0.028420664002695783   -0.0007709881712542615
-0.0016632036127283971   -0.02843150103878186   -0.000672651122209804
-0.002461473715910998   -0.029608790463341104   -0.0008429218956543335
-0.002238182862741197   -0.02950154367132927   -0.0007951899582638808
-0.0016227941783757713   -0.02838471965098018   -0.0007095756741470369
-0.0024113583100438306   -0.02957426068962913   -0.0008438661810122358
-0.0021715167651468483   -0.029487867243493563   -0.00083332855683512
-0.0016227941783757713   -0.02838471965098018   -0.0007095756741470369
-0.002361439186458925   -0.028420664002695783   -0.0007709881712542615
-0.0024113583100438306   -0.02957426068962913   -0.0008438661810122358
-0.0023263855837796   -0.02839920758984765   -0.0007698719151904994
-0.0021715167651468483   -0.029487867243493563   -0.00083332855683512
-0.002355611891328426   -0.029562319002311353   -0.0008407938612484604
-0.0023263855837796   -0.02839920758984765   -0.0007698719151904994
-0.0024113583100438306   -0.02957426068962913   -0.0008438661810122358
-0.0021715167651468483   -0.029487867243493563   -0.00083332855683512
-0.0023263855837796   -0.02839920758984765   -0.0007698719151904994
-0.001577140577134936   -0.028359394858113757   -0.00074325771935092
-0.0016227941783757713   -0.02838471965098018   -0.0007095756741470369
-0.0021715167651468483   -0.029487867243493563   -0.00083332855683512
-0.0023263855837796   -0.02839920758984765   -0.0007698719151904994
-0.0016227941783757713   -0.02838471965098018   -0.0007095756741470369
-0.0024113583100438306   -0.02957426068962913   -0.0008438661810122358
-0.0021715167651468483   -0.029487867243493563   -0.00083332855683512
-0.001577140577134936   -0.028359394858113757   -0.00074325771935092
-0.002355611891328426   -0.029562319002311353   -0.0008407938612484604
-0.002114488029364997   -0.029499362086533684   -0.0008681783865204358
-0.001577140577134936   -0.028359394858113757   -0.00074325771935092
-0.0023263855837796   -0.02839920758984765   -0.0007698719151904994
-0.002355611891328426   -0.029562319002311353   -0.0008407938612484604
-0.0022926020781932747   -0.028396194270202697   -0.0007657329497114929
-0.002114488029364997   -0.029499362086533684   -0.0008681783865204358
-0.0022989737454987337   -0.029571982590922297   -0.0008345675599774786
-0.0022926020781932747   -0.028396194270202697   -0.0007657329497114929
-0.002355611891328426   -0.029562319002311353   -0.0008407938612484604
-0.002114488029364997   -0.029499362086533684   -0.0008681783865204358
-0.0022926020781932747   -0.028396194270202697   -0.0007657329497114929
-0.0015421848123942442   -0.02835481163595378   -0.0007738062841186218
-0.001577140577134936   -0.028359394858113757   -0.00074325771935092
-0.002114488029364997   -0.029499362086533684   -0.0008681783865204358
-0.0022926020781932747   -0.028396194270202697   -0.0007657329497114929
-0.001577140577134936   -0.028359394858113757   -0.00074325771935092
-0.002355611891328426   -0.029562319002311353   -0.0008407938612484604
-0.002461473715910998   -0.029608790463341104   -0.0008429218956543335
-0.0023953137620771345   -0.028461454688812785   -0.0007690991374417946
-0.0026407318032679148   -0.029636152137857922   -0.0009306426438836709
-0.0024113583100438306   -0.02957426068962913   -0.0008438661810122358
-0.0023953137620771345   -0.028461454688812785   -0.0007690991374417946
-0.0031227563991594208   -0.02843430820020065   -0.0008594298042409438
-0.0026407318032679148   -0.029636152137857922   -0.0009306426438836709
-0.0030891504697273383   -0.028398023160668907   -0.0008277009459598093
-0.0024113583100438306   -0.02957426068962913   -0.0008438661810122358
-0.0025888122155795926   -0.029603105642083072   -0.0008928292242868549
-0.0030891504697273383   -0.028398023160668907   -0.0008277009459598093
-0.0026407318032679148   -0.029636152137857922   -0.0009306426438836709
-0.0024113583100438306   -0.02957426068962913   -0.0008438661810122358
-0.0030891504697273383   -0.028398023160668907   -0.0008277009459598093
-0.002361439186458925   -0.028420664002695783   -0.0007709881712542615
-0.0023953137620771345   -0.028461454688812785   -0.0007690991374417946
-0.0024113583100438306   -0.02957426068962913   -0.0008438661810122358
-0.0030891504697273383   -0.028398023160668907   -0.0008277009459598093
-0.0023953137620771345   -0.028461454688812785   -0.0007690991374417946
-0.0026407318032679148   -0.029636152137857922   -0.0009306426438836709
-0.0024113583100438306   -0.02957426068962913   -0.0008438661810122358
-0.002361439186458925   -0.028420664002695783   -0.0007709881712542615
-0.0025888122155795926   -0.029603105642083072   -0.0008928292242868549
-0.002355611891328426   -0.029562319002311353   -0.0008407938612484604
-0.002361439186458925   -0.028420664002695783   -0.0007709881712542615
-0.0030891504697273383   -0.028398023160668907   -0.0008277009459598093
-0.0025888122155795926   -0.029603105642083072   -0.0008928292242868549
-0.003051440639812947   -0.028380760340949773   -0.000793016178486941
-0.002355611891328426   -0.029562319002311353   -0.0008407938612484604
-0.002526638753432403   -0.02959300381314333   -0.0008501205121944641
-0.003051440639812947   -0.028380760340949773   -0.000793016178486941
-0.0025888122155795926   -0.029603105642083072   -0.0008928292242868549
-0.002355611891328426   -0.029562319002311353   -0.0008407938612484604
-0.003051440639812947   -0.028380760340949773   -0.000793016178486941
-0.0023263855837796   -0.02839920758984765   -0.0007698719151904994
-0.002361439186458925   -0.028420664002695783   -0.0007709881712542615
-0.002355611891328426   -0.029562319002311353   -0.0008407938612484604
-0.003051440639812947   -0.028380760340949773   -0.000793016178486941
-0.002361439186458925   -0.028420664002695783   -0.0007709881712542615
-0.0025888122155795926   -0.029603105642083072   -0.0008928292242868549
-0.002355611891328426   -0.029562319002311353   -0.0008407938612484604
-0.0023263855837796   -0.02839920758984765   -0.0007698719151904994
-0.002526638753432403   -0.02959300381314333   -0.0008501205121944641
-0.0022989737454987337   -0.029571982590922297   -0.0008345675599774786
-0.0023263855837796   -0.02839920758984765   -0.0007698719151904994
-0.003051440639812947   -0.028380760340949773   -0.000793016178486941
-0.002526638753432403   -0.02959300381314333   -0.0008501205121944641
-0.0030136278459857633   -0.028380747889561228   -0.0007550162555334173
-0.0022989737454987337   -0.029571982590922297   -0.0008345675599774786
-0.0024627639705846107   -0.02960236364430834   -0.0008046921403264469
-0.0030136278459857633   -0.028380747889561228   -0.0007550162555334173
-0.002526638753432403   -0.02959300381314333   -0.0008501205121944641
-0.0022989737454987337   -0.029571982590922297   -0.0008345675599774786
-0.0030136278459857633   -0.028380747889561228   -0.0007550162555334173
-0.0022926020781932747   -0.028396194270202697   -0.0007657329497114929
-0.0023263855837796   -0.02839920758984765   -0.0007698719151904994
-0.0022989737454987337   -0.029571982590922297   -0.0008345675599774786
-0.0030136278459857633   -0.028380747889561228   -0.0007550162555334173
-0.0023263855837796   -0.02839920758984765   -0.0007698719151904994
-0.002526638753432403   -0.02959300381314333   -0.0008501205121944641
-0.0026407318032679148   -0.029636152137857922   -0.0009306426438836709
-0.0031227563991594208   -0.02843430820020065   -0.0008594298042409438
-0.002900800578706837   -0.02960245749696744   -0.001014388677475438
-0.0025888122155795926   -0.029603105642083072   -0.0008928292242868549
-0.0031227563991594208   -0.02843430820020065   -0.0008594298042409438
-0.003920888486853953   -0.028346559105420666   -0.0009426096048283074
-0.002900800578706837   -0.02960245749696744   -0.001014388677475438
-0.0038796019394897858   -0.028314746812766207   -0.0008779549692845807
-0.0025888122155795926   -0.029603105642083072   -0.0008928292242868549
-0.00283302989628194   -0.029571034748240792   -0.0009395820235501305
-0.0038796019394897858   -0.028314746812766207   -0.0008779549692845807
-0.002900800578706837   -0.02960245749696744   -0.001014388677475438
-0.0025888122155795926   -0.029603105642083072   -0.0008928292242868549
-0.0038796019394897858   -0.028314746812766207   -0.0008779549692845807
-0.0030891504697273383   -0.028398023160668907   -0.0008277009459598093
-0.0031227563991594208   -0.02843430820020065   -0.0008594298042409438
-0.0025888122155795926   -0.029603105642083072   -0.0008928292242868549
-0.0038796019394897858   -0.028314746812766207   -0.0008779549692845807
-0.0031227563991594208   -0.02843430820020065   -0.0008594298042409438
-0.002900800578706837   -0.02960245749696744   -0.001014388677475438
-0.0025888122155795926   -0.029603105642083072   -0.0008928292242868549
-0.0030891504697273383   -0.028398023160668907   -0.0008277009459598093
-0.00283302989628194   -0.029571034748240792   -0.0009395820235501305
-0.002526638753432403   -0.02959300381314333   -0.0008501205121944641
-0.0030891504697273383   -0.028398023160668907   -0.0008277009459598093
-0.0038796019394897858   -0.028314746812766207   -0.0008779549692845807
-0.00283302989628194   -0.029571034748240792   -0.0009395820235501305
-0.0038224565489979084   -0.028301661246410544   -0.0008105763355449759
-0.002526638753432403   -0.02959300381314333   -0.0008501205121944641
-0.002743363364984375   -0.02956419527407235   -0.0008592865427238535
-0.0038224565489979084   -0.028301661246410544   -0.0008105763355449759
-0.00283302989628194   -0.029571034748240792   -0.0009395820235501305
-0.002526638753432403   -0.02959300381314333   -0.0008501205121944641
-0.0038224565489979084   -0.028301661246410544   -0.0008105763355449759
-0.003051440639812947   -0.028380760340949773   -0.000793016178486941
-0.0030891504697273383   -0.028398023160668907   -0.0008277009459598093
-0.002526638753432403   -0.02959300381314333   -0.0008501205121944641
-0.0038224565489979084   -0.028301661246410544   -0.0008105763355449759
-0.0030891504697273383   -0.028398023160668907   -0.0008277009459598093
-0.00283302989628194   -0.029571034748240792   -0.0009395820235501305
-0.002526638753432403   -0.02959300381314333   -0.0008501205121944641
-0.003051440639812947   -0.028380760340949773   -0.000793016178486941
-0.002743363364984375   -0.02956419527407235   -0.0008592865427238535
-0.0024627639705846107   -0.02960236364430834   -0.0008046921403264469
-0.003051440639812947   -0.028380760340949773   -0.000793016178486941
-0.0038224565489979084   -0.028301661246410544   -0.0008105763355449759
-0.002743363364984375   -0.02956419527407235   -0.0008592865427238535
-0.0037728249462633265   -0.028307310682008296   -0.0007386358514335251
-0.0024627639705846107   -0.02960236364430834   -0.0008046921403264469
-0.002659394446263652   -0.029577283779485476   -0.0007759742696560811
-0.0037728249462633265   -0.028307310682008296   -0.0007386358514335251
-0.002743363364984375   -0.02956419527407235   -0.0008592865427238535
-0.0024627639705846107   -0.02960236364430834   -0.0008046921403264469
-0.0037728249462633265   -0.028307310682008296   -0.0007386358514335251
-0.0030136278459857633   -0.028380747889561228   -0.0007550162555334173
-0.003051440639812947   -0.028380760340949773   -0.000793016178486941
-0.0024627639705846107   -0.02960236364430834   -0.0008046921403264469
-0.0037728249462633265   -0.028307310682008296   -0.0007386358514335251
-0.003051440639812947   -0.028380760340949773   -0.000793016178486941
-0.002743363364984375   -0.02956419527407235   -0.0008592865427238535
-0.002900800578706837   -0.02960245749696744   -0.001014388677475438
-0.003920888486853953   -0.028346559105420666   -0.0009426096048283074
-0.0034118076193902238   -0.029458085769613687   -0.0011039564122669228
-0.00283302989628194   -0.029571034748240792   -0.0009395820235501305
-0.003920888486853953   -0.028346559105420666   -0.0009426096048283074
-0.004948467425923109   -0.02820384873100261   -0.0010230745527246446
-0.0034118076193902238   -0.029458085769613687   -0.0011039564122669228
-0.004813356067227503   -0.028169093442013488   -0.0009209288845429492
-0.00283302989628194   -0.029571034748240792   -0.0009395820235501305
-0.003229045876100686   -0.029431217580582376   -0.0009812795646347019
-0.004813356067227503   -0.028169093442013488   -0.0009209288845429492
-0.0034118076193902238   -0.029458085769613687   -0.0011039564122669228
-0.00283302989628194   -0.029571034748240792   -0.0009395820235501305
-0.004813356067227503   -0.028169093442013488   -0.0009209288845429492
-0.0038796019394897858   -0.028314746812766207   -0.0008779549692845807
-0.003920888486853953   -0.028346559105420666   -0.0009426096048283074
-0.00283302989628194   -0.029571034748240792   -0.0009395820235501305
-0.004813356067227503   -0.028169093442013488   -0.0009209288845429492
-0.003920888486853953   -0.028346559105420666   -0.0009426096048283074
-0.0034118076193902238   -0.029458085769613687   -0.0011039564122669228
-0.00283302989628194   -0.029571034748240792   -0.0009395820235501305
-0.0038796019394897858   -0.028314746812766207   -0.0008779549692845807
-0.003229045876100686   -0.029431217580582376   -0.0009812795646347019
-0.002743363364984375   -0.02956419527407235   -0.0008592865427238535
-0.0038796019394897858   -0.028314746812766207   -0.0008779549692845807
-0.004813356067227503   -0.028169093442013488   -0.0009209288845429492
-0.003229045876100686   -0.029431217580582376   -0.0009812795646347019
-0.004692688160971856   -0.028156989803592297   -0.0008130377432594358
-0.002743363364984375   -0.02956419527407235   -0.0008592865427238535
-0.00306165729539852   -0.029427787190786595   -0.0008505795380180854
-0.004692688160971856   -0.028156989803592297   -0.0008130377432594358
-0.003229045876100686   -0.029431217580582376   -0.0009812795646347019
-0.002743363364984375   -0.02956419527407235   -0.0008592865427238535
-0.004692688160971856   -0.028156989803592297   -0.0008130377432594358
-0.0038224565489979084   -0.028301661246410544   -0.0008105763355449759
-0.0038796019394897858   -0.028314746812766207   -0.0008779549692845807
-0.002743363364984375   -0.02956419527407235   -0.0008592865427238535
-0.004692688160971856   -0.028156989803592297   -0.0008130377432594358
-0.0038796019394897858   -0.028314746812766207   -0.0008779549692845807
-0.003229045876100686   -0.029431217580582376   -0.0009812795646347019
-0.002743363364984375   -0.02956419527407235   -0.0008592865427238535
-0.0038224565489979084   -0.028301661246410544   -0.0008105763355449759
-0.00306165729539852   -0.029427787190786595   -0.0008505795380180854
-0.002659394446263652   -0.029577283779485476   -0.0007759742696560811
-0.0038224565489979084   -0.028301661246410544   -0.0008105763355449759
-0.004692688160971856   -0.028156989803592297   -0.0008130377432594358
-0.00306165729539852   -0.029427787190786595   -0.0008505795380180854
-0.004536353039561714   -0.028173925593480482   -0.0007004089844734065
-0.002659394446263652   -0.029577283779485476   -0.0007759742696560811
-0.002850164480028688   -0.029462944773180927   -0.0007140965661777761
-0.004536353039561714   -0.028173925593480482   -0.0007004089844734065
-0.00306165729539852   -0.029427787190786595   -0.0008505795380180854
-0.002659394446263652   -0.029577283779485476   -0.0007759742696560811
-0.004536353039561714   -0.028173925593480482   -0.0007004089844734065
-0.0037728249462633265   -0.028307310682008296   -0.0007386358514335251
-0.0038224565489979084   -0.028301661246410544   -0.0008105763355449759
-0.002659394446263652   -0.029577283779485476   -0.0007759742696560811
-0.004536353039561714   -0.028173925593480482   -0.0007004089844734065
-0.0038224565489979084   -0.028301661246410544   -0.0008105763355449759
-0.00306165729539852   -0.029427787190786595   -0.0008505795380180854
-0.0009242406978406474   -0.02834592334640129   -0.0005540892068672692
9.753768216535522e-05   -0.026331400549588914   -0.0004574286166323046
-0.0016632036127283971   -0.02843150103878186   -0.000672651122209804
-0.0008073283857330751   -0.028287912762133056   -0.0006380427479481776
9.753768216535522e-05   -0.026331400549588914   -0.0004574286166323046
-0.001158369649519944   -0.02639468049389107   -0.0005739886613528834
-0.0016632036127283971   -0.02843150103878186   -0.000672651122209804
-0.0011367701332992742   -0.02634561647869391   -0.000603473973107984
-0.0008073283857330751   -0.028287912762133056   -0.0006380427479481776
-0.0016227941783757713   -0.02838471965098018   -0.0007095756741470369
-0.0011367701332992742   -0.02634561647869391   -0.000603473973107984
-0.0016632036127283971   -0.02843150103878186   -0.000672651122209804
-0.0008073283857330751   -0.028287912762133056   -0.0006380427479481776
-0.0011367701332992742   -0.02634561647869391   -0.000603473973107984
0.0001799062152457302   -0.026272360671971185   -0.0005247538853212607
9.753768216535522e-05   -0.026331400549588914   -0.0004574286166323046
-0.0008073283857330751   -0.028287912762133056   -0.0006380427479481776
-0.0011367701332992742   -0.02634561647869391   -0.000603473973107984
9.753768216535522e-05   -0.026331400549588914   -0.0004574286166323046
-0.0016632036127283971   -0.02843150103878186   -0.000672651122209804
-0.0008073283857330751   -0.028287912762133056   -0.0006380427479481776
0.0001799062152457302   -0.026272360671971185   -0.0005247538853212607
-0.0016227941783757713   -0.02838471965098018   -0.0007095756741470369
-0.0007153163316568983   -0.02826096346126991   -0.0007171952267485093
0.0001799062152457302   -0.026272360671971185   -0.0005247538853212607
-0.0011367701332992742   -0.02634561647869391   -0.000603473973107984
-0.0016227941783757713   -0.02838471965098018   -0.0007095756741470369
-0.0011120481304501737   -0.026314168612529523   -0.000629615607311169
-0.0007153163316568983   -0.02826096346126991   -0.0007171952267485093
-0.001577140577134936   -0.028359394858113757   -0.00074325771935092
-0.0011120481304501737   -0.026314168612529523   -0.000629615607311169
-0.0016227941783757713   -0.02838471965098018   -0.0007095756741470369
-0.0007153163316568983   -0.02826096346126991   -0.0007171952267485093
-0.0011120481304501737   -0.026314168612529523   -0.000629615607311169
0.00024057477424795055   -0.02623893895522649   -0.0005873984157185421
0.0001799062152457302   -0.026272360671971185   -0.0005247538853212607
-0.0007153163316568983   -0.02826096346126991   -0.0007171952267485093
-0.0011120481304501737   -0.026314168612529523   -0.000629615607311169
0.0001799062152457302   -0.026272360671971185   -0.0005247538853212607
-0.0016227941783757713   -0.02838471965098018   -0.0007095756741470369
-0.0007153163316568983   -0.02826096346126991   -0.0007171952267485093
0.00024057477424795055   -0.02623893895522649   -0.0005873984157185421
-0.001577140577134936   -0.028359394858113757   -0.00074325771935092
-0.0006144659441562705   -0.028257201015072064   -0.0007913505863094771
0.00024057477424795055   -0.02623893895522649   -0.0005873984157185421
-0.0011120481304501737   -0.026314168612529523   -0.000629615607311169
-0.001577140577134936   -0.028359394858113757   -0.00074325771935092
-0.0010972525716215252   -0.026299385486346628   -0.0006527445619434757
-0.0006144659441562705   -0.028257201015072064   -0.0007913505863094771
-0.0015421848123942442   -0.02835481163595378   -0.0007738062841186218
-0.0010972525716215252   -0.026299385486346628   -0.0006527445619434757
-0.001577140577134936   -0.028359394858113757   -0.00074325771935092
-0.0006144659441562705   -0.028257201015072064   -0.0007913505863094771
-0.0010972525716215252   -0.026299385486346628   -0.0006527445619434757
0.0003058666337326754   -0.026223512149713548   -0.0006453449947969965
0.00024057477424795055   -0.02623893895522649   -0.0005873984157185421
-0.0006144659441562705   -0.028257201015072064   -0.0007913505863094771
-0.0010972525716215252   -0.026299385486346628   -0.0006527445619434757
0.00024057477424795055   -0.02623893895522649   -0.0005873984157185421
-0.001577140577134936   -0.028359394858113757   -0.00074325771935092
-0.0016632036127283971   -0.02843150103878186   -0.000672651122209804
-0.001158369649519944   -0.02639468049389107   -0.0005739886613528834
-0.0023953137620771345   -0.028461454688812785   -0.0007690991374417946
-0.0016227941783757713   -0.02838471965098018   -0.0007095756741470369
-0.001158369649519944   -0.02639468049389107   -0.0005739886613528834
-0.0023757620429061058   -0.026406844854537394   -0.0006696569300437733
-0.0023953137620771345   -0.028461454688812785   -0.0007690991374417946
-0.0023599763357555897   -0.02636481591312606   -0.0006703093531027393
-0.0016227941783757713   -0.02838471965098018   -0.0007095756741470369
-0.002361439186458925   -0.028420664002695783   -0.0007709881712542615
-0.0023599763357555897   -0.02636481591312606   -0.0006703093531027393
-0.0023953137620771345   -0.028461454688812785   -0.0007690991374417946
-0.0016227941783757713   -0.02838471965098018   -0.0007095756741470369
-0.0023599763357555897   -0.02636481591312606   -0.0006703093531027393
-0.0011367701332992742   -0.02634561647869391   -0.000603473973107984
-0.001158369649519944   -0.02639468049389107   -0.0005739886613528834
-0.0016227941783757713   -0.02838471965098018   -0.0007095756741470369
-0.0023599763357555897   -0.02636481591312606   -0.0006703093531027393
-0.001158369649519944   -0.02639468049389107   -0.0005739886613528834
-0.0023953137620771345   -0.028461454688812785   -0.0007690991374417946
-0.0016227941783757713   -0.02838471965098018   -0.0007095756741470369
-0.0011367701332992742   -0.02634561647869391   -0.000603473973107984
-0.002361439186458925   -0.028420664002695783   -0.0007709881712542615
-0.001577140577134936   -0.028359394858113757   -0.00074325771935092
-0.0011367701332992742   -0.02634561647869391   -0.000603473973107984
-0.0023599763357555897   -0.02636481591312606   -0.0006703093531027393
-0.002361439186458925   -0.028420664002695783   -0.0007709881712542615
-0.0023437273243481437   -0.02633854514853486   -0.0006677531016909678
-0.001577140577134936   -0.028359394858113757   -0.00074325771935092
-0.0023263855837796   -0.02839920758984765   -0.0007698719151904994
-0.0023437273243481437   -0.02633854514853486   -0.0006677531016909678
-0.002361439186458925   -0.028420664002695783   -0.0007709881712542615
-0.001577140577134936   -0.028359394858113757   -0.00074325771935092
-0.0023437273243481437   -0.02633854514853486   -0.0006677531016909678
-0.0011120481304501737   -0.026314168612529523   -0.000629615607311169
-0.0011367701332992742   -0.02634561647869391   -0.000603473973107984
-0.001577140577134936   -0.028359394858113757   -0.00074325771935092
-0.0023437273243481437   -0.02633854514853486   -0.0006677531016909678
-0.0011367701332992742   -0.02634561647869391   -0.000603473973107984
-0.002361439186458925   -0.028420664002695783   -0.0007709881712542615
-0.001577140577134936   -0.028359394858113757   -0.00074325771935092
-0.0011120481304501737   -0.026314168612529523   -0.000629615607311169
-0.0023263855837796   -0.02839920758984765   -0.0007698719151904994
-0.0015421848123942442   -0.02835481163595378   -0.0007738062841186218
-0.0011120481304501737   -0.026314168612529523   -0.000629615607311169
-0.0023437273243481437   -0.02633854514853486   -0.0006677531016909678
-0.0023263855837796   -0.02839920758984765   -0.0007698719151904994
-0.0023295216138780224   -0.0263277871955675   -0.0006622097591503112
-0.0015421848123942442   -0.02835481163595378   -0.0007738062841186218
-0.0022926020781932747   -0.028396194270202697   -0.0007657329497114929
-0.0023295216138780224   -0.0263277871955675   -0.0006622097591503112
-0.0023263855837796   -0.02839920758984765   -0.0007698719151904994
-0.0015421848123942442   -0.02835481163595378   -0.0007738062841186218
-0.0023295216138780224   -0.0263277871955675   -0.0006622097591503112
-0.0010972525716215252   -0.026299385486346628   -0.0006527445619434757
-0.0011120481304501737   -0.026314168612529523   -0.000629615607311169
-0.0015421848123942442   -0.02835481163595378   -0.0007738062841186218
-0.0023295216138780224   -0.0263277871955675   -0.0006622097591503112
-0.0011120481304501737   -0.026314168612529523   -0.000629615607311169
-0.0023263855837796   -0.02839920758984765   -0.0007698719151904994
-0.0023953137620771345   -0.028461454688812785   -0.0007690991374417946
-0.0023757620429061058   -0.026406844854537394   -0.0006696569300437733
-0.0031227563991594208   -0.02843430820020065   -0.0008594298042409438
-0.002361439186458925   -0.028420664002695783   -0.0007709881712542615
-0.0023757620429061058   -0.026406844854537394   -0.0006696569300437733
-0.0035745338947183315   -0.026367834936223623   -0.0007559758971796823
-0.0031227563991594208   -0.02843430820020065   -0.0008594298042409438
-0.0035598467352409586   -0.02633160362535014   -0.0007284841822468941
-0.002361439186458925   -0.028420664002695783   -0.0007709881712542615
-0.0030891504697273383   -0.028398023160668907   -0.0008277009459598093
-0.0035598467352409586   -0.02633160362535014   -0.0007284841822468941
-0.0031227563991594208   -0.02843430820020065   -0.0008594298042409438
-0.002361439186458925   -0.028420664002695783   -0.0007709881712542615
-0.0035598467352409586   -0.02633160362535014   -0.0007284841822468941
-0.0023599763357555897   -0.02636481591312606   -0.0006703093531027393
-0.0023757620429061058   -0.026406844854537394   -0.0006696569300437733
-0.002361439186458925   -0.028420664002695783   -0.0007709881712542615
-0.0035598467352409586   -0.02633160362535014   -0.0007284841822468941
-0.0023757620429061058   -0.026406844854537394   -0.0006696569300437733
-0.0031227563991594208   -0.02843430820020065   -0.0008594298042409438
-0.002361439186458925   -0.028420664002695783   -0.0007709881712542615
-0.0023599763357555897   -0.02636481591312606   -0.0006703093531027393
-0.0030891504697273383   -0.028398023160668907   -0.0008277009459598093
-0.0023263855837796   -0.02839920758984765   -0.0007698719151904994
-0.0023599763357555897   -0.02636481591312606   -0.0006703093531027393
-0.0035598467352409586   -0.02633160362535014   -0.0007284841822468941
-0.0030891504697273383   -0.028398023160668907   -0.0008277009459598093
-0.0035420896799350098   -0.026310959802831626   -0.0006978578220337336
-0.0023263855837796   -0.02839920758984765   -0.0007698719151904994
-0.003051440639812947   -0.028380760340949773   -0.000793016178486941
-0.0035420896799350098   -0.026310959802831626   -0.0006978578220337336
-0.0030891504697273383   -0.028398023160668907   -0.0008277009459598093
-0.0023263855837796   -0.02839920758984765   -0.0007698719151904994
-0.0035420896799350098   -0.026310959802831626   -0.0006978578220337336
-0.0023437273243481437   -0.02633854514853486   -0.0006677531016909678
-0.0023599763357555897   -0.02636481591312606   -0.0006703093531027393
-0.0023263855837796   -0.02839920758984765   -0.0007698719151904994
-0.0035420896799350098   -0.026310959802831626   -0.0006978578220337336
-0.0023599763357555897   -0.02636481591312606   -0.0006703093531027393
-0.0030891504697273383   -0.028398023160668907   -0.0008277009459598093
-0.0023263855837796   -0.02839920758984765   -0.0007698719151904994
-0.0023437273243481437   -0.02633854514853486   -0.0006677531016909678
-0.003051440639812947   -0.028380760340949773   -0.000793016178486941
-0.0022926020781932747   -0.028396194270202697   -0.0007657329497114929
-0.0023437273243481437   -0.02633854514853486   -0.0006677531016909678
-0.0035420896799350098   -0.026310959802831626   -0.0006978578220337336
-0.003051440639812947   -0.028380760340949773   -0.000793016178486941
-0.003524852245073241   -0.02630520695312653   -0.0006641922719225499
-0.0022926020781932747   -0.028396194270202697   -0.0007657329497114929
-0.0030136278459857633   -0.028380747889561228   -0.0007550162555334173
-0.003524852245073241   -0.02630520695312653   -0.0006641922719225499
-0.003051440639812947   -0.028380760340949773   -0.000793016178486941
-0.0022926020781932747   -0.028396194270202697   -0.0007657329497114929
-0.003524852245073241   -0.02630520695312653   -0.0006641922719225499
-0.0023295216138780224   -0.0263277871955675   -0.0006622097591503112
-0.0023437273243481437   -0.02633854514853486   -0.0006677531016909678
-0.0022926020781932747   -0.028396194270202697   -0.0007657329497114929
-0.003524852245073241   -0.02630520695312653   -0.0006641922719225499
-0.0023437273243481437   -0.02633854514853486   -0.0006677531016909678
-0.003051440639812947   -0.028380760340949773   -0.000793016178486941
-0.0031227563991594208   -0.02843430820020065   -0.0008594298042409438
-0.0035745338947183315   -0.026367834936223623   -0.0007559758971796823
-0.003920888486853953   -0.028346559105420666   -0.0009426096048283074
-0.0030891504697273383   -0.028398023160668907   -0.0008277009459598093
-0.0035745338947183315   -0.026367834936223623   -0.0007559758971796823
-0.004830110748635471   -0.02627896173131158   -0.0008327070983936294
-0.003920888486853953   -0.028346559105420666   -0.0009426096048283074
-0.004810775351055074   -0.026248216529396688   -0.0007770116090564979
-0.0030891504697273383   -0.028398023160668907   -0.0008277009459598093
-0.0038796019394897858   -0.028314746812766207   -0.0008779549692845807
-0.004810775351055074   -0.026248216529396688   -0.0007770116090564979
-0.003920888486853953   -0.028346559105420666   -0.0009426096048283074
-0.0030891504697273383   -0.028398023160668907   -0.0008277009459598093
-0.004810775351055074   -0.026248216529396688   -0.0007770116090564979
-0.0035598467352409586   -0.02633160362535014   -0.0007284841822468941
-0.0035745338947183315   -0.026367834936223623   -0.0007559758971796823
-0.0030891504697273383   -0.028398023160668907   -0.0008277009459598093
-0.004810775351055074   -0.026248216529396688   -0.0007770116090564979
-0.0035745338947183315   -0.026367834936223623   -0.0007559758971796823
-0.003920888486853953   -0.028346559105420666   -0.0009426096048283074
-0.0030891504697273383   -0.028398023160668907   -0.0008277009459598093
-0.0035598467352409586   -0.02633160362535014   -0.0007284841822468941
-0.0038796019394897858   -0.028314746812766207   -0.0008779549692845807
-0.003051440639812947   -0.028380760340949773   -0.000793016178486941
-0.0035598467352409586   -0.02633160362535014   -0.0007284841822468941
-0.004810775351055074   -0.026248216529396688   -0.0007770116090564979
-0.0038796019394897858   -0.028314746812766207   -0.0008779549692845807
-0.00477791231969071   -0.026232673456091787   -0.0007186702121930961
-0.003051440639812947   -0.028380760340949773   -0.000793016178486941
-0.0038224565489979084   -0.028301661246410544   -0.0008105763355449759
-0.00477791231969071   -0.026232673456091787   -0.0007186702121930961
-0.0038796019394897858   -0.028314746812766207   -0.0008779549692845807
-0.003051440639812947   -0.028380760340949773   -0.000793016178486941
-0.00477791231969071   -0.026232673456091787   -0.0007186702121930961
-0.0035420896799350098   -0.026310959802831626   -0.0006978578220337336
-0.0035598467352409586   -0.02633160362535014   -0.0007284841822468941
-0.003051440639812947   -0.028380760340949773   -0.000793016178486941
-0.00477791231969071   -0.026232673456091787   -0.0007186702121930961
-0.0035598467352409586   -0.02633160362535014   -0.0007284841822468941
-0.0038796019394897858   -0.028314746812766207   -0.0008779549692845807
-0.003051440639812947   -0.028380760340949773   -0.000793016178486941
-0.0035420896799350098   -0.026310959802831626   -0.0006978578220337336
-0.0038224565489979084   -0.028301661246410544   -0.0008105763355449759
-0.0030136278459857633   -0.028380747889561228   -0.0007550162555334173
-0.0035420896799350098   -0.026310959802831626   -0.0006978578220337336
-0.00477791231969071   -0.026232673456091787   -0.0007186702121930961
-0.0038224565489979084   -0.028301661246410544   -0.0008105763355449759
-0.004751395109425603   -0.026233188985661657   -0.0006568431033095088
-0.0030136278459857633   -0.028380747889561228   -0.0007550162555334173
-0.0037728249462633265   -0.028307310682008296   -0.0007386358514335251
-0.004751395109425603   -0.026233188985661657   -0.0006568431033095088
-0.0038224565489979084   -0.028301661246410544   -0.0008105763355449759
-0.0030136278459857633   -0.028380747889561228   -0.0007550162555334173
-0.004751395109425603   -0.026233188985661657   -0.0006568431033095088
-0.003524852245073241   -0.02630520695312653   -0.0006641922719225499
-0.0035420896799350098   -0.026310959802831626   -0.0006978578220337336
-0.0030136278459857633   -0.028380747889561228   -0.0007550162555334173
-0.004751395109425603   -0.026233188985661657   -0.0006568431033095088
-0.0035420896799350098   -0.026310959802831626   -0.0006978578220337336
-0.0038224565489979084   -0.028301661246410544   -0.0008105763355449759
-0.003920888486853953   -0.028346559105420666   -0.0009426096048283074
-0.004830110748635471   -0.02627896173131158   -0.0008327070983936294
-0.004948467425923109   -0.02820384873100261   -0.0010230745527246446
-0.0038796019394897858   -0.028314746812766207   -0.0008779549692845807
-0.004830110748635471   -0.02627896173131158   -0.0008327070983936294
-0.006294052226229428   -0.02615051446419688   -0.0009046881154219894
-0.004948467425923109   -0.02820384873100261   -0.0010230745527246446
-0.006193528991997437   -0.02611824887030282   -0.0008174084452678905
-0.0038796019394897858   -0.028314746812766207   -0.0008779549692845807
-0.004813356067227503   -0.028169093442013488   -0.0009209288845429492
-0.006193528991997437   -0.02611824887030282   -0.0008174084452678905
-0.004948467425923109   -0.02820384873100261   -0.0010230745527246446
-0.0038796019394897858   -0.028314746812766207   -0.0008779549692845807
-0.006193528991997437   -0.02611824887030282   -0.0008174084452678905
-0.004810775351055074   -0.026248216529396688   -0.0007770116090564979
-0.004830110748635471   -0.02627896173131158   -0.0008327070983936294
-0.0038796019394897858   -0.028314746812766207   -0.0008779549692845807
-0.006193528991997437   -0.02611824887030282   -0.0008174084452678905
-0.004830110748635471   -0.02627896173131158   -0.0008327070983936294
-0.004948467425923109   -0.02820384873100261   -0.0010230745527246446
-0.0038796019394897858   -0.028314746812766207   -0.0008779549692845807
-0.004810775351055074   -0.026248216529396688   -0.0007770116090564979
-0.004813356067227503   -0.028169093442013488   -0.0009209288845429492
-0.0038224565489979084   -0.028301661246410544   -0.0008105763355449759
-0.004810775351055074   -0.026248216529396688   -0.0007770116090564979
-0.006193528991997437   -0.02611824887030282   -0.0008174084452678905
-0.004813356067227503   -0.028169093442013488   -0.0009209288845429492
-0.006106565466528487   -0.026104091951922977   -0.000725745480245469
-0.0038224565489979084   -0.028301661246410544   -0.0008105763355449759
-0.004692688160971856   -0.028156989803592297   -0.0008130377432594358
-0.006106565466528487   -0.026104091951922977   -0.000725745480245469
-0.004813356067227503   -0.028169093442013488   -0.0009209288845429492
-0.0038224565489979084   -0.028301661246410544   -0.0008105763355449759
-0.006106565466528487   -0.026104091951922977   -0.000725745480245469
-0.00477791231969071   -0.026232673456091787   -0.0007186702121930961
-0.004810775351055074   -0.026248216529396688   -0.0007770116090564979
-0.0038224565489979084   -0.028301661246410544   -0.0008105763355449759
-0.006106565466528487   -0.026104091951922977   -0.000725745480245469
-0.004810775351055074   -0.026248216529396688   -0.0007770116090564979
-0.004813356067227503   -0.028169093442013488   -0.0009209288845429492
-0.0038224565489979084   -0.028301661246410544   -0.0008105763355449759
-0.00477791231969071   -0.026232673456091787   -0.0007186702121930961
-0.004692688160971856   -0.028156989803592297   -0.0008130377432594358
-0.0037728249462633265   -0.028307310682008296   -0.0007386358514335251
-0.00477791231969071   -0.026232673456091787   -0.0007186702121930961
-0.006106565466528487   -0.026104091951922977   -0.000725745480245469
-0.004692688160971856   -0.028156989803592297   -0.0008130377432594358
-0.005989523421642134   -0.026114409575905953   -0.0006302793881418567
-0.0037728249462633265   -0.028307310682008296   -0.0007386358514335251
-0.004536353039561714   -0.028173925593480482   -0.0007004089844734065
-0.005989523421642134   -0.026114409575905953   -0.0006302793881418567
-0.004692688160971856   -0.028156989803592297   -0.0008130377432594358
-0.0037728249462633265   -0.028307310682008296   -0.0007386358514335251
-0.005989523421642134   -0.026114409575905953   -0.0006302793881418567
-0.004751395109425603   -0.026233188985661657   -0.0006568431033095088
-0.00477791231969071   -0.026232673456091787   -0.0007186702121930961
-0.0037728249462633265   -0.028307310682008296   -0.0007386358514335251
-0.005989523421642134   -0.026114409575905953   -0.0006302793881418567
-0.00477791231969071   -0.026232673456091787   -0.0007186702121930961
-0.004692688160971856   -0.028156989803592297   -0.0008130377432594358
9.753768216535522e-05   -0.026331400549588914   -0.0004574286166323046
0.0008795857559967594   -0.023579967482627924   -0.0003482585350210474
-0.001158369649519944   -0.02639468049389107   -0.0005739886613528834
0.0001799062152457302   -0.026272360671971185   -0.0005247538853212607
0.0008795857559967594   -0.023579967482627924   -0.0003482585350210474
-0.0007907713150992675   -0.023622259244037474   -0.0004595894429856687
-0.001158369649519944   -0.02639468049389107   -0.0005739886613528834
-0.0007860254317229443   -0.023573450203103977   -0.00048023858040910627
0.0001799062152457302   -0.026272360671971185   -0.0005247538853212607
-0.0011367701332992742   -0.02634561647869391   -0.000603473973107984
-0.0007860254317229443   -0.023573450203103977   -0.00048023858040910627
-0.001158369649519944   -0.02639468049389107   -0.0005739886613528834
0.0001799062152457302   -0.026272360671971185   -0.0005247538853212607
-0.0007860254317229443   -0.023573450203103977   -0.00048023858040910627
0.0009293020358627982   -0.0235222915787365   -0.00039851111347196977
0.0008795857559967594   -0.023579967482627924   -0.0003482585350210474
0.0001799062152457302   -0.026272360671971185   -0.0005247538853212607
-0.0007860254317229443   -0.023573450203103977   -0.00048023858040910627
0.0008795857559967594   -0.023579967482627924   -0.0003482585350210474
-0.001158369649519944   -0.02639468049389107   -0.0005739886613528834
0.0001799062152457302   -0.026272360671971185   -0.0005247538853212607
0.0009293020358627982   -0.0235222915787365   -0.00039851111347196977
-0.0011367701332992742   -0.02634561647869391   -0.000603473973107984
0.00024057477424795055   -0.02623893895522649   -0.0005873984157185421
0.0009293020358627982   -0.0235222915787365   -0.00039851111347196977
-0.0007860254317229443   -0.023573450203103977   -0.00048023858040910627
-0.0011367701332992742   -0.02634561647869391   -0.000603473973107984
-0.000779948336080064   -0.023538640242388373   -0.0004978097857383303
0.00024057477424795055   -0.02623893895522649   -0.0005873984157185421
-0.0011120481304501737   -0.026314168612529523   -0.000629615607311169
-0.000779948336080064   -0.023538640242388373   -0.0004978097857383303
-0.0011367701332992742   -0.02634561647869391   -0.000603473973107984
0.00024057477424795055   -0.02623893895522649   -0.0005873984157185421
-0.000779948336080064   -0.023538640242388373   -0.0004978097857383303
0.0009613002607819103   -0.0234851384802303   -0.0004444089393248917
0.0009293020358627982   -0.0235222915787365   -0.00039851111347196977
0.00024057477424795055   -0.02623893895522649   -0.0005873984157185421
-0.000779948336080064   -0.023538640242388373   -0.0004978097857383303
0.0009293020358627982   -0.0235222915787365   -0.00039851111347196977
-0.0011367701332992742   -0.02634561647869391   -0.000603473973107984
0.00024057477424795055   -0.02623893895522649   -0.0005873984157185421
0.0009613002607819103   -0.0234851384802303   -0.0004444089393248917
-0.0011120481304501737   -0.026314168612529523   -0.000629615607311169
0.0003058666337326754   -0.026223512149713548   -0.0006453449947969965
0.0009613002607819103   -0.0234851384802303   -0.0004444089393248917
-0.000779948336080064   -0.023538640242388373   -0.0004978097857383303
-0.0011120481304501737   -0.026314168612529523   -0.000629615607311169
-0.0007823928658856762   -0.023516683303226437   -0.0005125267111785232
0.0003058666337326754   -0.026223512149713548   -0.0006453449947969965
-0.0010972525716215252   -0.026299385486346628   -0.0006527445619434757
-0.0007823928658856762   -0.023516683303226437   -0.0005125267111785232
-0.0011120481304501737   -0.026314168612529523   -0.000629615607311169
0.0003058666337326754   -0.026223512149713548   -0.0006453449947969965
-0.0007823928658856762   -0.023516683303226437   -0.0005125267111785232
0.0009944798538496723   -0.023461110671023487   -0.00048604808633324144
0.0009613002607819103   -0.0234851384802303   -0.0004444089393248917
0.0003058666337326754   -0.026223512149713548   -0.0006453449947969965
-0.0007823928658856762   -0.023516683303226437   -0.0005125267111785232
0.0009613002607819103   -0.0234851384802303   -0.0004444089393248917
-0.0011120481304501737   -0.026314168612529523   -0.000629615607311169
-0.001158369649519944   -0.02639468049389107   -0.0005739886613528834
-0.0007907713150992675   -0.023622259244037474   -0.0004595894429856687
-0.0023757620429061058   -0.026406844854537394   -0.0006696569300437733
-0.0011367701332992742   -0.02634561647869391   -0.000603473973107984
-0.0007907713150992675   -0.023622259244037474   -0.0004595894429856687
-0.002400124240224203   -0.023622723936934147   -0.0005509345271226436
-0.0023757620429061058   -0.026406844854537394   -0.0006696569300437733
-0.002400207121839952   -0.023581582606652808   -0.000548972257688271
-0.0011367701332992742   -0.02634561647869391   -0.000603473973107984
-0.0023599763357555897   -0.02636481591312606   -0.0006703093531027393
-0.002400207121839952   -0.023581582606652808   -0.000548972257688271
-0.0023757620429061058   -0.026406844854537394   -0.0006696569300437733
-0.0011367701332992742   -0.02634561647869391   -0.000603473973107984
-0.002400207121839952   -0.023581582606652808   -0.000548972257688271
-0.0007860254317229443   -0.023573450203103977   -0.00048023858040910627
-0.0007907713150992675   -0.023622259244037474   -0.0004595894429856687
-0.0011367701332992742   -0.02634561647869391   -0.000603473973107984
-0.002400207121839952   -0.023581582606652808   -0.000548972257688271
-0.0007907713150992675   -0.023622259244037474   -0.0004595894429856687
-0.0023757620429061058   -0.026406844854537394   -0.0006696569300437733
-0.0011367701332992742   -0.02634561647869391   -0.000603473973107984
-0.0007860254317229443   -0.023573450203103977   -0.00048023858040910627
-0.0023599763357555897   -0.02636481591312606   -0.0006703093531027393
-0.0011120481304501737   -0.026314168612529523   -0.000629615607311169
-0.0007860254317229443   -0.023573450203103977   -0.00048023858040910627
-0.002400207121839952   -0.023581582606652808   -0.000548972257688271
-0.0023599763357555897   -0.02636481591312606   -0.0006703093531027393
-0.0024001740621415746   -0.023552773898272872   -0.0005439384558059666
-0.0011120481304501737   -0.026314168612529523   -0.000629615607311169
-0.0023437273243481437   -0.02633854514853486   -0.0006677531016909678
-0.0024001740621415746   -0.023552773898272872   -0.0005439384558059666
-0.0023599763357555897   -0.02636481591312606   -0.0006703093531027393
-0.0011120481304501737   -0.026314168612529523   -0.000629615607311169
-0.0024001740621415746   -0.023552773898272872   -0.0005439384558059666
-0.000779948336080064   -0.023538640242388373   -0.0004978097857383303
-0.0007860254317229443   -0.023573450203103977   -0.00048023858040910627
-0.0011120481304501737   -0.026314168612529523   -0.000629615607311169
-0.0024001740621415746   -0.023552773898272872   -0.0005439384558059666
-0.0007860254317229443   -0.023573450203103977   -0.00048023858040910627
-0.0023599763357555897   -0.02636481591312606   -0.0006703093531027393
-0.0011120481304501737   -0.026314168612529523   -0.000629615607311169
-0.000779948336080064   -0.023538640242388373   -0.0004978097857383303
-0.0023437273243481437   -0.02633854514853486   -0.0006677531016909678
-0.0010972525716215252   -0.026299385486346628   -0.0006527445619434757
-0.000779948336080064   -0.023538640242388373   -0.0004978097857383303
-0.0024001740621415746   -0.023552773898272872   -0.0005439384558059666
-0.0023437273243481437   -0.02633854514853486   -0.0006677531016909678
-0.00240227824163665   -0.023536321959716083   -0.0005359997512690214
-0.0010972525716215252   -0.026299385486346628   -0.0006527445619434757
-0.0023295216138780224   -0.0263277871955675   -0.0006622097591503112
-0.00240227824163665   -0.023536321959716083   -0.0005359997512690214
-0.0023437273243481437   -0.02633854514853486   -0.0006677531016909678
-0.0010972525716215252   -0.026299385486346628   -0.0006527445619434757
-0.00240227824163665   -0.023536321959716083   -0.0005359997512690214
-0.0007823928658856762   -0.023516683303226437   -0.0005125267111785232
-0.000779948336080064   -0.023538640242388373   -0.0004978097857383303
-0.0010972525716215252   -0.026299385486346628   -0.0006527445619434757
-0.00240227824163665   -0.023536321959716083   -0.0005359997512690214
-0.000779948336080064   -0.023538640242388373   -0.0004978097857383303
-0.0023437273243481437   -0.02633854514853486   -0.0006677531016909678
-0.0023757620429061058   -0.026406844854537394   -0.0006696569300437733
-0.002400124240224203   -0.023622723936934147   -0.0005509345271226436
-0.0035745338947183315   -0.026367834936223623   -0.0007559758971796823
-0.0023599763357555897   -0.02636481591312606   -0.0006703093531027393
-0.002400124240224203   -0.023622723936934147   -0.0005509345271226436
-0.003982623493460694   -0.023582475082807548   -0.0006308016354647627
-0.0035745338947183315   -0.026367834936223623   -0.0007559758971796823
-0.003983914368640715   -0.023548023316070577   -0.0006065070635919684
-0.0023599763357555897   -0.02636481591312606   -0.0006703093531027393
-0.0035598467352409586   -0.02633160362535014   -0.0007284841822468941
-0.003983914368640715   -0.023548023316070577   -0.0006065070635919684
-0.0035745338947183315   -0.026367834936223623   -0.0007559758971796823
-0.0023599763357555897   -0.02636481591312606   -0.0006703093531027393
-0.003983914368640715   -0.023548023316070577   -0.0006065070635919684
-0.002400207121839952   -0.023581582606652808   -0.000548972257688271
-0.002400124240224203   -0.023622723936934147   -0.0005509345271226436
-0.0023599763357555897   -0.02636481591312606   -0.0006703093531027393
-0.003983914368640715   -0.023548023316070577   -0.0006065070635919684
-0.002400124240224203   -0.023622723936934147   -0.0005509345271226436
-0.0035745338947183315   -0.026367834936223623   -0.0007559758971796823
-0.0023599763357555897   -0.02636481591312606   -0.0006703093531027393
-0.002400207121839952   -0.023581582606652808   -0.000548972257688271
-0.0035598467352409586   -0.02633160362535014   -0.0007284841822468941
-0.0023437273243481437   -0.02633854514853486   -0.0006677531016909678
-0.002400207121839952   -0.023581582606652808   -0.000548972257688271
-0.003983914368640715   -0.023548023316070577   -0.0006065070635919684
-0.0035598467352409586   -0.02633160362535014   -0.0007284841822468941
-0.003982521286228188   -0.023525795761366017   -0.0005792044191955519
-0.0023437273243481437   -0.02633854514853486   -0.0006677531016909678
-0.0035420896799350098   -0.026310959802831626   -0.0006978578220337336
-0.003982521286228188   -0.023525795761366017   -0.0005792044191955519
-0.0035598467352409586   -0.02633160362535014   -0.0007284841822468941
-0.0023437273243481437   -0.02633854514853486   -0.0006677531016909678
-0.003982521286228188   -0.023525795761366017   -0.0005792044191955519
-0.0024001740621415746   -0.023552773898272872   -0.0005439384558059666
-0.002400207121839952   -0.023581582606652808   -0.000548972257688271
-0.0023437273243481437   -0.02633854514853486   -0.0006677531016909678
-0.003982521286228188   -0.023525795761366017   -0.0005792044191955519
-0.002400207121839952   -0.023581582606652808   -0.000548972257688271
-0.0035598467352409586   -0.02633160362535014   -0.0007284841822468941
-0.0023437273243481437   -0.02633854514853486   -0.0006677531016909678
-0.0024001740621415746   -0.023552773898272872   -0.0005439384558059666
-0.0035420896799350098   -0.026310959802831626   -0.0006978578220337336
-0.0023295216138780224   -0.0263277871955675   -0.0006622097591503112
-0.0024001740621415746   -0.023552773898272872   -0.0005439384558059666
-0.003982521286228188   -0.023525795761366017   -0.0005792044191955519
-0.0035420896799350098   -0.026310959802831626   -0.0006978578220337336
-0.003981629367987723   -0.023515585086690736   -0.0005489795346375215
-0.0023295216138780224   -0.0263277871955675   -0.0006622097591503112
-0.003524852245073241   -0.02630520695312653   -0.0006641922719225499
-0.003981629367987723   -0.023515585086690736   -0.0005489795346375215
-0.0035420896799350098   -0.026310959802831626   -0.0006978578220337336
-0.0023295216138780224   -0.0263277871955675   -0.0006622097591503112
-0.003981629367987723   -0.023515585086690736   -0.0005489795346375215
-0.00240227824163665   -0.023536321959716083   -0.0005359997512690214
-0.0024001740621415746   -0.023552773898272872   -0.0005439384558059666
-0.0023295216138780224   -0.0263277871955675   -0.0006622097591503112
-0.003981629367987723   -0.023515585086690736   -0.0005489795346375215
-0.0024001740621415746   -0.023552773898272872   -0.0005439384558059666
-0.0035420896799350098   -0.026310959802831626   -0.0006978578220337336
-0.0035745338947183315   -0.026367834936223623   -0.0007559758971796823
-0.003982623493460694   -0.023582475082807548   -0.0006308016354647627
-0.004830110748635471   -0.02627896173131158   -0.0008327070983936294
-0.0035598467352409586   -0.02633160362535014   -0.0007284841822468941
-0.003982623493460694   -0.023582475082807548   -0.0006308016354647627
-0.0056141323275613365   -0.023502978146103876   -0.0006994110571422719
-0.004830110748635471   -0.02627896173131158   -0.0008327070983936294
-0.0056120099664867425   -0.02347489154503522   -0.0006525087754602763
-0.0035598467352409586   -0.02633160362535014   -0.0007284841822468941
-0.004810775351055074   -0.026248216529396688   -0.0007770116090564979
-0.0056120099664867425   -0.02347489154503522   -0.0006525087754602763
-0.004830110748635471   -0.02627896173131158   -0.0008327070983936294
-0.0035598467352409586   -0.02633160362535014   -0.0007284841822468941
-0.0056120099664867425   -0.02347489154503522   -0.0006525087754602763
-0.003983914368640715   -0.023548023316070577   -0.0006065070635919684
-0.003982623493460694   -0.023582475082807548   -0.0006308016354647627
-0.0035598467352409586   -0.02633160362535014   -0.0007284841822468941
-0.0056120099664867425   -0.02347489154503522   -0.0006525087754602763
-0.003982623493460694   -0.023582475082807548   -0.0006308016354647627
-0.004830110748635471   -0.02627896173131158   -0.0008327070983936294
-0.0035598467352409586   -0.02633160362535014   -0.0007284841822468941
-0.003983914368640715   -0.023548023316070577   -0.0006065070635919684
-0.004810775351055074   -0.026248216529396688   -0.0007770116090564979
-0.0035420896799350098   -0.026310959802831626   -0.0006978578220337336
-0.003983914368640715   -0.023548023316070577   -0.0006065070635919684
-0.0056120099664867425   -0.02347489154503522   -0.0006525087754602763
-0.004810775351055074   -0.026248216529396688   -0.0007770116090564979
-0.005598063280107424   -0.02345863341375831   -0.0006030544188935081
-0.0035420896799350098   -0.026310959802831626   -0.0006978578220337336
-0.00477791231969071   -0.026232673456091787   -0.0007186702121930961
-0.005598063280107424   -0.02345863341375831   -0.0006030544188935081
-0.004810775351055074   -0.026248216529396688   -0.0007770116090564979
-0.0035420896799350098   -0.026310959802831626   -0.0006978578220337336
-0.005598063280107424   -0.02345863341375831   -0.0006030544188935081
-0.003982521286228188   -0.023525795761366017   -0.0005792044191955519
-0.003983914368640715   -0.023548023316070577   -0.0006065070635919684
-0.0035420896799350098   -0.026310959802831626   -0.0006978578220337336
-0.005598063280107424   -0.02345863341375831   -0.0006030544188935081
-0.003983914368640715   -0.023548023316070577   -0.0006065070635919684
-0.004810775351055074   -0.026248216529396688   -0.0007770116090564979
-0.0035420896799350098   -0.026310959802831626   -0.0006978578220337336
-0.003982521286228188   -0.023525795761366017   -0.0005792044191955519
-0.00477791231969071   -0.026232673456091787   -0.0007186702121930961
-0.003524852245073241   -0.02630520695312653   -0.0006641922719225499
-0.003982521286228188   -0.023525795761366017   -0.0005792044191955519
-0.005598063280107424   -0.02345863341375831   -0.0006030544188935081
-0.00477791231969071   -0.026232673456091787   -0.0007186702121930961
-0.0055888038061284555   -0.023455409706648684   -0.0005504388919584522
-0.003524852245073241   -0.02630520695312653   -0.0006641922719225499
-0.004751395109425603   -0.026233188985661657   -0.0006568431033095088
-0.0055888038061284555   -0.023455409706648684   -0.0005504388919584522
-0.00477791231969071   -0.026232673456091787   -0.0007186702121930961
-0.003524852245073241   -0.02630520695312653   -0.0006641922719225499
-0.0055888038061284555   -0.023455409706648684   -0.0005504388919584522
-0.003981629367987723   -0.023515585086690736   -0.0005489795346375215
-0.003982521286228188   -0.023525795761366017   -0.0005792044191955519
-0.003524852245073241   -0.02630520695312653   -0.0006641922719225499
-0.0055888038061284555   -0.023455409706648684   -0.0005504388919584522
-0.003982521286228188   -0.023525795761366017   -0.0005792044191955519
-0.00477791231969071   -0.026232673456091787   -0.0007186702121930961
-0.004830110748635471   -0.02627896173131158   -0.0008327070983936294
-0.0056141323275613365   -0.023502978146103876   -0.0006994110571422719
-0.006294052226229428   -0.02615051446419688   -0.0009046881154219894
-0.004810775351055074   -0.026248216529396688   -0.0007770116090564979
-0.0056141323275613365   -0.023502978146103876   -0.0006994110571422719
-0.007436622459516248   -0.02339291172727894   -0.0007615226162128319
-0.006294052226229428   -0.02615051446419688   -0.0009046881154219894
-0.0073671109641759635   -0.0233652265046015   -0.0006896257193654517
-0.004810775351055074   -0.026248216529396688   -0.0007770116090564979
-0.006193528991997437   -0.02611824887030282   -0.0008174084452678905
-0.0073671109641759635   -0.0233652265046015   -0.0006896257193654517
-0.006294052226229428   -0.02615051446419688   -0.0009046881154219894
-0.004810775351055074   -0.026248216529396688   -0.0007770116090564979
-0.0073671109641759635   -0.0233652265046015   -0.0006896257193654517
-0.0056120099664867425   -0.02347489154503522   -0.0006525087754602763
-0.0056141323275613365   -0.023502978146103876   -0.0006994110571422719
-0.004810775351055074   -0.026248216529396688   -0.0007770116090564979
-0.0073671109641759635   -0.0233652265046015   -0.0006896257193654517
-0.0056141323275613365   -0.023502978146103876   -0.0006994110571422719
-0.006294052226229428   -0.02615051446419688   -0.0009046881154219894
-0.004810775351055074   -0.026248216529396688   -0.0007770116090564979
-0.0056120099664867425   -0.02347489154503522   -0.0006525087754602763
-0.006193528991997437   -0.02611824887030282   -0.0008174084452678905
-0.00477791231969071   -0.026232673456091787   -0.0007186702121930961
-0.0056120099664867425   -0.02347489154503522   -0.0006525087754602763
-0.0073671109641759635   -0.0233652265046015   -0.0006896257193654517
-0.006193528991997437   -0.02611824887030282   -0.0008174084452678905
-0.007307842473302516   -0.023351153609744633   -0.0006134224892306578
-0.00477791231969071   -0.026232673456091787   -0.0007186702121930961
-0.006106565466528487   -0.026104091951922977   -0.000725745480245469
-0.007307842473302516   -0.023351153609744633   -0.0006134224892306578
-0.006193528991997437   -0.02611824887030282   -0.0008174084452678905
-0.00477791231969071   -0.026232673456091787   -0.0007186702121930961
-0.007307842473302516   -0.023351153609744633   -0.0006134224892306578
-0.005598063280107424   -0.02345863341375831   -0.0006030544188935081
-0.0056120099664867425   -0.02347489154503522   -0.0006525087754602763
-0.00477791231969071   -0.026232673456091787   -0.0007186702121930961
-0.007307842473302516   -0.023351153609744633   -0.0006134224892306578
-0.0056120099664867425   -0.02347489154503522   -0.0006525087754602763
-0.006193528991997437   -0.02611824887030282   -0.0008174084452678905
-0.00477791231969071   -0.026232673456091787   -0.0007186702121930961
-0.005598063280107424   -0.02345863341375831   -0.0006030544188935081
-0.006106565466528487   -0.026104091951922977   -0.000725745480245469
-0.004751395109425603   -0.026233188985661657   -0.0006568431033095088
-0.005598063280107424   -0.02345863341375831   -0.0006030544188935081
-0.007307842473302516   -0.023351153609744633   -0.0006134224892306578
-0.006106565466528487   -0.026104091951922977   -0.000725745480245469
-0.007222554997791412   -0.023357688348926906   -0.00053351113327824
-0.004751395109425603   -0.026233188985661657   -0.0006568431033095088
-0.005989523421642134   -0.026114409575905953   -0.0006302793881418567
-0.007222554997791412   -0.023357688348926906   -0.00053351113327824
-0.006106565466528487   -0.026104091951922977   -0.000725745480245469
-0.004751395109425603   -0.026233188985661657   -0.0006568431033095088
-0.007222554997791412   -0.023357688348926906   -0.00053351113327824
-0.0055888038061284555   -0.023455409706648684   -0.0005504388919584522
-0.005598063280107424   -0.02345863341375831   -0.0006030544188935081
-0.004751395109425603   -0.026233188985661657   -0.0006568431033095088
-0.007222554997791412   -0.023357688348926906   -0.00053351113327824
-0.005598063280107424   -0.02345863341375831   -0.0006030544188935081
-0.006106565466528487   -0.026104091951922977   -0.000725745480245469
0.0008795857559967594   -0.023579967482627924   -0.0003482585350210474
0.0014244354986118677   -0.0202560459577848   -0.00023227950793122974
-0.0007907713150992675   -0.023622259244037474   -0.0004595894429856687
0.0009293020358627982   -0.0235222915787365   -0.00039851111347196977
0.0014244354986118677   -0.0202560459577848   -0.00023227950793122974
-0.0005643126635147313   -0.02027735531675209   -0.0003369776410986946
-0.0007907713150992675   -0.023622259244037474   -0.0004595894429856687
-0.0005731984537300489   -0.020229769306788305   -0.00034834093077711656
0.0009293020358627982   -0.0235222915787365   -0.00039851111347196977
-0.0007860254317229443   -0.023573450203103977   -0.00048023858040910627
-0.0005731984537300489   -0.020229769306788305   -0.00034834093077711656
-0.0007907713150992675   -0.023622259244037474   -0.0004595894429856687
0.0009293020358627982   -0.0235222915787365   -0.00039851111347196977
-0.0005731984537300489   -0.020229769306788305   -0.00034834093077711656
0.0014450368048320786   -0.020200472109559803   -0.0002656554859848568
0.0014244354986118677   -0.0202560459577848   -0.00023227950793122974
0.0009293020358627982   -0.0235222915787365   -0.00039851111347196977
-0.0005731984537300489   -0.020229769306788305   -0.00034834093077711656
0.0014244354986118677   -0.0202560459577848   -0.00023227950793122974
-0.0007907713150992675   -0.023622259244037474   -0.0004595894429856687
0.0009293020358627982   -0.0235222915787365   -0.00039851111347196977
0.0014450368048320786   -0.020200472109559803   -0.0002656554859848568
-0.0007860254317229443   -0.023573450203103977   -0.00048023858040910627
0.0009613002607819103   -0.0234851384802303   -0.0004444089393248917
0.0014450368048320786   -0.020200472109559803   -0.0002656554859848568
-0.0005731984537300489   -0.020229769306788305   -0.00034834093077711656
-0.0007860254317229443   -0.023573450203103977   -0.00048023858040910627
-0.0005824800755241445   -0.020192649253080175   -0.0003569334123992097
0.0009613002607819103   -0.0234851384802303   -0.0004444089393248917
-0.000779948336080064   -0.023538640242388373   -0.0004978097857383303
-0.0005824800755241445   -0.020192649253080175   -0.0003569334123992097
-0.0007860254317229443   -0.023573450203103977   -0.00048023858040910627
0.0009613002607819103   -0.0234851384802303   -0.0004444089393248917
-0.0005824800755241445   -0.020192649253080175   -0.0003569334123992097
0.001451992213200634   -0.020160632557513276   -0.00029493802598450634
0.0014450368048320786   -0.020200472109559803   -0.0002656554859848568
0.0009613002607819103   -0.0234851384802303   -0.0004444089393248917
-0.0005824800755241445   -0.020192649253080175   -0.0003569334123992097
0.0014450368048320786   -0.020200472109559803   -0.0002656554859848568
-0.0007860254317229443   -0.023573450203103977   -0.00048023858040910627
0.0009613002607819103   -0.0234851384802303   -0.0004444089393248917
0.001451992213200634   -0.020160632557513276   -0.00029493802598450634
-0.000779948336080064   -0.023538640242388373   -0.0004978097857383303
0.0009944798538496723   -0.023461110671023487   -0.00048604808633324144
0.001451992213200634   -0.020160632557513276   -0.00029493802598450634
-0.0005824800755241445   -0.020192649253080175   -0.0003569334123992097
-0.000779948336080064   -0.023538640242388373   -0.0004978097857383303
-0.0005987125594922628   -0.020164790643014484   -0.0003628474887833223
0.0009944798538496723   -0.023461110671023487   -0.00048604808633324144
-0.0007823928658856762   -0.023516683303226437   -0.0005125267111785232
-0.0005987125594922628   -0.020164790643014484   -0.0003628474887833223
-0.000779948336080064   -0.023538640242388373   -0.0004978097857383303
0.0009944798538496723   -0.023461110671023487   -0.00048604808633324144
-0.0005987125594922628   -0.020164790643014484   -0.0003628474887833223
0.0014566836484553897   -0.02012927637629203   -0.0003203237475569744
0.001451992213200634   -0.020160632557513276   -0.00029493802598450634
0.0009944798538496723   -0.023461110671023487   -0.00048604808633324144
-0.0005987125594922628   -0.020164790643014484   -0.0003628474887833223
0.001451992213200634   -0.020160632557513276   -0.00029493802598450634
-0.000779948336080064   -0.023538640242388373   -0.0004978097857383303
-0.0007907713150992675   -0.023622259244037474   -0.0004595894429856687
-0.0005643126635147313   -0.02027735531675209   -0.0003369776410986946
-0.002400124240224203   -0.023622723936934147   -0.0005509345271226436
-0.0007860254317229443   -0.023573450203103977   -0.00048023858040910627
-0.0005643126635147313   -0.02027735531675209   -0.0003369776410986946
-0.002471991152447205   -0.020267084434257624   -0.0004226296724362832
-0.002400124240224203   -0.023622723936934147   -0.0005509345271226436
-0.0024846207706501664   -0.02022753132727863   -0.00041750549893600057
-0.0007860254317229443   -0.023573450203103977   -0.00048023858040910627
-0.002400207121839952   -0.023581582606652808   -0.000548972257688271
-0.0024846207706501664   -0.02022753132727863   -0.00041750549893600057
-0.002400124240224203   -0.023622723936934147   -0.0005509345271226436
-0.0007860254317229443   -0.023573450203103977   -0.00048023858040910627
-0.0024846207706501664   -0.02022753132727863   -0.00041750549893600057
-0.0005731984537300489   -0.020229769306788305   -0.00034834093077711656
-0.0005643126635147313   -0.02027735531675209   -0.0003369776410986946
-0.0007860254317229443   -0.023573450203103977   -0.00048023858040910627
-0.0024846207706501664   -0.02022753132727863   -0.00041750549893600057
-0.0005643126635147313   -0.02027735531675209   -0.0003369776410986946
-0.002400124240224203   -0.023622723936934147   -0.0005509345271226436
-0.0007860254317229443   -0.023573450203103977   -0.00048023858040910627
-0.0005731984537300489   -0.020229769306788305   -0.00034834093077711656
-0.002400207121839952   -0.023581582606652808   -0.000548972257688271
-0.000779948336080064   -0.023538640242388373   -0.0004978097857383303
-0.0005731984537300489   -0.020229769306788305   -0.00034834093077711656
-0.0024846207706501664   -0.02022753132727863   -0.00041750549893600057
-0.002400207121839952   -0.023581582606652808   -0.000548972257688271
-0.0024974267010698086   -0.020196943999542992   -0.00040952347647697177
-0.000779948336080064   -0.023538640242388373   -0.0004978097857383303
-0.0024001740621415746   -0.023552773898272872   -0.0005439384558059666
-0.0024974267010698086   -0.020196943999542992   -0.00040952347647697177
-0.002400207121839952   -0.023581582606652808   -0.000548972257688271
-0.000779948336080064   -0.023538640242388373   -0.0004978097857383303
-0.0024974267010698086   -0.020196943999542992   -0.00040952347647697177
-0.0005824800755241445   -0.020192649253080175   -0.0003569334123992097
-0.0005731984537300489   -0.020229769306788305   -0.00034834093077711656
-0.000779948336080064   -0.023538640242388373   -0.0004978097857383303
-0.0024974267010698086   -0.020196943999542992   -0.00040952347647697177
-0.0005731984537300489   -0.020229769306788305   -0.00034834093077711656
-0.002400207121839952   -0.023581582606652808   -0.000548972257688271
-0.000779948336080064   -0.023538640242388373   -0.0004978097857383303
-0.0005824800755241445   -0.020192649253080175   -0.0003569334123992097
-0.0024001740621415746   -0.023552773898272872   -0.0005439384558059666
-0.0007823928658856762   -0.023516683303226437   -0.0005125267111785232
-0.0005824800755241445   -0.020192649253080175   -0.0003569334123992097
-0.0024974267010698086   -0.020196943999542992   -0.00040952347647697177
-0.0024001740621415746   -0.023552773898272872   -0.0005439384558059666
-0.0025122702641733503   -0.02017547191953462   -0.00039882816959937637
-0.0007823928658856762   -0.023516683303226437   -0.0005125267111785232
-0.00240227824163665   -0.023536321959716083   -0.0005359997512690214
-0.0025122702641733503   -0.02017547191953462   -0.00039882816959937637
-0.0024001740621415746   -0.023552773898272872   -0.0005439384558059666
-0.0007823928658856762   -0.023516683303226437   -0.0005125267111785232
-0.0025122702641733503   -0.02017547191953462   -0.00039882816959937637
-0.0005987125594922628   -0.020164790643014484   -0.0003628474887833223
-0.0005824800755241445   -0.020192649253080175   -0.0003569334123992097
-0.0007823928658856762   -0.023516683303226437   -0.0005125267111785232
-0.0025122702641733503   -0.02017547191953462   -0.00039882816959937637
-0.0005824800755241445   -0.020192649253080175   -0.0003569334123992097
-0.0024001740621415746   -0.023552773898272872   -0.0005439384558059666
-0.002400124240224203   -0.023622723936934147   -0.0005509345271226436
-0.002471991152447205   -0.020267084434257624   -0.0004226296724362832
-0.003982623493460694   -0.023582475082807548   -0.0006308016354647627
-0.002400207121839952   -0.023581582606652808   -0.000548972257688271
-0.002471991152447205   -0.020267084434257624   -0.0004226296724362832
-0.004347732161644458   -0.020227338635613483   -0.0004956575125906078
-0.003982623493460694   -0.023582475082807548   -0.0006308016354647627
-0.004361425101500433   -0.02019504005623978   -0.00047413918700967076
-0.002400207121839952   -0.023581582606652808   -0.000548972257688271
-0.003983914368640715   -0.023548023316070577   -0.0006065070635919684
-0.004361425101500433   -0.02019504005623978   -0.00047413918700967076
-0.003982623493460694   -0.023582475082807548   -0.0006308016354647627
-0.002400207121839952   -0.023581582606652808   -0.000548972257688271
-0.004361425101500433   -0.02019504005623978   -0.00047413918700967076
-0.0024846207706501664   -0.02022753132727863   -0.00041750549893600057
-0.002471991152447205   -0.020267084434257624   -0.0004226296724362832
-0.002400207121839952   -0.023581582606652808   -0.000548972257688271
-0.004361425101500433   -0.02019504005623978   -0.00047413918700967076
-0.002471991152447205   -0.020267084434257624   -0.0004226296724362832
-0.003982623493460694   -0.023582475082807548   -0.0006308016354647627
-0.002400207121839952   -0.023581582606652808   -0.000548972257688271
-0.0024846207706501664   -0.02022753132727863   -0.00041750549893600057
-0.003983914368640715   -0.023548023316070577   -0.0006065070635919684
-0.0024001740621415746   -0.023552773898272872   -0.0005439384558059666
-0.0024846207706501664   -0.02022753132727863   -0.00041750549893600057
-0.004361425101500433   -0.02019504005623978   -0.00047413918700967076
-0.003983914368640715   -0.023548023316070577   -0.0006065070635919684
-0.004372722806327554   -0.020171622618677006   -0.0004498167898225648
-0.0024001740621415746   -0.023552773898272872   -0.0005439384558059666
-0.003982521286228188   -0.023525795761366017   -0.0005792044191955519
-0.004372722806327554   -0.020171622618677006   -0.0004498167898225648
-0.003983914368640715   -0.023548023316070577   -0.0006065070635919684
-0.0024001740621415746   -0.023552773898272872   -0.0005439384558059666
-0.004372722806327554   -0.020171622618677006   -0.0004498167898225648
-0.0024974267010698086   -0.020196943999542992   -0.00040952347647697177
-0.0024846207706501664   -0.02022753132727863   -0.00041750549893600057
-0.0024001740621415746   -0.023552773898272872   -0.0005439384558059666
-0.004372722806327554   -0.020171622618677006   -0.0004498167898225648
-0.0024846207706501664   -0.02022753132727863   -0.00041750549893600057
-0.003983914368640715   -0.023548023316070577   -0.0006065070635919684
-0.0024001740621415746   -0.023552773898272872   -0.0005439384558059666
-0.0024974267010698086   -0.020196943999542992   -0.00040952347647697177
-0.003982521286228188   -0.023525795761366017   -0.0005792044191955519
-0.00240227824163665   -0.023536321959716083   -0.0005359997512690214
-0.0024974267010698086   -0.020196943999542992   -0.00040952347647697177
-0.004372722806327554   -0.020171622618677006   -0.0004498167898225648
-0.003982521286228188   -0.023525795761366017   -0.0005792044191955519
-0.004384364396677175   -0.020157046745615543   -0.0004227707250616042
-0.00240227824163665   -0.023536321959716083   -0.0005359997512690214
-0.003981629367987723   -0.023515585086690736   -0.0005489795346375215
-0.004384364396677175   -0.020157046745615543   -0.0004227707250616042
-0.003982521286228188   -0.023525795761366017   -0.0005792044191955519
-0.00240227824163665   -0.023536321959716083   -0.0005359997512690214
-0.004384364396677175   -0.020157046745615543   -0.0004227707250616042
-0.0025122702641733503   -0.02017547191953462   -0.00039882816959937637
-0.0024974267010698086   -0.020196943999542992   -0.00040952347647697177
-0.00240227824163665   -0.023536321959716083   -0.0005359997512690214
-0.004384364396677175   -0.020157046745615543   -0.0004227707250616042
-0.0024974267010698086   -0.020196943999542992   -0.00040952347647697177
-0.003982521286228188   -0.023525795761366017   -0.0005792044191955519
-0.003982623493460694   -0.023582475082807548   -0.0006308016354647627
-0.004347732161644458   -0.020227338635613483   -0.0004956575125906078
-0.0056141323275613365   -0.023502978146103876   -0.0006994110571422719
-0.003983914368640715   -0.023548023316070577   -0.0006065070635919684
-0.004347732161644458   -0.020227338635613483   -0.0004956575125906078
-0.006268050656413482   -0.020158884043986566   -0.0005563966373981985
-0.0056141323275613365   -0.023502978146103876   -0.0006994110571422719
-0.006279259778403148   -0.020133641043466613   -0.0005182544626299005
-0.003983914368640715   -0.023548023316070577   -0.0006065070635919684
-0.0056120099664867425   -0.02347489154503522   -0.0006525087754602763
-0.006279259778403148   -0.020133641043466613   -0.0005182544626299005
-0.0056141323275613365   -0.023502978146103876   -0.0006994110571422719
-0.003983914368640715   -0.023548023316070577   -0.0006065070635919684
-0.006279259778403148   -0.020133641043466613   -0.0005182544626299005
-0.004361425101500433   -0.02019504005623978   -0.00047413918700967076
-0.004347732161644458   -0.020227338635613483   -0.0004956575125906078
-0.003983914368640715   -0.023548023316070577   -0.0006065070635919684
-0.006279259778403148   -0.020133641043466613   -0.0005182544626299005
-0.004347732161644458   -0.020227338635613483   -0.0004956575125906078
-0.0056141323275613365   -0.023502978146103876   -0.0006994110571422719
-0.003983914368640715   -0.023548023316070577   -0.0006065070635919684
-0.004361425101500433   -0.02019504005623978   -0.00047413918700967076
-0.0056120099664867425   -0.02347489154503522   -0.0006525087754602763
-0.003982521286228188   -0.023525795761366017   -0.0005792044191955519
-0.004361425101500433   -0.02019504005623978   -0.00047413918700967076
-0.006279259778403148   -0.020133641043466613   -0.0005182544626299005
-0.0056120099664867425   -0.02347489154503522   -0.0006525087754602763
-0.006280290868994193   -0.02011678531123874   -0.000477695121165506
-0.003982521286228188   -0.023525795761366017   -0.0005792044191955519
-0.005598063280107424   -0.02345863341375831   -0.0006030544188935081
-0.006280290868994193   -0.02011678531123874   -0.000477695121165506
-0.0056120099664867425   -0.02347489154503522   -0.0006525087754602763
-0.003982521286228188   -0.023525795761366017   -0.0005792044191955519
-0.006280290868994193   -0.02011678531123874   -0.000477695121165506
-0.004372722806327554   -0.020171622618677006   -0.0004498167898225648
-0.004361425101500433   -0.02019504005623978   -0.00047413918700967076
-0.003982521286228188   -0.023525795761366017   -0.0005792044191955519
-0.006280290868994193   -0.02011678531123874   -0.000477695121165506
-0.004361425101500433   -0.02019504005623978   -0.00047413918700967076
-0.0056120099664867425   -0.02347489154503522   -0.0006525087754602763
-0.003982521286228188   -0.023525795761366017   -0.0005792044191955519
-0.004372722806327554   -0.020171622618677006   -0.0004498167898225648
-0.005598063280107424   -0.02345863341375831   -0.0006030544188935081
-0.003981629367987723   -0.023515585086690736   -0.0005489795346375215
-0.004372722806327554   -0.020171622618677006   -0.0004498167898225648
-0.006280290868994193   -0.02011678531123874   -0.000477695121165506
-0.005598063280107424   -0.02345863341375831   -0.0006030544188935081
-0.006284306769861362   -0.020109577317896345   -0.0004342032211841507
-0.003981629367987723   -0.023515585086690736   -0.0005489795346375215
-0.0055888038061284555   -0.023455409706648684   -0.0005504388919584522
-0.006284306769861362   -0.020109577317896345   -0.0004342032211841507
-0.005598063280107424   -0.02345863341375831   -0.0006030544188935081
-0.003981629367987723   -0.023515585086690736   -0.0005489795346375215
-0.006284306769861362   -0.020109577317896345   -0.0004342032211841507
-0.004384364396677175   -0.020157046745615543   -0.0004227707250616042
-0.004372722806327554   -0.020171622618677006   -0.0004498167898225648
-0.003981629367987723   -0.023515585086690736   -0.0005489795346375215
-0.006284306769861362   -0.020109577317896345   -0.0004342032211841507
-0.004372722806327554   -0.020171622618677006   -0.0004498167898225648
-0.005598063280107424   -0.02345863341375831   -0.0006030544188935081
-0.0056141323275613365   -0.023502978146103876   -0.0006994110571422719
-0.006268050656413482   -0.020158884043986566   -0.0005563966373981985
-0.007436622459516248   -0.02339291172727894   -0.0007615226162128319
-0.0056120099664867425   -0.02347489154503522   -0.0006525087754602763
-0.006268050656413482   -0.020158884043986566   -0.0005563966373981985
-0.00836281239413818   -0.020068607341880706   -0.0006083090975701099
-0.007436622459516248   -0.02339291172727894   -0.0007615226162128319
-0.00832128127254851   -0.02004554326490205   -0.000552438316451681
-0.0056120099664867425   -0.02347489154503522   -0.0006525087754602763
-0.0073671109641759635   -0.0233652265046015   -0.0006896257193654517
-0.00832128127254851   -0.02004554326490205   -0.000552438316451681
-0.007436622459516248   -0.02339291172727894   -0.0007615226162128319
-0.0056120099664867425   -0.02347489154503522   -0.0006525087754602763
-0.00832128127254851   -0.02004554326490205   -0.000552438316451681
-0.006279259778403148   -0.020133641043466613   -0.0005182544626299005
-0.006268050656413482   -0.020158884043986566   -0.0005563966373981985
-0.0056120099664867425   -0.02347489154503522   -0.0006525087754602763
-0.00832128127254851   -0.02004554326490205   -0.000552438316451681
-0.006268050656413482   -0.020158884043986566   -0.0005563966373981985
-0.007436622459516248   -0.02339291172727894   -0.0007615226162128319
-0.0056120099664867425   -0.02347489154503522   -0.0006525087754602763
-0.006279259778403148   -0.020133641043466613   -0.0005182544626299005
-0.0073671109641759635   -0.0233652265046015   -0.0006896257193654517
-0.005598063280107424   -0.02345863341375831   -0.0006030544188935081
-0.006279259778403148   -0.020133641043466613   -0.0005182544626299005
-0.00832128127254851   -0.02004554326490205   -0.000552438316451681
-0.0073671109641759635   -0.0233652265046015   -0.0006896257193654517
-0.008286354561193069   -0.020031476645919928   -0.0004923373870539421
-0.005598063280107424   -0.02345863341375831   -0.0006030544188935081
-0.007307842473302516   -0.023351153609744633   -0.0006134224892306578
-0.008286354561193069   -0.020031476645919928   -0.0004923373870539421
-0.0073671109641759635   -0.0233652265046015   -0.0006896257193654517
-0.005598063280107424   -0.02345863341375831   -0.0006030544188935081
-0.008286354561193069   -0.020031476645919928   -0.0004923373870539421
-0.006280290868994193   -0.02011678531123874   -0.000477695121165506
-0.006279259778403148   -0.020133641043466613   -0.0005182544626299005
-0.005598063280107424   -0.02345863341375831   -0.0006030544188935081
-0.008286354561193069   -0.020031476645919928   -0.0004923373870539421
-0.006279259778403148   -0.020133641043466613   -0.0005182544626299005
-0.0073671109641759635   -0.0233652265046015   -0.0006896257193654517
-0.005598063280107424   -0.02345863341375831   -0.0006030544188935081
-0.006280290868994193   -0.02011678531123874   -0.000477695121165506
-0.007307842473302516   -0.023351153609744633   -0.0006134224892306578
-0.0055888038061284555   -0.023455409706648684   -0.0005504388919584522
-0.006280290868994193   -0.02011678531123874   -0.000477695121165506
-0.008286354561193069   -0.020031476645919928   -0.0004923373870539421
-0.007307842473302516   -0.023351153609744633   -0.0006134224892306578
-0.008229241911956214   -0.020033726266398936   -0.00042853666080123375
-0.0055888038061284555   -0.023455409706648684   -0.0005504388919584522
-0.007222554997791412   -0.023357688348926906   -0.00053351113327824
-0.008229241911956214   -0.020033726266398936   -0.00042853666080123375
-0.007307842473302516   -0.023351153609744633   -0.0006134224892306578
-0.0055888038061284555   -0.023455409706648684   -0.0005504388919584522
-0.008229241911956214   -0.020033726266398936   -0.00042853666080123375
-0.006284306769861362   -0.020109577317896345   -0.0004342032211841507
-0.006280290868994193   -0.02011678531123874   -0.000477695121165506
-0.0055888038061284555   -0.023455409706648684   -0.0005504388919584522
-0.008229241911956214   -0.020033726266398936   -0.00042853666080123375
-0.006280290868994193   -0.02011678531123874   -0.000477695121165506
-0.007307842473302516   -0.023351153609744633   -0.0006134224892306578
0.0014244354986118677   -0.0202560459577848   -0.00023227950793122974
0.0017334722164186456   -0.016512925358774192   -0.00011918110886238727
-0.0005643126635147313   -0.02027735531675209   -0.0003369776410986946
0.0014450368048320786   -0.020200472109559803   -0.0002656554859848568
0.0017334722164186456   -0.016512925358774192   -0.00011918110886238727
-0.00048099807219004285   -0.01651329781107056   -0.00021608054284519266
-0.0005643126635147313   -0.02027735531675209   -0.0003369776410986946
-0.0005001834845644211   -0.016467350577192633   -0.0002179576357890031
0.0014450368048320786   -0.020200472109559803   -0.0002656554859848568
-0.0005731984537300489   -0.020229769306788305   -0.00034834093077711656
-0.0005001834845644211   -0.016467350577192633   -0.0002179576357890031
-0.0005643126635147313   -0.02027735531675209   -0.0003369776410986946
0.0014450368048320786   -0.020200472109559803   -0.0002656554859848568
-0.0005001834845644211   -0.016467350577192633   -0.0002179576357890031
0.0017285408428002428   -0.01645978306734936   -0.00013572475859371165
0.0017334722164186456   -0.016512925358774192   -0.00011918110886238727
0.0014450368048320786   -0.020200472109559803   -0.0002656554859848568
-0.0005001834845644211   -0.016467350577192633   -0.0002179576357890031
0.0017334722164186456   -0.016512925358774192   -0.00011918110886238727
-0.0005643126635147313   -0.02027735531675209   -0.0003369776410986946
0.0014450368048320786   -0.020200472109559803   -0.0002656554859848568
0.0017285408428002428   -0.01645978306734936   -0.00013572475859371165
-0.0005731984537300489   -0.020229769306788305   -0.00034834093077711656
0.001451992213200634   -0.020160632557513276   -0.00029493802598450634
0.0017285408428002428   -0.01645978306734936   -0.00013572475859371165
-0.0005001834845644211   -0.016467350577192633   -0.0002179576357890031
-0.0005731984537300489   -0.020229769306788305   -0.00034834093077711656
-0.0005215135048171842   -0.016428244542312367   -0.0002173549840772648
0.001451992213200634   -0.020160632557513276   -0.00029493802598450634
-0.0005824800755241445   -0.020192649253080175   -0.0003569334123992097
-0.0005215135048171842   -0.016428244542312367   -0.0002173549840772648
-0.0005731984537300489   -0.020229769306788305   -0.00034834093077711656
0.001451992213200634   -0.020160632557513276   -0.00029493802598450634
-0.0005215135048171842   -0.016428244542312367   -0.0002173549840772648
0.0017138261825023833   -0.016417617768360534   -0.0001482936518991982
0.0017285408428002428   -0.01645978306734936   -0.00013572475859371165
0.001451992213200634   -0.020160632557513276   -0.00029493802598450634
-0.0005215135048171842   -0.016428244542312367   -0.0002173549840772648
0.0017285408428002428   -0.01645978306734936   -0.00013572475859371165
-0.0005731984537300489   -0.020229769306788305   -0.00034834093077711656
0.001451992213200634   -0.020160632557513276   -0.00029493802598450634
0.0017138261825023833   -0.016417617768360534   -0.0001482936518991982
-0.0005824800755241445   -0.020192649253080175   -0.0003569334123992097
0.0014566836484553897   -0.02012927637629203   -0.0003203237475569744
0.0017138261825023833   -0.016417617768360534   -0.0001482936518991982
-0.0005215135048171842   -0.016428244542312367   -0.0002173549840772648
-0.0005824800755241445   -0.020192649253080175   -0.0003569334123992097
-0.0005482083510775592   -0.01639493090412932   -0.00021417482493990255
0.0014566836484553897   -0.02012927637629203   -0.0003203237475569744
-0.0005987125594922628   -0.020164790643014484   -0.0003628474887833223
-0.0005482083510775592   -0.01639493090412932   -0.00021417482493990255
-0.0005824800755241445   -0.020192649253080175   -0.0003569334123992097
0.0014566836484553897   -0.02012927637629203   -0.0003203237475569744
-0.0005482083510775592   -0.01639493090412932   -0.00021417482493990255
0.0016930676079104073   -0.01637928951348063   -0.0001571655987309379
0.0017138261825023833   -0.016417617768360534   -0.0001482936518991982
0.0014566836484553897   -0.02012927637629203   -0.0003203237475569744
-0.0005482083510775592   -0.01639493090412932   -0.00021417482493990255
0.0017138261825023833   -0.016417617768360534   -0.0001482936518991982
-0.0005824800755241445   -0.020192649253080175   -0.0003569334123992097
-0.0005643126635147313   -0.02027735531675209   -0.0003369776410986946
-0.00048099807219004285   -0.01651329781107056   -0.00021608054284519266
-0.002471991152447205   -0.020267084434257624   -0.0004226296724362832
-0.0005731984537300489   -0.020229769306788305   -0.00034834093077711656
-0.00048099807219004285   -0.01651329781107056   -0.00021608054284519266
-0.002593896884180495   -0.016493458706842535   -0.00029541213801170753
-0.002471991152447205   -0.020267084434257624   -0.0004226296724362832
-0.0026155990319989375   -0.016455584760568995   -0.0002868304214303197
-0.0005731984537300489   -0.020229769306788305   -0.00034834093077711656
-0.0024846207706501664   -0.02022753132727863   -0.00041750549893600057
-0.0026155990319989375   -0.016455584760568995   -0.0002868304214303197
-0.002471991152447205   -0.020267084434257624   -0.0004226296724362832
-0.0005731984537300489   -0.020229769306788305   -0.00034834093077711656
-0.0026155990319989375   -0.016455584760568995   -0.0002868304214303197
-0.0005001834845644211   -0.016467350577192633   -0.0002179576357890031
-0.00048099807219004285   -0.01651329781107056   -0.00021608054284519266
-0.0005731984537300489   -0.020229769306788305   -0.00034834093077711656
-0.0026155990319989375   -0.016455584760568995   -0.0002868304214303197
-0.00048099807219004285   -0.01651329781107056   -0.00021608054284519266
-0.002471991152447205   -0.020267084434257624   -0.0004226296724362832
-0.0005731984537300489   -0.020229769306788305   -0.00034834093077711656
-0.0005001834845644211   -0.016467350577192633   -0.0002179576357890031
-0.0024846207706501664   -0.02022753132727863   -0.00041750549893600057
-0.0005824800755241445   -0.020192649253080175   -0.0003569334123992097
-0.0005001834845644211   -0.016467350577192633   -0.0002179576357890031
-0.0026155990319989375   -0.016455584760568995   -0.0002868304214303197
-0.0024846207706501664   -0.02022753132727863   -0.00041750549893600057
-0.0026377527353441954   -0.01642327843712984   -0.00027565991358886264
-0.0005824800755241445   -0.020192649253080175   -0.0003569334123992097
-0.0024974267010698086   -0.020196943999542992   -0.00040952347647697177
-0.0026377527353441954   -0.01642327843712984   -0.00027565991358886264
-0.0024846207706501664   -0.02022753132727863   -0.00041750549893600057
-0.0005824800755241445   -0.020192649253080175   -0.0003569334123992097
-0.0026377527353441954   -0.01642327843712984   -0.00027565991358886264
-0.0005215135048171842   -0.016428244542312367   -0.0002173549840772648
-0.0005001834845644211   -0.016467350577192633   -0.0002179576357890031
-0.0005824800755241445   -0.020192649253080175   -0.0003569334123992097
-0.0026377527353441954   -0.01642327843712984   -0.00027565991358886264
-0.0005001834845644211   -0.016467350577192633   -0.0002179576357890031
-0.0024846207706501664   -0.02022753132727863   -0.00041750549893600057
-0.0005824800755241445   -0.020192649253080175   -0.0003569334123992097
-0.0005215135048171842   -0.016428244542312367   -0.0002173549840772648
-0.0024974267010698086   -0.020196943999542992   -0.00040952347647697177
-0.0005987125594922628   -0.020164790643014484   -0.0003628474887833223
-0.0005215135048171842   -0.016428244542312367   -0.0002173549840772648
-0.0026377527353441954   -0.01642327843712984   -0.00027565991358886264
-0.0024974267010698086   -0.020196943999542992   -0.00040952347647697177
-0.0026618163905870267   -0.016396861715971274   -0.0002620285848700406
-0.0005987125594922628   -0.020164790643014484   -0.0003628474887833223
-0.0025122702641733503   -0.02017547191953462   -0.00039882816959937637
-0.0026618163905870267   -0.016396861715971274   -0.0002620285848700406
-0.0024974267010698086   -0.020196943999542992   -0.00040952347647697177
-0.0005987125594922628   -0.020164790643014484   -0.0003628474887833223
-0.0026618163905870267   -0.016396861715971274   -0.0002620285848700406
-0.0005482083510775592   -0.01639493090412932   -0.00021417482493990255
-0.0005215135048171842   -0.016428244542312367   -0.0002173549840772648
-0.0005987125594922628   -0.020164790643014484   -0.0003628474887833223
-0.0026618163905870267   -0.016396861715971274   -0.0002620285848700406
-0.0005215135048171842   -0.016428244542312367   -0.0002173549840772648
-0.0024974267010698086   -0.020196943999542992   -0.00040952347647697177
-0.002471991152447205   -0.020267084434257624   -0.0004226296724362832
-0.002593896884180495   -0.016493458706842535   -0.00029541213801170753
-0.004347732161644458   -0.020227338635613483   -0.0004956575125906078
-0.0024846207706501664   -0.02022753132727863   -0.00041750549893600057
-0.002593896884180495   -0.016493458706842535   -0.00029541213801170753
-0.004671104092492068   -0.016455856524177165   -0.00036198193710653976
-0.004347732161644458   -0.020227338635613483   -0.0004956575125906078
-0.004693523931883246   -0.016425382289011643   -0.0003429799730045893
-0.0024846207706501664   -0.02022753132727863   -0.00041750549893600057
-0.004361425101500433   -0.02019504005623978   -0.00047413918700967076
-0.004693523931883246   -0.016425382289011643   -0.0003429799730045893
-0.004347732161644458   -0.020227338635613483   -0.0004956575125906078
-0.0024846207706501664   -0.02022753132727863   -0.00041750549893600057
-0.004693523931883246   -0.016425382289011643   -0.0003429799730045893
-0.0026155990319989375   -0.016455584760568995   -0.0002868304214303197
-0.002593896884180495   -0.016493458706842535   -0.00029541213801170753
-0.0024846207706501664   -0.02022753132727863   -0.00041750549893600057
-0.004693523931883246   -0.016425382289011643   -0.0003429799730045893
-0.002593896884180495   -0.016493458706842535   -0.00029541213801170753
-0.004347732161644458   -0.020227338635613483   -0.0004956575125906078
-0.0024846207706501664   -0.02022753132727863   -0.00041750549893600057
-0.0026155990319989375   -0.016455584760568995   -0.0002868304214303197
-0.004361425101500433   -0.02019504005623978   -0.00047413918700967076
-0.0024974267010698086   -0.020196943999542992   -0.00040952347647697177
-0.0026155990319989375   -0.016455584760568995   -0.0002868304214303197
-0.004693523931883246   -0.016425382289011643   -0.0003429799730045893
-0.004361425101500433   -0.02019504005623978   -0.00047413918700967076
-0.004713826203892123   -0.016400436512200543   -0.00032145165801003453
-0.0024974267010698086   -0.020196943999542992   -0.00040952347647697177
-0.004372722806327554   -0.020171622618677006   -0.0004498167898225648
-0.004713826203892123   -0.016400436512200543   -0.00032145165801003453
-0.004361425101500433   -0.02019504005623978   -0.00047413918700967076
-0.0024974267010698086   -0.020196943999542992   -0.00040952347647697177
-0.004713826203892123   -0.016400436512200543   -0.00032145165801003453
-0.0026377527353441954   -0.01642327843712984   -0.00027565991358886264
-0.0026155990319989375   -0.016455584760568995   -0.0002868304214303197
-0.0024974267010698086   -0.020196943999542992   -0.00040952347647697177
-0.004713826203892123   -0.016400436512200543   -0.00032145165801003453
-0.0026155990319989375   -0.016455584760568995   -0.0002868304214303197
-0.004361425101500433   -0.02019504005623978   -0.00047413918700967076
-0.0024974267010698086   -0.020196943999542992   -0.00040952347647697177
-0.0026377527353441954   -0.01642327843712984   -0.00027565991358886264
-0.004372722806327554   -0.020171622618677006   -0.0004498167898225648
-0.0025122702641733503   -0.02017547191953462   -0.00039882816959937637
-0.0026377527353441954   -0.01642327843712984   -0.00027565991358886264
-0.004713826203892123   -0.016400436512200543   -0.00032145165801003453
-0.004372722806327554   -0.020171622618677006   -0.0004498167898225648
-0.004734325956869993   -0.016381056433889197   -0.0002974908128319043
-0.0025122702641733503   -0.02017547191953462   -0.00039882816959937637
-0.004384364396677175   -0.020157046745615543   -0.0004227707250616042
-0.004734325956869993   -0.016381056433889197   -0.0002974908128319043
-0.004372722806327554   -0.020171622618677006   -0.0004498167898225648
-0.0025122702641733503   -0.02017547191953462   -0.00039882816959937637
-0.004734325956869993   -0.016381056433889197   -0.0002974908128319043
-0.0026618163905870267   -0.016396861715971274   -0.0002620285848700406
-0.0026377527353441954   -0.01642327843712984   -0.00027565991358886264
-0.0025122702641733503   -0.02017547191953462   -0.00039882816959937637
-0.004734325956869993   -0.016381056433889197   -0.0002974908128319043
-0.0026377527353441954   -0.01642327843712984   -0.00027565991358886264
-0.004372722806327554   -0.020171622618677006   -0.0004498167898225648
-0.004347732161644458   -0.020227338635613483   -0.0004956575125906078
-0.004671104092492068   -0.016455856524177165   -0.00036198193710653976
-0.006268050656413482   -0.020158884043986566   -0.0005563966373981985
-0.004361425101500433   -0.02019504005623978   -0.00047413918700967076
-0.004671104092492068   -0.016455856524177165   -0.00036198193710653976
-0.006789613453852457   -0.016399703257790103   -0.00041598127607412363
-0.006268050656413482   -0.020158884043986566   -0.0005563966373981985
-0.00681035881422842   -0.016376671784695044   -0.0003864758340648254
-0.004361425101500433   -0.02019504005623978   -0.00047413918700967076
-0.006279259778403148   -0.020133641043466613   -0.0005182544626299005
-0.00681035881422842   -0.016376671784695044   -0.0003864758340648254
-0.006268050656413482   -0.020158884043986566   -0.0005563966373981985
-0.004361425101500433   -0.02019504005623978   -0.00047413918700967076
-0.00681035881422842   -0.016376671784695044   -0.0003864758340648254
-0.004693523931883246   -0.016425382289011643   -0.0003429799730045893
-0.004671104092492068   -0.016455856524177165   -0.00036198193710653976
-0.004361425101500433   -0.02019504005623978   -0.00047413918700967076
-0.00681035881422842   -0.016376671784695044   -0.0003864758340648254
-0.004671104092492068   -0.016455856524177165   -0.00036198193710653976
-0.006268050656413482   -0.020158884043986566   -0.0005563966373981985
-0.004361425101500433   -0.02019504005623978   -0.00047413918700967076
-0.004693523931883246   -0.016425382289011643   -0.0003429799730045893
-0.006279259778403148   -0.020133641043466613   -0.0005182544626299005
-0.004372722806327554   -0.020171622618677006   -0.0004498167898225648
-0.004693523931883246   -0.016425382289011643   -0.0003429799730045893
-0.00681035881422842   -0.016376671784695044   -0.0003864758340648254
-0.006279259778403148   -0.020133641043466613   -0.0005182544626299005
-0.0068226546256843984   -0.01635852069874773   -0.0003547793350729219
-0.004372722806327554   -0.020171622618677006   -0.0004498167898225648
-0.006280290868994193   -0.02011678531123874   -0.000477695121165506
-0.0068226546256843984   -0.01635852069874773   -0.0003547793350729219
-0.006279259778403148   -0.020133641043466613   -0.0005182544626299005
-0.004372722806327554   -0.020171622618677006   -0.0004498167898225648
-0.0068226546256843984   -0.01635852069874773   -0.0003547793350729219
-0.004713826203892123   -0.016400436512200543   -0.00032145165801003453
-0.004693523931883246   -0.016425382289011643   -0.0003429799730045893
-0.004372722806327554   -0.020171622618677006   -0.0004498167898225648
-0.0068226546256843984   -0.01635852069874773   -0.0003547793350729219
-0.004693523931883246   -0.016425382289011643   -0.0003429799730045893
-0.006279259778403148   -0.020133641043466613   -0.0005182544626299005
-0.004372722806327554   -0.020171622618677006   -0.0004498167898225648
-0.004713826203892123   -0.016400436512200543   -0.00032145165801003453
-0.006280290868994193   -0.02011678531123874   -0.000477695121165506
-0.004384364396677175   -0.020157046745615543   -0.0004227707250616042
-0.004713826203892123   -0.016400436512200543   -0.00032145165801003453
-0.0068226546256843984   -0.01635852069874773   -0.0003547793350729219
-0.006280290868994193   -0.02011678531123874   -0.000477695121165506
-0.006836300623783046   -0.016346431411325867   -0.00032044144551664677
-0.004384364396677175   -0.020157046745615543   -0.0004227707250616042
-0.006284306769861362   -0.020109577317896345   -0.0004342032211841507
-0.006836300623783046   -0.016346431411325867   -0.00032044144551664677
-0.006280290868994193   -0.02011678531123874   -0.000477695121165506
-0.004384364396677175   -0.020157046745615543   -0.0004227707250616042
-0.006836300623783046   -0.016346431411325867   -0.00032044144551664677
-0.004734325956869993   -0.016381056433889197   -0.0002974908128319043
-0.004713826203892123   -0.016400436512200543   -0.00032145165801003453
-0.004384364396677175   -0.020157046745615543   -0.0004227707250616042
-0.006836300623783046   -0.016346431411325867   -0.00032044144551664677
-0.004713826203892123   -0.016400436512200543   -0.00032145165801003453
-0.006280290868994193   -0.02011678531123874   -0.000477695121165506
-0.006268050656413482   -0.020158884043986566   -0.0005563966373981985
-0.006789613453852457   -0.016399703257790103   -0.00041598127607412363
-0.00836281239413818   -0.020068607341880706   -0.0006083090975701099
-0.006279259778403148   -0.020133641043466613   -0.0005182544626299005
-0.006789613453852457   -0.016399703257790103   -0.00041598127607412363
-0.009064603293986654   -0.016330158524725264   -0.00045866938620460425
-0.00836281239413818   -0.020068607341880706   -0.0006083090975701099
-0.009047583802382648   -0.01631089624840976   -0.0004190773549619642
-0.006279259778403148   -0.020133641043466613   -0.0005182544626299005
-0.00832128127254851   -0.02004554326490205   -0.000552438316451681
-0.009047583802382648   -0.01631089624840976   -0.0004190773549619642
-0.00836281239413818   -0.020068607341880706   -0.0006083090975701099
-0.006279259778403148   -0.020133641043466613   -0.0005182544626299005
-0.009047583802382648   -0.01631089624840976   -0.0004190773549619642
-0.00681035881422842   -0.016376671784695044   -0.0003864758340648254
-0.006789613453852457   -0.016399703257790103   -0.00041598127607412363
-0.006279259778403148   -0.020133641043466613   -0.0005182544626299005
-0.009047583802382648   -0.01631089624840976   -0.0004190773549619642
-0.006789613453852457   -0.016399703257790103   -0.00041598127607412363
-0.00836281239413818   -0.020068607341880706   -0.0006083090975701099
-0.006279259778403148   -0.020133641043466613   -0.0005182544626299005
-0.00681035881422842   -0.016376671784695044   -0.0003864758340648254
-0.00832128127254851   -0.02004554326490205   -0.000552438316451681
-0.006280290868994193   -0.02011678531123874   -0.000477695121165506
-0.00681035881422842   -0.016376671784695044   -0.0003864758340648254
-0.009047583802382648   -0.01631089624840976   -0.0004190773549619642
-0.00832128127254851   -0.02004554326490205   -0.000552438316451681
-0.009033695163415557   -0.016295951529755645   -0.0003754638862717058
-0.006280290868994193   -0.02011678531123874   -0.000477695121165506
-0.008286354561193069   -0.020031476645919928   -0.0004923373870539421
-0.009033695163415557   -0.016295951529755645   -0.0003754638862717058
-0.00832128127254851   -0.02004554326490205   -0.000552438316451681
-0.006280290868994193   -0.02011678531123874   -0.000477695121165506
-0.009033695163415557   -0.016295951529755645   -0.0003754638862717058
-0.0068226546256843984   -0.01635852069874773   -0.0003547793350729219
-0.00681035881422842   -0.016376671784695044   -0.0003864758340648254
-0.006280290868994193   -0.02011678531123874   -0.000477695121165506
-0.009033695163415557   -0.016295951529755645   -0.0003754638862717058
-0.00681035881422842   -0.016376671784695044   -0.0003864758340648254
-0.00832128127254851   -0.02004554326490205   -0.000552438316451681
-0.006280290868994193   -0.02011678531123874   -0.000477695121165506
-0.0068226546256843984   -0.01635852069874773   -0.0003547793350729219
-0.008286354561193069   -0.020031476645919928   -0.0004923373870539421
-0.006284306769861362   -0.020109577317896345   -0.0004342032211841507
-0.0068226546256843984   -0.01635852069874773   -0.0003547793350729219
-0.009033695163415557   -0.016295951529755645   -0.0003754638862717058
-0.008286354561193069   -0.020031476645919928   -0.0004923373870539421
-0.009001688317956964   -0.016292676232076288   -0.0003282859060122203
-0.006284306769861362   -0.020109577317896345   -0.0004342032211841507
-0.008229241911956214   -0.020033726266398936   -0.00042853666080123375
-0.009001688317956964   -0.016292676232076288   -0.0003282859060122203
-0.008286354561193069   -0.020031476645919928   -0.0004923373870539421
-0.006284306769861362   -0.020109577317896345   -0.0004342032211841507
-0.009001688317956964   -0.016292676232076288   -0.0003282859060122203
-0.006836300623783046   -0.016346431411325867   -0.00032044144551664677
-0.0068226546256843984   -0.01635852069874773   -0.0003547793350729219
-0.006284306769861362   -0.020109577317896345   -0.0004342032211841507
-0.009001688317956964   -0.016292676232076288   -0.0003282859060122203
-0.0068226546256843984   -0.01635852069874773   -0.0003547793350729219
-0.008286354561193069   -0.020031476645919928   -0.0004923373870539421
0.0017334722164186456   -0.016512925358774192   -0.00011918110886238727
0.0018048311691158995   -0.012498991191737682   -2.0306741364409324e-05
-0.00048099807219004285   -0.01651329781107056   -0.00021608054284519266
0.0017285408428002428   -0.01645978306734936   -0.00013572475859371165
0.0018048311691158995   -0.012498991191737682   -2.0306741364409324e-05
-0.0005416251333362033   -0.012479120960327427   -0.00010704424084676697
-0.00048099807219004285   -0.01651329781107056   -0.00021608054284519266
-0.0005682492369741331   -0.01243527745096467   -9.935078194452291e-05
0.0017285408428002428   -0.01645978306734936   -0.00013572475859371165
-0.0005001834845644211   -0.016467350577192633   -0.0002179576357890031
-0.0005682492369741331   -0.01243527745096467   -9.935078194452291e-05
-0.00048099807219004285   -0.01651329781107056   -0.00021608054284519266
0.0017285408428002428   -0.01645978306734936   -0.00013572475859371165
-0.0005682492369741331   -0.01243527745096467   -9.935078194452291e-05
0.0017773792350235424   -0.012448429701182364   -1.9596863004272133e-05
0.0018048311691158995   -0.012498991191737682   -2.0306741364409324e-05
0.0017285408428002428   -0.01645978306734936   -0.00013572475859371165
-0.0005682492369741331   -0.01243527745096467   -9.935078194452291e-05
0.0018048311691158995   -0.012498991191737682   -2.0306741364409324e-05
-0.00048099807219004285   -0.01651329781107056   -0.00021608054284519266
0.0017285408428002428   -0.01645978306734936   -0.00013572475859371165
0.0017773792350235424   -0.012448429701182364   -1.9596863004272133e-05
-0.0005001834845644211   -0.016467350577192633   -0.0002179576357890031
0.0017138261825023833   -0.016417617768360534   -0.0001482936518991982
0.0017773792350235424   -0.012448429701182364   -1.9596863004272133e-05
-0.0005682492369741331   -0.01243527745096467   -9.935078194452291e-05
-0.0005001834845644211   -0.016467350577192633   -0.0002179576357890031
-0.0005987926074033414   -0.01239421372685999   -8.938866406678739e-05
0.0017138261825023833   -0.016417617768360534   -0.0001482936518991982
-0.0005215135048171842   -0.016428244542312367   -0.0002173549840772648
-0.0005987926074033414   -0.01239421372685999   -8.938866406678739e-05
-0.0005001834845644211   -0.016467350577192633   -0.0002179576357890031
0.0017138261825023833   -0.016417617768360534   -0.0001482936518991982
-0.0005987926074033414   -0.01239421372685999   -8.938866406678739e-05
0.0017430592516092776   -0.012403728866175271   -1.4265141178710056e-05
0.0017773792350235424   -0.012448429701182364   -1.9596863004272133e-05
0.0017138261825023833   -0.016417617768360534   -0.0001482936518991982
-0.0005987926074033414   -0.01239421372685999   -8.938866406678739e-05
0.0017773792350235424   -0.012448429701182364   -1.9596863004272133e-05
-0.0005001834845644211   -0.016467350577192633   -0.0002179576357890031
0.0017138261825023833   -0.016417617768360534   -0.0001482936518991982
0.0017430592516092776   -0.012403728866175271   -1.4265141178710056e-05
-0.0005215135048171842   -0.016428244542312367   -0.0002173549840772648
0.0016930676079104073   -0.01637928951348063   -0.0001571655987309379
0.0017430592516092776   -0.012403728866175271   -1.4265141178710056e-05
-0.0005987926074033414   -0.01239421372685999   -8.938866406678739e-05
-0.0005215135048171842   -0.016428244542312367   -0.0002173549840772648
-0.0006332285251094882   -0.012355351555828176   -7.65918618795001e-05
0.0016930676079104073   -0.01637928951348063   -0.0001571655987309379
-0.0005482083510775592   -0.01639493090412932   -0.00021417482493990255
-0.0006332285251094882   -0.012355351555828176   -7.65918618795001e-05
-0.0005215135048171842   -0.016428244542312367   -0.0002173549840772648
0.0016930676079104073   -0.01637928951348063   -0.0001571655987309379
-0.0006332285251094882   -0.012355351555828176   -7.65918618795001e-05
0.00169765464597529   -0.012357211487576672   -4.516486603090141e-06
0.0017430592516092776   -0.012403728866175271   -1.4265141178710056e-05
0.0016930676079104073   -0.01637928951348063   -0.0001571655987309379
-0.0006332285251094882   -0.012355351555828176   -7.65918618795001e-05
0.0017430592516092776   -0.012403728866175271   -1.4265141178710056e-05
-0.0005215135048171842   -0.016428244542312367   -0.0002173549840772648
-0.00048099807219004285   -0.01651329781107056   -0.00021608054284519266
-0.0005416251333362033   -0.012479120960327427   -0.00010704424084676697
-0.002593896884180495   -0.016493458706842535   -0.00029541213801170753
-0.0005001834845644211   -0.016467350577192633   -0.0002179576357890031
-0.0005416251333362033   -0.012479120960327427   -0.00010704424084676697
-0.0027647970632036735   -0.012455171907929696   -0.00017978495860935072
-0.002593896884180495   -0.016493458706842535   -0.00029541213801170753
-0.0027921599060661884   -0.012418797803477079   -0.0001674850428644403
-0.0005001834845644211   -0.016467350577192633   -0.0002179576357890031
-0.0026155990319989375   -0.016455584760568995   -0.0002868304214303197
-0.0027921599060661884   -0.012418797803477079   -0.0001674850428644403
-0.002593896884180495   -0.016493458706842535   -0.00029541213801170753
-0.0005001834845644211   -0.016467350577192633   -0.0002179576357890031
-0.0027921599060661884   -0.012418797803477079   -0.0001674850428644403
-0.0005682492369741331   -0.01243527745096467   -9.935078194452291e-05
-0.0005416251333362033   -0.012479120960327427   -0.00010704424084676697
-0.0005001834845644211   -0.016467350577192633   -0.0002179576357890031
-0.0027921599060661884   -0.012418797803477079   -0.0001674850428644403
-0.0005416251333362033   -0.012479120960327427   -0.00010704424084676697
-0.002593896884180495   -0.016493458706842535   -0.00029541213801170753
-0.0005001834845644211   -0.016467350577192633   -0.0002179576357890031
-0.0005682492369741331   -0.01243527745096467   -9.935078194452291e-05
-0.0026155990319989375   -0.016455584760568995   -0.0002868304214303197
-0.0005215135048171842   -0.016428244542312367   -0.0002173549840772648
-0.0005682492369741331   -0.01243527745096467   -9.935078194452291e-05
-0.0027921599060661884   -0.012418797803477079   -0.0001674850428644403
-0.0026155990319989375   -0.016455584760568995   -0.0002868304214303197
-0.00282015957726265   -0.012384574351775712   -0.00015301232607307878
-0.0005215135048171842   -0.016428244542312367   -0.0002173549840772648
-0.0026377527353441954   -0.01642327843712984   -0.00027565991358886264
-0.00282015957726265   -0.012384574351775712   -0.00015301232607307878
-0.0026155990319989375   -0.016455584760568995   -0.0002868304214303197
-0.0005215135048171842   -0.016428244542312367   -0.0002173549840772648
-0.00282015957726265   -0.012384574351775712   -0.00015301232607307878
-0.0005987926074033414   -0.01239421372685999   -8.938866406678739e-05
-0.0005682492369741331   -0.01243527745096467   -9.935078194452291e-05
-0.0005215135048171842   -0.016428244542312367   -0.0002173549840772648
-0.00282015957726265   -0.012384574351775712   -0.00015301232607307878
-0.0005682492369741331   -0.01243527745096467   -9.935078194452291e-05
-0.0026155990319989375   -0.016455584760568995   -0.0002868304214303197
-0.0005215135048171842   -0.016428244542312367   -0.0002173549840772648
-0.0005987926074033414   -0.01239421372685999   -8.938866406678739e-05
-0.0026377527353441954   -0.01642327843712984   -0.00027565991358886264
-0.0005482083510775592   -0.01639493090412932   -0.00021417482493990255
-0.0005987926074033414   -0.01239421372685999   -8.938866406678739e-05
-0.00282015957726265   -0.012384574351775712   -0.00015301232607307878
-0.0026377527353441954   -0.01642327843712984   -0.00027565991358886264
-0.0028499770168983938   -0.012353064744095133   -0.00013635170806447535
-0.0005482083510775592   -0.01639493090412932   -0.00021417482493990255
-0.0026618163905870267   -0.016396861715971274   -0.0002620285848700406
-0.0028499770168983938   -0.012353064744095133   -0.00013635170806447535
-0.0026377527353441954   -0.01642327843712984   -0.00027565991358886264
-0.0005482083510775592   -0.01639493090412932   -0.00021417482493990255
-0.0028499770168983938   -0.012353064744095133   -0.00013635170806447535
-0.0006332285251094882   -0.012355351555828176   -7.65918618795001e-05
-0.0005987926074033414   -0.01239421372685999   -8.938866406678739e-05
-0.0005482083510775592   -0.01639493090412932   -0.00021417482493990255
-0.0028499770168983938   -0.012353064744095133   -0.00013635170806447535
-0.0005987926074033414   -0.01239421372685999   -8.938866406678739e-05
-0.0026377527353441954   -0.01642327843712984   -0.00027565991358886264
-0.002593896884180495   -0.016493458706842535   -0.00029541213801170753
-0.0027647970632036735   -0.012455171907929696   -0.00017978495860935072
-0.004671104092492068   -0.016455856524177165   -0.00036198193710653976
-0.0026155990319989375   -0.016455584760568995   -0.0002868304214303197
-0.0027647970632036735   -0.012455171907929696   -0.00017978495860935072
-0.004951390381896637   -0.012426090788096625   -0.0002411646152990535
-0.004671104092492068   -0.016455856524177165   -0.00036198193710653976
-0.004978634650980683   -0.012396595220568817   -0.00022429276645056755
-0.0026155990319989375   -0.016455584760568995   -0.0002868304214303197
-0.004693523931883246   -0.016425382289011643   -0.0003429799730045893
-0.004978634650980683   -0.012396595220568817   -0.00022429276645056755
-0.004671104092492068   -0.016455856524177165   -0.00036198193710653976
-0.0026155990319989375   -0.016455584760568995   -0.0002868304214303197
-0.004978634650980683   -0.012396595220568817   -0.00022429276645056755
-0.0027921599060661884   -0.012418797803477079   -0.0001674850428644403
-0.0027647970632036735   -0.012455171907929696   -0.00017978495860935072
-0.0026155990319989375   -0.016455584760568995   -0.0002868304214303197
-0.004978634650980683   -0.012396595220568817   -0.00022429276645056755
-0.0027647970632036735   -0.012455171907929696   -0.00017978495860935072
-0.004671104092492068   -0.016455856524177165   -0.00036198193710653976
-0.0026155990319989375   -0.016455584760568995   -0.0002868304214303197
-0.0027921599060661884   -0.012418797803477079   -0.0001674850428644403
-0.004693523931883246   -0.016425382289011643   -0.0003429799730045893
-0.0026377527353441954   -0.01642327843712984   -0.00027565991358886264
-0.0027921599060661884   -0.012418797803477079   -0.0001674850428644403
-0.004978634650980683   -0.012396595220568817   -0.00022429276645056755
-0.004693523931883246   -0.016425382289011643   -0.0003429799730045893
-0.005004093632619885   -0.01236935823050933   -0.00020532189586634748
-0.0026377527353441954   -0.01642327843712984   -0.00027565991358886264
-0.004713826203892123   -0.016400436512200543   -0.00032145165801003453
-0.005004093632619885   -0.01236935823050933   -0.00020532189586634748
-0.004693523931883246   -0.016425382289011643   -0.0003429799730045893
-0.0026377527353441954   -0.01642327843712984   -0.00027565991358886264
-0.005004093632619885   -0.01236935823050933   -0.00020532189586634748
-0.00282015957726265   -0.012384574351775712   -0.00015301232607307878
-0.0027921599060661884   -0.012418797803477079   -0.0001674850428644403
-0.0026377527353441954   -0.01642327843712984   -0.00027565991358886264
-0.005004093632619885   -0.01236935823050933   -0.00020532189586634748
-0.0027921599060661884   -0.012418797803477079   -0.0001674850428644403
-0.004693523931883246   -0.016425382289011643   -0.0003429799730045893
-0.0026377527353441954   -0.01642327843712984   -0.00027565991358886264
-0.00282015957726265   -0.012384574351775712   -0.00015301232607307878
-0.004713826203892123   -0.016400436512200543   -0.00032145165801003453
-0.0026618163905870267   -0.016396861715971274   -0.0002620285848700406
-0.00282015957726265   -0.012384574351775712   -0.00015301232607307878
-0.005004093632619885   -0.01236935823050933   -0.00020532189586634748
-0.004713826203892123   -0.016400436512200543   -0.00032145165801003453
-0.005029644424357939   -0.01234445016470122   -0.00018435347450621858
-0.0026618163905870267   -0.016396861715971274   -0.0002620285848700406
-0.004734325956869993   -0.016381056433889197   -0.0002974908128319043
-0.005029644424357939   -0.01234445016470122   -0.00018435347450621858
-0.004713826203892123   -0.016400436512200543   -0.00032145165801003453
-0.0026618163905870267   -0.016396861715971274   -0.0002620285848700406
-0.005029644424357939   -0.01234445016470122   -0.00018435347450621858
-0.0028499770168983938   -0.012353064744095133   -0.00013635170806447535
-0.00282015957726265   -0.012384574351775712   -0.00015301232607307878
-0.0026618163905870267   -0.016396861715971274   -0.0002620285848700406
-0.005029644424357939   -0.01234445016470122   -0.00018435347450621858
-0.00282015957726265   -0.012384574351775712   -0.00015301232607307878
-0.004713826203892123   -0.016400436512200543   -0.00032145165801003453
-0.004671104092492068   -0.016455856524177165   -0.00036198193710653976
-0.004951390381896637   -0.012426090788096625   -0.0002411646152990535
-0.006789613453852457   -0.016399703257790103   -0.00041598127607412363
-0.004693523931883246   -0.016425382289011643   -0.0003429799730045893
-0.004951390381896637   -0.012426090788096625   -0.0002411646152990535
-0.007177725755940705   -0.012386541556417977   -0.00029065255263303387
-0.006789613453852457   -0.016399703257790103   -0.00041598127607412363
-0.0072037835409260965   -0.01236427751568012   -0.00026926483997031516
-0.004693523931883246   -0.016425382289011643   -0.0003429799730045893
-0.00681035881422842   -0.016376671784695044   -0.0003864758340648254
-0.0072037835409260965   -0.01236427751568012   -0.00026926483997031516
-0.006789613453852457   -0.016399703257790103   -0.00041598127607412363
-0.004693523931883246   -0.016425382289011643   -0.0003429799730045893
-0.0072037835409260965   -0.01236427751568012   -0.00026926483997031516
-0.004978634650980683   -0.012396595220568817   -0.00022429276645056755
-0.004951390381896637   -0.012426090788096625   -0.0002411646152990535
-0.004693523931883246   -0.016425382289011643   -0.0003429799730045893
-0.0072037835409260965   -0.01236427751568012   -0.00026926483997031516
-0.004951390381896637   -0.012426090788096625   -0.0002411646152990535
-0.006789613453852457   -0.016399703257790103   -0.00041598127607412363
-0.004693523931883246   -0.016425382289011643   -0.0003429799730045893
-0.004978634650980683   -0.012396595220568817   -0.00022429276645056755
-0.00681035881422842   -0.016376671784695044   -0.0003864758340648254
-0.004713826203892123   -0.016400436512200543   -0.00032145165801003453
-0.004978634650980683   -0.012396595220568817   -0.00022429276645056755
-0.0072037835409260965   -0.01236427751568012   -0.00026926483997031516
-0.00681035881422842   -0.016376671784695044   -0.0003864758340648254
-0.007223352010045799   -0.012343495582268797   -0.0002461127650547676
-0.004713826203892123   -0.016400436512200543   -0.00032145165801003453
-0.0068226546256843984   -0.01635852069874773   -0.0003547793350729219
-0.007223352010045799   -0.012343495582268797   -0.0002461127650547676
-0.00681035881422842   -0.016376671784695044   -0.0003864758340648254
-0.004713826203892123   -0.016400436512200543   -0.00032145165801003453
-0.007223352010045799   -0.012343495582268797   -0.0002461127650547676
-0.005004093632619885   -0.01236935823050933   -0.00020532189586634748
-0.004978634650980683   -0.012396595220568817   -0.00022429276645056755
-0.004713826203892123   -0.016400436512200543   -0.00032145165801003453
-0.007223352010045799   -0.012343495582268797   -0.0002461127650547676
-0.004978634650980683   -0.012396595220568817   -0.00022429276645056755
-0.00681035881422842   -0.016376671784695044   -0.0003864758340648254
-0.004713826203892123   -0.016400436512200543   -0.00032145165801003453
-0.005004093632619885   -0.01236935823050933   -0.00020532189586634748
-0.0068226546256843984   -0.01635852069874773   -0.0003547793350729219
-0.004734325956869993   -0.016381056433889197   -0.0002974908128319043
-0.005004093632619885   -0.01236935823050933   -0.00020532189586634748
-0.007223352010045799   -0.012343495582268797   -0.0002461127650547676
-0.0068226546256843984   -0.01635852069874773   -0.0003547793350729219
-0.007242812278289215   -0.01232518644191765   -0.00022074631243166495
-0.004734325956869993   -0.016381056433889197   -0.0002974908128319043
-0.006836300623783046   -0.016346431411325867   -0.00032044144551664677
-0.007242812278289215   -0.01232518644191765   -0.00022074631243166495
-0.0068226546256843984   -0.01635852069874773   -0.0003547793350729219
-0.004734325956869993   -0.016381056433889197   -0.0002974908128319043
-0.007242812278289215   -0.01232518644191765   -0.00022074631243166495
-0.005029644424357939   -0.01234445016470122   -0.00018435347450621858
-0.005004093632619885   -0.01236935823050933   -0.00020532189586634748
-0.004734325956869993   -0.016381056433889197   -0.0002974908128319043
-0.007242812278289215   -0.01232518644191765   -0.00022074631243166495
-0.005004093632619885   -0.01236935823050933   -0.00020532189586634748
-0.0068226546256843984   -0.01635852069874773   -0.0003547793350729219
-0.006789613453852457   -0.016399703257790103   -0.00041598127607412363
-0.007177725755940705   -0.012386541556417977   -0.00029065255263303387
-0.009064603293986654   -0.016330158524725264   -0.00045866938620460425
-0.00681035881422842   -0.016376671784695044   -0.0003864758340648254
-0.007177725755940705   -0.012386541556417977   -0.00029065255263303387
-0.009539150149050029   -0.012339408487992077   -0.00032682463875784775
-0.009064603293986654   -0.016330158524725264   -0.00045866938620460425
-0.00954205961900106   -0.012321950382161818   -0.00030285571007202276
-0.00681035881422842   -0.016376671784695044   -0.0003864758340648254
-0.009047583802382648   -0.01631089624840976   -0.0004190773549619642
-0.00954205961900106   -0.012321950382161818   -0.00030285571007202276
-0.009064603293986654   -0.016330158524725264   -0.00045866938620460425
-0.00681035881422842   -0.016376671784695044   -0.0003864758340648254
-0.00954205961900106   -0.012321950382161818   -0.00030285571007202276
-0.0072037835409260965   -0.01236427751568012   -0.00026926483997031516
-0.007177725755940705   -0.012386541556417977   -0.00029065255263303387
-0.00681035881422842   -0.016376671784695044   -0.0003864758340648254
-0.00954205961900106   -0.012321950382161818   -0.00030285571007202276
-0.007177725755940705   -0.012386541556417977   -0.00029065255263303387
-0.009064603293986654   -0.016330158524725264   -0.00045866938620460425
-0.00681035881422842   -0.016376671784695044   -0.0003864758340648254
-0.0072037835409260965   -0.01236427751568012   -0.00026926483997031516
-0.009047583802382648   -0.01631089624840976   -0.0004190773549619642
-0.0068226546256843984   -0.01635852069874773   -0.0003547793350729219
-0.0072037835409260965   -0.01236427751568012   -0.00026926483997031516
-0.00954205961900106   -0.012321950382161818   -0.00030285571007202276
-0.009047583802382648   -0.01631089624840976   -0.0004190773549619642
-0.009545228814119846   -0.012304488631562156   -0.0002753475992678911
-0.0068226546256843984   -0.01635852069874773   -0.0003547793350729219
-0.009033695163415557   -0.016295951529755645   -0.0003754638862717058
-0.009545228814119846   -0.012304488631562156   -0.0002753475992678911
-0.009047583802382648   -0.01631089624840976   -0.0004190773549619642
-0.0068226546256843984   -0.01635852069874773   -0.0003547793350729219
-0.009545228814119846   -0.012304488631562156   -0.0002753475992678911
-0.007223352010045799   -0.012343495582268797   -0.0002461127650547676
-0.0072037835409260965   -0.01236427751568012   -0.00026926483997031516
-0.0068226546256843984   -0.01635852069874773   -0.0003547793350729219
-0.009545228814119846   -0.012304488631562156   -0.0002753475992678911
-0.0072037835409260965   -0.01236427751568012   -0.00026926483997031516
-0.009047583802382648   -0.01631089624840976   -0.0004190773549619642
-0.0068226546256843984   -0.01635852069874773   -0.0003547793350729219
-0.007223352010045799   -0.012343495582268797   -0.0002461127650547676
-0.009033695163415557   -0.016295951529755645   -0.0003754638862717058
-0.006836300623783046   -0.016346431411325867   -0.00032044144551664677
-0.007223352010045799   -0.012343495582268797   -0.0002461127650547676
-0.009545228814119846   -0.012304488631562156   -0.0002753475992678911
-0.009033695163415557   -0.016295951529755645   -0.0003754638862717058
-0.009534827364962077   -0.01229390021963636   -0.00024471262689200316
-0.006836300623783046   -0.016346431411325867   -0.00032044144551664677
-0.009001688317956964   -0.016292676232076288   -0.0003282859060122203
-0.009534827364962077   -0.01229390021963636   -0.00024471262689200316
-0.009033695163415557   -0.016295951529755645   -0.0003754638862717058
-0.006836300623783046   -0.016346431411325867   -0.00032044144551664677
-0.009534827364962077   -0.01229390021963636   -0.00024471262689200316
-0.007242812278289215   -0.01232518644191765   -0.00022074631243166495
-0.007223352010045799   -0.012343495582268797   -0.0002461127650547676
-0.006836300623783046   -0.016346431411325867   -0.00032044144551664677
-0.009534827364962077   -0.01229390021963636   -0.00024471262689200316
-0.007223352010045799   -0.012343495582268797   -0.0002461127650547676
-0.009033695163415557   -0.016295951529755645   -0.0003754638862717058
0.0018048311691158995   -0.012498991191737682   -2.0306741364409324e-05
0.0016265302055730301   -0.008354502436500487   4.80560204535703e-05
-0.0005416251333362033   -0.012479120960327427   -0.00010704424084676697
0.0017773792350235424   -0.012448429701182364   -1.9596863004272133e-05
0.0016265302055730301   -0.008354502436500487   4.80560204535703e-05
-0.000743582750016709   -0.008316210787291434   -2.0058746796661644e-05
-0.0005416251333362033   -0.012479120960327427   -0.00010704424084676697
-0.0007757513237504916   -0.008276729212228192   -3.4552349571904613e-06
0.0017773792350235424   -0.012448429701182364   -1.9596863004272133e-05
-0.0005682492369741331   -0.01243527745096467   -9.935078194452291e-05
-0.0007757513237504916   -0.008276729212228192   -3.4552349571904613e-06
-0.0005416251333362033   -0.012479120960327427   -0.00010704424084676697
0.0017773792350235424   -0.012448429701182364   -1.9596863004272133e-05
-0.0007757513237504916   -0.008276729212228192   -3.4552349571904613e-06
0.0015764344266592243   -0.008306493445319944   6.823365828789817e-05
0.0016265302055730301   -0.008354502436500487   4.80560204535703e-05
0.0017773792350235424   -0.012448429701182364   -1.9596863004272133e-05
-0.0007757513237504916   -0.008276729212228192   -3.4552349571904613e-06
0.0016265302055730301   -0.008354502436500487   4.80560204535703e-05
-0.0005416251333362033   -0.012479120960327427   -0.00010704424084676697
0.0017773792350235424   -0.012448429701182364   -1.9596863004272133e-05
0.0015764344266592243   -0.008306493445319944   6.823365828789817e-05
-0.0005682492369741331   -0.01243527745096467   -9.935078194452291e-05
0.0017430592516092776   -0.012403728866175271   -1.4265141178710056e-05
0.0015764344266592243   -0.008306493445319944   6.823365828789817e-05
-0.0007757513237504916   -0.008276729212228192   -3.4552349571904613e-06
-0.0005682492369741331   -0.01243527745096467   -9.935078194452291e-05
-0.0008134773965058861   -0.008235183224079077   1.6177240658004715e-05
0.0017430592516092776   -0.012403728866175271   -1.4265141178710056e-05
-0.0005987926074033414   -0.01239421372685999   -8.938866406678739e-05
-0.0008134773965058861   -0.008235183224079077   1.6177240658004715e-05
-0.0005682492369741331   -0.01243527745096467   -9.935078194452291e-05
0.0017430592516092776   -0.012403728866175271   -1.4265141178710056e-05
-0.0008134773965058861   -0.008235183224079077   1.6177240658004715e-05
0.0015200102687068712   -0.00825911242242335   9.765726806613583e-05
0.0015764344266592243   -0.008306493445319944   6.823365828789817e-05
0.0017430592516092776   -0.012403728866175271   -1.4265141178710056e-05
-0.0008134773965058861   -0.008235183224079077   1.6177240658004715e-05
0.0015764344266592243   -0.008306493445319944   6.823365828789817e-05
-0.0005682492369741331   -0.01243527745096467   -9.935078194452291e-05
0.0017430592516092776   -0.012403728866175271   -1.4265141178710056e-05
0.0015200102687068712   -0.00825911242242335   9.765726806613583e-05
-0.0005987926074033414   -0.01239421372685999   -8.938866406678739e-05
0.00169765464597529   -0.012357211487576672   -4.516486603090141e-06
0.0015200102687068712   -0.00825911242242335   9.765726806613583e-05
-0.0008134773965058861   -0.008235183224079077   1.6177240658004715e-05
-0.0005987926074033414   -0.01239421372685999   -8.938866406678739e-05
-0.0008526120106907978   -0.00819118174067916   3.8813339944013364e-05
0.00169765464597529   -0.012357211487576672   -4.516486603090141e-06
-0.0006332285251094882   -0.012355351555828176   -7.65918618795001e-05
-0.0008526120106907978   -0.00819118174067916   3.8813339944013364e-05
-0.0005987926074033414   -0.01239421372685999   -8.938866406678739e-05
0.00169765464597529   -0.012357211487576672   -4.516486603090141e-06
-0.0008526120106907978   -0.00819118174067916   3.8813339944013364e-05
0.0014510196362370763   -0.008200792303340679   0.00013011081788307966
0.0015200102687068712   -0.00825911242242335   9.765726806613583e-05
0.00169765464597529   -0.012357211487576672   -4.516486603090141e-06
-0.0008526120106907978   -0.00819118174067916   3.8813339944013364e-05
0.0015200102687068712   -0.00825911242242335   9.765726806613583e-05
-0.0005987926074033414   -0.01239421372685999   -8.938866406678739e-05
-0.0005416251333362033   -0.012479120960327427   -0.00010704424084676697
-0.000743582750016709   -0.008316210787291434   -2.0058746796661644e-05
-0.0027647970632036735   -0.012455171907929696   -0.00017978495860935072
-0.0005682492369741331   -0.01243527745096467   -9.935078194452291e-05
-0.000743582750016709   -0.008316210787291434   -2.0058746796661644e-05
-0.0029737728830233987   -0.008306260621715952   -8.535407164823205e-05
-0.0027647970632036735   -0.012455171907929696   -0.00017978495860935072
-0.0030030379434356777   -0.008272075881504462   -6.96686568319812e-05
-0.0005682492369741331   -0.01243527745096467   -9.935078194452291e-05
-0.0027921599060661884   -0.012418797803477079   -0.0001674850428644403
-0.0030030379434356777   -0.008272075881504462   -6.96686568319812e-05
-0.0027647970632036735   -0.012455171907929696   -0.00017978495860935072
-0.0005682492369741331   -0.01243527745096467   -9.935078194452291e-05
-0.0030030379434356777   -0.008272075881504462   -6.96686568319812e-05
-0.0007757513237504916   -0.008276729212228192   -3.4552349571904613e-06
-0.000743582750016709   -0.008316210787291434   -2.0058746796661644e-05
-0.0005682492369741331   -0.01243527745096467   -9.935078194452291e-05
-0.0030030379434356777   -0.008272075881504462   -6.96686568319812e-05
-0.000743582750016709   -0.008316210787291434   -2.0058746796661644e-05
-0.0027647970632036735   -0.012455171907929696   -0.00017978495860935072
-0.0005682492369741331   -0.01243527745096467   -9.935078194452291e-05
-0.0007757513237504916   -0.008276729212228192   -3.4552349571904613e-06
-0.0027921599060661884   -0.012418797803477079   -0.0001674850428644403
-0.0005987926074033414   -0.01239421372685999   -8.938866406678739e-05
-0.0007757513237504916   -0.008276729212228192   -3.4552349571904613e-06
-0.0030030379434356777   -0.008272075881504462   -6.96686568319812e-05
-0.0027921599060661884   -0.012418797803477079   -0.0001674850428644403
-0.0030333578236945635   -0.008236565302896287   -5.2381810718634985e-05
-0.0005987926074033414   -0.01239421372685999   -8.938866406678739e-05
-0.00282015957726265   -0.012384574351775712   -0.00015301232607307878
-0.0030333578236945635   -0.008236565302896287   -5.2381810718634985e-05
-0.0027921599060661884   -0.012418797803477079   -0.0001674850428644403
-0.0005987926074033414   -0.01239421372685999   -8.938866406678739e-05
-0.0030333578236945635   -0.008236565302896287   -5.2381810718634985e-05
-0.0008134773965058861   -0.008235183224079077   1.6177240658004715e-05
-0.0007757513237504916   -0.008276729212228192   -3.4552349571904613e-06
-0.0005987926074033414   -0.01239421372685999   -8.938866406678739e-05
-0.0030333578236945635   -0.008236565302896287   -5.2381810718634985e-05
-0.0007757513237504916   -0.008276729212228192   -3.4552349571904613e-06
-0.0027921599060661884   -0.012418797803477079   -0.0001674850428644403
-0.0005987926074033414   -0.01239421372685999   -8.938866406678739e-05
-0.0008134773965058861   -0.008235183224079077   1.6177240658004715e-05
-0.00282015957726265   -0.012384574351775712   -0.00015301232607307878
-0.0006332285251094882   -0.012355351555828176   -7.65918618795001e-05
-0.0008134773965058861   -0.008235183224079077   1.6177240658004715e-05
-0.0030333578236945635   -0.008236565302896287   -5.2381810718634985e-05
-0.00282015957726265   -0.012384574351775712   -0.00015301232607307878
-0.003064970053833753   -0.008200429236834677   -3.3183851113632524e-05
-0.0006332285251094882   -0.012355351555828176   -7.65918618795001e-05
-0.0028499770168983938   -0.012353064744095133   -0.00013635170806447535
-0.003064970053833753   -0.008200429236834677   -3.3183851113632524e-05
-0.00282015957726265   -0.012384574351775712   -0.00015301232607307878
-0.0006332285251094882   -0.012355351555828176   -7.65918618795001e-05
-0.003064970053833753   -0.008200429236834677   -3.3183851113632524e-05
-0.0008526120106907978   -0.00819118174067916   3.8813339944013364e-05
-0.0008134773965058861   -0.008235183224079077   1.6177240658004715e-05
-0.0006332285251094882   -0.012355351555828176   -7.65918618795001e-05
-0.003064970053833753   -0.008200429236834677   -3.3183851113632524e-05
-0.0008134773965058861   -0.008235183224079077   1.6177240658004715e-05
-0.00282015957726265   -0.012384574351775712   -0.00015301232607307878
-0.0027647970632036735   -0.012455171907929696   -0.00017978495860935072
-0.0029737728830233987   -0.008306260621715952   -8.535407164823205e-05
-0.004951390381896637   -0.012426090788096625   -0.0002411646152990535
-0.0027921599060661884   -0.012418797803477079   -0.0001674850428644403
-0.0029737728830233987   -0.008306260621715952   -8.535407164823205e-05
-0.005179880320110607   -0.008303437020756251   -0.00014415007765218908
-0.004951390381896637   -0.012426090788096625   -0.0002411646152990535
-0.005207949475659652   -0.008273660515885019   -0.0001289836922458051
-0.0027921599060661884   -0.012418797803477079   -0.0001674850428644403
-0.004978634650980683   -0.012396595220568817   -0.00022429276645056755
-0.005207949475659652   -0.008273660515885019   -0.0001289836922458051
-0.004951390381896637   -0.012426090788096625   -0.0002411646152990535
-0.0027921599060661884   -0.012418797803477079   -0.0001674850428644403
-0.005207949475659652   -0.008273660515885019   -0.0001289836922458051
-0.0030030379434356777   -0.008272075881504462   -6.96686568319812e-05
-0.0029737728830233987   -0.008306260621715952   -8.535407164823205e-05
-0.0027921599060661884   -0.012418797803477079   -0.0001674850428644403
-0.005207949475659652   -0.008273660515885019   -0.0001289836922458051
-0.0029737728830233987   -0.008306260621715952   -8.535407164823205e-05
-0.004951390381896637   -0.012426090788096625   -0.0002411646152990535
-0.0027921599060661884   -0.012418797803477079   -0.0001674850428644403
-0.0030030379434356777   -0.008272075881504462   -6.96686568319812e-05
-0.004978634650980683   -0.012396595220568817   -0.00022429276645056755
-0.00282015957726265   -0.012384574351775712   -0.00015301232607307878
-0.0030030379434356777   -0.008272075881504462   -6.96686568319812e-05
-0.005207949475659652   -0.008273660515885019   -0.0001289836922458051
-0.004978634650980683   -0.012396595220568817   -0.00022429276645056755
-0.005234693727150564   -0.008243423674225672   -0.00011240935298173506
-0.00282015957726265   -0.012384574351775712   -0.00015301232607307878
-0.005004093632619885   -0.01236935823050933   -0.00020532189586634748
-0.005234693727150564   -0.008243423674225672   -0.00011240935298173506
-0.004978634650980683   -0.012396595220568817   -0.00022429276645056755
-0.00282015957726265   -0.012384574351775712   -0.00015301232607307878
-0.005234693727150564   -0.008243423674225672   -0.00011240935298173506
-0.0030333578236945635   -0.008236565302896287   -5.2381810718634985e-05
-0.0030030379434356777   -0.008272075881504462   -6.96686568319812e-05
-0.00282015957726265   -0.012384574351775712   -0.00015301232607307878
-0.005234693727150564   -0.008243423674225672   -0.00011240935298173506
-0.0030030379434356777   -0.008272075881504462   -6.96686568319812e-05
-0.004978634650980683   -0.012396595220568817   -0.00022429276645056755
-0.00282015957726265   -0.012384574351775712   -0.00015301232607307878
-0.0030333578236945635   -0.008236565302896287   -5.2381810718634985e-05
-0.005004093632619885   -0.01236935823050933   -0.00020532189586634748
-0.0028499770168983938   -0.012353064744095133   -0.00013635170806447535
-0.0030333578236945635   -0.008236565302896287   -5.2381810718634985e-05
-0.005234693727150564   -0.008243423674225672   -0.00011240935298173506
-0.005004093632619885   -0.01236935823050933   -0.00020532189586634748
-0.005261174027755363   -0.008212541838289166   -9.44997477982612e-05
-0.0028499770168983938   -0.012353064744095133   -0.00013635170806447535
-0.005029644424357939   -0.01234445016470122   -0.00018435347450621858
-0.005261174027755363   -0.008212541838289166   -9.44997477982612e-05
-0.005004093632619885   -0.01236935823050933   -0.00020532189586634748
-0.0028499770168983938   -0.012353064744095133   -0.00013635170806447535
-0.005261174027755363   -0.008212541838289166   -9.44997477982612e-05
-0.003064970053833753   -0.008200429236834677   -3.3183851113632524e-05
-0.0030333578236945635   -0.008236565302896287   -5.2381810718634985e-05
-0.0028499770168983938   -0.012353064744095133   -0.00013635170806447535
-0.005261174027755363   -0.008212541838289166   -9.44997477982612e-05
-0.0030333578236945635   -0.008236565302896287   -5.2381810718634985e-05
-0.005004093632619885   -0.01236935823050933   -0.00020532189586634748
-0.004951390381896637   -0.012426090788096625   -0.0002411646152990535
-0.005179880320110607   -0.008303437020756251   -0.00014415007765218908
-0.007177725755940705   -0.012386541556417977   -0.00029065255263303387
-0.004978634650980683   -0.012396595220568817   -0.00022429276645056755
-0.005179880320110607   -0.008303437020756251   -0.00014415007765218908
-0.007432902140648238   -0.008290336628656575   -0.00019309074967462417
-0.007177725755940705   -0.012386541556417977   -0.00029065255263303387
-0.007459657781296885   -0.008266390412999007   -0.0001785456210743977
-0.004978634650980683   -0.012396595220568817   -0.00022429276645056755
-0.0072037835409260965   -0.01236427751568012   -0.00026926483997031516
-0.007459657781296885   -0.008266390412999007   -0.0001785456210743977
-0.007177725755940705   -0.012386541556417977   -0.00029065255263303387
-0.004978634650980683   -0.012396595220568817   -0.00022429276645056755
-0.007459657781296885   -0.008266390412999007   -0.0001785456210743977
-0.005207949475659652   -0.008273660515885019   -0.0001289836922458051
-0.005179880320110607   -0.008303437020756251   -0.00014415007765218908
-0.004978634650980683   -0.012396595220568817   -0.00022429276645056755
-0.007459657781296885   -0.008266390412999007   -0.0001785456210743977
-0.005179880320110607   -0.008303437020756251   -0.00014415007765218908
-0.007177725755940705   -0.012386541556417977   -0.00029065255263303387
-0.004978634650980683   -0.012396595220568817   -0.00022429276645056755
-0.005207949475659652   -0.008273660515885019   -0.0001289836922458051
-0.0072037835409260965   -0.01236427751568012   -0.00026926483997031516
-0.005004093632619885   -0.01236935823050933   -0.00020532189586634748
-0.005207949475659652   -0.008273660515885019   -0.0001289836922458051
-0.007459657781296885   -0.008266390412999007   -0.0001785456210743977
-0.0072037835409260965   -0.01236427751568012   -0.00026926483997031516
-0.007482226952443782   -0.0082411585055762   -0.0001629784321410554
-0.005004093632619885   -0.01236935823050933   -0.00020532189586634748
-0.007223352010045799   -0.012343495582268797   -0.0002461127650547676
-0.007482226952443782   -0.0082411585055762   -0.0001629784321410554
-0.0072037835409260965   -0.01236427751568012   -0.00026926483997031516
-0.005004093632619885   -0.01236935823050933   -0.00020532189586634748
-0.007482226952443782   -0.0082411585055762   -0.0001629784321410554
-0.005234693727150564   -0.008243423674225672   -0.00011240935298173506
-0.005207949475659652   -0.008273660515885019   -0.0001289836922458051
-0.005004093632619885   -0.01236935823050933   -0.00020532189586634748
-0.007482226952443782   -0.0082411585055762   -0.0001629784321410554
-0.005207949475659652   -0.008273660515885019   -0.0001289836922458051
-0.0072037835409260965   -0.01236427751568012   -0.00026926483997031516
-0.005004093632619885   -0.01236935823050933   -0.00020532189586634748
-0.005234693727150564   -0.008243423674225672   -0.00011240935298173506
-0.007223352010045799   -0.012343495582268797   -0.0002461127650547676
-0.005029644424357939   -0.01234445016470122   -0.00018435347450621858
-0.005234693727150564   -0.008243423674225672   -0.00011240935298173506
-0.007482226952443782   -0.0082411585055762   -0.0001629784321410554
-0.007223352010045799   -0.012343495582268797   -0.0002461127650547676
-0.007503552356673965   -0.008215330199959143   -0.00014596521020012701
-0.005029644424357939   -0.01234445016470122   -0.00018435347450621858
-0.007242812278289215   -0.01232518644191765   -0.00022074631243166495
-0.007503552356673965   -0.008215330199959143   -0.00014596521020012701
-0.007223352010045799   -0.012343495582268797   -0.0002461127650547676
-0.005029644424357939   -0.01234445016470122   -0.00018435347450621858
-0.007503552356673965   -0.008215330199959143   -0.00014596521020012701
-0.005261174027755363   -0.008212541838289166   -9.44997477982612e-05
-0.005234693727150564   -0.008243423674225672   -0.00011240935298173506
-0.005029644424357939   -0.01234445016470122   -0.00018435347450621858
-0.007503552356673965   -0.008215330199959143   -0.00014596521020012701
-0.005234693727150564   -0.008243423674225672   -0.00011240935298173506
-0.007223352010045799   -0.012343495582268797   -0.0002461127650547676
-0.007177725755940705   -0.012386541556417977   -0.00029065255263303387
-0.007432902140648238   -0.008290336628656575   -0.00019309074967462417
-0.009539150149050029   -0.012339408487992077   -0.00032682463875784775
-0.0072037835409260965   -0.01236427751568012   -0.00026926483997031516
-0.007432902140648238   -0.008290336628656575   -0.00019309074967462417
-0.00979511227104403   -0.00826846414699707   -0.00022857666498731337
-0.009539150149050029   -0.012339408487992077   -0.00032682463875784775
-0.009811203365598181   -0.00824867955786346   -0.00021734398766353635
-0.0072037835409260965   -0.01236427751568012   -0.00026926483997031516
-0.00954205961900106   -0.012321950382161818   -0.00030285571007202276
-0.009811203365598181   -0.00824867955786346   -0.00021734398766353635
-0.009539150149050029   -0.012339408487992077   -0.00032682463875784775
-0.0072037835409260965   -0.01236427751568012   -0.00026926483997031516
-0.009811203365598181   -0.00824867955786346   -0.00021734398766353635
-0.007459657781296885   -0.008266390412999007   -0.0001785456210743977
-0.007432902140648238   -0.008290336628656575   -0.00019309074967462417
-0.0072037835409260965   -0.01236427751568012   -0.00026926483997031516
-0.009811203365598181   -0.00824867955786346   -0.00021734398766353635
-0.007432902140648238   -0.008290336628656575   -0.00019309074967462417
-0.009539150149050029   -0.012339408487992077   -0.00032682463875784775
-0.0072037835409260965   -0.01236427751568012   -0.00026926483997031516
-0.007459657781296885   -0.008266390412999007   -0.0001785456210743977
-0.00954205961900106   -0.012321950382161818   -0.00030285571007202276
-0.007223352010045799   -0.012343495582268797   -0.0002461127650547676
-0.007459657781296885   -0.008266390412999007   -0.0001785456210743977
-0.009811203365598181   -0.00824867955786346   -0.00021734398766353635
-0.00954205961900106   -0.012321950382161818   -0.00030285571007202276
-0.009825917176785074   -0.008226159893102953   -0.0002036493615893126
-0.007223352010045799   -0.012343495582268797   -0.0002461127650547676
-0.009545228814119846   -0.012304488631562156   -0.0002753475992678911
-0.009825917176785074   -0.008226159893102953   -0.0002036493615893126
-0.00954205961900106   -0.012321950382161818   -0.00030285571007202276
-0.007223352010045799   -0.012343495582268797   -0.0002461127650547676
-0.009825917176785074   -0.008226159893102953   -0.0002036493615893126
-0.007482226952443782   -0.0082411585055762   -0.0001629784321410554
-0.007459657781296885   -0.008266390412999007   -0.0001785456210743977
-0.007223352010045799   -0.012343495582268797   -0.0002461127650547676
-0.009825917176785074   -0.008226159893102953   -0.0002036493615893126
-0.007459657781296885   -0.008266390412999007   -0.0001785456210743977
-0.00954205961900106   -0.012321950382161818   -0.00030285571007202276
-0.007223352010045799   -0.012343495582268797   -0.0002461127650547676
-0.007482226952443782   -0.0082411585055762   -0.0001629784321410554
-0.009545228814119846   -0.012304488631562156   -0.0002753475992678911
-0.007242812278289215   -0.01232518644191765   -0.00022074631243166495
-0.007482226952443782   -0.0082411585055762   -0.0001629784321410554
-0.009825917176785074   -0.008226159893102953   -0.0002036493615893126
-0.009545228814119846   -0.012304488631562156   -0.0002753475992678911
-0.009832444754137646   -0.008205890364484148   -0.00018808295576224656
-0.007242812278289215   -0.01232518644191765   -0.00022074631243166495
-0.009534827364962077   -0.01229390021963636   -0.00024471262689200316
-0.009832444754137646   -0.008205890364484148   -0.00018808295576224656
-0.009545228814119846   -0.012304488631562156   -0.0002753475992678911
-0.007242812278289215   -0.01232518644191765   -0.00022074631243166495
-0.009832444754137646   -0.008205890364484148   -0.00018808295576224656
-0.007503552356673965   -0.008215330199959143   -0.00014596521020012701
-0.007482226952443782   -0.0082411585055762   -0.0001629784321410554
-0.007242812278289215   -0.01232518644191765   -0.00022074631243166495
-0.009832444754137646   -0.008205890364484148   -0.00018808295576224656
-0.007482226952443782   -0.0082411585055762   -0.0001629784321410554
-0.009545228814119846   -0.012304488631562156   -0.0002753475992678911
0.0016265302055730301   -0.008354502436500487   4.80560204535703e-05
0.001145203613140021   -0.0042062675180379525   5.2290008904169064e-05
-0.000743582750016709   -0.008316210787291434   -2.0058746796661644e-05
0.0015764344266592243   -0.008306493445319944   6.823365828789817e-05
0.001145203613140021   -0.0042062675180379525   5.2290008904169064e-05
-0.0010717177268018505   -0.004153480137153337   2.947431965973664e-05
-0.000743582750016709   -0.008316210787291434   -2.0058746796661644e-05
-0.0011039503019310084   -0.004134426754920291   5.2901627608682466e-05
0.0015764344266592243   -0.008306493445319944   6.823365828789817e-05
-0.0007757513237504916   -0.008276729212228192   -3.4552349571904613e-06
-0.0011039503019310084   -0.004134426754920291   5.2901627608682466e-05
-0.000743582750016709   -0.008316210787291434   -2.0058746796661644e-05
0.0015764344266592243   -0.008306493445319944   6.823365828789817e-05
-0.0011039503019310084   -0.004134426754920291   5.2901627608682466e-05
0.0010444754937601645   -0.004154866844802505   0.00010993659224354732
0.001145203613140021   -0.0042062675180379525   5.2290008904169064e-05
0.0015764344266592243   -0.008306493445319944   6.823365828789817e-05
-0.0011039503019310084   -0.004134426754920291   5.2901627608682466e-05
0.001145203613140021   -0.0042062675180379525   5.2290008904169064e-05
-0.000743582750016709   -0.008316210787291434   -2.0058746796661644e-05
0.0015764344266592243   -0.008306493445319944   6.823365828789817e-05
0.0010444754937601645   -0.004154866844802505   0.00010993659224354732
-0.0007757513237504916   -0.008276729212228192   -3.4552349571904613e-06
0.0015200102687068712   -0.00825911242242335   9.765726806613583e-05
0.0010444754937601645   -0.004154866844802505   0.00010993659224354732
-0.0011039503019310084   -0.004134426754920291   5.2901627608682466e-05
-0.0007757513237504916   -0.008276729212228192   -3.4552349571904613e-06
-0.0011467139705410197   -0.004099133858517213   8.146482028037449e-05
0.0015200102687068712   -0.00825911242242335   9.765726806613583e-05
-0.0008134773965058861   -0.008235183224079077   1.6177240658004715e-05
-0.0011467139705410197   -0.004099133858517213   8.146482028037449e-05
-0.0007757513237504916   -0.008276729212228192   -3.4552349571904613e-06
0.0015200102687068712   -0.00825911242242335   9.765726806613583e-05
-0.0011467139705410197   -0.004099133858517213   8.146482028037449e-05
0.0009856708529767965   -0.004113465989451556   0.00015273227985737573
0.0010444754937601645   -0.004154866844802505   0.00010993659224354732
0.0015200102687068712   -0.00825911242242335   9.765726806613583e-05
-0.0011467139705410197   -0.004099133858517213   8.146482028037449e-05
0.0010444754937601645   -0.004154866844802505   0.00010993659224354732
-0.0007757513237504916   -0.008276729212228192   -3.4552349571904613e-06
0.0015200102687068712   -0.00825911242242335   9.765726806613583e-05
0.0009856708529767965   -0.004113465989451556   0.00015273227985737573
-0.0008134773965058861   -0.008235183224079077   1.6177240658004715e-05
0.0014510196362370763   -0.008200792303340679   0.00013011081788307966
0.0009856708529767965   -0.004113465989451556   0.00015273227985737573
-0.0011467139705410197   -0.004099133858517213   8.146482028037449e-05
-0.0008134773965058861   -0.008235183224079077   1.6177240658004715e-05
-0.0011828436110924833   -0.0040614305506359045   0.00010658438233171408
0.0014510196362370763   -0.008200792303340679   0.00013011081788307966
-0.0008526120106907978   -0.00819118174067916   3.8813339944013364e-05
-0.0011828436110924833   -0.0040614305506359045   0.00010658438233171408
-0.0008134773965058861   -0.008235183224079077   1.6177240658004715e-05
0.0014510196362370763   -0.008200792303340679   0.00013011081788307966
-0.0011828436110924833   -0.0040614305506359045   0.00010658438233171408
0.0009100205578638497   -0.0040495897038974995   0.00020184006884109914
0.0009856708529767965   -0.004113465989451556   0.00015273227985737573
0.0014510196362370763   -0.008200792303340679   0.00013011081788307966
-0.0011828436110924833   -0.0040614305506359045   0.00010658438233171408
0.0009856708529767965   -0.004113465989451556   0.00015273227985737573
-0.0008134773965058861   -0.008235183224079077   1.6177240658004715e-05
-0.000743582750016709   -0.008316210787291434   -2.0058746796661644e-05
-0.0010717177268018505   -0.004153480137153337   2.947431965973664e-05
-0.0029737728830233987   -0.008306260621715952   -8.535407164823205e-05
-0.0007757513237504916   -0.008276729212228192   -3.4552349571904613e-06
-0.0010717177268018505   -0.004153480137153337   2.947431965973664e-05
-0.0031766437176754462   -0.004216125759590082   -2.155980960216784e-05
-0.0029737728830233987   -0.008306260621715952   -8.535407164823205e-05
-0.00320667943432359   -0.004186031465000404   -4.819907210095942e-06
-0.0007757513237504916   -0.008276729212228192   -3.4552349571904613e-06
-0.0030030379434356777   -0.008272075881504462   -6.96686568319812e-05
-0.00320667943432359   -0.004186031465000404   -4.819907210095942e-06
-0.0029737728830233987   -0.008306260621715952   -8.535407164823205e-05
-0.0007757513237504916   -0.008276729212228192   -3.4552349571904613e-06
-0.00320667943432359   -0.004186031465000404   -4.819907210095942e-06
-0.0011039503019310084   -0.004134426754920291   5.2901627608682466e-05
-0.0010717177268018505   -0.004153480137153337   2.947431965973664e-05
-0.0007757513237504916   -0.008276729212228192   -3.4552349571904613e-06
-0.00320667943432359   -0.004186031465000404   -4.819907210095942e-06
-0.0010717177268018505   -0.004153480137153337   2.947431965973664e-05
-0.0029737728830233987   -0.008306260621715952   -8.535407164823205e-05
-0.0007757513237504916   -0.008276729212228192   -3.4552349571904613e-06
-0.0011039503019310084   -0.004134426754920291   5.2901627608682466e-05
-0.0030030379434356777   -0.008272075881504462   -6.96686568319812e-05
-0.0008134773965058861   -0.008235183224079077   1.6177240658004715e-05
-0.0011039503019310084   -0.004134426754920291   5.2901627608682466e-05
-0.00320667943432359   -0.004186031465000404   -4.819907210095942e-06
-0.0030030379434356777   -0.008272075881504462   -6.96686568319812e-05
-0.0032383119600301654   -0.00415180524887951   1.2993428618663385e-05
-0.0008134773965058861   -0.008235183224079077   1.6177240658004715e-05
-0.0030333578236945635   -0.008236565302896287   -5.2381810718634985e-05
-0.0032383119600301654   -0.00415180524887951   1.2993428618663385e-05
-0.0030030379434356777   -0.008272075881504462   -6.96686568319812e-05
-0.0008134773965058861   -0.008235183224079077   1.6177240658004715e-05
-0.0032383119600301654   -0.00415180524887951   1.2993428618663385e-05
-0.0011467139705410197   -0.004099133858517213   8.146482028037449e-05
-0.0011039503019310084   -0.004134426754920291   5.2901627608682466e-05
-0.0008134773965058861   -0.008235183224079077   1.6177240658004715e-05
-0.0032383119600301654   -0.00415180524887951   1.2993428618663385e-05
-0.0011039503019310084   -0.004134426754920291   5.2901627608682466e-05
-0.0030030379434356777   -0.008272075881504462   -6.96686568319812e-05
-0.0008134773965058861   -0.008235183224079077   1.6177240658004715e-05
-0.0011467139705410197   -0.004099133858517213   8.146482028037449e-05
-0.0030333578236945635   -0.008236565302896287   -5.2381810718634985e-05
-0.0008526120106907978   -0.00819118174067916   3.8813339944013364e-05
-0.0011467139705410197   -0.004099133858517213   8.146482028037449e-05
-0.0032383119600301654   -0.00415180524887951   1.2993428618663385e-05
-0.0030333578236945635   -0.008236565302896287   -5.2381810718634985e-05
-0.0032685387270473382   -0.004114290415647612   3.269659574181643e-05
-0.0008526120106907978   -0.00819118174067916   3.8813339944013364e-05
-0.003064970053833753   -0.008200429236834677   -3.3183851113632524e-05
-0.0032685387270473382   -0.004114290415647612   3.269659574181643e-05
-0.0030333578236945635   -0.008236565302896287   -5.2381810718634985e-05
-0.0008526120106907978   -0.00819118174067916   3.8813339944013364e-05
-0.0032685387270473382   -0.004114290415647612   3.269659574181643e-05
-0.0011828436110924833   -0.0040614305506359045   0.00010658438233171408
-0.0011467139705410197   -0.004099133858517213   8.146482028037449e-05
-0.0008526120106907978   -0.00819118174067916   3.8813339944013364e-05
-0.0032685387270473382   -0.004114290415647612   3.269659574181643e-05
-0.0011467139705410197   -0.004099133858517213   8.146482028037449e-05
-0.0030333578236945635   -0.008236565302896287   -5.2381810718634985e-05
-0.0029737728830233987   -0.008306260621715952   -8.535407164823205e-05
-0.0031766437176754462   -0.004216125759590082   -2.155980960216784e-05
-0.005179880320110607   -0.008303437020756251   -0.00014415007765218908
-0.0030030379434356777   -0.008272075881504462   -6.96686568319812e-05
-0.0031766437176754462   -0.004216125759590082   -2.155980960216784e-05
-0.005330997804445944   -0.004265098152068605   -7.874231543569014e-05
-0.005179880320110607   -0.008303437020756251   -0.00014415007765218908
-0.005358130644793654   -0.0042341295033184855   -6.565101453253934e-05
-0.0030030379434356777   -0.008272075881504462   -6.96686568319812e-05
-0.005207949475659652   -0.008273660515885019   -0.0001289836922458051
-0.005358130644793654   -0.0042341295033184855   -6.565101453253934e-05
-0.005179880320110607   -0.008303437020756251   -0.00014415007765218908
-0.0030030379434356777   -0.008272075881504462   -6.96686568319812e-05
-0.005358130644793654   -0.0042341295033184855   -6.565101453253934e-05
-0.00320667943432359   -0.004186031465000404   -4.819907210095942e-06
-0.0031766437176754462   -0.004216125759590082   -2.155980960216784e-05
-0.0030030379434356777   -0.008272075881504462   -6.96686568319812e-05
-0.005358130644793654   -0.0042341295033184855   -6.565101453253934e-05
-0.0031766437176754462   -0.004216125759590082   -2.155980960216784e-05
-0.005179880320110607   -0.008303437020756251   -0.00014415007765218908
-0.0030030379434356777   -0.008272075881504462   -6.96686568319812e-05
-0.00320667943432359   -0.004186031465000404   -4.819907210095942e-06
-0.005207949475659652   -0.008273660515885019   -0.0001289836922458051
-0.0030333578236945635   -0.008236565302896287   -5.2381810718634985e-05
-0.00320667943432359   -0.004186031465000404   -4.819907210095942e-06
-0.005358130644793654   -0.0042341295033184855   -6.565101453253934e-05
-0.005207949475659652   -0.008273660515885019   -0.0001289836922458051
-0.005384211226369404   -0.00420131208811609   -5.25327739588546e-05
-0.0030333578236945635   -0.008236565302896287   -5.2381810718634985e-05
-0.005234693727150564   -0.008243423674225672   -0.00011240935298173506
-0.005384211226369404   -0.00420131208811609   -5.25327739588546e-05
-0.005207949475659652   -0.008273660515885019   -0.0001289836922458051
-0.0030333578236945635   -0.008236565302896287   -5.2381810718634985e-05
-0.005384211226369404   -0.00420131208811609   -5.25327739588546e-05
-0.0032383119600301654   -0.00415180524887951   1.2993428618663385e-05
-0.00320667943432359   -0.004186031465000404   -4.819907210095942e-06
-0.0030333578236945635   -0.008236565302896287   -5.2381810718634985e-05
-0.005384211226369404   -0.00420131208811609   -5.25327739588546e-05
-0.00320667943432359   -0.004186031465000404   -4.819907210095942e-06
-0.005207949475659652   -0.008273660515885019   -0.0001289836922458051
-0.0030333578236945635   -0.008236565302896287   -5.2381810718634985e-05
-0.0032383119600301654   -0.00415180524887951   1.2993428618663385e-05
-0.005234693727150564   -0.008243423674225672   -0.00011240935298173506
-0.003064970053833753   -0.008200429236834677   -3.3183851113632524e-05
-0.0032383119600301654   -0.00415180524887951   1.2993428618663385e-05
-0.005384211226369404   -0.00420131208811609   -5.25327739588546e-05
-0.005234693727150564   -0.008243423674225672   -0.00011240935298173506
-0.005408340917007883   -0.004165695204849178   -3.817732548957785e-05
-0.003064970053833753   -0.008200429236834677   -3.3183851113632524e-05
-0.005261174027755363   -0.008212541838289166   -9.44997477982612e-05
-0.005408340917007883   -0.004165695204849178   -3.817732548957785e-05
-0.005234693727150564   -0.008243423674225672   -0.00011240935298173506
-0.003064970053833753   -0.008200429236834677   -3.3183851113632524e-05
-0.005408340917007883   -0.004165695204849178   -3.817732548957785e-05
-0.0032685387270473382   -0.004114290415647612   3.269659574181643e-05
-0.0032383119600301654   -0.00415180524887951   1.2993428618663385e-05
-0.003064970053833753   -0.008200429236834677   -3.3183851113632524e-05
-0.005408340917007883   -0.004165695204849178   -3.817732548957785e-05
-0.0032383119600301654   -0.00415180524887951   1.2993428618663385e-05
-0.005234693727150564   -0.008243423674225672   -0.00011240935298173506
-0.005179880320110607   -0.008303437020756251   -0.00014415007765218908
-0.005330997804445944   -0.004265098152068605   -7.874231543569014e-05
-0.007432902140648238   -0.008290336628656575   -0.00019309074967462417
-0.005207949475659652   -0.008273660515885019   -0.0001289836922458051
-0.005330997804445944   -0.004265098152068605   -7.874231543569014e-05
-0.0075610903023566305   -0.004285306181685231   -0.0001313859564238284
-0.007432902140648238   -0.008290336628656575   -0.00019309074967462417
-0.007585569055245086   -0.004257679153887415   -0.00012174408287333637
-0.005207949475659652   -0.008273660515885019   -0.0001289836922458051
-0.007459657781296885   -0.008266390412999007   -0.0001785456210743977
-0.007585569055245086   -0.004257679153887415   -0.00012174408287333637
-0.007432902140648238   -0.008290336628656575   -0.00019309074967462417
-0.005207949475659652   -0.008273660515885019   -0.0001289836922458051
-0.007585569055245086   -0.004257679153887415   -0.00012174408287333637
-0.005358130644793654   -0.0042341295033184855   -6.565101453253934e-05
-0.005330997804445944   -0.004265098152068605   -7.874231543569014e-05
-0.005207949475659652   -0.008273660515885019   -0.0001289836922458051
-0.007585569055245086   -0.004257679153887415   -0.00012174408287333637
-0.005330997804445944   -0.004265098152068605   -7.874231543569014e-05
-0.007432902140648238   -0.008290336628656575   -0.00019309074967462417
-0.005207949475659652   -0.008273660515885019   -0.0001289836922458051
-0.005358130644793654   -0.0042341295033184855   -6.565101453253934e-05
-0.007459657781296885   -0.008266390412999007   -0.0001785456210743977
-0.005234693727150564   -0.008243423674225672   -0.00011240935298173506
-0.005358130644793654   -0.0042341295033184855   -6.565101453253934e-05
-0.007585569055245086   -0.004257679153887415   -0.00012174408287333637
-0.007459657781296885   -0.008266390412999007   -0.0001785456210743977
-0.007607389176914277   -0.00422744064257145   -0.00011231331957722512
-0.005234693727150564   -0.008243423674225672   -0.00011240935298173506
-0.007482226952443782   -0.0082411585055762   -0.0001629784321410554
-0.007607389176914277   -0.00422744064257145   -0.00011231331957722512
-0.007459657781296885   -0.008266390412999007   -0.0001785456210743977
-0.005234693727150564   -0.008243423674225672   -0.00011240935298173506
-0.007607389176914277   -0.00422744064257145   -0.00011231331957722512
-0.005384211226369404   -0.00420131208811609   -5.25327739588546e-05
-0.005358130644793654   -0.0042341295033184855   -6.565101453253934e-05
-0.005234693727150564   -0.008243423674225672   -0.00011240935298173506
-0.007607389176914277   -0.00422744064257145   -0.00011231331957722512
-0.005358130644793654   -0.0042341295033184855   -6.565101453253934e-05
-0.007459657781296885   -0.008266390412999007   -0.0001785456210743977
-0.005234693727150564   -0.008243423674225672   -0.00011240935298173506
-0.005384211226369404   -0.00420131208811609   -5.25327739588546e-05
-0.007482226952443782   -0.0082411585055762   -0.0001629784321410554
-0.005261174027755363   -0.008212541838289166   -9.44997477982612e-05
-0.005384211226369404   -0.00420131208811609   -5.25327739588546e-05
-0.007607389176914277   -0.00422744064257145   -0.00011231331957722512
-0.007482226952443782   -0.0082411585055762   -0.0001629784321410554
-0.007627174850288597   -0.004195179486864534   -0.00010252801346285649
-0.005261174027755363   -0.008212541838289166   -9.44997477982612e-05
-0.007503552356673965   -0.008215330199959143   -0.00014596521020012701
-0.007627174850288597   -0.004195179486864534   -0.00010252801346285649
-0.007482226952443782   -0.0082411585055762   -0.0001629784321410554
-0.005261174027755363   -0.008212541838289166   -9.44997477982612e-05
-0.007627174850288597   -0.004195179486864534   -0.00010252801346285649
-0.005408340917007883   -0.004165695204849178   -3.817732548957785e-05
-0.005384211226369404   -0.00420131208811609   -5.25327739588546e-05
-0.005261174027755363   -0.008212541838289166   -9.44997477982612e-05
-0.007627174850288597   -0.004195179486864534   -0.00010252801346285649
-0.005384211226369404   -0.00420131208811609   -5.25327739588546e-05
-0.007482226952443782   -0.0082411585055762   -0.0001629784321410554
-0.007432902140648238   -0.008290336628656575   -0.00019309074967462417
-0.0075610903023566305   -0.004285306181685231   -0.0001313859564238284
-0.00979511227104403   -0.00826846414699707   -0.00022857666498731337
-0.007459657781296885   -0.008266390412999007   -0.0001785456210743977
-0.0075610903023566305   -0.004285306181685231   -0.0001313859564238284
-0.009872644994448572   -0.004287384661777113   -0.00017459735090773947
-0.00979511227104403   -0.00826846414699707   -0.00022857666498731337
-0.00989351397413271   -0.004260653623339902   -0.0001702675819862188
-0.007459657781296885   -0.008266390412999007   -0.0001785456210743977
-0.009811203365598181   -0.00824867955786346   -0.00021734398766353635
-0.00989351397413271   -0.004260653623339902   -0.0001702675819862188
-0.00979511227104403   -0.00826846414699707   -0.00022857666498731337
-0.007459657781296885   -0.008266390412999007   -0.0001785456210743977
-0.00989351397413271   -0.004260653623339902   -0.0001702675819862188
-0.007585569055245086   -0.004257679153887415   -0.00012174408287333637
-0.0075610903023566305   -0.004285306181685231   -0.0001313859564238284
-0.007459657781296885   -0.008266390412999007   -0.0001785456210743977
-0.00989351397413271   -0.004260653623339902   -0.0001702675819862188
-0.0075610903023566305   -0.004285306181685231   -0.0001313859564238284
-0.00979511227104403   -0.00826846414699707   -0.00022857666498731337
-0.007459657781296885   -0.008266390412999007   -0.0001785456210743977
-0.007585569055245086   -0.004257679153887415   -0.00012174408287333637
-0.009811203365598181   -0.00824867955786346   -0.00021734398766353635
-0.007482226952443782   -0.0082411585055762   -0.0001629784321410554
-0.007585569055245086   -0.004257679153887415   -0.00012174408287333637
-0.00989351397413271   -0.004260653623339902   -0.0001702675819862188
-0.009811203365598181   -0.00824867955786346   -0.00021734398766353635
-0.00991221095708043   -0.004231602617371835   -0.0001651684026650024
-0.007482226952443782   -0.0082411585055762   -0.0001629784321410554
-0.009825917176785074   -0.008226159893102953   -0.0002036493615893126
-0.00991221095708043   -0.004231602617371835   -0.0001651684026650024
-0.009811203365598181   -0.00824867955786346   -0.00021734398766353635
-0.007482226952443782   -0.0082411585055762   -0.0001629784321410554
-0.00991221095708043   -0.004231602617371835   -0.0001651684026650024
-0.007607389176914277   -0.00422744064257145   -0.00011231331957722512
-0.007585569055245086   -0.004257679153887415   -0.00012174408287333637
-0.007482226952443782   -0.0082411585055762   -0.0001629784321410554
-0.00991221095708043   -0.004231602617371835   -0.0001651684026650024
-0.007585569055245086   -0.004257679153887415   -0.00012174408287333637
-0.009811203365598181   -0.00824867955786346   -0.00021734398766353635
-0.007482226952443782   -0.0082411585055762   -0.0001629784321410554
-0.007607389176914277   -0.00422744064257145   -0.00011231331957722512
-0.009825917176785074   -0.008226159893102953   -0.0002036493615893126
-0.007503552356673965   -0.008215330199959143   -0.00014596521020012701
-0.007607389176914277   -0.00422744064257145   -0.00011231331957722512
-0.00991221095708043   -0.004231602617371835   -0.0001651684026650024
-0.009825917176785074   -0.008226159893102953   -0.0002036493615893126
-0.009927723432571922   -0.004200868755867515   -0.00016030481303190078
-0.007503552356673965   -0.008215330199959143   -0.00014596521020012701
-0.009832444754137646   -0.008205890364484148   -0.00018808295576224656
-0.009927723432571922   -0.004200868755867515   -0.00016030481303190078
-0.009825917176785074   -0.008226159893102953   -0.0002036493615893126
-0.007503552356673965   -0.008215330199959143   -0.00014596521020012701
-0.009927723432571922   -0.004200868755867515   -0.00016030481303190078
-0.007627174850288597   -0.004195179486864534   -0.00010252801346285649
-0.007607389176914277   -0.00422744064257145   -0.00011231331957722512
-0.007503552356673965   -0.008215330199959143   -0.00014596521020012701
-0.009927723432571922   -0.004200868755867515   -0.00016030481303190078
-0.007607389176914277   -0.00422744064257145   -0.00011231331957722512
-0.009825917176785074   -0.008226159893102953   -0.0002036493615893126
0.001145203613140021   -0.0042062675180379525   5.2290008904169064e-05
0.0   0.0   0.0
-0.0010717177268018505   -0.004153480137153337   2.947431965973664e-05
0.0010444754937601645   -0.004154866844802505   0.00010993659224354732
0.0   0.0   0.0
-0.0013385644337479022   -0.0003509510296180233   -8.54077633200472e-06
-0.0010717177268018505   -0.004153480137153337   2.947431965973664e-05
-0.0014187874200176506   -0.0002750702612138938   3.8744580442346254e-05
0.0010444754937601645   -0.004154866844802505   0.00010993659224354732
-0.0011039503019310084   -0.004134426754920291   5.2901627608682466e-05
-0.0014187874200176506   -0.0002750702612138938   3.8744580442346254e-05
-0.0010717177268018505   -0.004153480137153337   2.947431965973664e-05
0.0010444754937601645   -0.004154866844802505   0.00010993659224354732
-0.0014187874200176506   -0.0002750702612138938   3.8744580442346254e-05
0.0   0.0   0.0
0.0   0.0   0.0
0.0010444754937601645   -0.004154866844802505   0.00010993659224354732
-0.0014187874200176506   -0.0002750702612138938   3.8744580442346254e-05
0.0   0.0   0.0
-0.0010717177268018505   -0.004153480137153337   2.947431965973664e-05
0.0010444754937601645   -0.004154866844802505   0.00010993659224354732
0.0   0.0   0.0
-0.0011039503019310084   -0.004134426754920291   5.2901627608682466e-05
0.0009856708529767965   -0.004113465989451556   0.00015273227985737573
0.0   0.0   0.0
-0.0014187874200176506   -0.0002750702612138938   3.8744580442346254e-05
-0.0011039503019310084   -0.004134426754920291   5.2901627608682466e-05
-0.0014694835423226524   -0.00023881269645428037   6.642743305603642e-05
0.0009856708529767965   -0.004113465989451556   0.00015273227985737573
-0.0011467139705410197   -0.004099133858517213   8.146482028037449e-05
-0.0014694835423226524   -0.00023881269645428037   6.642743305603642e-05
-0.0011039503019310084   -0.004134426754920291   5.2901627608682466e-05
0.0009856708529767965   -0.004113465989451556   0.00015273227985737573
-0.0014694835423226524   -0.00023881269645428037   6.642743305603642e-05
0.0   0.0   0.0
0.0   0.0   0.0
0.0009856708529767965   -0.004113465989451556   0.00015273227985737573
-0.0014694835423226524   -0.00023881269645428037   6.642743305603642e-05
0.0   0.0   0.0
-0.0011039503019310084   -0.004134426754920291   5.2901627608682466e-05
0.0009856708529767965   -0.004113465989451556   0.00015273227985737573
0.0   0.0   0.0
-0.0011467139705410197   -0.004099133858517213   8.146482028037449e-05
0.0009100205578638497   -0.0040495897038974995   0.00020184006884109914
0.0   0.0   0.0
-0.0014694835423226524   -0.00023881269645428037   6.642743305603642e-05
-0.0011467139705410197   -0.004099133858517213   8.146482028037449e-05
-0.0015380615257983275   -0.00019046665194366507   9.827694368966999e-05
0.0009100205578638497   -0.0040495897038974995   0.00020184006884109914
-0.0011828436110924833   -0.0040614305506359045   0.00010658438233171408
-0.0015380615257983275   -0.00019046665194366507   9.827694368966999e-05
-0.0011467139705410197   -0.004099133858517213   8.146482028037449e-05
0.0009100205578638497   -0.0040495897038974995   0.00020184006884109914
-0.0015380615257983275   -0.00019046665194366507   9.827694368966999e-05
0.0   0.0   0.0
0.0   0.0   0.0
0.0009100205578638497   -0.0040495897038974995   0.00020184006884109914
-0.0015380615257983275   -0.00019046665194366507   9.827694368966999e-05
0.0   0.0   0.0
-0.0011467139705410197   -0.004099133858517213   8.146482028037449e-05
-0.0010717177268018505   -0.004153480137153337   2.947431965973664e-05
-0.0013385644337479022   -0.0003509510296180233   -8.54077633200472e-06
-0.0031766437176754462   -0.004216125759590082   -2.155980960216784e-05
-0.0011039503019310084   -0.004134426754920291   5.2901627608682466e-05
-0.0013385644337479022   -0.0003509510296180233   -8.54077633200472e-06
-0.003268901663070692   -0.0004639403741527357   -4.07219056249923e-06
-0.0031766437176754462   -0.004216125759590082   -2.155980960216784e-05
-0.003310697681188855   -0.0004231215416172087   8.57421999557245e-06
-0.0011039503019310084   -0.004134426754920291   5.2901627608682466e-05
-0.00320667943432359   -0.004186031465000404   -4.819907210095942e-06
-0.003310697681188855   -0.0004231215416172087   8.57421999557245e-06
-0.0031766437176754462   -0.004216125759590082   -2.155980960216784e-05
-0.0011039503019310084   -0.004134426754920291   5.2901627608682466e-05
-0.003310697681188855   -0.0004231215416172087   8.57421999557245e-06
-0.0014187874200176506   -0.0002750702612138938   3.8744580442346254e-05
-0.0013385644337479022   -0.0003509510296180233   -8.54077633200472e-06
-0.0011039503019310084   -0.004134426754920291   5.2901627608682466e-05
-0.003310697681188855   -0.0004231215416172087   8.57421999557245e-06
-0.0013385644337479022   -0.0003509510296180233   -8.54077633200472e-06
-0.0031766437176754462   -0.004216125759590082   -2.155980960216784e-05
-0.0011039503019310084   -0.004134426754920291   5.2901627608682466e-05
-0.0014187874200176506   -0.0002750702612138938   3.8744580442346254e-05
-0.00320667943432359   -0.004186031465000404   -4.819907210095942e-06
-0.0011467139705410197   -0.004099133858517213   8.146482028037449e-05
-0.0014187874200176506   -0.0002750702612138938   3.8744580442346254e-05
-0.003310697681188855   -0.0004231215416172087   8.57421999557245e-06
-0.00320667943432359   -0.004186031465000404   -4.819907210095942e-06
-0.0033524793188804626   -0.000375188198071539   3.0828972859699935e-05
-0.0011467139705410197   -0.004099133858517213   8.146482028037449e-05
-0.0032383119600301654   -0.00415180524887951   1.2993428618663385e-05
-0.0033524793188804626   -0.000375188198071539   3.0828972859699935e-05
-0.00320667943432359   -0.004186031465000404   -4.819907210095942e-06
-0.0011467139705410197   -0.004099133858517213   8.146482028037449e-05
-0.0033524793188804626   -0.000375188198071539   3.0828972859699935e-05
-0.0014694835423226524   -0.00023881269645428037   6.642743305603642e-05
-0.0014187874200176506   -0.0002750702612138938   3.8744580442346254e-05
-0.0011467139705410197   -0.004099133858517213   8.146482028037449e-05
-0.0033524793188804626   -0.000375188198071539   3.0828972859699935e-05
-0.0014187874200176506   -0.0002750702612138938   3.8744580442346254e-05
-0.00320667943432359   -0.004186031465000404   -4.819907210095942e-06
-0.0011467139705410197   -0.004099133858517213   8.146482028037449e-05
-0.0014694835423226524   -0.00023881269645428037   6.642743305603642e-05
-0.0032383119600301654   -0.00415180524887951   1.2993428618663385e-05
-0.0011828436110924833   -0.0040614305506359045   0.00010658438233171408
-0.0014694835423226524   -0.00023881269645428037   6.642743305603642e-05
-0.0033524793188804626   -0.000375188198071539   3.0828972859699935e-05
-0.0032383119600301654   -0.00415180524887951   1.2993428618663385e-05
-0.003399375385905267   -0.0003193747102055437   5.238652237024821e-05
-0.0011828436110924833   -0.0040614305506359045   0.00010658438233171408
-0.0032685387270473382   -0.004114290415647612   3.269659574181643e-05
-0.003399375385905267   -0.0003193747102055437   5.238652237024821e-05
-0.0032383119600301654   -0.00415180524887951   1.2993428618663385e-05
-0.0011828436110924833   -0.0040614305506359045   0.00010658438233171408
-0.003399375385905267   -0.0003193747102055437   5.238652237024821e-05
-0.0015380615257983275   -0.00019046665194366507   9.827694368966999e-05
-0.0014694835423226524   -0.00023881269645428037   6.642743305603642e-05
-0.0011828436110924833   -0.0040614305506359045   0.00010658438233171408
-0.003399375385905267   -0.0003193747102055437   5.238652237024821e-05
-0.0014694835423226524   -0.00023881269645428037   6.642743305603642e-05
-0.0032383119600301654   -0.00415180524887951   1.2993428618663385e-05
-0.0031766437176754462   -0.004216125759590082   -2.155980960216784e-05
-0.003268901663070692   -0.0004639403741527357   -4.07219056249923e-06
-0.005330997804445944   -0.004265098152068605   -7.874231543569014e-05
-0.00320667943432359   -0.004186031465000404   -4.819907210095942e-06
-0.003268901663070692   -0.0004639403741527357   -4.07219056249923e-06
-0.00538290131181571   -0.0004978799553398287   -3.880029996472183e-05
-0.005330997804445944   -0.004265098152068605   -7.874231543569014e-05
-0.005408517725703221   -0.00046676793185277716   -3.506510180042741e-05
-0.00320667943432359   -0.004186031465000404   -4.819907210095942e-06
-0.005358130644793654   -0.0042341295033184855   -6.565101453253934e-05
-0.005408517725703221   -0.00046676793185277716   -3.506510180042741e-05
-0.005330997804445944   -0.004265098152068605   -7.874231543569014e-05
-0.00320667943432359   -0.004186031465000404   -4.819907210095942e-06
-0.005408517725703221   -0.00046676793185277716   -3.506510180042741e-05
-0.003310697681188855   -0.0004231215416172087   8.57421999557245e-06
-0.003268901663070692   -0.0004639403741527357   -4.07219056249923e-06
-0.00320667943432359   -0.004186031465000404   -4.819907210095942e-06
-0.005408517725703221   -0.00046676793185277716   -3.506510180042741e-05
-0.003268901663070692   -0.0004639403741527357   -4.07219056249923e-06
-0.005330997804445944   -0.004265098152068605   -7.874231543569014e-05
-0.00320667943432359   -0.004186031465000404   -4.819907210095942e-06
-0.003310697681188855   -0.0004231215416172087   8.57421999557245e-06
-0.005358130644793654   -0.0042341295033184855   -6.565101453253934e-05
-0.0032383119600301654   -0.00415180524887951   1.2993428618663385e-05
-0.003310697681188855   -0.0004231215416172087   8.57421999557245e-06
-0.005408517725703221   -0.00046676793185277716   -3.506510180042741e-05
-0.005358130644793654   -0.0042341295033184855   -6.565101453253934e-05
-0.005435200013304247   -0.000430300276139772   -2.8643115216085645e-05
-0.0032383119600301654   -0.00415180524887951   1.2993428618663385e-05
-0.005384211226369404   -0.00420131208811609   -5.25327739588546e-05
-0.005435200013304247   -0.000430300276139772   -2.8643115216085645e-05
-0.005358130644793654   -0.0042341295033184855   -6.565101453253934e-05
-0.0032383119600301654   -0.00415180524887951   1.2993428618663385e-05
-0.005435200013304247   -0.000430300276139772   -2.8643115216085645e-05
-0.0033524793188804626   -0.000375188198071539   3.0828972859699935e-05
-0.003310697681188855   -0.0004231215416172087   8.57421999557245e-06
-0.0032383119600301654   -0.00415180524887951   1.2993428618663385e-05
-0.005435200013304247   -0.000430300276139772   -2.8643115216085645e-05
-0.003310697681188855   -0.0004231215416172087   8.57421999557245e-06
-0.005358130644793654   -0.0042341295033184855   -6.565101453253934e-05
-0.0032383119600301654   -0.00415180524887951   1.2993428618663385e-05
-0.0033524793188804626   -0.000375188198071539   3.0828972859699935e-05
-0.005384211226369404   -0.00420131208811609   -5.25327739588546e-05
-0.0032685387270473382   -0.004114290415647612   3.269659574181643e-05
-0.0033524793188804626   -0.000375188198071539   3.0828972859699935e-05
-0.005435200013304247   -0.000430300276139772   -2.8643115216085645e-05
-0.005384211226369404   -0.00420131208811609   -5.25327739588546e-05
-0.0054610377977493746   -0.000385336677302913   -2.0144357382883302e-05
-0.0032685387270473382   -0.004114290415647612   3.269659574181643e-05
-0.005408340917007883   -0.004165695204849178   -3.817732548957785e-05
-0.0054610377977493746   -0.000385336677302913   -2.0144357382883302e-05
-0.005384211226369404   -0.00420131208811609   -5.25327739588546e-05
-0.0032685387270473382   -0.004114290415647612   3.269659574181643e-05
-0.0054610377977493746   -0.000385336677302913   -2.0144357382883302e-05
-0.003399375385905267   -0.0003193747102055437   5.238652237024821e-05
-0.0033524793188804626   -0.000375188198071539   3.0828972859699935e-05
-0.0032685387270473382   -0.004114290415647612   3.269659574181643e-05
-0.0054610377977493746   -0.000385336677302913   -2.0144357382883302e-05
-0.0033524793188804626   -0.000375188198071539   3.0828972859699935e-05
-0.005384211226369404   -0.00420131208811609   -5.25327739588546e-05
-0.005330997804445944   -0.004265098152068605   -7.874231543569014e-05
-0.00538290131181571   -0.0004978799553398287   -3.880029996472183e-05
-0.0075610903023566305   -0.004285306181685231   -0.0001313859564238284
-0.005358130644793654   -0.0042341295033184855   -6.565101453253934e-05
-0.00538290131181571   -0.0004978799553398287   -3.880029996472183e-05
-0.007600614666487517   -0.0004947487494321438   -9.059339262184114e-05
-0.0075610903023566305   -0.004285306181685231   -0.0001313859564238284
-0.00761798311321476   -0.0004673273277477684   -8.895915490593236e-05
-0.005358130644793654   -0.0042341295033184855   -6.565101453253934e-05
-0.007585569055245086   -0.004257679153887415   -0.00012174408287333637
-0.00761798311321476   -0.0004673273277477684   -8.895915490593236e-05
-0.0075610903023566305   -0.004285306181685231   -0.0001313859564238284
-0.005358130644793654   -0.0042341295033184855   -6.565101453253934e-05
-0.00761798311321476   -0.0004673273277477684   -8.895915490593236e-05
-0.005408517725703221   -0.00046676793185277716   -3.506510180042741e-05
-0.00538290131181571   -0.0004978799553398287   -3.880029996472183e-05
-0.005358130644793654   -0.0042341295033184855   -6.565101453253934e-05
-0.00761798311321476   -0.0004673273277477684   -8.895915490593236e-05
-0.00538290131181571   -0.0004978799553398287   -3.880029996472183e-05
-0.0075610903023566305   -0.004285306181685231   -0.0001313859564238284
-0.005358130644793654   -0.0042341295033184855   -6.565101453253934e-05
-0.005408517725703221   -0.00046676793185277716   -3.506510180042741e-05
-0.007585569055245086   -0.004257679153887415   -0.00012174408287333637
-0.005384211226369404   -0.00420131208811609   -5.25327739588546e-05
-0.005408517725703221   -0.00046676793185277716   -3.506510180042741e-05
-0.00761798311321476   -0.0004673273277477684   -8.895915490593236e-05
-0.007585569055245086   -0.004257679153887415   -0.00012174408287333637
-0.007636087787454012   -0.00043646127236810314   -8.76264010042818e-05
-0.005384211226369404   -0.00420131208811609   -5.25327739588546e-05
-0.007607389176914277   -0.00422744064257145   -0.00011231331957722512
-0.007636087787454012   -0.00043646127236810314   -8.76264010042818e-05
-0.007585569055245086   -0.004257679153887415   -0.00012174408287333637
-0.005384211226369404   -0.00420131208811609   -5.25327739588546e-05
-0.007636087787454012   -0.00043646127236810314   -8.76264010042818e-05
-0.005435200013304247   -0.000430300276139772   -2.8643115216085645e-05
-0.005408517725703221   -0.00046676793185277716   -3.506510180042741e-05
-0.005384211226369404   -0.00420131208811609   -5.25327739588546e-05
-0.007636087787454012   -0.00043646127236810314   -8.76264010042818e-05
-0.005408517725703221   -0.00046676793185277716   -3.506510180042741e-05
-0.007585569055245086   -0.004257679153887415   -0.00012174408287333637
-0.005384211226369404   -0.00420131208811609   -5.25327739588546e-05
-0.005435200013304247   -0.000430300276139772   -2.8643115216085645e-05
-0.007607389176914277   -0.00422744064257145   -0.00011231331957722512
-0.005408340917007883   -0.004165695204849178   -3.817732548957785e-05
-0.005435200013304247   -0.000430300276139772   -2.8643115216085645e-05
-0.007636087787454012   -0.00043646127236810314   -8.76264010042818e-05
-0.007607389176914277   -0.00422744064257145   -0.00011231331957722512
-0.007650201264096275   -0.00040269093615159535   -8.665366407288618e-05
-0.005408340917007883   -0.004165695204849178   -3.817732548957785e-05
-0.007627174850288597   -0.004195179486864534   -0.00010252801346285649
-0.007650201264096275   -0.00040269093615159535   -8.665366407288618e-05
-0.007607389176914277   -0.00422744064257145   -0.00011231331957722512
-0.005408340917007883   -0.004165695204849178   -3.817732548957785e-05
-0.007650201264096275   -0.00040269093615159535   -8.665366407288618e-05
-0.0054610377977493746   -0.000385336677302913   -2.0144357382883302e-05
-0.005435200013304247   -0.000430300276139772   -2.8643115216085645e-05
-0.005408340917007883   -0.004165695204849178   -3.817732548957785e-05
-0.007650201264096275   -0.00040269093615159535   -8.665366407288618e-05
-0.005435200013304247   -0.000430300276139772   -2.8643115216085645e-05
-0.007607389176914277   -0.00422744064257145   -0.00011231331957722512
-0.0075610903023566305   -0.004285306181685231   -0.0001313859564238284
-0.007600614666487517   -0.0004947487494321438   -9.059339262184114e-05
-0.009872644994448572   -0.004287384661777113   -0.00017459735090773947
-0.007585569055245086   -0.004257679153887415   -0.00012174408287333637
-0.007600614666487517   -0.0004947487494321438   -9.059339262184114e-05
-0.009881033737156576   -0.0004916032579118263   -0.0001417526676388742
-0.009872644994448572   -0.004287384661777113   -0.00017459735090773947
-0.00989495875497512   -0.0004619843675587354   -0.00014161318855592526
-0.007585569055245086   -0.004257679153887415   -0.00012174408287333637
-0.00989351397413271   -0.004260653623339902   -0.0001702675819862188
-0.00989495875497512   -0.0004619843675587354   -0.00014161318855592526
-0.009872644994448572   -0.004287384661777113   -0.00017459735090773947
-0.007585569055245086   -0.004257679153887415   -0.00012174408287333637
-0.00989495875497512   -0.0004619843675587354   -0.00014161318855592526
-0.00761798311321476   -0.0004673273277477684   -8.895915490593236e-05
-0.007600614666487517   -0.0004947487494321438   -9.059339262184114e-05
-0.007585569055245086   -0.004257679153887415   -0.00012174408287333637
-0.00989495875497512   -0.0004619843675587354   -0.00014161318855592526
-0.007600614666487517   -0.0004947487494321438   -9.059339262184114e-05
-0.009872644994448572   -0.004287384661777113   -0.00017459735090773947
-0.007585569055245086   -0.004257679153887415   -0.00012174408287333637
-0.00761798311321476   -0.0004673273277477684   -8.895915490593236e-05
-0.00989351397413271   -0.004260653623339902   -0.0001702675819862188
-0.007607389176914277   -0.00422744064257145   -0.00011231331957722512
-0.00761798311321476   -0.0004673273277477684   -8.895915490593236e-05
-0.00989495875497512   -0.0004619843675587354   -0.00014161318855592526
-0.00989351397413271   -0.004260653623339902   -0.0001702675819862188
-0.009910213340910972   -0.00043216143886763177   -0.00014379717561708409
-0.007607389176914277   -0.00422744064257145   -0.00011231331957722512
-0.00991221095708043   -0.004231602617371835   -0.0001651684026650024
-0.009910213340910972   -0.00043216143886763177   -0.00014379717561708409
-0.00989351397413271   -0.004260653623339902   -0.0001702675819862188
-0.007607389176914277   -0.00422744064257145   -0.00011231331957722512
-0.009910213340910972   -0.00043216143886763177   -0.00014379717561708409
-0.007636087787454012   -0.00043646127236810314   -8.76264010042818e-05
-0.00761798311321476   -0.0004673273277477684   -8.895915490593236e-05
-0.007607389176914277   -0.00422744064257145   -0.00011231331957722512
-0.009910213340910972   -0.00043216143886763177   -0.00014379717561708409
-0.00761798311321476   -0.0004673273277477684   -8.895915490593236e-05
-0.00989351397413271   -0.004260653623339902   -0.0001702675819862188
-0.007607389176914277   -0.00422744064257145   -0.00011231331957722512
-0.007636087787454012   -0.00043646127236810314   -8.76264010042818e-05
-0.00991221095708043   -0.004231602617371835   -0.0001651684026650024
-0.007627174850288597   -0.004195179486864534   -0.00010252801346285649
-0.007636087787454012   -0.00043646127236810314   -8.76264010042818e-05
-0.009910213340910972   -0.00043216143886763177   -0.00014379717561708409
-0.00991221095708043   -0.004231602617371835   -0.0001651684026650024
-0.009921570736568474   -0.00039952955315406067   -0.0001460643598024216
-0.007627174850288597   -0.004195179486864534   -0.00010252801346285649
-0.009927723432571922   -0.004200868755867515   -0.00016030481303190078
-0.009921570736568474   -0.00039952955315406067   -0.0001460643598024216
-0.00991221095708043   -0.004231602617371835   -0.0001651684026650024
-0.007627174850288597   -0.004195179486864534   -0.00010252801346285649
-0.009921570736568474   -0.00039952955315406067   -0.0001460643598024216
-0.007650201264096275   -0.00040269093615159535   -8.665366407288618e-05
-0.007636087787454012   -0.00043646127236810314   -8.76264010042818e-05
-0.007627174850288597   -0.004195179486864534   -0.00010252801346285649
-0.009921570736568474   -0.00039952955315406067   -0.0001460643598024216
-0.007636087787454012   -0.00043646127236810314   -8.76264010042818e-05
-0.00991221095708043   -0.004231602617371835   -0.0001651684026650024
              </DataArray>   
          </PointData>  
       </Piece>  
   </UnstructuredGrid> 
</VTKFile> 
