<?xml version="1.0"?> 
<VTKFile type="UnstructuredGrid"> 
   <UnstructuredGrid> 
      <Piece NumberOfPoints="6000"  NumberOfCells="1500">  
          <Points>  
             <DataArray type="Float64" NumberOfComponents="3" format="ascii">   
-500.0   0.0   0.0
-450.0   0.0   0.0
-500.0   30.0   0.0
-500.0   0.0   16.666666666666668
-450.0   0.0   0.0
-450.0   30.0   0.0
-500.0   30.0   0.0
-450.0   30.0   16.666666666666668
-500.0   0.0   16.666666666666668
-500.0   30.0   16.666666666666668
-450.0   30.0   16.666666666666668
-500.0   30.0   0.0
-500.0   0.0   16.666666666666668
-450.0   30.0   16.666666666666668
-450.0   0.0   16.666666666666668
-450.0   0.0   0.0
-500.0   0.0   16.666666666666668
-450.0   30.0   16.666666666666668
-450.0   0.0   0.0
-500.0   30.0   0.0
-500.0   0.0   16.666666666666668
-450.0   0.0   16.666666666666668
-500.0   30.0   16.666666666666668
-500.0   0.0   33.333333333333336
-450.0   0.0   16.666666666666668
-450.0   30.0   16.666666666666668
-500.0   30.0   16.666666666666668
-450.0   30.0   33.333333333333336
-500.0   0.0   33.333333333333336
-500.0   30.0   33.333333333333336
-450.0   30.0   33.333333333333336
-500.0   30.0   16.666666666666668
-500.0   0.0   33.333333333333336
-450.0   30.0   33.333333333333336
-450.0   0.0   33.333333333333336
-450.0   0.0   16.666666666666668
-500.0   0.0   33.333333333333336
-450.0   30.0   33.333333333333336
-450.0   0.0   16.666666666666668
-500.0   30.0   16.666666666666668
-500.0   0.0   33.333333333333336
-450.0   0.0   33.333333333333336
-500.0   30.0   33.333333333333336
-500.0   0.0   50.0
-450.0   0.0   33.333333333333336
-450.0   30.0   33.333333333333336
-500.0   30.0   33.333333333333336
-450.0   30.0   50.0
-500.0   0.0   50.0
-500.0   30.0   50.0
-450.0   30.0   50.0
-500.0   30.0   33.333333333333336
-500.0   0.0   50.0
-450.0   30.0   50.0
-450.0   0.0   50.0
-450.0   0.0   33.333333333333336
-500.0   0.0   50.0
-450.0   30.0   50.0
-450.0   0.0   33.333333333333336
-500.0   30.0   33.333333333333336
-500.0   30.0   0.0
-450.0   30.0   0.0
-500.0   60.0   0.0
-500.0   30.0   16.666666666666668
-450.0   30.0   0.0
-450.0   60.0   0.0
-500.0   60.0   0.0
-450.0   60.0   16.666666666666668
-500.0   30.0   16.666666666666668
-500.0   60.0   16.666666666666668
-450.0   60.0   16.666666666666668
-500.0   60.0   0.0
-500.0   30.0   16.666666666666668
-450.0   60.0   16.666666666666668
-450.0   30.0   16.666666666666668
-450.0   30.0   0.0
-500.0   30.0   16.666666666666668
-450.0   60.0   16.666666666666668
-450.0   30.0   0.0
-500.0   60.0   0.0
-500.0   30.0   16.666666666666668
-450.0   30.0   16.666666666666668
-500.0   60.0   16.666666666666668
-500.0   30.0   33.333333333333336
-450.0   30.0   16.666666666666668
-450.0   60.0   16.666666666666668
-500.0   60.0   16.666666666666668
-450.0   60.0   33.333333333333336
-500.0   30.0   33.333333333333336
-500.0   60.0   33.333333333333336
-450.0   60.0   33.333333333333336
-500.0   60.0   16.666666666666668
-500.0   30.0   33.333333333333336
-450.0   60.0   33.333333333333336
-450.0   30.0   33.333333333333336
-450.0   30.0   16.666666666666668
-500.0   30.0   33.333333333333336
-450.0   60.0   33.333333333333336
-450.0   30.0   16.666666666666668
-500.0   60.0   16.666666666666668
-500.0   30.0   33.333333333333336
-450.0   30.0   33.333333333333336
-500.0   60.0   33.333333333333336
-500.0   30.0   50.0
-450.0   30.0   33.333333333333336
-450.0   60.0   33.333333333333336
-500.0   60.0   33.333333333333336
-450.0   60.0   50.0
-500.0   30.0   50.0
-500.0   60.0   50.0
-450.0   60.0   50.0
-500.0   60.0   33.333333333333336
-500.0   30.0   50.0
-450.0   60.0   50.0
-450.0   30.0   50.0
-450.0   30.0   33.333333333333336
-500.0   30.0   50.0
-450.0   60.0   50.0
-450.0   30.0   33.333333333333336
-500.0   60.0   33.333333333333336
-500.0   60.0   0.0
-450.0   60.0   0.0
-500.0   90.0   0.0
-500.0   60.0   16.666666666666668
-450.0   60.0   0.0
-450.0   90.0   0.0
-500.0   90.0   0.0
-450.0   90.0   16.666666666666668
-500.0   60.0   16.666666666666668
-500.0   90.0   16.666666666666668
-450.0   90.0   16.666666666666668
-500.0   90.0   0.0
-500.0   60.0   16.666666666666668
-450.0   90.0   16.666666666666668
-450.0   60.0   16.666666666666668
-450.0   60.0   0.0
-500.0   60.0   16.666666666666668
-450.0   90.0   16.666666666666668
-450.0   60.0   0.0
-500.0   90.0   0.0
-500.0   60.0   16.666666666666668
-450.0   60.0   16.666666666666668
-500.0   90.0   16.666666666666668
-500.0   60.0   33.333333333333336
-450.0   60.0   16.666666666666668
-450.0   90.0   16.666666666666668
-500.0   90.0   16.666666666666668
-450.0   90.0   33.333333333333336
-500.0   60.0   33.333333333333336
-500.0   90.0   33.333333333333336
-450.0   90.0   33.333333333333336
-500.0   90.0   16.666666666666668
-500.0   60.0   33.333333333333336
-450.0   90.0   33.333333333333336
-450.0   60.0   33.333333333333336
-450.0   60.0   16.666666666666668
-500.0   60.0   33.333333333333336
-450.0   90.0   33.333333333333336
-450.0   60.0   16.666666666666668
-500.0   90.0   16.666666666666668
-500.0   60.0   33.333333333333336
-450.0   60.0   33.333333333333336
-500.0   90.0   33.333333333333336
-500.0   60.0   50.0
-450.0   60.0   33.333333333333336
-450.0   90.0   33.333333333333336
-500.0   90.0   33.333333333333336
-450.0   90.0   50.0
-500.0   60.0   50.0
-500.0   90.0   50.0
-450.0   90.0   50.0
-500.0   90.0   33.333333333333336
-500.0   60.0   50.0
-450.0   90.0   50.0
-450.0   60.0   50.0
-450.0   60.0   33.333333333333336
-500.0   60.0   50.0
-450.0   90.0   50.0
-450.0   60.0   33.333333333333336
-500.0   90.0   33.333333333333336
-500.0   90.0   0.0
-450.0   90.0   0.0
-500.0   120.0   0.0
-500.0   90.0   16.666666666666668
-450.0   90.0   0.0
-450.0   120.0   0.0
-500.0   120.0   0.0
-450.0   120.0   16.666666666666668
-500.0   90.0   16.666666666666668
-500.0   120.0   16.666666666666668
-450.0   120.0   16.666666666666668
-500.0   120.0   0.0
-500.0   90.0   16.666666666666668
-450.0   120.0   16.666666666666668
-450.0   90.0   16.666666666666668
-450.0   90.0   0.0
-500.0   90.0   16.666666666666668
-450.0   120.0   16.666666666666668
-450.0   90.0   0.0
-500.0   120.0   0.0
-500.0   90.0   16.666666666666668
-450.0   90.0   16.666666666666668
-500.0   120.0   16.666666666666668
-500.0   90.0   33.333333333333336
-450.0   90.0   16.666666666666668
-450.0   120.0   16.666666666666668
-500.0   120.0   16.666666666666668
-450.0   120.0   33.333333333333336
-500.0   90.0   33.333333333333336
-500.0   120.0   33.333333333333336
-450.0   120.0   33.333333333333336
-500.0   120.0   16.666666666666668
-500.0   90.0   33.333333333333336
-450.0   120.0   33.333333333333336
-450.0   90.0   33.333333333333336
-450.0   90.0   16.666666666666668
-500.0   90.0   33.333333333333336
-450.0   120.0   33.333333333333336
-450.0   90.0   16.666666666666668
-500.0   120.0   16.666666666666668
-500.0   90.0   33.333333333333336
-450.0   90.0   33.333333333333336
-500.0   120.0   33.333333333333336
-500.0   90.0   50.0
-450.0   90.0   33.333333333333336
-450.0   120.0   33.333333333333336
-500.0   120.0   33.333333333333336
-450.0   120.0   50.0
-500.0   90.0   50.0
-500.0   120.0   50.0
-450.0   120.0   50.0
-500.0   120.0   33.333333333333336
-500.0   90.0   50.0
-450.0   120.0   50.0
-450.0   90.0   50.0
-450.0   90.0   33.333333333333336
-500.0   90.0   50.0
-450.0   120.0   50.0
-450.0   90.0   33.333333333333336
-500.0   120.0   33.333333333333336
-500.0   120.0   0.0
-450.0   120.0   0.0
-500.0   150.0   0.0
-500.0   120.0   16.666666666666668
-450.0   120.0   0.0
-450.0   150.0   0.0
-500.0   150.0   0.0
-450.0   150.0   16.666666666666668
-500.0   120.0   16.666666666666668
-500.0   150.0   16.666666666666668
-450.0   150.0   16.666666666666668
-500.0   150.0   0.0
-500.0   120.0   16.666666666666668
-450.0   150.0   16.666666666666668
-450.0   120.0   16.666666666666668
-450.0   120.0   0.0
-500.0   120.0   16.666666666666668
-450.0   150.0   16.666666666666668
-450.0   120.0   0.0
-500.0   150.0   0.0
-500.0   120.0   16.666666666666668
-450.0   120.0   16.666666666666668
-500.0   150.0   16.666666666666668
-500.0   120.0   33.333333333333336
-450.0   120.0   16.666666666666668
-450.0   150.0   16.666666666666668
-500.0   150.0   16.666666666666668
-450.0   150.0   33.333333333333336
-500.0   120.0   33.333333333333336
-500.0   150.0   33.333333333333336
-450.0   150.0   33.333333333333336
-500.0   150.0   16.666666666666668
-500.0   120.0   33.333333333333336
-450.0   150.0   33.333333333333336
-450.0   120.0   33.333333333333336
-450.0   120.0   16.666666666666668
-500.0   120.0   33.333333333333336
-450.0   150.0   33.333333333333336
-450.0   120.0   16.666666666666668
-500.0   150.0   16.666666666666668
-500.0   120.0   33.333333333333336
-450.0   120.0   33.333333333333336
-500.0   150.0   33.333333333333336
-500.0   120.0   50.0
-450.0   120.0   33.333333333333336
-450.0   150.0   33.333333333333336
-500.0   150.0   33.333333333333336
-450.0   150.0   50.0
-500.0   120.0   50.0
-500.0   150.0   50.0
-450.0   150.0   50.0
-500.0   150.0   33.333333333333336
-500.0   120.0   50.0
-450.0   150.0   50.0
-450.0   120.0   50.0
-450.0   120.0   33.333333333333336
-500.0   120.0   50.0
-450.0   150.0   50.0
-450.0   120.0   33.333333333333336
-500.0   150.0   33.333333333333336
-450.0   0.0   0.0
-400.0   0.0   0.0
-450.0   30.0   0.0
-450.0   0.0   16.666666666666668
-400.0   0.0   0.0
-400.0   30.0   0.0
-450.0   30.0   0.0
-400.0   30.0   16.666666666666668
-450.0   0.0   16.666666666666668
-450.0   30.0   16.666666666666668
-400.0   30.0   16.666666666666668
-450.0   30.0   0.0
-450.0   0.0   16.666666666666668
-400.0   30.0   16.666666666666668
-400.0   0.0   16.666666666666668
-400.0   0.0   0.0
-450.0   0.0   16.666666666666668
-400.0   30.0   16.666666666666668
-400.0   0.0   0.0
-450.0   30.0   0.0
-450.0   0.0   16.666666666666668
-400.0   0.0   16.666666666666668
-450.0   30.0   16.666666666666668
-450.0   0.0   33.333333333333336
-400.0   0.0   16.666666666666668
-400.0   30.0   16.666666666666668
-450.0   30.0   16.666666666666668
-400.0   30.0   33.333333333333336
-450.0   0.0   33.333333333333336
-450.0   30.0   33.333333333333336
-400.0   30.0   33.333333333333336
-450.0   30.0   16.666666666666668
-450.0   0.0   33.333333333333336
-400.0   30.0   33.333333333333336
-400.0   0.0   33.333333333333336
-400.0   0.0   16.666666666666668
-450.0   0.0   33.333333333333336
-400.0   30.0   33.333333333333336
-400.0   0.0   16.666666666666668
-450.0   30.0   16.666666666666668
-450.0   0.0   33.333333333333336
-400.0   0.0   33.333333333333336
-450.0   30.0   33.333333333333336
-450.0   0.0   50.0
-400.0   0.0   33.333333333333336
-400.0   30.0   33.333333333333336
-450.0   30.0   33.333333333333336
-400.0   30.0   50.0
-450.0   0.0   50.0
-450.0   30.0   50.0
-400.0   30.0   50.0
-450.0   30.0   33.333333333333336
-450.0   0.0   50.0
-400.0   30.0   50.0
-400.0   0.0   50.0
-400.0   0.0   33.333333333333336
-450.0   0.0   50.0
-400.0   30.0   50.0
-400.0   0.0   33.333333333333336
-450.0   30.0   33.333333333333336
-450.0   30.0   0.0
-400.0   30.0   0.0
-450.0   60.0   0.0
-450.0   30.0   16.666666666666668
-400.0   30.0   0.0
-400.0   60.0   0.0
-450.0   60.0   0.0
-400.0   60.0   16.666666666666668
-450.0   30.0   16.666666666666668
-450.0   60.0   16.666666666666668
-400.0   60.0   16.666666666666668
-450.0   60.0   0.0
-450.0   30.0   16.666666666666668
-400.0   60.0   16.666666666666668
-400.0   30.0   16.666666666666668
-400.0   30.0   0.0
-450.0   30.0   16.666666666666668
-400.0   60.0   16.666666666666668
-400.0   30.0   0.0
-450.0   60.0   0.0
-450.0   30.0   16.666666666666668
-400.0   30.0   16.666666666666668
-450.0   60.0   16.666666666666668
-450.0   30.0   33.333333333333336
-400.0   30.0   16.666666666666668
-400.0   60.0   16.666666666666668
-450.0   60.0   16.666666666666668
-400.0   60.0   33.333333333333336
-450.0   30.0   33.333333333333336
-450.0   60.0   33.333333333333336
-400.0   60.0   33.333333333333336
-450.0   60.0   16.666666666666668
-450.0   30.0   33.333333333333336
-400.0   60.0   33.333333333333336
-400.0   30.0   33.333333333333336
-400.0   30.0   16.666666666666668
-450.0   30.0   33.333333333333336
-400.0   60.0   33.333333333333336
-400.0   30.0   16.666666666666668
-450.0   60.0   16.666666666666668
-450.0   30.0   33.333333333333336
-400.0   30.0   33.333333333333336
-450.0   60.0   33.333333333333336
-450.0   30.0   50.0
-400.0   30.0   33.333333333333336
-400.0   60.0   33.333333333333336
-450.0   60.0   33.333333333333336
-400.0   60.0   50.0
-450.0   30.0   50.0
-450.0   60.0   50.0
-400.0   60.0   50.0
-450.0   60.0   33.333333333333336
-450.0   30.0   50.0
-400.0   60.0   50.0
-400.0   30.0   50.0
-400.0   30.0   33.333333333333336
-450.0   30.0   50.0
-400.0   60.0   50.0
-400.0   30.0   33.333333333333336
-450.0   60.0   33.333333333333336
-450.0   60.0   0.0
-400.0   60.0   0.0
-450.0   90.0   0.0
-450.0   60.0   16.666666666666668
-400.0   60.0   0.0
-400.0   90.0   0.0
-450.0   90.0   0.0
-400.0   90.0   16.666666666666668
-450.0   60.0   16.666666666666668
-450.0   90.0   16.666666666666668
-400.0   90.0   16.666666666666668
-450.0   90.0   0.0
-450.0   60.0   16.666666666666668
-400.0   90.0   16.666666666666668
-400.0   60.0   16.666666666666668
-400.0   60.0   0.0
-450.0   60.0   16.666666666666668
-400.0   90.0   16.666666666666668
-400.0   60.0   0.0
-450.0   90.0   0.0
-450.0   60.0   16.666666666666668
-400.0   60.0   16.666666666666668
-450.0   90.0   16.666666666666668
-450.0   60.0   33.333333333333336
-400.0   60.0   16.666666666666668
-400.0   90.0   16.666666666666668
-450.0   90.0   16.666666666666668
-400.0   90.0   33.333333333333336
-450.0   60.0   33.333333333333336
-450.0   90.0   33.333333333333336
-400.0   90.0   33.333333333333336
-450.0   90.0   16.666666666666668
-450.0   60.0   33.333333333333336
-400.0   90.0   33.333333333333336
-400.0   60.0   33.333333333333336
-400.0   60.0   16.666666666666668
-450.0   60.0   33.333333333333336
-400.0   90.0   33.333333333333336
-400.0   60.0   16.666666666666668
-450.0   90.0   16.666666666666668
-450.0   60.0   33.333333333333336
-400.0   60.0   33.333333333333336
-450.0   90.0   33.333333333333336
-450.0   60.0   50.0
-400.0   60.0   33.333333333333336
-400.0   90.0   33.333333333333336
-450.0   90.0   33.333333333333336
-400.0   90.0   50.0
-450.0   60.0   50.0
-450.0   90.0   50.0
-400.0   90.0   50.0
-450.0   90.0   33.333333333333336
-450.0   60.0   50.0
-400.0   90.0   50.0
-400.0   60.0   50.0
-400.0   60.0   33.333333333333336
-450.0   60.0   50.0
-400.0   90.0   50.0
-400.0   60.0   33.333333333333336
-450.0   90.0   33.333333333333336
-450.0   90.0   0.0
-400.0   90.0   0.0
-450.0   120.0   0.0
-450.0   90.0   16.666666666666668
-400.0   90.0   0.0
-400.0   120.0   0.0
-450.0   120.0   0.0
-400.0   120.0   16.666666666666668
-450.0   90.0   16.666666666666668
-450.0   120.0   16.666666666666668
-400.0   120.0   16.666666666666668
-450.0   120.0   0.0
-450.0   90.0   16.666666666666668
-400.0   120.0   16.666666666666668
-400.0   90.0   16.666666666666668
-400.0   90.0   0.0
-450.0   90.0   16.666666666666668
-400.0   120.0   16.666666666666668
-400.0   90.0   0.0
-450.0   120.0   0.0
-450.0   90.0   16.666666666666668
-400.0   90.0   16.666666666666668
-450.0   120.0   16.666666666666668
-450.0   90.0   33.333333333333336
-400.0   90.0   16.666666666666668
-400.0   120.0   16.666666666666668
-450.0   120.0   16.666666666666668
-400.0   120.0   33.333333333333336
-450.0   90.0   33.333333333333336
-450.0   120.0   33.333333333333336
-400.0   120.0   33.333333333333336
-450.0   120.0   16.666666666666668
-450.0   90.0   33.333333333333336
-400.0   120.0   33.333333333333336
-400.0   90.0   33.333333333333336
-400.0   90.0   16.666666666666668
-450.0   90.0   33.333333333333336
-400.0   120.0   33.333333333333336
-400.0   90.0   16.666666666666668
-450.0   120.0   16.666666666666668
-450.0   90.0   33.333333333333336
-400.0   90.0   33.333333333333336
-450.0   120.0   33.333333333333336
-450.0   90.0   50.0
-400.0   90.0   33.333333333333336
-400.0   120.0   33.333333333333336
-450.0   120.0   33.333333333333336
-400.0   120.0   50.0
-450.0   90.0   50.0
-450.0   120.0   50.0
-400.0   120.0   50.0
-450.0   120.0   33.333333333333336
-450.0   90.0   50.0
-400.0   120.0   50.0
-400.0   90.0   50.0
-400.0   90.0   33.333333333333336
-450.0   90.0   50.0
-400.0   120.0   50.0
-400.0   90.0   33.333333333333336
-450.0   120.0   33.333333333333336
-450.0   120.0   0.0
-400.0   120.0   0.0
-450.0   150.0   0.0
-450.0   120.0   16.666666666666668
-400.0   120.0   0.0
-400.0   150.0   0.0
-450.0   150.0   0.0
-400.0   150.0   16.666666666666668
-450.0   120.0   16.666666666666668
-450.0   150.0   16.666666666666668
-400.0   150.0   16.666666666666668
-450.0   150.0   0.0
-450.0   120.0   16.666666666666668
-400.0   150.0   16.666666666666668
-400.0   120.0   16.666666666666668
-400.0   120.0   0.0
-450.0   120.0   16.666666666666668
-400.0   150.0   16.666666666666668
-400.0   120.0   0.0
-450.0   150.0   0.0
-450.0   120.0   16.666666666666668
-400.0   120.0   16.666666666666668
-450.0   150.0   16.666666666666668
-450.0   120.0   33.333333333333336
-400.0   120.0   16.666666666666668
-400.0   150.0   16.666666666666668
-450.0   150.0   16.666666666666668
-400.0   150.0   33.333333333333336
-450.0   120.0   33.333333333333336
-450.0   150.0   33.333333333333336
-400.0   150.0   33.333333333333336
-450.0   150.0   16.666666666666668
-450.0   120.0   33.333333333333336
-400.0   150.0   33.333333333333336
-400.0   120.0   33.333333333333336
-400.0   120.0   16.666666666666668
-450.0   120.0   33.333333333333336
-400.0   150.0   33.333333333333336
-400.0   120.0   16.666666666666668
-450.0   150.0   16.666666666666668
-450.0   120.0   33.333333333333336
-400.0   120.0   33.333333333333336
-450.0   150.0   33.333333333333336
-450.0   120.0   50.0
-400.0   120.0   33.333333333333336
-400.0   150.0   33.333333333333336
-450.0   150.0   33.333333333333336
-400.0   150.0   50.0
-450.0   120.0   50.0
-450.0   150.0   50.0
-400.0   150.0   50.0
-450.0   150.0   33.333333333333336
-450.0   120.0   50.0
-400.0   150.0   50.0
-400.0   120.0   50.0
-400.0   120.0   33.333333333333336
-450.0   120.0   50.0
-400.0   150.0   50.0
-400.0   120.0   33.333333333333336
-450.0   150.0   33.333333333333336
-400.0   0.0   0.0
-350.0   0.0   0.0
-400.0   30.0   0.0
-400.0   0.0   16.666666666666668
-350.0   0.0   0.0
-350.0   30.0   0.0
-400.0   30.0   0.0
-350.0   30.0   16.666666666666668
-400.0   0.0   16.666666666666668
-400.0   30.0   16.666666666666668
-350.0   30.0   16.666666666666668
-400.0   30.0   0.0
-400.0   0.0   16.666666666666668
-350.0   30.0   16.666666666666668
-350.0   0.0   16.666666666666668
-350.0   0.0   0.0
-400.0   0.0   16.666666666666668
-350.0   30.0   16.666666666666668
-350.0   0.0   0.0
-400.0   30.0   0.0
-400.0   0.0   16.666666666666668
-350.0   0.0   16.666666666666668
-400.0   30.0   16.666666666666668
-400.0   0.0   33.333333333333336
-350.0   0.0   16.666666666666668
-350.0   30.0   16.666666666666668
-400.0   30.0   16.666666666666668
-350.0   30.0   33.333333333333336
-400.0   0.0   33.333333333333336
-400.0   30.0   33.333333333333336
-350.0   30.0   33.333333333333336
-400.0   30.0   16.666666666666668
-400.0   0.0   33.333333333333336
-350.0   30.0   33.333333333333336
-350.0   0.0   33.333333333333336
-350.0   0.0   16.666666666666668
-400.0   0.0   33.333333333333336
-350.0   30.0   33.333333333333336
-350.0   0.0   16.666666666666668
-400.0   30.0   16.666666666666668
-400.0   0.0   33.333333333333336
-350.0   0.0   33.333333333333336
-400.0   30.0   33.333333333333336
-400.0   0.0   50.0
-350.0   0.0   33.333333333333336
-350.0   30.0   33.333333333333336
-400.0   30.0   33.333333333333336
-350.0   30.0   50.0
-400.0   0.0   50.0
-400.0   30.0   50.0
-350.0   30.0   50.0
-400.0   30.0   33.333333333333336
-400.0   0.0   50.0
-350.0   30.0   50.0
-350.0   0.0   50.0
-350.0   0.0   33.333333333333336
-400.0   0.0   50.0
-350.0   30.0   50.0
-350.0   0.0   33.333333333333336
-400.0   30.0   33.333333333333336
-400.0   30.0   0.0
-350.0   30.0   0.0
-400.0   60.0   0.0
-400.0   30.0   16.666666666666668
-350.0   30.0   0.0
-350.0   60.0   0.0
-400.0   60.0   0.0
-350.0   60.0   16.666666666666668
-400.0   30.0   16.666666666666668
-400.0   60.0   16.666666666666668
-350.0   60.0   16.666666666666668
-400.0   60.0   0.0
-400.0   30.0   16.666666666666668
-350.0   60.0   16.666666666666668
-350.0   30.0   16.666666666666668
-350.0   30.0   0.0
-400.0   30.0   16.666666666666668
-350.0   60.0   16.666666666666668
-350.0   30.0   0.0
-400.0   60.0   0.0
-400.0   30.0   16.666666666666668
-350.0   30.0   16.666666666666668
-400.0   60.0   16.666666666666668
-400.0   30.0   33.333333333333336
-350.0   30.0   16.666666666666668
-350.0   60.0   16.666666666666668
-400.0   60.0   16.666666666666668
-350.0   60.0   33.333333333333336
-400.0   30.0   33.333333333333336
-400.0   60.0   33.333333333333336
-350.0   60.0   33.333333333333336
-400.0   60.0   16.666666666666668
-400.0   30.0   33.333333333333336
-350.0   60.0   33.333333333333336
-350.0   30.0   33.333333333333336
-350.0   30.0   16.666666666666668
-400.0   30.0   33.333333333333336
-350.0   60.0   33.333333333333336
-350.0   30.0   16.666666666666668
-400.0   60.0   16.666666666666668
-400.0   30.0   33.333333333333336
-350.0   30.0   33.333333333333336
-400.0   60.0   33.333333333333336
-400.0   30.0   50.0
-350.0   30.0   33.333333333333336
-350.0   60.0   33.333333333333336
-400.0   60.0   33.333333333333336
-350.0   60.0   50.0
-400.0   30.0   50.0
-400.0   60.0   50.0
-350.0   60.0   50.0
-400.0   60.0   33.333333333333336
-400.0   30.0   50.0
-350.0   60.0   50.0
-350.0   30.0   50.0
-350.0   30.0   33.333333333333336
-400.0   30.0   50.0
-350.0   60.0   50.0
-350.0   30.0   33.333333333333336
-400.0   60.0   33.333333333333336
-400.0   60.0   0.0
-350.0   60.0   0.0
-400.0   90.0   0.0
-400.0   60.0   16.666666666666668
-350.0   60.0   0.0
-350.0   90.0   0.0
-400.0   90.0   0.0
-350.0   90.0   16.666666666666668
-400.0   60.0   16.666666666666668
-400.0   90.0   16.666666666666668
-350.0   90.0   16.666666666666668
-400.0   90.0   0.0
-400.0   60.0   16.666666666666668
-350.0   90.0   16.666666666666668
-350.0   60.0   16.666666666666668
-350.0   60.0   0.0
-400.0   60.0   16.666666666666668
-350.0   90.0   16.666666666666668
-350.0   60.0   0.0
-400.0   90.0   0.0
-400.0   60.0   16.666666666666668
-350.0   60.0   16.666666666666668
-400.0   90.0   16.666666666666668
-400.0   60.0   33.333333333333336
-350.0   60.0   16.666666666666668
-350.0   90.0   16.666666666666668
-400.0   90.0   16.666666666666668
-350.0   90.0   33.333333333333336
-400.0   60.0   33.333333333333336
-400.0   90.0   33.333333333333336
-350.0   90.0   33.333333333333336
-400.0   90.0   16.666666666666668
-400.0   60.0   33.333333333333336
-350.0   90.0   33.333333333333336
-350.0   60.0   33.333333333333336
-350.0   60.0   16.666666666666668
-400.0   60.0   33.333333333333336
-350.0   90.0   33.333333333333336
-350.0   60.0   16.666666666666668
-400.0   90.0   16.666666666666668
-400.0   60.0   33.333333333333336
-350.0   60.0   33.333333333333336
-400.0   90.0   33.333333333333336
-400.0   60.0   50.0
-350.0   60.0   33.333333333333336
-350.0   90.0   33.333333333333336
-400.0   90.0   33.333333333333336
-350.0   90.0   50.0
-400.0   60.0   50.0
-400.0   90.0   50.0
-350.0   90.0   50.0
-400.0   90.0   33.333333333333336
-400.0   60.0   50.0
-350.0   90.0   50.0
-350.0   60.0   50.0
-350.0   60.0   33.333333333333336
-400.0   60.0   50.0
-350.0   90.0   50.0
-350.0   60.0   33.333333333333336
-400.0   90.0   33.333333333333336
-400.0   90.0   0.0
-350.0   90.0   0.0
-400.0   120.0   0.0
-400.0   90.0   16.666666666666668
-350.0   90.0   0.0
-350.0   120.0   0.0
-400.0   120.0   0.0
-350.0   120.0   16.666666666666668
-400.0   90.0   16.666666666666668
-400.0   120.0   16.666666666666668
-350.0   120.0   16.666666666666668
-400.0   120.0   0.0
-400.0   90.0   16.666666666666668
-350.0   120.0   16.666666666666668
-350.0   90.0   16.666666666666668
-350.0   90.0   0.0
-400.0   90.0   16.666666666666668
-350.0   120.0   16.666666666666668
-350.0   90.0   0.0
-400.0   120.0   0.0
-400.0   90.0   16.666666666666668
-350.0   90.0   16.666666666666668
-400.0   120.0   16.666666666666668
-400.0   90.0   33.333333333333336
-350.0   90.0   16.666666666666668
-350.0   120.0   16.666666666666668
-400.0   120.0   16.666666666666668
-350.0   120.0   33.333333333333336
-400.0   90.0   33.333333333333336
-400.0   120.0   33.333333333333336
-350.0   120.0   33.333333333333336
-400.0   120.0   16.666666666666668
-400.0   90.0   33.333333333333336
-350.0   120.0   33.333333333333336
-350.0   90.0   33.333333333333336
-350.0   90.0   16.666666666666668
-400.0   90.0   33.333333333333336
-350.0   120.0   33.333333333333336
-350.0   90.0   16.666666666666668
-400.0   120.0   16.666666666666668
-400.0   90.0   33.333333333333336
-350.0   90.0   33.333333333333336
-400.0   120.0   33.333333333333336
-400.0   90.0   50.0
-350.0   90.0   33.333333333333336
-350.0   120.0   33.333333333333336
-400.0   120.0   33.333333333333336
-350.0   120.0   50.0
-400.0   90.0   50.0
-400.0   120.0   50.0
-350.0   120.0   50.0
-400.0   120.0   33.333333333333336
-400.0   90.0   50.0
-350.0   120.0   50.0
-350.0   90.0   50.0
-350.0   90.0   33.333333333333336
-400.0   90.0   50.0
-350.0   120.0   50.0
-350.0   90.0   33.333333333333336
-400.0   120.0   33.333333333333336
-400.0   120.0   0.0
-350.0   120.0   0.0
-400.0   150.0   0.0
-400.0   120.0   16.666666666666668
-350.0   120.0   0.0
-350.0   150.0   0.0
-400.0   150.0   0.0
-350.0   150.0   16.666666666666668
-400.0   120.0   16.666666666666668
-400.0   150.0   16.666666666666668
-350.0   150.0   16.666666666666668
-400.0   150.0   0.0
-400.0   120.0   16.666666666666668
-350.0   150.0   16.666666666666668
-350.0   120.0   16.666666666666668
-350.0   120.0   0.0
-400.0   120.0   16.666666666666668
-350.0   150.0   16.666666666666668
-350.0   120.0   0.0
-400.0   150.0   0.0
-400.0   120.0   16.666666666666668
-350.0   120.0   16.666666666666668
-400.0   150.0   16.666666666666668
-400.0   120.0   33.333333333333336
-350.0   120.0   16.666666666666668
-350.0   150.0   16.666666666666668
-400.0   150.0   16.666666666666668
-350.0   150.0   33.333333333333336
-400.0   120.0   33.333333333333336
-400.0   150.0   33.333333333333336
-350.0   150.0   33.333333333333336
-400.0   150.0   16.666666666666668
-400.0   120.0   33.333333333333336
-350.0   150.0   33.333333333333336
-350.0   120.0   33.333333333333336
-350.0   120.0   16.666666666666668
-400.0   120.0   33.333333333333336
-350.0   150.0   33.333333333333336
-350.0   120.0   16.666666666666668
-400.0   150.0   16.666666666666668
-400.0   120.0   33.333333333333336
-350.0   120.0   33.333333333333336
-400.0   150.0   33.333333333333336
-400.0   120.0   50.0
-350.0   120.0   33.333333333333336
-350.0   150.0   33.333333333333336
-400.0   150.0   33.333333333333336
-350.0   150.0   50.0
-400.0   120.0   50.0
-400.0   150.0   50.0
-350.0   150.0   50.0
-400.0   150.0   33.333333333333336
-400.0   120.0   50.0
-350.0   150.0   50.0
-350.0   120.0   50.0
-350.0   120.0   33.333333333333336
-400.0   120.0   50.0
-350.0   150.0   50.0
-350.0   120.0   33.333333333333336
-400.0   150.0   33.333333333333336
-350.0   0.0   0.0
-300.0   0.0   0.0
-350.0   30.0   0.0
-350.0   0.0   16.666666666666668
-300.0   0.0   0.0
-300.0   30.0   0.0
-350.0   30.0   0.0
-300.0   30.0   16.666666666666668
-350.0   0.0   16.666666666666668
-350.0   30.0   16.666666666666668
-300.0   30.0   16.666666666666668
-350.0   30.0   0.0
-350.0   0.0   16.666666666666668
-300.0   30.0   16.666666666666668
-300.0   0.0   16.666666666666668
-300.0   0.0   0.0
-350.0   0.0   16.666666666666668
-300.0   30.0   16.666666666666668
-300.0   0.0   0.0
-350.0   30.0   0.0
-350.0   0.0   16.666666666666668
-300.0   0.0   16.666666666666668
-350.0   30.0   16.666666666666668
-350.0   0.0   33.333333333333336
-300.0   0.0   16.666666666666668
-300.0   30.0   16.666666666666668
-350.0   30.0   16.666666666666668
-300.0   30.0   33.333333333333336
-350.0   0.0   33.333333333333336
-350.0   30.0   33.333333333333336
-300.0   30.0   33.333333333333336
-350.0   30.0   16.666666666666668
-350.0   0.0   33.333333333333336
-300.0   30.0   33.333333333333336
-300.0   0.0   33.333333333333336
-300.0   0.0   16.666666666666668
-350.0   0.0   33.333333333333336
-300.0   30.0   33.333333333333336
-300.0   0.0   16.666666666666668
-350.0   30.0   16.666666666666668
-350.0   0.0   33.333333333333336
-300.0   0.0   33.333333333333336
-350.0   30.0   33.333333333333336
-350.0   0.0   50.0
-300.0   0.0   33.333333333333336
-300.0   30.0   33.333333333333336
-350.0   30.0   33.333333333333336
-300.0   30.0   50.0
-350.0   0.0   50.0
-350.0   30.0   50.0
-300.0   30.0   50.0
-350.0   30.0   33.333333333333336
-350.0   0.0   50.0
-300.0   30.0   50.0
-300.0   0.0   50.0
-300.0   0.0   33.333333333333336
-350.0   0.0   50.0
-300.0   30.0   50.0
-300.0   0.0   33.333333333333336
-350.0   30.0   33.333333333333336
-350.0   30.0   0.0
-300.0   30.0   0.0
-350.0   60.0   0.0
-350.0   30.0   16.666666666666668
-300.0   30.0   0.0
-300.0   60.0   0.0
-350.0   60.0   0.0
-300.0   60.0   16.666666666666668
-350.0   30.0   16.666666666666668
-350.0   60.0   16.666666666666668
-300.0   60.0   16.666666666666668
-350.0   60.0   0.0
-350.0   30.0   16.666666666666668
-300.0   60.0   16.666666666666668
-300.0   30.0   16.666666666666668
-300.0   30.0   0.0
-350.0   30.0   16.666666666666668
-300.0   60.0   16.666666666666668
-300.0   30.0   0.0
-350.0   60.0   0.0
-350.0   30.0   16.666666666666668
-300.0   30.0   16.666666666666668
-350.0   60.0   16.666666666666668
-350.0   30.0   33.333333333333336
-300.0   30.0   16.666666666666668
-300.0   60.0   16.666666666666668
-350.0   60.0   16.666666666666668
-300.0   60.0   33.333333333333336
-350.0   30.0   33.333333333333336
-350.0   60.0   33.333333333333336
-300.0   60.0   33.333333333333336
-350.0   60.0   16.666666666666668
-350.0   30.0   33.333333333333336
-300.0   60.0   33.333333333333336
-300.0   30.0   33.333333333333336
-300.0   30.0   16.666666666666668
-350.0   30.0   33.333333333333336
-300.0   60.0   33.333333333333336
-300.0   30.0   16.666666666666668
-350.0   60.0   16.666666666666668
-350.0   30.0   33.333333333333336
-300.0   30.0   33.333333333333336
-350.0   60.0   33.333333333333336
-350.0   30.0   50.0
-300.0   30.0   33.333333333333336
-300.0   60.0   33.333333333333336
-350.0   60.0   33.333333333333336
-300.0   60.0   50.0
-350.0   30.0   50.0
-350.0   60.0   50.0
-300.0   60.0   50.0
-350.0   60.0   33.333333333333336
-350.0   30.0   50.0
-300.0   60.0   50.0
-300.0   30.0   50.0
-300.0   30.0   33.333333333333336
-350.0   30.0   50.0
-300.0   60.0   50.0
-300.0   30.0   33.333333333333336
-350.0   60.0   33.333333333333336
-350.0   60.0   0.0
-300.0   60.0   0.0
-350.0   90.0   0.0
-350.0   60.0   16.666666666666668
-300.0   60.0   0.0
-300.0   90.0   0.0
-350.0   90.0   0.0
-300.0   90.0   16.666666666666668
-350.0   60.0   16.666666666666668
-350.0   90.0   16.666666666666668
-300.0   90.0   16.666666666666668
-350.0   90.0   0.0
-350.0   60.0   16.666666666666668
-300.0   90.0   16.666666666666668
-300.0   60.0   16.666666666666668
-300.0   60.0   0.0
-350.0   60.0   16.666666666666668
-300.0   90.0   16.666666666666668
-300.0   60.0   0.0
-350.0   90.0   0.0
-350.0   60.0   16.666666666666668
-300.0   60.0   16.666666666666668
-350.0   90.0   16.666666666666668
-350.0   60.0   33.333333333333336
-300.0   60.0   16.666666666666668
-300.0   90.0   16.666666666666668
-350.0   90.0   16.666666666666668
-300.0   90.0   33.333333333333336
-350.0   60.0   33.333333333333336
-350.0   90.0   33.333333333333336
-300.0   90.0   33.333333333333336
-350.0   90.0   16.666666666666668
-350.0   60.0   33.333333333333336
-300.0   90.0   33.333333333333336
-300.0   60.0   33.333333333333336
-300.0   60.0   16.666666666666668
-350.0   60.0   33.333333333333336
-300.0   90.0   33.333333333333336
-300.0   60.0   16.666666666666668
-350.0   90.0   16.666666666666668
-350.0   60.0   33.333333333333336
-300.0   60.0   33.333333333333336
-350.0   90.0   33.333333333333336
-350.0   60.0   50.0
-300.0   60.0   33.333333333333336
-300.0   90.0   33.333333333333336
-350.0   90.0   33.333333333333336
-300.0   90.0   50.0
-350.0   60.0   50.0
-350.0   90.0   50.0
-300.0   90.0   50.0
-350.0   90.0   33.333333333333336
-350.0   60.0   50.0
-300.0   90.0   50.0
-300.0   60.0   50.0
-300.0   60.0   33.333333333333336
-350.0   60.0   50.0
-300.0   90.0   50.0
-300.0   60.0   33.333333333333336
-350.0   90.0   33.333333333333336
-350.0   90.0   0.0
-300.0   90.0   0.0
-350.0   120.0   0.0
-350.0   90.0   16.666666666666668
-300.0   90.0   0.0
-300.0   120.0   0.0
-350.0   120.0   0.0
-300.0   120.0   16.666666666666668
-350.0   90.0   16.666666666666668
-350.0   120.0   16.666666666666668
-300.0   120.0   16.666666666666668
-350.0   120.0   0.0
-350.0   90.0   16.666666666666668
-300.0   120.0   16.666666666666668
-300.0   90.0   16.666666666666668
-300.0   90.0   0.0
-350.0   90.0   16.666666666666668
-300.0   120.0   16.666666666666668
-300.0   90.0   0.0
-350.0   120.0   0.0
-350.0   90.0   16.666666666666668
-300.0   90.0   16.666666666666668
-350.0   120.0   16.666666666666668
-350.0   90.0   33.333333333333336
-300.0   90.0   16.666666666666668
-300.0   120.0   16.666666666666668
-350.0   120.0   16.666666666666668
-300.0   120.0   33.333333333333336
-350.0   90.0   33.333333333333336
-350.0   120.0   33.333333333333336
-300.0   120.0   33.333333333333336
-350.0   120.0   16.666666666666668
-350.0   90.0   33.333333333333336
-300.0   120.0   33.333333333333336
-300.0   90.0   33.333333333333336
-300.0   90.0   16.666666666666668
-350.0   90.0   33.333333333333336
-300.0   120.0   33.333333333333336
-300.0   90.0   16.666666666666668
-350.0   120.0   16.666666666666668
-350.0   90.0   33.333333333333336
-300.0   90.0   33.333333333333336
-350.0   120.0   33.333333333333336
-350.0   90.0   50.0
-300.0   90.0   33.333333333333336
-300.0   120.0   33.333333333333336
-350.0   120.0   33.333333333333336
-300.0   120.0   50.0
-350.0   90.0   50.0
-350.0   120.0   50.0
-300.0   120.0   50.0
-350.0   120.0   33.333333333333336
-350.0   90.0   50.0
-300.0   120.0   50.0
-300.0   90.0   50.0
-300.0   90.0   33.333333333333336
-350.0   90.0   50.0
-300.0   120.0   50.0
-300.0   90.0   33.333333333333336
-350.0   120.0   33.333333333333336
-350.0   120.0   0.0
-300.0   120.0   0.0
-350.0   150.0   0.0
-350.0   120.0   16.666666666666668
-300.0   120.0   0.0
-300.0   150.0   0.0
-350.0   150.0   0.0
-300.0   150.0   16.666666666666668
-350.0   120.0   16.666666666666668
-350.0   150.0   16.666666666666668
-300.0   150.0   16.666666666666668
-350.0   150.0   0.0
-350.0   120.0   16.666666666666668
-300.0   150.0   16.666666666666668
-300.0   120.0   16.666666666666668
-300.0   120.0   0.0
-350.0   120.0   16.666666666666668
-300.0   150.0   16.666666666666668
-300.0   120.0   0.0
-350.0   150.0   0.0
-350.0   120.0   16.666666666666668
-300.0   120.0   16.666666666666668
-350.0   150.0   16.666666666666668
-350.0   120.0   33.333333333333336
-300.0   120.0   16.666666666666668
-300.0   150.0   16.666666666666668
-350.0   150.0   16.666666666666668
-300.0   150.0   33.333333333333336
-350.0   120.0   33.333333333333336
-350.0   150.0   33.333333333333336
-300.0   150.0   33.333333333333336
-350.0   150.0   16.666666666666668
-350.0   120.0   33.333333333333336
-300.0   150.0   33.333333333333336
-300.0   120.0   33.333333333333336
-300.0   120.0   16.666666666666668
-350.0   120.0   33.333333333333336
-300.0   150.0   33.333333333333336
-300.0   120.0   16.666666666666668
-350.0   150.0   16.666666666666668
-350.0   120.0   33.333333333333336
-300.0   120.0   33.333333333333336
-350.0   150.0   33.333333333333336
-350.0   120.0   50.0
-300.0   120.0   33.333333333333336
-300.0   150.0   33.333333333333336
-350.0   150.0   33.333333333333336
-300.0   150.0   50.0
-350.0   120.0   50.0
-350.0   150.0   50.0
-300.0   150.0   50.0
-350.0   150.0   33.333333333333336
-350.0   120.0   50.0
-300.0   150.0   50.0
-300.0   120.0   50.0
-300.0   120.0   33.333333333333336
-350.0   120.0   50.0
-300.0   150.0   50.0
-300.0   120.0   33.333333333333336
-350.0   150.0   33.333333333333336
-300.0   0.0   0.0
-250.0   0.0   0.0
-300.0   30.0   0.0
-300.0   0.0   16.666666666666668
-250.0   0.0   0.0
-250.0   30.0   0.0
-300.0   30.0   0.0
-250.0   30.0   16.666666666666668
-300.0   0.0   16.666666666666668
-300.0   30.0   16.666666666666668
-250.0   30.0   16.666666666666668
-300.0   30.0   0.0
-300.0   0.0   16.666666666666668
-250.0   30.0   16.666666666666668
-250.0   0.0   16.666666666666668
-250.0   0.0   0.0
-300.0   0.0   16.666666666666668
-250.0   30.0   16.666666666666668
-250.0   0.0   0.0
-300.0   30.0   0.0
-300.0   0.0   16.666666666666668
-250.0   0.0   16.666666666666668
-300.0   30.0   16.666666666666668
-300.0   0.0   33.333333333333336
-250.0   0.0   16.666666666666668
-250.0   30.0   16.666666666666668
-300.0   30.0   16.666666666666668
-250.0   30.0   33.333333333333336
-300.0   0.0   33.333333333333336
-300.0   30.0   33.333333333333336
-250.0   30.0   33.333333333333336
-300.0   30.0   16.666666666666668
-300.0   0.0   33.333333333333336
-250.0   30.0   33.333333333333336
-250.0   0.0   33.333333333333336
-250.0   0.0   16.666666666666668
-300.0   0.0   33.333333333333336
-250.0   30.0   33.333333333333336
-250.0   0.0   16.666666666666668
-300.0   30.0   16.666666666666668
-300.0   0.0   33.333333333333336
-250.0   0.0   33.333333333333336
-300.0   30.0   33.333333333333336
-300.0   0.0   50.0
-250.0   0.0   33.333333333333336
-250.0   30.0   33.333333333333336
-300.0   30.0   33.333333333333336
-250.0   30.0   50.0
-300.0   0.0   50.0
-300.0   30.0   50.0
-250.0   30.0   50.0
-300.0   30.0   33.333333333333336
-300.0   0.0   50.0
-250.0   30.0   50.0
-250.0   0.0   50.0
-250.0   0.0   33.333333333333336
-300.0   0.0   50.0
-250.0   30.0   50.0
-250.0   0.0   33.333333333333336
-300.0   30.0   33.333333333333336
-300.0   30.0   0.0
-250.0   30.0   0.0
-300.0   60.0   0.0
-300.0   30.0   16.666666666666668
-250.0   30.0   0.0
-250.0   60.0   0.0
-300.0   60.0   0.0
-250.0   60.0   16.666666666666668
-300.0   30.0   16.666666666666668
-300.0   60.0   16.666666666666668
-250.0   60.0   16.666666666666668
-300.0   60.0   0.0
-300.0   30.0   16.666666666666668
-250.0   60.0   16.666666666666668
-250.0   30.0   16.666666666666668
-250.0   30.0   0.0
-300.0   30.0   16.666666666666668
-250.0   60.0   16.666666666666668
-250.0   30.0   0.0
-300.0   60.0   0.0
-300.0   30.0   16.666666666666668
-250.0   30.0   16.666666666666668
-300.0   60.0   16.666666666666668
-300.0   30.0   33.333333333333336
-250.0   30.0   16.666666666666668
-250.0   60.0   16.666666666666668
-300.0   60.0   16.666666666666668
-250.0   60.0   33.333333333333336
-300.0   30.0   33.333333333333336
-300.0   60.0   33.333333333333336
-250.0   60.0   33.333333333333336
-300.0   60.0   16.666666666666668
-300.0   30.0   33.333333333333336
-250.0   60.0   33.333333333333336
-250.0   30.0   33.333333333333336
-250.0   30.0   16.666666666666668
-300.0   30.0   33.333333333333336
-250.0   60.0   33.333333333333336
-250.0   30.0   16.666666666666668
-300.0   60.0   16.666666666666668
-300.0   30.0   33.333333333333336
-250.0   30.0   33.333333333333336
-300.0   60.0   33.333333333333336
-300.0   30.0   50.0
-250.0   30.0   33.333333333333336
-250.0   60.0   33.333333333333336
-300.0   60.0   33.333333333333336
-250.0   60.0   50.0
-300.0   30.0   50.0
-300.0   60.0   50.0
-250.0   60.0   50.0
-300.0   60.0   33.333333333333336
-300.0   30.0   50.0
-250.0   60.0   50.0
-250.0   30.0   50.0
-250.0   30.0   33.333333333333336
-300.0   30.0   50.0
-250.0   60.0   50.0
-250.0   30.0   33.333333333333336
-300.0   60.0   33.333333333333336
-300.0   60.0   0.0
-250.0   60.0   0.0
-300.0   90.0   0.0
-300.0   60.0   16.666666666666668
-250.0   60.0   0.0
-250.0   90.0   0.0
-300.0   90.0   0.0
-250.0   90.0   16.666666666666668
-300.0   60.0   16.666666666666668
-300.0   90.0   16.666666666666668
-250.0   90.0   16.666666666666668
-300.0   90.0   0.0
-300.0   60.0   16.666666666666668
-250.0   90.0   16.666666666666668
-250.0   60.0   16.666666666666668
-250.0   60.0   0.0
-300.0   60.0   16.666666666666668
-250.0   90.0   16.666666666666668
-250.0   60.0   0.0
-300.0   90.0   0.0
-300.0   60.0   16.666666666666668
-250.0   60.0   16.666666666666668
-300.0   90.0   16.666666666666668
-300.0   60.0   33.333333333333336
-250.0   60.0   16.666666666666668
-250.0   90.0   16.666666666666668
-300.0   90.0   16.666666666666668
-250.0   90.0   33.333333333333336
-300.0   60.0   33.333333333333336
-300.0   90.0   33.333333333333336
-250.0   90.0   33.333333333333336
-300.0   90.0   16.666666666666668
-300.0   60.0   33.333333333333336
-250.0   90.0   33.333333333333336
-250.0   60.0   33.333333333333336
-250.0   60.0   16.666666666666668
-300.0   60.0   33.333333333333336
-250.0   90.0   33.333333333333336
-250.0   60.0   16.666666666666668
-300.0   90.0   16.666666666666668
-300.0   60.0   33.333333333333336
-250.0   60.0   33.333333333333336
-300.0   90.0   33.333333333333336
-300.0   60.0   50.0
-250.0   60.0   33.333333333333336
-250.0   90.0   33.333333333333336
-300.0   90.0   33.333333333333336
-250.0   90.0   50.0
-300.0   60.0   50.0
-300.0   90.0   50.0
-250.0   90.0   50.0
-300.0   90.0   33.333333333333336
-300.0   60.0   50.0
-250.0   90.0   50.0
-250.0   60.0   50.0
-250.0   60.0   33.333333333333336
-300.0   60.0   50.0
-250.0   90.0   50.0
-250.0   60.0   33.333333333333336
-300.0   90.0   33.333333333333336
-300.0   90.0   0.0
-250.0   90.0   0.0
-300.0   120.0   0.0
-300.0   90.0   16.666666666666668
-250.0   90.0   0.0
-250.0   120.0   0.0
-300.0   120.0   0.0
-250.0   120.0   16.666666666666668
-300.0   90.0   16.666666666666668
-300.0   120.0   16.666666666666668
-250.0   120.0   16.666666666666668
-300.0   120.0   0.0
-300.0   90.0   16.666666666666668
-250.0   120.0   16.666666666666668
-250.0   90.0   16.666666666666668
-250.0   90.0   0.0
-300.0   90.0   16.666666666666668
-250.0   120.0   16.666666666666668
-250.0   90.0   0.0
-300.0   120.0   0.0
-300.0   90.0   16.666666666666668
-250.0   90.0   16.666666666666668
-300.0   120.0   16.666666666666668
-300.0   90.0   33.333333333333336
-250.0   90.0   16.666666666666668
-250.0   120.0   16.666666666666668
-300.0   120.0   16.666666666666668
-250.0   120.0   33.333333333333336
-300.0   90.0   33.333333333333336
-300.0   120.0   33.333333333333336
-250.0   120.0   33.333333333333336
-300.0   120.0   16.666666666666668
-300.0   90.0   33.333333333333336
-250.0   120.0   33.333333333333336
-250.0   90.0   33.333333333333336
-250.0   90.0   16.666666666666668
-300.0   90.0   33.333333333333336
-250.0   120.0   33.333333333333336
-250.0   90.0   16.666666666666668
-300.0   120.0   16.666666666666668
-300.0   90.0   33.333333333333336
-250.0   90.0   33.333333333333336
-300.0   120.0   33.333333333333336
-300.0   90.0   50.0
-250.0   90.0   33.333333333333336
-250.0   120.0   33.333333333333336
-300.0   120.0   33.333333333333336
-250.0   120.0   50.0
-300.0   90.0   50.0
-300.0   120.0   50.0
-250.0   120.0   50.0
-300.0   120.0   33.333333333333336
-300.0   90.0   50.0
-250.0   120.0   50.0
-250.0   90.0   50.0
-250.0   90.0   33.333333333333336
-300.0   90.0   50.0
-250.0   120.0   50.0
-250.0   90.0   33.333333333333336
-300.0   120.0   33.333333333333336
-300.0   120.0   0.0
-250.0   120.0   0.0
-300.0   150.0   0.0
-300.0   120.0   16.666666666666668
-250.0   120.0   0.0
-250.0   150.0   0.0
-300.0   150.0   0.0
-250.0   150.0   16.666666666666668
-300.0   120.0   16.666666666666668
-300.0   150.0   16.666666666666668
-250.0   150.0   16.666666666666668
-300.0   150.0   0.0
-300.0   120.0   16.666666666666668
-250.0   150.0   16.666666666666668
-250.0   120.0   16.666666666666668
-250.0   120.0   0.0
-300.0   120.0   16.666666666666668
-250.0   150.0   16.666666666666668
-250.0   120.0   0.0
-300.0   150.0   0.0
-300.0   120.0   16.666666666666668
-250.0   120.0   16.666666666666668
-300.0   150.0   16.666666666666668
-300.0   120.0   33.333333333333336
-250.0   120.0   16.666666666666668
-250.0   150.0   16.666666666666668
-300.0   150.0   16.666666666666668
-250.0   150.0   33.333333333333336
-300.0   120.0   33.333333333333336
-300.0   150.0   33.333333333333336
-250.0   150.0   33.333333333333336
-300.0   150.0   16.666666666666668
-300.0   120.0   33.333333333333336
-250.0   150.0   33.333333333333336
-250.0   120.0   33.333333333333336
-250.0   120.0   16.666666666666668
-300.0   120.0   33.333333333333336
-250.0   150.0   33.333333333333336
-250.0   120.0   16.666666666666668
-300.0   150.0   16.666666666666668
-300.0   120.0   33.333333333333336
-250.0   120.0   33.333333333333336
-300.0   150.0   33.333333333333336
-300.0   120.0   50.0
-250.0   120.0   33.333333333333336
-250.0   150.0   33.333333333333336
-300.0   150.0   33.333333333333336
-250.0   150.0   50.0
-300.0   120.0   50.0
-300.0   150.0   50.0
-250.0   150.0   50.0
-300.0   150.0   33.333333333333336
-300.0   120.0   50.0
-250.0   150.0   50.0
-250.0   120.0   50.0
-250.0   120.0   33.333333333333336
-300.0   120.0   50.0
-250.0   150.0   50.0
-250.0   120.0   33.333333333333336
-300.0   150.0   33.333333333333336
-250.0   0.0   0.0
-200.0   0.0   0.0
-250.0   30.0   0.0
-250.0   0.0   16.666666666666668
-200.0   0.0   0.0
-200.0   30.0   0.0
-250.0   30.0   0.0
-200.0   30.0   16.666666666666668
-250.0   0.0   16.666666666666668
-250.0   30.0   16.666666666666668
-200.0   30.0   16.666666666666668
-250.0   30.0   0.0
-250.0   0.0   16.666666666666668
-200.0   30.0   16.666666666666668
-200.0   0.0   16.666666666666668
-200.0   0.0   0.0
-250.0   0.0   16.666666666666668
-200.0   30.0   16.666666666666668
-200.0   0.0   0.0
-250.0   30.0   0.0
-250.0   0.0   16.666666666666668
-200.0   0.0   16.666666666666668
-250.0   30.0   16.666666666666668
-250.0   0.0   33.333333333333336
-200.0   0.0   16.666666666666668
-200.0   30.0   16.666666666666668
-250.0   30.0   16.666666666666668
-200.0   30.0   33.333333333333336
-250.0   0.0   33.333333333333336
-250.0   30.0   33.333333333333336
-200.0   30.0   33.333333333333336
-250.0   30.0   16.666666666666668
-250.0   0.0   33.333333333333336
-200.0   30.0   33.333333333333336
-200.0   0.0   33.333333333333336
-200.0   0.0   16.666666666666668
-250.0   0.0   33.333333333333336
-200.0   30.0   33.333333333333336
-200.0   0.0   16.666666666666668
-250.0   30.0   16.666666666666668
-250.0   0.0   33.333333333333336
-200.0   0.0   33.333333333333336
-250.0   30.0   33.333333333333336
-250.0   0.0   50.0
-200.0   0.0   33.333333333333336
-200.0   30.0   33.333333333333336
-250.0   30.0   33.333333333333336
-200.0   30.0   50.0
-250.0   0.0   50.0
-250.0   30.0   50.0
-200.0   30.0   50.0
-250.0   30.0   33.333333333333336
-250.0   0.0   50.0
-200.0   30.0   50.0
-200.0   0.0   50.0
-200.0   0.0   33.333333333333336
-250.0   0.0   50.0
-200.0   30.0   50.0
-200.0   0.0   33.333333333333336
-250.0   30.0   33.333333333333336
-250.0   30.0   0.0
-200.0   30.0   0.0
-250.0   60.0   0.0
-250.0   30.0   16.666666666666668
-200.0   30.0   0.0
-200.0   60.0   0.0
-250.0   60.0   0.0
-200.0   60.0   16.666666666666668
-250.0   30.0   16.666666666666668
-250.0   60.0   16.666666666666668
-200.0   60.0   16.666666666666668
-250.0   60.0   0.0
-250.0   30.0   16.666666666666668
-200.0   60.0   16.666666666666668
-200.0   30.0   16.666666666666668
-200.0   30.0   0.0
-250.0   30.0   16.666666666666668
-200.0   60.0   16.666666666666668
-200.0   30.0   0.0
-250.0   60.0   0.0
-250.0   30.0   16.666666666666668
-200.0   30.0   16.666666666666668
-250.0   60.0   16.666666666666668
-250.0   30.0   33.333333333333336
-200.0   30.0   16.666666666666668
-200.0   60.0   16.666666666666668
-250.0   60.0   16.666666666666668
-200.0   60.0   33.333333333333336
-250.0   30.0   33.333333333333336
-250.0   60.0   33.333333333333336
-200.0   60.0   33.333333333333336
-250.0   60.0   16.666666666666668
-250.0   30.0   33.333333333333336
-200.0   60.0   33.333333333333336
-200.0   30.0   33.333333333333336
-200.0   30.0   16.666666666666668
-250.0   30.0   33.333333333333336
-200.0   60.0   33.333333333333336
-200.0   30.0   16.666666666666668
-250.0   60.0   16.666666666666668
-250.0   30.0   33.333333333333336
-200.0   30.0   33.333333333333336
-250.0   60.0   33.333333333333336
-250.0   30.0   50.0
-200.0   30.0   33.333333333333336
-200.0   60.0   33.333333333333336
-250.0   60.0   33.333333333333336
-200.0   60.0   50.0
-250.0   30.0   50.0
-250.0   60.0   50.0
-200.0   60.0   50.0
-250.0   60.0   33.333333333333336
-250.0   30.0   50.0
-200.0   60.0   50.0
-200.0   30.0   50.0
-200.0   30.0   33.333333333333336
-250.0   30.0   50.0
-200.0   60.0   50.0
-200.0   30.0   33.333333333333336
-250.0   60.0   33.333333333333336
-250.0   60.0   0.0
-200.0   60.0   0.0
-250.0   90.0   0.0
-250.0   60.0   16.666666666666668
-200.0   60.0   0.0
-200.0   90.0   0.0
-250.0   90.0   0.0
-200.0   90.0   16.666666666666668
-250.0   60.0   16.666666666666668
-250.0   90.0   16.666666666666668
-200.0   90.0   16.666666666666668
-250.0   90.0   0.0
-250.0   60.0   16.666666666666668
-200.0   90.0   16.666666666666668
-200.0   60.0   16.666666666666668
-200.0   60.0   0.0
-250.0   60.0   16.666666666666668
-200.0   90.0   16.666666666666668
-200.0   60.0   0.0
-250.0   90.0   0.0
-250.0   60.0   16.666666666666668
-200.0   60.0   16.666666666666668
-250.0   90.0   16.666666666666668
-250.0   60.0   33.333333333333336
-200.0   60.0   16.666666666666668
-200.0   90.0   16.666666666666668
-250.0   90.0   16.666666666666668
-200.0   90.0   33.333333333333336
-250.0   60.0   33.333333333333336
-250.0   90.0   33.333333333333336
-200.0   90.0   33.333333333333336
-250.0   90.0   16.666666666666668
-250.0   60.0   33.333333333333336
-200.0   90.0   33.333333333333336
-200.0   60.0   33.333333333333336
-200.0   60.0   16.666666666666668
-250.0   60.0   33.333333333333336
-200.0   90.0   33.333333333333336
-200.0   60.0   16.666666666666668
-250.0   90.0   16.666666666666668
-250.0   60.0   33.333333333333336
-200.0   60.0   33.333333333333336
-250.0   90.0   33.333333333333336
-250.0   60.0   50.0
-200.0   60.0   33.333333333333336
-200.0   90.0   33.333333333333336
-250.0   90.0   33.333333333333336
-200.0   90.0   50.0
-250.0   60.0   50.0
-250.0   90.0   50.0
-200.0   90.0   50.0
-250.0   90.0   33.333333333333336
-250.0   60.0   50.0
-200.0   90.0   50.0
-200.0   60.0   50.0
-200.0   60.0   33.333333333333336
-250.0   60.0   50.0
-200.0   90.0   50.0
-200.0   60.0   33.333333333333336
-250.0   90.0   33.333333333333336
-250.0   90.0   0.0
-200.0   90.0   0.0
-250.0   120.0   0.0
-250.0   90.0   16.666666666666668
-200.0   90.0   0.0
-200.0   120.0   0.0
-250.0   120.0   0.0
-200.0   120.0   16.666666666666668
-250.0   90.0   16.666666666666668
-250.0   120.0   16.666666666666668
-200.0   120.0   16.666666666666668
-250.0   120.0   0.0
-250.0   90.0   16.666666666666668
-200.0   120.0   16.666666666666668
-200.0   90.0   16.666666666666668
-200.0   90.0   0.0
-250.0   90.0   16.666666666666668
-200.0   120.0   16.666666666666668
-200.0   90.0   0.0
-250.0   120.0   0.0
-250.0   90.0   16.666666666666668
-200.0   90.0   16.666666666666668
-250.0   120.0   16.666666666666668
-250.0   90.0   33.333333333333336
-200.0   90.0   16.666666666666668
-200.0   120.0   16.666666666666668
-250.0   120.0   16.666666666666668
-200.0   120.0   33.333333333333336
-250.0   90.0   33.333333333333336
-250.0   120.0   33.333333333333336
-200.0   120.0   33.333333333333336
-250.0   120.0   16.666666666666668
-250.0   90.0   33.333333333333336
-200.0   120.0   33.333333333333336
-200.0   90.0   33.333333333333336
-200.0   90.0   16.666666666666668
-250.0   90.0   33.333333333333336
-200.0   120.0   33.333333333333336
-200.0   90.0   16.666666666666668
-250.0   120.0   16.666666666666668
-250.0   90.0   33.333333333333336
-200.0   90.0   33.333333333333336
-250.0   120.0   33.333333333333336
-250.0   90.0   50.0
-200.0   90.0   33.333333333333336
-200.0   120.0   33.333333333333336
-250.0   120.0   33.333333333333336
-200.0   120.0   50.0
-250.0   90.0   50.0
-250.0   120.0   50.0
-200.0   120.0   50.0
-250.0   120.0   33.333333333333336
-250.0   90.0   50.0
-200.0   120.0   50.0
-200.0   90.0   50.0
-200.0   90.0   33.333333333333336
-250.0   90.0   50.0
-200.0   120.0   50.0
-200.0   90.0   33.333333333333336
-250.0   120.0   33.333333333333336
-250.0   120.0   0.0
-200.0   120.0   0.0
-250.0   150.0   0.0
-250.0   120.0   16.666666666666668
-200.0   120.0   0.0
-200.0   150.0   0.0
-250.0   150.0   0.0
-200.0   150.0   16.666666666666668
-250.0   120.0   16.666666666666668
-250.0   150.0   16.666666666666668
-200.0   150.0   16.666666666666668
-250.0   150.0   0.0
-250.0   120.0   16.666666666666668
-200.0   150.0   16.666666666666668
-200.0   120.0   16.666666666666668
-200.0   120.0   0.0
-250.0   120.0   16.666666666666668
-200.0   150.0   16.666666666666668
-200.0   120.0   0.0
-250.0   150.0   0.0
-250.0   120.0   16.666666666666668
-200.0   120.0   16.666666666666668
-250.0   150.0   16.666666666666668
-250.0   120.0   33.333333333333336
-200.0   120.0   16.666666666666668
-200.0   150.0   16.666666666666668
-250.0   150.0   16.666666666666668
-200.0   150.0   33.333333333333336
-250.0   120.0   33.333333333333336
-250.0   150.0   33.333333333333336
-200.0   150.0   33.333333333333336
-250.0   150.0   16.666666666666668
-250.0   120.0   33.333333333333336
-200.0   150.0   33.333333333333336
-200.0   120.0   33.333333333333336
-200.0   120.0   16.666666666666668
-250.0   120.0   33.333333333333336
-200.0   150.0   33.333333333333336
-200.0   120.0   16.666666666666668
-250.0   150.0   16.666666666666668
-250.0   120.0   33.333333333333336
-200.0   120.0   33.333333333333336
-250.0   150.0   33.333333333333336
-250.0   120.0   50.0
-200.0   120.0   33.333333333333336
-200.0   150.0   33.333333333333336
-250.0   150.0   33.333333333333336
-200.0   150.0   50.0
-250.0   120.0   50.0
-250.0   150.0   50.0
-200.0   150.0   50.0
-250.0   150.0   33.333333333333336
-250.0   120.0   50.0
-200.0   150.0   50.0
-200.0   120.0   50.0
-200.0   120.0   33.333333333333336
-250.0   120.0   50.0
-200.0   150.0   50.0
-200.0   120.0   33.333333333333336
-250.0   150.0   33.333333333333336
-200.0   0.0   0.0
-150.0   0.0   0.0
-200.0   30.0   0.0
-200.0   0.0   16.666666666666668
-150.0   0.0   0.0
-150.0   30.0   0.0
-200.0   30.0   0.0
-150.0   30.0   16.666666666666668
-200.0   0.0   16.666666666666668
-200.0   30.0   16.666666666666668
-150.0   30.0   16.666666666666668
-200.0   30.0   0.0
-200.0   0.0   16.666666666666668
-150.0   30.0   16.666666666666668
-150.0   0.0   16.666666666666668
-150.0   0.0   0.0
-200.0   0.0   16.666666666666668
-150.0   30.0   16.666666666666668
-150.0   0.0   0.0
-200.0   30.0   0.0
-200.0   0.0   16.666666666666668
-150.0   0.0   16.666666666666668
-200.0   30.0   16.666666666666668
-200.0   0.0   33.333333333333336
-150.0   0.0   16.666666666666668
-150.0   30.0   16.666666666666668
-200.0   30.0   16.666666666666668
-150.0   30.0   33.333333333333336
-200.0   0.0   33.333333333333336
-200.0   30.0   33.333333333333336
-150.0   30.0   33.333333333333336
-200.0   30.0   16.666666666666668
-200.0   0.0   33.333333333333336
-150.0   30.0   33.333333333333336
-150.0   0.0   33.333333333333336
-150.0   0.0   16.666666666666668
-200.0   0.0   33.333333333333336
-150.0   30.0   33.333333333333336
-150.0   0.0   16.666666666666668
-200.0   30.0   16.666666666666668
-200.0   0.0   33.333333333333336
-150.0   0.0   33.333333333333336
-200.0   30.0   33.333333333333336
-200.0   0.0   50.0
-150.0   0.0   33.333333333333336
-150.0   30.0   33.333333333333336
-200.0   30.0   33.333333333333336
-150.0   30.0   50.0
-200.0   0.0   50.0
-200.0   30.0   50.0
-150.0   30.0   50.0
-200.0   30.0   33.333333333333336
-200.0   0.0   50.0
-150.0   30.0   50.0
-150.0   0.0   50.0
-150.0   0.0   33.333333333333336
-200.0   0.0   50.0
-150.0   30.0   50.0
-150.0   0.0   33.333333333333336
-200.0   30.0   33.333333333333336
-200.0   30.0   0.0
-150.0   30.0   0.0
-200.0   60.0   0.0
-200.0   30.0   16.666666666666668
-150.0   30.0   0.0
-150.0   60.0   0.0
-200.0   60.0   0.0
-150.0   60.0   16.666666666666668
-200.0   30.0   16.666666666666668
-200.0   60.0   16.666666666666668
-150.0   60.0   16.666666666666668
-200.0   60.0   0.0
-200.0   30.0   16.666666666666668
-150.0   60.0   16.666666666666668
-150.0   30.0   16.666666666666668
-150.0   30.0   0.0
-200.0   30.0   16.666666666666668
-150.0   60.0   16.666666666666668
-150.0   30.0   0.0
-200.0   60.0   0.0
-200.0   30.0   16.666666666666668
-150.0   30.0   16.666666666666668
-200.0   60.0   16.666666666666668
-200.0   30.0   33.333333333333336
-150.0   30.0   16.666666666666668
-150.0   60.0   16.666666666666668
-200.0   60.0   16.666666666666668
-150.0   60.0   33.333333333333336
-200.0   30.0   33.333333333333336
-200.0   60.0   33.333333333333336
-150.0   60.0   33.333333333333336
-200.0   60.0   16.666666666666668
-200.0   30.0   33.333333333333336
-150.0   60.0   33.333333333333336
-150.0   30.0   33.333333333333336
-150.0   30.0   16.666666666666668
-200.0   30.0   33.333333333333336
-150.0   60.0   33.333333333333336
-150.0   30.0   16.666666666666668
-200.0   60.0   16.666666666666668
-200.0   30.0   33.333333333333336
-150.0   30.0   33.333333333333336
-200.0   60.0   33.333333333333336
-200.0   30.0   50.0
-150.0   30.0   33.333333333333336
-150.0   60.0   33.333333333333336
-200.0   60.0   33.333333333333336
-150.0   60.0   50.0
-200.0   30.0   50.0
-200.0   60.0   50.0
-150.0   60.0   50.0
-200.0   60.0   33.333333333333336
-200.0   30.0   50.0
-150.0   60.0   50.0
-150.0   30.0   50.0
-150.0   30.0   33.333333333333336
-200.0   30.0   50.0
-150.0   60.0   50.0
-150.0   30.0   33.333333333333336
-200.0   60.0   33.333333333333336
-200.0   60.0   0.0
-150.0   60.0   0.0
-200.0   90.0   0.0
-200.0   60.0   16.666666666666668
-150.0   60.0   0.0
-150.0   90.0   0.0
-200.0   90.0   0.0
-150.0   90.0   16.666666666666668
-200.0   60.0   16.666666666666668
-200.0   90.0   16.666666666666668
-150.0   90.0   16.666666666666668
-200.0   90.0   0.0
-200.0   60.0   16.666666666666668
-150.0   90.0   16.666666666666668
-150.0   60.0   16.666666666666668
-150.0   60.0   0.0
-200.0   60.0   16.666666666666668
-150.0   90.0   16.666666666666668
-150.0   60.0   0.0
-200.0   90.0   0.0
-200.0   60.0   16.666666666666668
-150.0   60.0   16.666666666666668
-200.0   90.0   16.666666666666668
-200.0   60.0   33.333333333333336
-150.0   60.0   16.666666666666668
-150.0   90.0   16.666666666666668
-200.0   90.0   16.666666666666668
-150.0   90.0   33.333333333333336
-200.0   60.0   33.333333333333336
-200.0   90.0   33.333333333333336
-150.0   90.0   33.333333333333336
-200.0   90.0   16.666666666666668
-200.0   60.0   33.333333333333336
-150.0   90.0   33.333333333333336
-150.0   60.0   33.333333333333336
-150.0   60.0   16.666666666666668
-200.0   60.0   33.333333333333336
-150.0   90.0   33.333333333333336
-150.0   60.0   16.666666666666668
-200.0   90.0   16.666666666666668
-200.0   60.0   33.333333333333336
-150.0   60.0   33.333333333333336
-200.0   90.0   33.333333333333336
-200.0   60.0   50.0
-150.0   60.0   33.333333333333336
-150.0   90.0   33.333333333333336
-200.0   90.0   33.333333333333336
-150.0   90.0   50.0
-200.0   60.0   50.0
-200.0   90.0   50.0
-150.0   90.0   50.0
-200.0   90.0   33.333333333333336
-200.0   60.0   50.0
-150.0   90.0   50.0
-150.0   60.0   50.0
-150.0   60.0   33.333333333333336
-200.0   60.0   50.0
-150.0   90.0   50.0
-150.0   60.0   33.333333333333336
-200.0   90.0   33.333333333333336
-200.0   90.0   0.0
-150.0   90.0   0.0
-200.0   120.0   0.0
-200.0   90.0   16.666666666666668
-150.0   90.0   0.0
-150.0   120.0   0.0
-200.0   120.0   0.0
-150.0   120.0   16.666666666666668
-200.0   90.0   16.666666666666668
-200.0   120.0   16.666666666666668
-150.0   120.0   16.666666666666668
-200.0   120.0   0.0
-200.0   90.0   16.666666666666668
-150.0   120.0   16.666666666666668
-150.0   90.0   16.666666666666668
-150.0   90.0   0.0
-200.0   90.0   16.666666666666668
-150.0   120.0   16.666666666666668
-150.0   90.0   0.0
-200.0   120.0   0.0
-200.0   90.0   16.666666666666668
-150.0   90.0   16.666666666666668
-200.0   120.0   16.666666666666668
-200.0   90.0   33.333333333333336
-150.0   90.0   16.666666666666668
-150.0   120.0   16.666666666666668
-200.0   120.0   16.666666666666668
-150.0   120.0   33.333333333333336
-200.0   90.0   33.333333333333336
-200.0   120.0   33.333333333333336
-150.0   120.0   33.333333333333336
-200.0   120.0   16.666666666666668
-200.0   90.0   33.333333333333336
-150.0   120.0   33.333333333333336
-150.0   90.0   33.333333333333336
-150.0   90.0   16.666666666666668
-200.0   90.0   33.333333333333336
-150.0   120.0   33.333333333333336
-150.0   90.0   16.666666666666668
-200.0   120.0   16.666666666666668
-200.0   90.0   33.333333333333336
-150.0   90.0   33.333333333333336
-200.0   120.0   33.333333333333336
-200.0   90.0   50.0
-150.0   90.0   33.333333333333336
-150.0   120.0   33.333333333333336
-200.0   120.0   33.333333333333336
-150.0   120.0   50.0
-200.0   90.0   50.0
-200.0   120.0   50.0
-150.0   120.0   50.0
-200.0   120.0   33.333333333333336
-200.0   90.0   50.0
-150.0   120.0   50.0
-150.0   90.0   50.0
-150.0   90.0   33.333333333333336
-200.0   90.0   50.0
-150.0   120.0   50.0
-150.0   90.0   33.333333333333336
-200.0   120.0   33.333333333333336
-200.0   120.0   0.0
-150.0   120.0   0.0
-200.0   150.0   0.0
-200.0   120.0   16.666666666666668
-150.0   120.0   0.0
-150.0   150.0   0.0
-200.0   150.0   0.0
-150.0   150.0   16.666666666666668
-200.0   120.0   16.666666666666668
-200.0   150.0   16.666666666666668
-150.0   150.0   16.666666666666668
-200.0   150.0   0.0
-200.0   120.0   16.666666666666668
-150.0   150.0   16.666666666666668
-150.0   120.0   16.666666666666668
-150.0   120.0   0.0
-200.0   120.0   16.666666666666668
-150.0   150.0   16.666666666666668
-150.0   120.0   0.0
-200.0   150.0   0.0
-200.0   120.0   16.666666666666668
-150.0   120.0   16.666666666666668
-200.0   150.0   16.666666666666668
-200.0   120.0   33.333333333333336
-150.0   120.0   16.666666666666668
-150.0   150.0   16.666666666666668
-200.0   150.0   16.666666666666668
-150.0   150.0   33.333333333333336
-200.0   120.0   33.333333333333336
-200.0   150.0   33.333333333333336
-150.0   150.0   33.333333333333336
-200.0   150.0   16.666666666666668
-200.0   120.0   33.333333333333336
-150.0   150.0   33.333333333333336
-150.0   120.0   33.333333333333336
-150.0   120.0   16.666666666666668
-200.0   120.0   33.333333333333336
-150.0   150.0   33.333333333333336
-150.0   120.0   16.666666666666668
-200.0   150.0   16.666666666666668
-200.0   120.0   33.333333333333336
-150.0   120.0   33.333333333333336
-200.0   150.0   33.333333333333336
-200.0   120.0   50.0
-150.0   120.0   33.333333333333336
-150.0   150.0   33.333333333333336
-200.0   150.0   33.333333333333336
-150.0   150.0   50.0
-200.0   120.0   50.0
-200.0   150.0   50.0
-150.0   150.0   50.0
-200.0   150.0   33.333333333333336
-200.0   120.0   50.0
-150.0   150.0   50.0
-150.0   120.0   50.0
-150.0   120.0   33.333333333333336
-200.0   120.0   50.0
-150.0   150.0   50.0
-150.0   120.0   33.333333333333336
-200.0   150.0   33.333333333333336
-150.0   0.0   0.0
-100.0   0.0   0.0
-150.0   30.0   0.0
-150.0   0.0   16.666666666666668
-100.0   0.0   0.0
-100.0   30.0   0.0
-150.0   30.0   0.0
-100.0   30.0   16.666666666666668
-150.0   0.0   16.666666666666668
-150.0   30.0   16.666666666666668
-100.0   30.0   16.666666666666668
-150.0   30.0   0.0
-150.0   0.0   16.666666666666668
-100.0   30.0   16.666666666666668
-100.0   0.0   16.666666666666668
-100.0   0.0   0.0
-150.0   0.0   16.666666666666668
-100.0   30.0   16.666666666666668
-100.0   0.0   0.0
-150.0   30.0   0.0
-150.0   0.0   16.666666666666668
-100.0   0.0   16.666666666666668
-150.0   30.0   16.666666666666668
-150.0   0.0   33.333333333333336
-100.0   0.0   16.666666666666668
-100.0   30.0   16.666666666666668
-150.0   30.0   16.666666666666668
-100.0   30.0   33.333333333333336
-150.0   0.0   33.333333333333336
-150.0   30.0   33.333333333333336
-100.0   30.0   33.333333333333336
-150.0   30.0   16.666666666666668
-150.0   0.0   33.333333333333336
-100.0   30.0   33.333333333333336
-100.0   0.0   33.333333333333336
-100.0   0.0   16.666666666666668
-150.0   0.0   33.333333333333336
-100.0   30.0   33.333333333333336
-100.0   0.0   16.666666666666668
-150.0   30.0   16.666666666666668
-150.0   0.0   33.333333333333336
-100.0   0.0   33.333333333333336
-150.0   30.0   33.333333333333336
-150.0   0.0   50.0
-100.0   0.0   33.333333333333336
-100.0   30.0   33.333333333333336
-150.0   30.0   33.333333333333336
-100.0   30.0   50.0
-150.0   0.0   50.0
-150.0   30.0   50.0
-100.0   30.0   50.0
-150.0   30.0   33.333333333333336
-150.0   0.0   50.0
-100.0   30.0   50.0
-100.0   0.0   50.0
-100.0   0.0   33.333333333333336
-150.0   0.0   50.0
-100.0   30.0   50.0
-100.0   0.0   33.333333333333336
-150.0   30.0   33.333333333333336
-150.0   30.0   0.0
-100.0   30.0   0.0
-150.0   60.0   0.0
-150.0   30.0   16.666666666666668
-100.0   30.0   0.0
-100.0   60.0   0.0
-150.0   60.0   0.0
-100.0   60.0   16.666666666666668
-150.0   30.0   16.666666666666668
-150.0   60.0   16.666666666666668
-100.0   60.0   16.666666666666668
-150.0   60.0   0.0
-150.0   30.0   16.666666666666668
-100.0   60.0   16.666666666666668
-100.0   30.0   16.666666666666668
-100.0   30.0   0.0
-150.0   30.0   16.666666666666668
-100.0   60.0   16.666666666666668
-100.0   30.0   0.0
-150.0   60.0   0.0
-150.0   30.0   16.666666666666668
-100.0   30.0   16.666666666666668
-150.0   60.0   16.666666666666668
-150.0   30.0   33.333333333333336
-100.0   30.0   16.666666666666668
-100.0   60.0   16.666666666666668
-150.0   60.0   16.666666666666668
-100.0   60.0   33.333333333333336
-150.0   30.0   33.333333333333336
-150.0   60.0   33.333333333333336
-100.0   60.0   33.333333333333336
-150.0   60.0   16.666666666666668
-150.0   30.0   33.333333333333336
-100.0   60.0   33.333333333333336
-100.0   30.0   33.333333333333336
-100.0   30.0   16.666666666666668
-150.0   30.0   33.333333333333336
-100.0   60.0   33.333333333333336
-100.0   30.0   16.666666666666668
-150.0   60.0   16.666666666666668
-150.0   30.0   33.333333333333336
-100.0   30.0   33.333333333333336
-150.0   60.0   33.333333333333336
-150.0   30.0   50.0
-100.0   30.0   33.333333333333336
-100.0   60.0   33.333333333333336
-150.0   60.0   33.333333333333336
-100.0   60.0   50.0
-150.0   30.0   50.0
-150.0   60.0   50.0
-100.0   60.0   50.0
-150.0   60.0   33.333333333333336
-150.0   30.0   50.0
-100.0   60.0   50.0
-100.0   30.0   50.0
-100.0   30.0   33.333333333333336
-150.0   30.0   50.0
-100.0   60.0   50.0
-100.0   30.0   33.333333333333336
-150.0   60.0   33.333333333333336
-150.0   60.0   0.0
-100.0   60.0   0.0
-150.0   90.0   0.0
-150.0   60.0   16.666666666666668
-100.0   60.0   0.0
-100.0   90.0   0.0
-150.0   90.0   0.0
-100.0   90.0   16.666666666666668
-150.0   60.0   16.666666666666668
-150.0   90.0   16.666666666666668
-100.0   90.0   16.666666666666668
-150.0   90.0   0.0
-150.0   60.0   16.666666666666668
-100.0   90.0   16.666666666666668
-100.0   60.0   16.666666666666668
-100.0   60.0   0.0
-150.0   60.0   16.666666666666668
-100.0   90.0   16.666666666666668
-100.0   60.0   0.0
-150.0   90.0   0.0
-150.0   60.0   16.666666666666668
-100.0   60.0   16.666666666666668
-150.0   90.0   16.666666666666668
-150.0   60.0   33.333333333333336
-100.0   60.0   16.666666666666668
-100.0   90.0   16.666666666666668
-150.0   90.0   16.666666666666668
-100.0   90.0   33.333333333333336
-150.0   60.0   33.333333333333336
-150.0   90.0   33.333333333333336
-100.0   90.0   33.333333333333336
-150.0   90.0   16.666666666666668
-150.0   60.0   33.333333333333336
-100.0   90.0   33.333333333333336
-100.0   60.0   33.333333333333336
-100.0   60.0   16.666666666666668
-150.0   60.0   33.333333333333336
-100.0   90.0   33.333333333333336
-100.0   60.0   16.666666666666668
-150.0   90.0   16.666666666666668
-150.0   60.0   33.333333333333336
-100.0   60.0   33.333333333333336
-150.0   90.0   33.333333333333336
-150.0   60.0   50.0
-100.0   60.0   33.333333333333336
-100.0   90.0   33.333333333333336
-150.0   90.0   33.333333333333336
-100.0   90.0   50.0
-150.0   60.0   50.0
-150.0   90.0   50.0
-100.0   90.0   50.0
-150.0   90.0   33.333333333333336
-150.0   60.0   50.0
-100.0   90.0   50.0
-100.0   60.0   50.0
-100.0   60.0   33.333333333333336
-150.0   60.0   50.0
-100.0   90.0   50.0
-100.0   60.0   33.333333333333336
-150.0   90.0   33.333333333333336
-150.0   90.0   0.0
-100.0   90.0   0.0
-150.0   120.0   0.0
-150.0   90.0   16.666666666666668
-100.0   90.0   0.0
-100.0   120.0   0.0
-150.0   120.0   0.0
-100.0   120.0   16.666666666666668
-150.0   90.0   16.666666666666668
-150.0   120.0   16.666666666666668
-100.0   120.0   16.666666666666668
-150.0   120.0   0.0
-150.0   90.0   16.666666666666668
-100.0   120.0   16.666666666666668
-100.0   90.0   16.666666666666668
-100.0   90.0   0.0
-150.0   90.0   16.666666666666668
-100.0   120.0   16.666666666666668
-100.0   90.0   0.0
-150.0   120.0   0.0
-150.0   90.0   16.666666666666668
-100.0   90.0   16.666666666666668
-150.0   120.0   16.666666666666668
-150.0   90.0   33.333333333333336
-100.0   90.0   16.666666666666668
-100.0   120.0   16.666666666666668
-150.0   120.0   16.666666666666668
-100.0   120.0   33.333333333333336
-150.0   90.0   33.333333333333336
-150.0   120.0   33.333333333333336
-100.0   120.0   33.333333333333336
-150.0   120.0   16.666666666666668
-150.0   90.0   33.333333333333336
-100.0   120.0   33.333333333333336
-100.0   90.0   33.333333333333336
-100.0   90.0   16.666666666666668
-150.0   90.0   33.333333333333336
-100.0   120.0   33.333333333333336
-100.0   90.0   16.666666666666668
-150.0   120.0   16.666666666666668
-150.0   90.0   33.333333333333336
-100.0   90.0   33.333333333333336
-150.0   120.0   33.333333333333336
-150.0   90.0   50.0
-100.0   90.0   33.333333333333336
-100.0   120.0   33.333333333333336
-150.0   120.0   33.333333333333336
-100.0   120.0   50.0
-150.0   90.0   50.0
-150.0   120.0   50.0
-100.0   120.0   50.0
-150.0   120.0   33.333333333333336
-150.0   90.0   50.0
-100.0   120.0   50.0
-100.0   90.0   50.0
-100.0   90.0   33.333333333333336
-150.0   90.0   50.0
-100.0   120.0   50.0
-100.0   90.0   33.333333333333336
-150.0   120.0   33.333333333333336
-150.0   120.0   0.0
-100.0   120.0   0.0
-150.0   150.0   0.0
-150.0   120.0   16.666666666666668
-100.0   120.0   0.0
-100.0   150.0   0.0
-150.0   150.0   0.0
-100.0   150.0   16.666666666666668
-150.0   120.0   16.666666666666668
-150.0   150.0   16.666666666666668
-100.0   150.0   16.666666666666668
-150.0   150.0   0.0
-150.0   120.0   16.666666666666668
-100.0   150.0   16.666666666666668
-100.0   120.0   16.666666666666668
-100.0   120.0   0.0
-150.0   120.0   16.666666666666668
-100.0   150.0   16.666666666666668
-100.0   120.0   0.0
-150.0   150.0   0.0
-150.0   120.0   16.666666666666668
-100.0   120.0   16.666666666666668
-150.0   150.0   16.666666666666668
-150.0   120.0   33.333333333333336
-100.0   120.0   16.666666666666668
-100.0   150.0   16.666666666666668
-150.0   150.0   16.666666666666668
-100.0   150.0   33.333333333333336
-150.0   120.0   33.333333333333336
-150.0   150.0   33.333333333333336
-100.0   150.0   33.333333333333336
-150.0   150.0   16.666666666666668
-150.0   120.0   33.333333333333336
-100.0   150.0   33.333333333333336
-100.0   120.0   33.333333333333336
-100.0   120.0   16.666666666666668
-150.0   120.0   33.333333333333336
-100.0   150.0   33.333333333333336
-100.0   120.0   16.666666666666668
-150.0   150.0   16.666666666666668
-150.0   120.0   33.333333333333336
-100.0   120.0   33.333333333333336
-150.0   150.0   33.333333333333336
-150.0   120.0   50.0
-100.0   120.0   33.333333333333336
-100.0   150.0   33.333333333333336
-150.0   150.0   33.333333333333336
-100.0   150.0   50.0
-150.0   120.0   50.0
-150.0   150.0   50.0
-100.0   150.0   50.0
-150.0   150.0   33.333333333333336
-150.0   120.0   50.0
-100.0   150.0   50.0
-100.0   120.0   50.0
-100.0   120.0   33.333333333333336
-150.0   120.0   50.0
-100.0   150.0   50.0
-100.0   120.0   33.333333333333336
-150.0   150.0   33.333333333333336
-100.0   0.0   0.0
-50.0   0.0   0.0
-100.0   30.0   0.0
-100.0   0.0   16.666666666666668
-50.0   0.0   0.0
-50.0   30.0   0.0
-100.0   30.0   0.0
-50.0   30.0   16.666666666666668
-100.0   0.0   16.666666666666668
-100.0   30.0   16.666666666666668
-50.0   30.0   16.666666666666668
-100.0   30.0   0.0
-100.0   0.0   16.666666666666668
-50.0   30.0   16.666666666666668
-50.0   0.0   16.666666666666668
-50.0   0.0   0.0
-100.0   0.0   16.666666666666668
-50.0   30.0   16.666666666666668
-50.0   0.0   0.0
-100.0   30.0   0.0
-100.0   0.0   16.666666666666668
-50.0   0.0   16.666666666666668
-100.0   30.0   16.666666666666668
-100.0   0.0   33.333333333333336
-50.0   0.0   16.666666666666668
-50.0   30.0   16.666666666666668
-100.0   30.0   16.666666666666668
-50.0   30.0   33.333333333333336
-100.0   0.0   33.333333333333336
-100.0   30.0   33.333333333333336
-50.0   30.0   33.333333333333336
-100.0   30.0   16.666666666666668
-100.0   0.0   33.333333333333336
-50.0   30.0   33.333333333333336
-50.0   0.0   33.333333333333336
-50.0   0.0   16.666666666666668
-100.0   0.0   33.333333333333336
-50.0   30.0   33.333333333333336
-50.0   0.0   16.666666666666668
-100.0   30.0   16.666666666666668
-100.0   0.0   33.333333333333336
-50.0   0.0   33.333333333333336
-100.0   30.0   33.333333333333336
-100.0   0.0   50.0
-50.0   0.0   33.333333333333336
-50.0   30.0   33.333333333333336
-100.0   30.0   33.333333333333336
-50.0   30.0   50.0
-100.0   0.0   50.0
-100.0   30.0   50.0
-50.0   30.0   50.0
-100.0   30.0   33.333333333333336
-100.0   0.0   50.0
-50.0   30.0   50.0
-50.0   0.0   50.0
-50.0   0.0   33.333333333333336
-100.0   0.0   50.0
-50.0   30.0   50.0
-50.0   0.0   33.333333333333336
-100.0   30.0   33.333333333333336
-100.0   30.0   0.0
-50.0   30.0   0.0
-100.0   60.0   0.0
-100.0   30.0   16.666666666666668
-50.0   30.0   0.0
-50.0   60.0   0.0
-100.0   60.0   0.0
-50.0   60.0   16.666666666666668
-100.0   30.0   16.666666666666668
-100.0   60.0   16.666666666666668
-50.0   60.0   16.666666666666668
-100.0   60.0   0.0
-100.0   30.0   16.666666666666668
-50.0   60.0   16.666666666666668
-50.0   30.0   16.666666666666668
-50.0   30.0   0.0
-100.0   30.0   16.666666666666668
-50.0   60.0   16.666666666666668
-50.0   30.0   0.0
-100.0   60.0   0.0
-100.0   30.0   16.666666666666668
-50.0   30.0   16.666666666666668
-100.0   60.0   16.666666666666668
-100.0   30.0   33.333333333333336
-50.0   30.0   16.666666666666668
-50.0   60.0   16.666666666666668
-100.0   60.0   16.666666666666668
-50.0   60.0   33.333333333333336
-100.0   30.0   33.333333333333336
-100.0   60.0   33.333333333333336
-50.0   60.0   33.333333333333336
-100.0   60.0   16.666666666666668
-100.0   30.0   33.333333333333336
-50.0   60.0   33.333333333333336
-50.0   30.0   33.333333333333336
-50.0   30.0   16.666666666666668
-100.0   30.0   33.333333333333336
-50.0   60.0   33.333333333333336
-50.0   30.0   16.666666666666668
-100.0   60.0   16.666666666666668
-100.0   30.0   33.333333333333336
-50.0   30.0   33.333333333333336
-100.0   60.0   33.333333333333336
-100.0   30.0   50.0
-50.0   30.0   33.333333333333336
-50.0   60.0   33.333333333333336
-100.0   60.0   33.333333333333336
-50.0   60.0   50.0
-100.0   30.0   50.0
-100.0   60.0   50.0
-50.0   60.0   50.0
-100.0   60.0   33.333333333333336
-100.0   30.0   50.0
-50.0   60.0   50.0
-50.0   30.0   50.0
-50.0   30.0   33.333333333333336
-100.0   30.0   50.0
-50.0   60.0   50.0
-50.0   30.0   33.333333333333336
-100.0   60.0   33.333333333333336
-100.0   60.0   0.0
-50.0   60.0   0.0
-100.0   90.0   0.0
-100.0   60.0   16.666666666666668
-50.0   60.0   0.0
-50.0   90.0   0.0
-100.0   90.0   0.0
-50.0   90.0   16.666666666666668
-100.0   60.0   16.666666666666668
-100.0   90.0   16.666666666666668
-50.0   90.0   16.666666666666668
-100.0   90.0   0.0
-100.0   60.0   16.666666666666668
-50.0   90.0   16.666666666666668
-50.0   60.0   16.666666666666668
-50.0   60.0   0.0
-100.0   60.0   16.666666666666668
-50.0   90.0   16.666666666666668
-50.0   60.0   0.0
-100.0   90.0   0.0
-100.0   60.0   16.666666666666668
-50.0   60.0   16.666666666666668
-100.0   90.0   16.666666666666668
-100.0   60.0   33.333333333333336
-50.0   60.0   16.666666666666668
-50.0   90.0   16.666666666666668
-100.0   90.0   16.666666666666668
-50.0   90.0   33.333333333333336
-100.0   60.0   33.333333333333336
-100.0   90.0   33.333333333333336
-50.0   90.0   33.333333333333336
-100.0   90.0   16.666666666666668
-100.0   60.0   33.333333333333336
-50.0   90.0   33.333333333333336
-50.0   60.0   33.333333333333336
-50.0   60.0   16.666666666666668
-100.0   60.0   33.333333333333336
-50.0   90.0   33.333333333333336
-50.0   60.0   16.666666666666668
-100.0   90.0   16.666666666666668
-100.0   60.0   33.333333333333336
-50.0   60.0   33.333333333333336
-100.0   90.0   33.333333333333336
-100.0   60.0   50.0
-50.0   60.0   33.333333333333336
-50.0   90.0   33.333333333333336
-100.0   90.0   33.333333333333336
-50.0   90.0   50.0
-100.0   60.0   50.0
-100.0   90.0   50.0
-50.0   90.0   50.0
-100.0   90.0   33.333333333333336
-100.0   60.0   50.0
-50.0   90.0   50.0
-50.0   60.0   50.0
-50.0   60.0   33.333333333333336
-100.0   60.0   50.0
-50.0   90.0   50.0
-50.0   60.0   33.333333333333336
-100.0   90.0   33.333333333333336
-100.0   90.0   0.0
-50.0   90.0   0.0
-100.0   120.0   0.0
-100.0   90.0   16.666666666666668
-50.0   90.0   0.0
-50.0   120.0   0.0
-100.0   120.0   0.0
-50.0   120.0   16.666666666666668
-100.0   90.0   16.666666666666668
-100.0   120.0   16.666666666666668
-50.0   120.0   16.666666666666668
-100.0   120.0   0.0
-100.0   90.0   16.666666666666668
-50.0   120.0   16.666666666666668
-50.0   90.0   16.666666666666668
-50.0   90.0   0.0
-100.0   90.0   16.666666666666668
-50.0   120.0   16.666666666666668
-50.0   90.0   0.0
-100.0   120.0   0.0
-100.0   90.0   16.666666666666668
-50.0   90.0   16.666666666666668
-100.0   120.0   16.666666666666668
-100.0   90.0   33.333333333333336
-50.0   90.0   16.666666666666668
-50.0   120.0   16.666666666666668
-100.0   120.0   16.666666666666668
-50.0   120.0   33.333333333333336
-100.0   90.0   33.333333333333336
-100.0   120.0   33.333333333333336
-50.0   120.0   33.333333333333336
-100.0   120.0   16.666666666666668
-100.0   90.0   33.333333333333336
-50.0   120.0   33.333333333333336
-50.0   90.0   33.333333333333336
-50.0   90.0   16.666666666666668
-100.0   90.0   33.333333333333336
-50.0   120.0   33.333333333333336
-50.0   90.0   16.666666666666668
-100.0   120.0   16.666666666666668
-100.0   90.0   33.333333333333336
-50.0   90.0   33.333333333333336
-100.0   120.0   33.333333333333336
-100.0   90.0   50.0
-50.0   90.0   33.333333333333336
-50.0   120.0   33.333333333333336
-100.0   120.0   33.333333333333336
-50.0   120.0   50.0
-100.0   90.0   50.0
-100.0   120.0   50.0
-50.0   120.0   50.0
-100.0   120.0   33.333333333333336
-100.0   90.0   50.0
-50.0   120.0   50.0
-50.0   90.0   50.0
-50.0   90.0   33.333333333333336
-100.0   90.0   50.0
-50.0   120.0   50.0
-50.0   90.0   33.333333333333336
-100.0   120.0   33.333333333333336
-100.0   120.0   0.0
-50.0   120.0   0.0
-100.0   150.0   0.0
-100.0   120.0   16.666666666666668
-50.0   120.0   0.0
-50.0   150.0   0.0
-100.0   150.0   0.0
-50.0   150.0   16.666666666666668
-100.0   120.0   16.666666666666668
-100.0   150.0   16.666666666666668
-50.0   150.0   16.666666666666668
-100.0   150.0   0.0
-100.0   120.0   16.666666666666668
-50.0   150.0   16.666666666666668
-50.0   120.0   16.666666666666668
-50.0   120.0   0.0
-100.0   120.0   16.666666666666668
-50.0   150.0   16.666666666666668
-50.0   120.0   0.0
-100.0   150.0   0.0
-100.0   120.0   16.666666666666668
-50.0   120.0   16.666666666666668
-100.0   150.0   16.666666666666668
-100.0   120.0   33.333333333333336
-50.0   120.0   16.666666666666668
-50.0   150.0   16.666666666666668
-100.0   150.0   16.666666666666668
-50.0   150.0   33.333333333333336
-100.0   120.0   33.333333333333336
-100.0   150.0   33.333333333333336
-50.0   150.0   33.333333333333336
-100.0   150.0   16.666666666666668
-100.0   120.0   33.333333333333336
-50.0   150.0   33.333333333333336
-50.0   120.0   33.333333333333336
-50.0   120.0   16.666666666666668
-100.0   120.0   33.333333333333336
-50.0   150.0   33.333333333333336
-50.0   120.0   16.666666666666668
-100.0   150.0   16.666666666666668
-100.0   120.0   33.333333333333336
-50.0   120.0   33.333333333333336
-100.0   150.0   33.333333333333336
-100.0   120.0   50.0
-50.0   120.0   33.333333333333336
-50.0   150.0   33.333333333333336
-100.0   150.0   33.333333333333336
-50.0   150.0   50.0
-100.0   120.0   50.0
-100.0   150.0   50.0
-50.0   150.0   50.0
-100.0   150.0   33.333333333333336
-100.0   120.0   50.0
-50.0   150.0   50.0
-50.0   120.0   50.0
-50.0   120.0   33.333333333333336
-100.0   120.0   50.0
-50.0   150.0   50.0
-50.0   120.0   33.333333333333336
-100.0   150.0   33.333333333333336
-50.0   0.0   0.0
0.0   0.0   0.0
-50.0   30.0   0.0
-50.0   0.0   16.666666666666668
0.0   0.0   0.0
0.0   30.0   0.0
-50.0   30.0   0.0
0.0   30.0   16.666666666666668
-50.0   0.0   16.666666666666668
-50.0   30.0   16.666666666666668
0.0   30.0   16.666666666666668
-50.0   30.0   0.0
-50.0   0.0   16.666666666666668
0.0   30.0   16.666666666666668
0.0   0.0   16.666666666666668
0.0   0.0   0.0
-50.0   0.0   16.666666666666668
0.0   30.0   16.666666666666668
0.0   0.0   0.0
-50.0   30.0   0.0
-50.0   0.0   16.666666666666668
0.0   0.0   16.666666666666668
-50.0   30.0   16.666666666666668
-50.0   0.0   33.333333333333336
0.0   0.0   16.666666666666668
0.0   30.0   16.666666666666668
-50.0   30.0   16.666666666666668
0.0   30.0   33.333333333333336
-50.0   0.0   33.333333333333336
-50.0   30.0   33.333333333333336
0.0   30.0   33.333333333333336
-50.0   30.0   16.666666666666668
-50.0   0.0   33.333333333333336
0.0   30.0   33.333333333333336
0.0   0.0   33.333333333333336
0.0   0.0   16.666666666666668
-50.0   0.0   33.333333333333336
0.0   30.0   33.333333333333336
0.0   0.0   16.666666666666668
-50.0   30.0   16.666666666666668
-50.0   0.0   33.333333333333336
0.0   0.0   33.333333333333336
-50.0   30.0   33.333333333333336
-50.0   0.0   50.0
0.0   0.0   33.333333333333336
0.0   30.0   33.333333333333336
-50.0   30.0   33.333333333333336
0.0   30.0   50.0
-50.0   0.0   50.0
-50.0   30.0   50.0
0.0   30.0   50.0
-50.0   30.0   33.333333333333336
-50.0   0.0   50.0
0.0   30.0   50.0
0.0   0.0   50.0
0.0   0.0   33.333333333333336
-50.0   0.0   50.0
0.0   30.0   50.0
0.0   0.0   33.333333333333336
-50.0   30.0   33.333333333333336
-50.0   30.0   0.0
0.0   30.0   0.0
-50.0   60.0   0.0
-50.0   30.0   16.666666666666668
0.0   30.0   0.0
0.0   60.0   0.0
-50.0   60.0   0.0
0.0   60.0   16.666666666666668
-50.0   30.0   16.666666666666668
-50.0   60.0   16.666666666666668
0.0   60.0   16.666666666666668
-50.0   60.0   0.0
-50.0   30.0   16.666666666666668
0.0   60.0   16.666666666666668
0.0   30.0   16.666666666666668
0.0   30.0   0.0
-50.0   30.0   16.666666666666668
0.0   60.0   16.666666666666668
0.0   30.0   0.0
-50.0   60.0   0.0
-50.0   30.0   16.666666666666668
0.0   30.0   16.666666666666668
-50.0   60.0   16.666666666666668
-50.0   30.0   33.333333333333336
0.0   30.0   16.666666666666668
0.0   60.0   16.666666666666668
-50.0   60.0   16.666666666666668
0.0   60.0   33.333333333333336
-50.0   30.0   33.333333333333336
-50.0   60.0   33.333333333333336
0.0   60.0   33.333333333333336
-50.0   60.0   16.666666666666668
-50.0   30.0   33.333333333333336
0.0   60.0   33.333333333333336
0.0   30.0   33.333333333333336
0.0   30.0   16.666666666666668
-50.0   30.0   33.333333333333336
0.0   60.0   33.333333333333336
0.0   30.0   16.666666666666668
-50.0   60.0   16.666666666666668
-50.0   30.0   33.333333333333336
0.0   30.0   33.333333333333336
-50.0   60.0   33.333333333333336
-50.0   30.0   50.0
0.0   30.0   33.333333333333336
0.0   60.0   33.333333333333336
-50.0   60.0   33.333333333333336
0.0   60.0   50.0
-50.0   30.0   50.0
-50.0   60.0   50.0
0.0   60.0   50.0
-50.0   60.0   33.333333333333336
-50.0   30.0   50.0
0.0   60.0   50.0
0.0   30.0   50.0
0.0   30.0   33.333333333333336
-50.0   30.0   50.0
0.0   60.0   50.0
0.0   30.0   33.333333333333336
-50.0   60.0   33.333333333333336
-50.0   60.0   0.0
0.0   60.0   0.0
-50.0   90.0   0.0
-50.0   60.0   16.666666666666668
0.0   60.0   0.0
0.0   90.0   0.0
-50.0   90.0   0.0
0.0   90.0   16.666666666666668
-50.0   60.0   16.666666666666668
-50.0   90.0   16.666666666666668
0.0   90.0   16.666666666666668
-50.0   90.0   0.0
-50.0   60.0   16.666666666666668
0.0   90.0   16.666666666666668
0.0   60.0   16.666666666666668
0.0   60.0   0.0
-50.0   60.0   16.666666666666668
0.0   90.0   16.666666666666668
0.0   60.0   0.0
-50.0   90.0   0.0
-50.0   60.0   16.666666666666668
0.0   60.0   16.666666666666668
-50.0   90.0   16.666666666666668
-50.0   60.0   33.333333333333336
0.0   60.0   16.666666666666668
0.0   90.0   16.666666666666668
-50.0   90.0   16.666666666666668
0.0   90.0   33.333333333333336
-50.0   60.0   33.333333333333336
-50.0   90.0   33.333333333333336
0.0   90.0   33.333333333333336
-50.0   90.0   16.666666666666668
-50.0   60.0   33.333333333333336
0.0   90.0   33.333333333333336
0.0   60.0   33.333333333333336
0.0   60.0   16.666666666666668
-50.0   60.0   33.333333333333336
0.0   90.0   33.333333333333336
0.0   60.0   16.666666666666668
-50.0   90.0   16.666666666666668
-50.0   60.0   33.333333333333336
0.0   60.0   33.333333333333336
-50.0   90.0   33.333333333333336
-50.0   60.0   50.0
0.0   60.0   33.333333333333336
0.0   90.0   33.333333333333336
-50.0   90.0   33.333333333333336
0.0   90.0   50.0
-50.0   60.0   50.0
-50.0   90.0   50.0
0.0   90.0   50.0
-50.0   90.0   33.333333333333336
-50.0   60.0   50.0
0.0   90.0   50.0
0.0   60.0   50.0
0.0   60.0   33.333333333333336
-50.0   60.0   50.0
0.0   90.0   50.0
0.0   60.0   33.333333333333336
-50.0   90.0   33.333333333333336
-50.0   90.0   0.0
0.0   90.0   0.0
-50.0   120.0   0.0
-50.0   90.0   16.666666666666668
0.0   90.0   0.0
0.0   120.0   0.0
-50.0   120.0   0.0
0.0   120.0   16.666666666666668
-50.0   90.0   16.666666666666668
-50.0   120.0   16.666666666666668
0.0   120.0   16.666666666666668
-50.0   120.0   0.0
-50.0   90.0   16.666666666666668
0.0   120.0   16.666666666666668
0.0   90.0   16.666666666666668
0.0   90.0   0.0
-50.0   90.0   16.666666666666668
0.0   120.0   16.666666666666668
0.0   90.0   0.0
-50.0   120.0   0.0
-50.0   90.0   16.666666666666668
0.0   90.0   16.666666666666668
-50.0   120.0   16.666666666666668
-50.0   90.0   33.333333333333336
0.0   90.0   16.666666666666668
0.0   120.0   16.666666666666668
-50.0   120.0   16.666666666666668
0.0   120.0   33.333333333333336
-50.0   90.0   33.333333333333336
-50.0   120.0   33.333333333333336
0.0   120.0   33.333333333333336
-50.0   120.0   16.666666666666668
-50.0   90.0   33.333333333333336
0.0   120.0   33.333333333333336
0.0   90.0   33.333333333333336
0.0   90.0   16.666666666666668
-50.0   90.0   33.333333333333336
0.0   120.0   33.333333333333336
0.0   90.0   16.666666666666668
-50.0   120.0   16.666666666666668
-50.0   90.0   33.333333333333336
0.0   90.0   33.333333333333336
-50.0   120.0   33.333333333333336
-50.0   90.0   50.0
0.0   90.0   33.333333333333336
0.0   120.0   33.333333333333336
-50.0   120.0   33.333333333333336
0.0   120.0   50.0
-50.0   90.0   50.0
-50.0   120.0   50.0
0.0   120.0   50.0
-50.0   120.0   33.333333333333336
-50.0   90.0   50.0
0.0   120.0   50.0
0.0   90.0   50.0
0.0   90.0   33.333333333333336
-50.0   90.0   50.0
0.0   120.0   50.0
0.0   90.0   33.333333333333336
-50.0   120.0   33.333333333333336
-50.0   120.0   0.0
0.0   120.0   0.0
-50.0   150.0   0.0
-50.0   120.0   16.666666666666668
0.0   120.0   0.0
0.0   150.0   0.0
-50.0   150.0   0.0
0.0   150.0   16.666666666666668
-50.0   120.0   16.666666666666668
-50.0   150.0   16.666666666666668
0.0   150.0   16.666666666666668
-50.0   150.0   0.0
-50.0   120.0   16.666666666666668
0.0   150.0   16.666666666666668
0.0   120.0   16.666666666666668
0.0   120.0   0.0
-50.0   120.0   16.666666666666668
0.0   150.0   16.666666666666668
0.0   120.0   0.0
-50.0   150.0   0.0
-50.0   120.0   16.666666666666668
0.0   120.0   16.666666666666668
-50.0   150.0   16.666666666666668
-50.0   120.0   33.333333333333336
0.0   120.0   16.666666666666668
0.0   150.0   16.666666666666668
-50.0   150.0   16.666666666666668
0.0   150.0   33.333333333333336
-50.0   120.0   33.333333333333336
-50.0   150.0   33.333333333333336
0.0   150.0   33.333333333333336
-50.0   150.0   16.666666666666668
-50.0   120.0   33.333333333333336
0.0   150.0   33.333333333333336
0.0   120.0   33.333333333333336
0.0   120.0   16.666666666666668
-50.0   120.0   33.333333333333336
0.0   150.0   33.333333333333336
0.0   120.0   16.666666666666668
-50.0   150.0   16.666666666666668
-50.0   120.0   33.333333333333336
0.0   120.0   33.333333333333336
-50.0   150.0   33.333333333333336
-50.0   120.0   50.0
0.0   120.0   33.333333333333336
0.0   150.0   33.333333333333336
-50.0   150.0   33.333333333333336
0.0   150.0   50.0
-50.0   120.0   50.0
-50.0   150.0   50.0
0.0   150.0   50.0
-50.0   150.0   33.333333333333336
-50.0   120.0   50.0
0.0   150.0   50.0
0.0   120.0   50.0
0.0   120.0   33.333333333333336
-50.0   120.0   50.0
0.0   150.0   50.0
0.0   120.0   33.333333333333336
-50.0   150.0   33.333333333333336
0.0   0.0   0.0
50.0   0.0   0.0
0.0   30.0   0.0
0.0   0.0   16.666666666666668
50.0   0.0   0.0
50.0   30.0   0.0
0.0   30.0   0.0
50.0   30.0   16.666666666666668
0.0   0.0   16.666666666666668
0.0   30.0   16.666666666666668
50.0   30.0   16.666666666666668
0.0   30.0   0.0
0.0   0.0   16.666666666666668
50.0   30.0   16.666666666666668
50.0   0.0   16.666666666666668
50.0   0.0   0.0
0.0   0.0   16.666666666666668
50.0   30.0   16.666666666666668
50.0   0.0   0.0
0.0   30.0   0.0
0.0   0.0   16.666666666666668
50.0   0.0   16.666666666666668
0.0   30.0   16.666666666666668
0.0   0.0   33.333333333333336
50.0   0.0   16.666666666666668
50.0   30.0   16.666666666666668
0.0   30.0   16.666666666666668
50.0   30.0   33.333333333333336
0.0   0.0   33.333333333333336
0.0   30.0   33.333333333333336
50.0   30.0   33.333333333333336
0.0   30.0   16.666666666666668
0.0   0.0   33.333333333333336
50.0   30.0   33.333333333333336
50.0   0.0   33.333333333333336
50.0   0.0   16.666666666666668
0.0   0.0   33.333333333333336
50.0   30.0   33.333333333333336
50.0   0.0   16.666666666666668
0.0   30.0   16.666666666666668
0.0   0.0   33.333333333333336
50.0   0.0   33.333333333333336
0.0   30.0   33.333333333333336
0.0   0.0   50.0
50.0   0.0   33.333333333333336
50.0   30.0   33.333333333333336
0.0   30.0   33.333333333333336
50.0   30.0   50.0
0.0   0.0   50.0
0.0   30.0   50.0
50.0   30.0   50.0
0.0   30.0   33.333333333333336
0.0   0.0   50.0
50.0   30.0   50.0
50.0   0.0   50.0
50.0   0.0   33.333333333333336
0.0   0.0   50.0
50.0   30.0   50.0
50.0   0.0   33.333333333333336
0.0   30.0   33.333333333333336
0.0   30.0   0.0
50.0   30.0   0.0
0.0   60.0   0.0
0.0   30.0   16.666666666666668
50.0   30.0   0.0
50.0   60.0   0.0
0.0   60.0   0.0
50.0   60.0   16.666666666666668
0.0   30.0   16.666666666666668
0.0   60.0   16.666666666666668
50.0   60.0   16.666666666666668
0.0   60.0   0.0
0.0   30.0   16.666666666666668
50.0   60.0   16.666666666666668
50.0   30.0   16.666666666666668
50.0   30.0   0.0
0.0   30.0   16.666666666666668
50.0   60.0   16.666666666666668
50.0   30.0   0.0
0.0   60.0   0.0
0.0   30.0   16.666666666666668
50.0   30.0   16.666666666666668
0.0   60.0   16.666666666666668
0.0   30.0   33.333333333333336
50.0   30.0   16.666666666666668
50.0   60.0   16.666666666666668
0.0   60.0   16.666666666666668
50.0   60.0   33.333333333333336
0.0   30.0   33.333333333333336
0.0   60.0   33.333333333333336
50.0   60.0   33.333333333333336
0.0   60.0   16.666666666666668
0.0   30.0   33.333333333333336
50.0   60.0   33.333333333333336
50.0   30.0   33.333333333333336
50.0   30.0   16.666666666666668
0.0   30.0   33.333333333333336
50.0   60.0   33.333333333333336
50.0   30.0   16.666666666666668
0.0   60.0   16.666666666666668
0.0   30.0   33.333333333333336
50.0   30.0   33.333333333333336
0.0   60.0   33.333333333333336
0.0   30.0   50.0
50.0   30.0   33.333333333333336
50.0   60.0   33.333333333333336
0.0   60.0   33.333333333333336
50.0   60.0   50.0
0.0   30.0   50.0
0.0   60.0   50.0
50.0   60.0   50.0
0.0   60.0   33.333333333333336
0.0   30.0   50.0
50.0   60.0   50.0
50.0   30.0   50.0
50.0   30.0   33.333333333333336
0.0   30.0   50.0
50.0   60.0   50.0
50.0   30.0   33.333333333333336
0.0   60.0   33.333333333333336
0.0   60.0   0.0
50.0   60.0   0.0
0.0   90.0   0.0
0.0   60.0   16.666666666666668
50.0   60.0   0.0
50.0   90.0   0.0
0.0   90.0   0.0
50.0   90.0   16.666666666666668
0.0   60.0   16.666666666666668
0.0   90.0   16.666666666666668
50.0   90.0   16.666666666666668
0.0   90.0   0.0
0.0   60.0   16.666666666666668
50.0   90.0   16.666666666666668
50.0   60.0   16.666666666666668
50.0   60.0   0.0
0.0   60.0   16.666666666666668
50.0   90.0   16.666666666666668
50.0   60.0   0.0
0.0   90.0   0.0
0.0   60.0   16.666666666666668
50.0   60.0   16.666666666666668
0.0   90.0   16.666666666666668
0.0   60.0   33.333333333333336
50.0   60.0   16.666666666666668
50.0   90.0   16.666666666666668
0.0   90.0   16.666666666666668
50.0   90.0   33.333333333333336
0.0   60.0   33.333333333333336
0.0   90.0   33.333333333333336
50.0   90.0   33.333333333333336
0.0   90.0   16.666666666666668
0.0   60.0   33.333333333333336
50.0   90.0   33.333333333333336
50.0   60.0   33.333333333333336
50.0   60.0   16.666666666666668
0.0   60.0   33.333333333333336
50.0   90.0   33.333333333333336
50.0   60.0   16.666666666666668
0.0   90.0   16.666666666666668
0.0   60.0   33.333333333333336
50.0   60.0   33.333333333333336
0.0   90.0   33.333333333333336
0.0   60.0   50.0
50.0   60.0   33.333333333333336
50.0   90.0   33.333333333333336
0.0   90.0   33.333333333333336
50.0   90.0   50.0
0.0   60.0   50.0
0.0   90.0   50.0
50.0   90.0   50.0
0.0   90.0   33.333333333333336
0.0   60.0   50.0
50.0   90.0   50.0
50.0   60.0   50.0
50.0   60.0   33.333333333333336
0.0   60.0   50.0
50.0   90.0   50.0
50.0   60.0   33.333333333333336
0.0   90.0   33.333333333333336
0.0   90.0   0.0
50.0   90.0   0.0
0.0   120.0   0.0
0.0   90.0   16.666666666666668
50.0   90.0   0.0
50.0   120.0   0.0
0.0   120.0   0.0
50.0   120.0   16.666666666666668
0.0   90.0   16.666666666666668
0.0   120.0   16.666666666666668
50.0   120.0   16.666666666666668
0.0   120.0   0.0
0.0   90.0   16.666666666666668
50.0   120.0   16.666666666666668
50.0   90.0   16.666666666666668
50.0   90.0   0.0
0.0   90.0   16.666666666666668
50.0   120.0   16.666666666666668
50.0   90.0   0.0
0.0   120.0   0.0
0.0   90.0   16.666666666666668
50.0   90.0   16.666666666666668
0.0   120.0   16.666666666666668
0.0   90.0   33.333333333333336
50.0   90.0   16.666666666666668
50.0   120.0   16.666666666666668
0.0   120.0   16.666666666666668
50.0   120.0   33.333333333333336
0.0   90.0   33.333333333333336
0.0   120.0   33.333333333333336
50.0   120.0   33.333333333333336
0.0   120.0   16.666666666666668
0.0   90.0   33.333333333333336
50.0   120.0   33.333333333333336
50.0   90.0   33.333333333333336
50.0   90.0   16.666666666666668
0.0   90.0   33.333333333333336
50.0   120.0   33.333333333333336
50.0   90.0   16.666666666666668
0.0   120.0   16.666666666666668
0.0   90.0   33.333333333333336
50.0   90.0   33.333333333333336
0.0   120.0   33.333333333333336
0.0   90.0   50.0
50.0   90.0   33.333333333333336
50.0   120.0   33.333333333333336
0.0   120.0   33.333333333333336
50.0   120.0   50.0
0.0   90.0   50.0
0.0   120.0   50.0
50.0   120.0   50.0
0.0   120.0   33.333333333333336
0.0   90.0   50.0
50.0   120.0   50.0
50.0   90.0   50.0
50.0   90.0   33.333333333333336
0.0   90.0   50.0
50.0   120.0   50.0
50.0   90.0   33.333333333333336
0.0   120.0   33.333333333333336
0.0   120.0   0.0
50.0   120.0   0.0
0.0   150.0   0.0
0.0   120.0   16.666666666666668
50.0   120.0   0.0
50.0   150.0   0.0
0.0   150.0   0.0
50.0   150.0   16.666666666666668
0.0   120.0   16.666666666666668
0.0   150.0   16.666666666666668
50.0   150.0   16.666666666666668
0.0   150.0   0.0
0.0   120.0   16.666666666666668
50.0   150.0   16.666666666666668
50.0   120.0   16.666666666666668
50.0   120.0   0.0
0.0   120.0   16.666666666666668
50.0   150.0   16.666666666666668
50.0   120.0   0.0
0.0   150.0   0.0
0.0   120.0   16.666666666666668
50.0   120.0   16.666666666666668
0.0   150.0   16.666666666666668
0.0   120.0   33.333333333333336
50.0   120.0   16.666666666666668
50.0   150.0   16.666666666666668
0.0   150.0   16.666666666666668
50.0   150.0   33.333333333333336
0.0   120.0   33.333333333333336
0.0   150.0   33.333333333333336
50.0   150.0   33.333333333333336
0.0   150.0   16.666666666666668
0.0   120.0   33.333333333333336
50.0   150.0   33.333333333333336
50.0   120.0   33.333333333333336
50.0   120.0   16.666666666666668
0.0   120.0   33.333333333333336
50.0   150.0   33.333333333333336
50.0   120.0   16.666666666666668
0.0   150.0   16.666666666666668
0.0   120.0   33.333333333333336
50.0   120.0   33.333333333333336
0.0   150.0   33.333333333333336
0.0   120.0   50.0
50.0   120.0   33.333333333333336
50.0   150.0   33.333333333333336
0.0   150.0   33.333333333333336
50.0   150.0   50.0
0.0   120.0   50.0
0.0   150.0   50.0
50.0   150.0   50.0
0.0   150.0   33.333333333333336
0.0   120.0   50.0
50.0   150.0   50.0
50.0   120.0   50.0
50.0   120.0   33.333333333333336
0.0   120.0   50.0
50.0   150.0   50.0
50.0   120.0   33.333333333333336
0.0   150.0   33.333333333333336
50.0   0.0   0.0
100.0   0.0   0.0
50.0   30.0   0.0
50.0   0.0   16.666666666666668
100.0   0.0   0.0
100.0   30.0   0.0
50.0   30.0   0.0
100.0   30.0   16.666666666666668
50.0   0.0   16.666666666666668
50.0   30.0   16.666666666666668
100.0   30.0   16.666666666666668
50.0   30.0   0.0
50.0   0.0   16.666666666666668
100.0   30.0   16.666666666666668
100.0   0.0   16.666666666666668
100.0   0.0   0.0
50.0   0.0   16.666666666666668
100.0   30.0   16.666666666666668
100.0   0.0   0.0
50.0   30.0   0.0
50.0   0.0   16.666666666666668
100.0   0.0   16.666666666666668
50.0   30.0   16.666666666666668
50.0   0.0   33.333333333333336
100.0   0.0   16.666666666666668
100.0   30.0   16.666666666666668
50.0   30.0   16.666666666666668
100.0   30.0   33.333333333333336
50.0   0.0   33.333333333333336
50.0   30.0   33.333333333333336
100.0   30.0   33.333333333333336
50.0   30.0   16.666666666666668
50.0   0.0   33.333333333333336
100.0   30.0   33.333333333333336
100.0   0.0   33.333333333333336
100.0   0.0   16.666666666666668
50.0   0.0   33.333333333333336
100.0   30.0   33.333333333333336
100.0   0.0   16.666666666666668
50.0   30.0   16.666666666666668
50.0   0.0   33.333333333333336
100.0   0.0   33.333333333333336
50.0   30.0   33.333333333333336
50.0   0.0   50.0
100.0   0.0   33.333333333333336
100.0   30.0   33.333333333333336
50.0   30.0   33.333333333333336
100.0   30.0   50.0
50.0   0.0   50.0
50.0   30.0   50.0
100.0   30.0   50.0
50.0   30.0   33.333333333333336
50.0   0.0   50.0
100.0   30.0   50.0
100.0   0.0   50.0
100.0   0.0   33.333333333333336
50.0   0.0   50.0
100.0   30.0   50.0
100.0   0.0   33.333333333333336
50.0   30.0   33.333333333333336
50.0   30.0   0.0
100.0   30.0   0.0
50.0   60.0   0.0
50.0   30.0   16.666666666666668
100.0   30.0   0.0
100.0   60.0   0.0
50.0   60.0   0.0
100.0   60.0   16.666666666666668
50.0   30.0   16.666666666666668
50.0   60.0   16.666666666666668
100.0   60.0   16.666666666666668
50.0   60.0   0.0
50.0   30.0   16.666666666666668
100.0   60.0   16.666666666666668
100.0   30.0   16.666666666666668
100.0   30.0   0.0
50.0   30.0   16.666666666666668
100.0   60.0   16.666666666666668
100.0   30.0   0.0
50.0   60.0   0.0
50.0   30.0   16.666666666666668
100.0   30.0   16.666666666666668
50.0   60.0   16.666666666666668
50.0   30.0   33.333333333333336
100.0   30.0   16.666666666666668
100.0   60.0   16.666666666666668
50.0   60.0   16.666666666666668
100.0   60.0   33.333333333333336
50.0   30.0   33.333333333333336
50.0   60.0   33.333333333333336
100.0   60.0   33.333333333333336
50.0   60.0   16.666666666666668
50.0   30.0   33.333333333333336
100.0   60.0   33.333333333333336
100.0   30.0   33.333333333333336
100.0   30.0   16.666666666666668
50.0   30.0   33.333333333333336
100.0   60.0   33.333333333333336
100.0   30.0   16.666666666666668
50.0   60.0   16.666666666666668
50.0   30.0   33.333333333333336
100.0   30.0   33.333333333333336
50.0   60.0   33.333333333333336
50.0   30.0   50.0
100.0   30.0   33.333333333333336
100.0   60.0   33.333333333333336
50.0   60.0   33.333333333333336
100.0   60.0   50.0
50.0   30.0   50.0
50.0   60.0   50.0
100.0   60.0   50.0
50.0   60.0   33.333333333333336
50.0   30.0   50.0
100.0   60.0   50.0
100.0   30.0   50.0
100.0   30.0   33.333333333333336
50.0   30.0   50.0
100.0   60.0   50.0
100.0   30.0   33.333333333333336
50.0   60.0   33.333333333333336
50.0   60.0   0.0
100.0   60.0   0.0
50.0   90.0   0.0
50.0   60.0   16.666666666666668
100.0   60.0   0.0
100.0   90.0   0.0
50.0   90.0   0.0
100.0   90.0   16.666666666666668
50.0   60.0   16.666666666666668
50.0   90.0   16.666666666666668
100.0   90.0   16.666666666666668
50.0   90.0   0.0
50.0   60.0   16.666666666666668
100.0   90.0   16.666666666666668
100.0   60.0   16.666666666666668
100.0   60.0   0.0
50.0   60.0   16.666666666666668
100.0   90.0   16.666666666666668
100.0   60.0   0.0
50.0   90.0   0.0
50.0   60.0   16.666666666666668
100.0   60.0   16.666666666666668
50.0   90.0   16.666666666666668
50.0   60.0   33.333333333333336
100.0   60.0   16.666666666666668
100.0   90.0   16.666666666666668
50.0   90.0   16.666666666666668
100.0   90.0   33.333333333333336
50.0   60.0   33.333333333333336
50.0   90.0   33.333333333333336
100.0   90.0   33.333333333333336
50.0   90.0   16.666666666666668
50.0   60.0   33.333333333333336
100.0   90.0   33.333333333333336
100.0   60.0   33.333333333333336
100.0   60.0   16.666666666666668
50.0   60.0   33.333333333333336
100.0   90.0   33.333333333333336
100.0   60.0   16.666666666666668
50.0   90.0   16.666666666666668
50.0   60.0   33.333333333333336
100.0   60.0   33.333333333333336
50.0   90.0   33.333333333333336
50.0   60.0   50.0
100.0   60.0   33.333333333333336
100.0   90.0   33.333333333333336
50.0   90.0   33.333333333333336
100.0   90.0   50.0
50.0   60.0   50.0
50.0   90.0   50.0
100.0   90.0   50.0
50.0   90.0   33.333333333333336
50.0   60.0   50.0
100.0   90.0   50.0
100.0   60.0   50.0
100.0   60.0   33.333333333333336
50.0   60.0   50.0
100.0   90.0   50.0
100.0   60.0   33.333333333333336
50.0   90.0   33.333333333333336
50.0   90.0   0.0
100.0   90.0   0.0
50.0   120.0   0.0
50.0   90.0   16.666666666666668
100.0   90.0   0.0
100.0   120.0   0.0
50.0   120.0   0.0
100.0   120.0   16.666666666666668
50.0   90.0   16.666666666666668
50.0   120.0   16.666666666666668
100.0   120.0   16.666666666666668
50.0   120.0   0.0
50.0   90.0   16.666666666666668
100.0   120.0   16.666666666666668
100.0   90.0   16.666666666666668
100.0   90.0   0.0
50.0   90.0   16.666666666666668
100.0   120.0   16.666666666666668
100.0   90.0   0.0
50.0   120.0   0.0
50.0   90.0   16.666666666666668
100.0   90.0   16.666666666666668
50.0   120.0   16.666666666666668
50.0   90.0   33.333333333333336
100.0   90.0   16.666666666666668
100.0   120.0   16.666666666666668
50.0   120.0   16.666666666666668
100.0   120.0   33.333333333333336
50.0   90.0   33.333333333333336
50.0   120.0   33.333333333333336
100.0   120.0   33.333333333333336
50.0   120.0   16.666666666666668
50.0   90.0   33.333333333333336
100.0   120.0   33.333333333333336
100.0   90.0   33.333333333333336
100.0   90.0   16.666666666666668
50.0   90.0   33.333333333333336
100.0   120.0   33.333333333333336
100.0   90.0   16.666666666666668
50.0   120.0   16.666666666666668
50.0   90.0   33.333333333333336
100.0   90.0   33.333333333333336
50.0   120.0   33.333333333333336
50.0   90.0   50.0
100.0   90.0   33.333333333333336
100.0   120.0   33.333333333333336
50.0   120.0   33.333333333333336
100.0   120.0   50.0
50.0   90.0   50.0
50.0   120.0   50.0
100.0   120.0   50.0
50.0   120.0   33.333333333333336
50.0   90.0   50.0
100.0   120.0   50.0
100.0   90.0   50.0
100.0   90.0   33.333333333333336
50.0   90.0   50.0
100.0   120.0   50.0
100.0   90.0   33.333333333333336
50.0   120.0   33.333333333333336
50.0   120.0   0.0
100.0   120.0   0.0
50.0   150.0   0.0
50.0   120.0   16.666666666666668
100.0   120.0   0.0
100.0   150.0   0.0
50.0   150.0   0.0
100.0   150.0   16.666666666666668
50.0   120.0   16.666666666666668
50.0   150.0   16.666666666666668
100.0   150.0   16.666666666666668
50.0   150.0   0.0
50.0   120.0   16.666666666666668
100.0   150.0   16.666666666666668
100.0   120.0   16.666666666666668
100.0   120.0   0.0
50.0   120.0   16.666666666666668
100.0   150.0   16.666666666666668
100.0   120.0   0.0
50.0   150.0   0.0
50.0   120.0   16.666666666666668
100.0   120.0   16.666666666666668
50.0   150.0   16.666666666666668
50.0   120.0   33.333333333333336
100.0   120.0   16.666666666666668
100.0   150.0   16.666666666666668
50.0   150.0   16.666666666666668
100.0   150.0   33.333333333333336
50.0   120.0   33.333333333333336
50.0   150.0   33.333333333333336
100.0   150.0   33.333333333333336
50.0   150.0   16.666666666666668
50.0   120.0   33.333333333333336
100.0   150.0   33.333333333333336
100.0   120.0   33.333333333333336
100.0   120.0   16.666666666666668
50.0   120.0   33.333333333333336
100.0   150.0   33.333333333333336
100.0   120.0   16.666666666666668
50.0   150.0   16.666666666666668
50.0   120.0   33.333333333333336
100.0   120.0   33.333333333333336
50.0   150.0   33.333333333333336
50.0   120.0   50.0
100.0   120.0   33.333333333333336
100.0   150.0   33.333333333333336
50.0   150.0   33.333333333333336
100.0   150.0   50.0
50.0   120.0   50.0
50.0   150.0   50.0
100.0   150.0   50.0
50.0   150.0   33.333333333333336
50.0   120.0   50.0
100.0   150.0   50.0
100.0   120.0   50.0
100.0   120.0   33.333333333333336
50.0   120.0   50.0
100.0   150.0   50.0
100.0   120.0   33.333333333333336
50.0   150.0   33.333333333333336
100.0   0.0   0.0
150.0   0.0   0.0
100.0   30.0   0.0
100.0   0.0   16.666666666666668
150.0   0.0   0.0
150.0   30.0   0.0
100.0   30.0   0.0
150.0   30.0   16.666666666666668
100.0   0.0   16.666666666666668
100.0   30.0   16.666666666666668
150.0   30.0   16.666666666666668
100.0   30.0   0.0
100.0   0.0   16.666666666666668
150.0   30.0   16.666666666666668
150.0   0.0   16.666666666666668
150.0   0.0   0.0
100.0   0.0   16.666666666666668
150.0   30.0   16.666666666666668
150.0   0.0   0.0
100.0   30.0   0.0
100.0   0.0   16.666666666666668
150.0   0.0   16.666666666666668
100.0   30.0   16.666666666666668
100.0   0.0   33.333333333333336
150.0   0.0   16.666666666666668
150.0   30.0   16.666666666666668
100.0   30.0   16.666666666666668
150.0   30.0   33.333333333333336
100.0   0.0   33.333333333333336
100.0   30.0   33.333333333333336
150.0   30.0   33.333333333333336
100.0   30.0   16.666666666666668
100.0   0.0   33.333333333333336
150.0   30.0   33.333333333333336
150.0   0.0   33.333333333333336
150.0   0.0   16.666666666666668
100.0   0.0   33.333333333333336
150.0   30.0   33.333333333333336
150.0   0.0   16.666666666666668
100.0   30.0   16.666666666666668
100.0   0.0   33.333333333333336
150.0   0.0   33.333333333333336
100.0   30.0   33.333333333333336
100.0   0.0   50.0
150.0   0.0   33.333333333333336
150.0   30.0   33.333333333333336
100.0   30.0   33.333333333333336
150.0   30.0   50.0
100.0   0.0   50.0
100.0   30.0   50.0
150.0   30.0   50.0
100.0   30.0   33.333333333333336
100.0   0.0   50.0
150.0   30.0   50.0
150.0   0.0   50.0
150.0   0.0   33.333333333333336
100.0   0.0   50.0
150.0   30.0   50.0
150.0   0.0   33.333333333333336
100.0   30.0   33.333333333333336
100.0   30.0   0.0
150.0   30.0   0.0
100.0   60.0   0.0
100.0   30.0   16.666666666666668
150.0   30.0   0.0
150.0   60.0   0.0
100.0   60.0   0.0
150.0   60.0   16.666666666666668
100.0   30.0   16.666666666666668
100.0   60.0   16.666666666666668
150.0   60.0   16.666666666666668
100.0   60.0   0.0
100.0   30.0   16.666666666666668
150.0   60.0   16.666666666666668
150.0   30.0   16.666666666666668
150.0   30.0   0.0
100.0   30.0   16.666666666666668
150.0   60.0   16.666666666666668
150.0   30.0   0.0
100.0   60.0   0.0
100.0   30.0   16.666666666666668
150.0   30.0   16.666666666666668
100.0   60.0   16.666666666666668
100.0   30.0   33.333333333333336
150.0   30.0   16.666666666666668
150.0   60.0   16.666666666666668
100.0   60.0   16.666666666666668
150.0   60.0   33.333333333333336
100.0   30.0   33.333333333333336
100.0   60.0   33.333333333333336
150.0   60.0   33.333333333333336
100.0   60.0   16.666666666666668
100.0   30.0   33.333333333333336
150.0   60.0   33.333333333333336
150.0   30.0   33.333333333333336
150.0   30.0   16.666666666666668
100.0   30.0   33.333333333333336
150.0   60.0   33.333333333333336
150.0   30.0   16.666666666666668
100.0   60.0   16.666666666666668
100.0   30.0   33.333333333333336
150.0   30.0   33.333333333333336
100.0   60.0   33.333333333333336
100.0   30.0   50.0
150.0   30.0   33.333333333333336
150.0   60.0   33.333333333333336
100.0   60.0   33.333333333333336
150.0   60.0   50.0
100.0   30.0   50.0
100.0   60.0   50.0
150.0   60.0   50.0
100.0   60.0   33.333333333333336
100.0   30.0   50.0
150.0   60.0   50.0
150.0   30.0   50.0
150.0   30.0   33.333333333333336
100.0   30.0   50.0
150.0   60.0   50.0
150.0   30.0   33.333333333333336
100.0   60.0   33.333333333333336
100.0   60.0   0.0
150.0   60.0   0.0
100.0   90.0   0.0
100.0   60.0   16.666666666666668
150.0   60.0   0.0
150.0   90.0   0.0
100.0   90.0   0.0
150.0   90.0   16.666666666666668
100.0   60.0   16.666666666666668
100.0   90.0   16.666666666666668
150.0   90.0   16.666666666666668
100.0   90.0   0.0
100.0   60.0   16.666666666666668
150.0   90.0   16.666666666666668
150.0   60.0   16.666666666666668
150.0   60.0   0.0
100.0   60.0   16.666666666666668
150.0   90.0   16.666666666666668
150.0   60.0   0.0
100.0   90.0   0.0
100.0   60.0   16.666666666666668
150.0   60.0   16.666666666666668
100.0   90.0   16.666666666666668
100.0   60.0   33.333333333333336
150.0   60.0   16.666666666666668
150.0   90.0   16.666666666666668
100.0   90.0   16.666666666666668
150.0   90.0   33.333333333333336
100.0   60.0   33.333333333333336
100.0   90.0   33.333333333333336
150.0   90.0   33.333333333333336
100.0   90.0   16.666666666666668
100.0   60.0   33.333333333333336
150.0   90.0   33.333333333333336
150.0   60.0   33.333333333333336
150.0   60.0   16.666666666666668
100.0   60.0   33.333333333333336
150.0   90.0   33.333333333333336
150.0   60.0   16.666666666666668
100.0   90.0   16.666666666666668
100.0   60.0   33.333333333333336
150.0   60.0   33.333333333333336
100.0   90.0   33.333333333333336
100.0   60.0   50.0
150.0   60.0   33.333333333333336
150.0   90.0   33.333333333333336
100.0   90.0   33.333333333333336
150.0   90.0   50.0
100.0   60.0   50.0
100.0   90.0   50.0
150.0   90.0   50.0
100.0   90.0   33.333333333333336
100.0   60.0   50.0
150.0   90.0   50.0
150.0   60.0   50.0
150.0   60.0   33.333333333333336
100.0   60.0   50.0
150.0   90.0   50.0
150.0   60.0   33.333333333333336
100.0   90.0   33.333333333333336
100.0   90.0   0.0
150.0   90.0   0.0
100.0   120.0   0.0
100.0   90.0   16.666666666666668
150.0   90.0   0.0
150.0   120.0   0.0
100.0   120.0   0.0
150.0   120.0   16.666666666666668
100.0   90.0   16.666666666666668
100.0   120.0   16.666666666666668
150.0   120.0   16.666666666666668
100.0   120.0   0.0
100.0   90.0   16.666666666666668
150.0   120.0   16.666666666666668
150.0   90.0   16.666666666666668
150.0   90.0   0.0
100.0   90.0   16.666666666666668
150.0   120.0   16.666666666666668
150.0   90.0   0.0
100.0   120.0   0.0
100.0   90.0   16.666666666666668
150.0   90.0   16.666666666666668
100.0   120.0   16.666666666666668
100.0   90.0   33.333333333333336
150.0   90.0   16.666666666666668
150.0   120.0   16.666666666666668
100.0   120.0   16.666666666666668
150.0   120.0   33.333333333333336
100.0   90.0   33.333333333333336
100.0   120.0   33.333333333333336
150.0   120.0   33.333333333333336
100.0   120.0   16.666666666666668
100.0   90.0   33.333333333333336
150.0   120.0   33.333333333333336
150.0   90.0   33.333333333333336
150.0   90.0   16.666666666666668
100.0   90.0   33.333333333333336
150.0   120.0   33.333333333333336
150.0   90.0   16.666666666666668
100.0   120.0   16.666666666666668
100.0   90.0   33.333333333333336
150.0   90.0   33.333333333333336
100.0   120.0   33.333333333333336
100.0   90.0   50.0
150.0   90.0   33.333333333333336
150.0   120.0   33.333333333333336
100.0   120.0   33.333333333333336
150.0   120.0   50.0
100.0   90.0   50.0
100.0   120.0   50.0
150.0   120.0   50.0
100.0   120.0   33.333333333333336
100.0   90.0   50.0
150.0   120.0   50.0
150.0   90.0   50.0
150.0   90.0   33.333333333333336
100.0   90.0   50.0
150.0   120.0   50.0
150.0   90.0   33.333333333333336
100.0   120.0   33.333333333333336
100.0   120.0   0.0
150.0   120.0   0.0
100.0   150.0   0.0
100.0   120.0   16.666666666666668
150.0   120.0   0.0
150.0   150.0   0.0
100.0   150.0   0.0
150.0   150.0   16.666666666666668
100.0   120.0   16.666666666666668
100.0   150.0   16.666666666666668
150.0   150.0   16.666666666666668
100.0   150.0   0.0
100.0   120.0   16.666666666666668
150.0   150.0   16.666666666666668
150.0   120.0   16.666666666666668
150.0   120.0   0.0
100.0   120.0   16.666666666666668
150.0   150.0   16.666666666666668
150.0   120.0   0.0
100.0   150.0   0.0
100.0   120.0   16.666666666666668
150.0   120.0   16.666666666666668
100.0   150.0   16.666666666666668
100.0   120.0   33.333333333333336
150.0   120.0   16.666666666666668
150.0   150.0   16.666666666666668
100.0   150.0   16.666666666666668
150.0   150.0   33.333333333333336
100.0   120.0   33.333333333333336
100.0   150.0   33.333333333333336
150.0   150.0   33.333333333333336
100.0   150.0   16.666666666666668
100.0   120.0   33.333333333333336
150.0   150.0   33.333333333333336
150.0   120.0   33.333333333333336
150.0   120.0   16.666666666666668
100.0   120.0   33.333333333333336
150.0   150.0   33.333333333333336
150.0   120.0   16.666666666666668
100.0   150.0   16.666666666666668
100.0   120.0   33.333333333333336
150.0   120.0   33.333333333333336
100.0   150.0   33.333333333333336
100.0   120.0   50.0
150.0   120.0   33.333333333333336
150.0   150.0   33.333333333333336
100.0   150.0   33.333333333333336
150.0   150.0   50.0
100.0   120.0   50.0
100.0   150.0   50.0
150.0   150.0   50.0
100.0   150.0   33.333333333333336
100.0   120.0   50.0
150.0   150.0   50.0
150.0   120.0   50.0
150.0   120.0   33.333333333333336
100.0   120.0   50.0
150.0   150.0   50.0
150.0   120.0   33.333333333333336
100.0   150.0   33.333333333333336
150.0   0.0   0.0
200.0   0.0   0.0
150.0   30.0   0.0
150.0   0.0   16.666666666666668
200.0   0.0   0.0
200.0   30.0   0.0
150.0   30.0   0.0
200.0   30.0   16.666666666666668
150.0   0.0   16.666666666666668
150.0   30.0   16.666666666666668
200.0   30.0   16.666666666666668
150.0   30.0   0.0
150.0   0.0   16.666666666666668
200.0   30.0   16.666666666666668
200.0   0.0   16.666666666666668
200.0   0.0   0.0
150.0   0.0   16.666666666666668
200.0   30.0   16.666666666666668
200.0   0.0   0.0
150.0   30.0   0.0
150.0   0.0   16.666666666666668
200.0   0.0   16.666666666666668
150.0   30.0   16.666666666666668
150.0   0.0   33.333333333333336
200.0   0.0   16.666666666666668
200.0   30.0   16.666666666666668
150.0   30.0   16.666666666666668
200.0   30.0   33.333333333333336
150.0   0.0   33.333333333333336
150.0   30.0   33.333333333333336
200.0   30.0   33.333333333333336
150.0   30.0   16.666666666666668
150.0   0.0   33.333333333333336
200.0   30.0   33.333333333333336
200.0   0.0   33.333333333333336
200.0   0.0   16.666666666666668
150.0   0.0   33.333333333333336
200.0   30.0   33.333333333333336
200.0   0.0   16.666666666666668
150.0   30.0   16.666666666666668
150.0   0.0   33.333333333333336
200.0   0.0   33.333333333333336
150.0   30.0   33.333333333333336
150.0   0.0   50.0
200.0   0.0   33.333333333333336
200.0   30.0   33.333333333333336
150.0   30.0   33.333333333333336
200.0   30.0   50.0
150.0   0.0   50.0
150.0   30.0   50.0
200.0   30.0   50.0
150.0   30.0   33.333333333333336
150.0   0.0   50.0
200.0   30.0   50.0
200.0   0.0   50.0
200.0   0.0   33.333333333333336
150.0   0.0   50.0
200.0   30.0   50.0
200.0   0.0   33.333333333333336
150.0   30.0   33.333333333333336
150.0   30.0   0.0
200.0   30.0   0.0
150.0   60.0   0.0
150.0   30.0   16.666666666666668
200.0   30.0   0.0
200.0   60.0   0.0
150.0   60.0   0.0
200.0   60.0   16.666666666666668
150.0   30.0   16.666666666666668
150.0   60.0   16.666666666666668
200.0   60.0   16.666666666666668
150.0   60.0   0.0
150.0   30.0   16.666666666666668
200.0   60.0   16.666666666666668
200.0   30.0   16.666666666666668
200.0   30.0   0.0
150.0   30.0   16.666666666666668
200.0   60.0   16.666666666666668
200.0   30.0   0.0
150.0   60.0   0.0
150.0   30.0   16.666666666666668
200.0   30.0   16.666666666666668
150.0   60.0   16.666666666666668
150.0   30.0   33.333333333333336
200.0   30.0   16.666666666666668
200.0   60.0   16.666666666666668
150.0   60.0   16.666666666666668
200.0   60.0   33.333333333333336
150.0   30.0   33.333333333333336
150.0   60.0   33.333333333333336
200.0   60.0   33.333333333333336
150.0   60.0   16.666666666666668
150.0   30.0   33.333333333333336
200.0   60.0   33.333333333333336
200.0   30.0   33.333333333333336
200.0   30.0   16.666666666666668
150.0   30.0   33.333333333333336
200.0   60.0   33.333333333333336
200.0   30.0   16.666666666666668
150.0   60.0   16.666666666666668
150.0   30.0   33.333333333333336
200.0   30.0   33.333333333333336
150.0   60.0   33.333333333333336
150.0   30.0   50.0
200.0   30.0   33.333333333333336
200.0   60.0   33.333333333333336
150.0   60.0   33.333333333333336
200.0   60.0   50.0
150.0   30.0   50.0
150.0   60.0   50.0
200.0   60.0   50.0
150.0   60.0   33.333333333333336
150.0   30.0   50.0
200.0   60.0   50.0
200.0   30.0   50.0
200.0   30.0   33.333333333333336
150.0   30.0   50.0
200.0   60.0   50.0
200.0   30.0   33.333333333333336
150.0   60.0   33.333333333333336
150.0   60.0   0.0
200.0   60.0   0.0
150.0   90.0   0.0
150.0   60.0   16.666666666666668
200.0   60.0   0.0
200.0   90.0   0.0
150.0   90.0   0.0
200.0   90.0   16.666666666666668
150.0   60.0   16.666666666666668
150.0   90.0   16.666666666666668
200.0   90.0   16.666666666666668
150.0   90.0   0.0
150.0   60.0   16.666666666666668
200.0   90.0   16.666666666666668
200.0   60.0   16.666666666666668
200.0   60.0   0.0
150.0   60.0   16.666666666666668
200.0   90.0   16.666666666666668
200.0   60.0   0.0
150.0   90.0   0.0
150.0   60.0   16.666666666666668
200.0   60.0   16.666666666666668
150.0   90.0   16.666666666666668
150.0   60.0   33.333333333333336
200.0   60.0   16.666666666666668
200.0   90.0   16.666666666666668
150.0   90.0   16.666666666666668
200.0   90.0   33.333333333333336
150.0   60.0   33.333333333333336
150.0   90.0   33.333333333333336
200.0   90.0   33.333333333333336
150.0   90.0   16.666666666666668
150.0   60.0   33.333333333333336
200.0   90.0   33.333333333333336
200.0   60.0   33.333333333333336
200.0   60.0   16.666666666666668
150.0   60.0   33.333333333333336
200.0   90.0   33.333333333333336
200.0   60.0   16.666666666666668
150.0   90.0   16.666666666666668
150.0   60.0   33.333333333333336
200.0   60.0   33.333333333333336
150.0   90.0   33.333333333333336
150.0   60.0   50.0
200.0   60.0   33.333333333333336
200.0   90.0   33.333333333333336
150.0   90.0   33.333333333333336
200.0   90.0   50.0
150.0   60.0   50.0
150.0   90.0   50.0
200.0   90.0   50.0
150.0   90.0   33.333333333333336
150.0   60.0   50.0
200.0   90.0   50.0
200.0   60.0   50.0
200.0   60.0   33.333333333333336
150.0   60.0   50.0
200.0   90.0   50.0
200.0   60.0   33.333333333333336
150.0   90.0   33.333333333333336
150.0   90.0   0.0
200.0   90.0   0.0
150.0   120.0   0.0
150.0   90.0   16.666666666666668
200.0   90.0   0.0
200.0   120.0   0.0
150.0   120.0   0.0
200.0   120.0   16.666666666666668
150.0   90.0   16.666666666666668
150.0   120.0   16.666666666666668
200.0   120.0   16.666666666666668
150.0   120.0   0.0
150.0   90.0   16.666666666666668
200.0   120.0   16.666666666666668
200.0   90.0   16.666666666666668
200.0   90.0   0.0
150.0   90.0   16.666666666666668
200.0   120.0   16.666666666666668
200.0   90.0   0.0
150.0   120.0   0.0
150.0   90.0   16.666666666666668
200.0   90.0   16.666666666666668
150.0   120.0   16.666666666666668
150.0   90.0   33.333333333333336
200.0   90.0   16.666666666666668
200.0   120.0   16.666666666666668
150.0   120.0   16.666666666666668
200.0   120.0   33.333333333333336
150.0   90.0   33.333333333333336
150.0   120.0   33.333333333333336
200.0   120.0   33.333333333333336
150.0   120.0   16.666666666666668
150.0   90.0   33.333333333333336
200.0   120.0   33.333333333333336
200.0   90.0   33.333333333333336
200.0   90.0   16.666666666666668
150.0   90.0   33.333333333333336
200.0   120.0   33.333333333333336
200.0   90.0   16.666666666666668
150.0   120.0   16.666666666666668
150.0   90.0   33.333333333333336
200.0   90.0   33.333333333333336
150.0   120.0   33.333333333333336
150.0   90.0   50.0
200.0   90.0   33.333333333333336
200.0   120.0   33.333333333333336
150.0   120.0   33.333333333333336
200.0   120.0   50.0
150.0   90.0   50.0
150.0   120.0   50.0
200.0   120.0   50.0
150.0   120.0   33.333333333333336
150.0   90.0   50.0
200.0   120.0   50.0
200.0   90.0   50.0
200.0   90.0   33.333333333333336
150.0   90.0   50.0
200.0   120.0   50.0
200.0   90.0   33.333333333333336
150.0   120.0   33.333333333333336
150.0   120.0   0.0
200.0   120.0   0.0
150.0   150.0   0.0
150.0   120.0   16.666666666666668
200.0   120.0   0.0
200.0   150.0   0.0
150.0   150.0   0.0
200.0   150.0   16.666666666666668
150.0   120.0   16.666666666666668
150.0   150.0   16.666666666666668
200.0   150.0   16.666666666666668
150.0   150.0   0.0
150.0   120.0   16.666666666666668
200.0   150.0   16.666666666666668
200.0   120.0   16.666666666666668
200.0   120.0   0.0
150.0   120.0   16.666666666666668
200.0   150.0   16.666666666666668
200.0   120.0   0.0
150.0   150.0   0.0
150.0   120.0   16.666666666666668
200.0   120.0   16.666666666666668
150.0   150.0   16.666666666666668
150.0   120.0   33.333333333333336
200.0   120.0   16.666666666666668
200.0   150.0   16.666666666666668
150.0   150.0   16.666666666666668
200.0   150.0   33.333333333333336
150.0   120.0   33.333333333333336
150.0   150.0   33.333333333333336
200.0   150.0   33.333333333333336
150.0   150.0   16.666666666666668
150.0   120.0   33.333333333333336
200.0   150.0   33.333333333333336
200.0   120.0   33.333333333333336
200.0   120.0   16.666666666666668
150.0   120.0   33.333333333333336
200.0   150.0   33.333333333333336
200.0   120.0   16.666666666666668
150.0   150.0   16.666666666666668
150.0   120.0   33.333333333333336
200.0   120.0   33.333333333333336
150.0   150.0   33.333333333333336
150.0   120.0   50.0
200.0   120.0   33.333333333333336
200.0   150.0   33.333333333333336
150.0   150.0   33.333333333333336
200.0   150.0   50.0
150.0   120.0   50.0
150.0   150.0   50.0
200.0   150.0   50.0
150.0   150.0   33.333333333333336
150.0   120.0   50.0
200.0   150.0   50.0
200.0   120.0   50.0
200.0   120.0   33.333333333333336
150.0   120.0   50.0
200.0   150.0   50.0
200.0   120.0   33.333333333333336
150.0   150.0   33.333333333333336
200.0   0.0   0.0
250.0   0.0   0.0
200.0   30.0   0.0
200.0   0.0   16.666666666666668
250.0   0.0   0.0
250.0   30.0   0.0
200.0   30.0   0.0
250.0   30.0   16.666666666666668
200.0   0.0   16.666666666666668
200.0   30.0   16.666666666666668
250.0   30.0   16.666666666666668
200.0   30.0   0.0
200.0   0.0   16.666666666666668
250.0   30.0   16.666666666666668
250.0   0.0   16.666666666666668
250.0   0.0   0.0
200.0   0.0   16.666666666666668
250.0   30.0   16.666666666666668
250.0   0.0   0.0
200.0   30.0   0.0
200.0   0.0   16.666666666666668
250.0   0.0   16.666666666666668
200.0   30.0   16.666666666666668
200.0   0.0   33.333333333333336
250.0   0.0   16.666666666666668
250.0   30.0   16.666666666666668
200.0   30.0   16.666666666666668
250.0   30.0   33.333333333333336
200.0   0.0   33.333333333333336
200.0   30.0   33.333333333333336
250.0   30.0   33.333333333333336
200.0   30.0   16.666666666666668
200.0   0.0   33.333333333333336
250.0   30.0   33.333333333333336
250.0   0.0   33.333333333333336
250.0   0.0   16.666666666666668
200.0   0.0   33.333333333333336
250.0   30.0   33.333333333333336
250.0   0.0   16.666666666666668
200.0   30.0   16.666666666666668
200.0   0.0   33.333333333333336
250.0   0.0   33.333333333333336
200.0   30.0   33.333333333333336
200.0   0.0   50.0
250.0   0.0   33.333333333333336
250.0   30.0   33.333333333333336
200.0   30.0   33.333333333333336
250.0   30.0   50.0
200.0   0.0   50.0
200.0   30.0   50.0
250.0   30.0   50.0
200.0   30.0   33.333333333333336
200.0   0.0   50.0
250.0   30.0   50.0
250.0   0.0   50.0
250.0   0.0   33.333333333333336
200.0   0.0   50.0
250.0   30.0   50.0
250.0   0.0   33.333333333333336
200.0   30.0   33.333333333333336
200.0   30.0   0.0
250.0   30.0   0.0
200.0   60.0   0.0
200.0   30.0   16.666666666666668
250.0   30.0   0.0
250.0   60.0   0.0
200.0   60.0   0.0
250.0   60.0   16.666666666666668
200.0   30.0   16.666666666666668
200.0   60.0   16.666666666666668
250.0   60.0   16.666666666666668
200.0   60.0   0.0
200.0   30.0   16.666666666666668
250.0   60.0   16.666666666666668
250.0   30.0   16.666666666666668
250.0   30.0   0.0
200.0   30.0   16.666666666666668
250.0   60.0   16.666666666666668
250.0   30.0   0.0
200.0   60.0   0.0
200.0   30.0   16.666666666666668
250.0   30.0   16.666666666666668
200.0   60.0   16.666666666666668
200.0   30.0   33.333333333333336
250.0   30.0   16.666666666666668
250.0   60.0   16.666666666666668
200.0   60.0   16.666666666666668
250.0   60.0   33.333333333333336
200.0   30.0   33.333333333333336
200.0   60.0   33.333333333333336
250.0   60.0   33.333333333333336
200.0   60.0   16.666666666666668
200.0   30.0   33.333333333333336
250.0   60.0   33.333333333333336
250.0   30.0   33.333333333333336
250.0   30.0   16.666666666666668
200.0   30.0   33.333333333333336
250.0   60.0   33.333333333333336
250.0   30.0   16.666666666666668
200.0   60.0   16.666666666666668
200.0   30.0   33.333333333333336
250.0   30.0   33.333333333333336
200.0   60.0   33.333333333333336
200.0   30.0   50.0
250.0   30.0   33.333333333333336
250.0   60.0   33.333333333333336
200.0   60.0   33.333333333333336
250.0   60.0   50.0
200.0   30.0   50.0
200.0   60.0   50.0
250.0   60.0   50.0
200.0   60.0   33.333333333333336
200.0   30.0   50.0
250.0   60.0   50.0
250.0   30.0   50.0
250.0   30.0   33.333333333333336
200.0   30.0   50.0
250.0   60.0   50.0
250.0   30.0   33.333333333333336
200.0   60.0   33.333333333333336
200.0   60.0   0.0
250.0   60.0   0.0
200.0   90.0   0.0
200.0   60.0   16.666666666666668
250.0   60.0   0.0
250.0   90.0   0.0
200.0   90.0   0.0
250.0   90.0   16.666666666666668
200.0   60.0   16.666666666666668
200.0   90.0   16.666666666666668
250.0   90.0   16.666666666666668
200.0   90.0   0.0
200.0   60.0   16.666666666666668
250.0   90.0   16.666666666666668
250.0   60.0   16.666666666666668
250.0   60.0   0.0
200.0   60.0   16.666666666666668
250.0   90.0   16.666666666666668
250.0   60.0   0.0
200.0   90.0   0.0
200.0   60.0   16.666666666666668
250.0   60.0   16.666666666666668
200.0   90.0   16.666666666666668
200.0   60.0   33.333333333333336
250.0   60.0   16.666666666666668
250.0   90.0   16.666666666666668
200.0   90.0   16.666666666666668
250.0   90.0   33.333333333333336
200.0   60.0   33.333333333333336
200.0   90.0   33.333333333333336
250.0   90.0   33.333333333333336
200.0   90.0   16.666666666666668
200.0   60.0   33.333333333333336
250.0   90.0   33.333333333333336
250.0   60.0   33.333333333333336
250.0   60.0   16.666666666666668
200.0   60.0   33.333333333333336
250.0   90.0   33.333333333333336
250.0   60.0   16.666666666666668
200.0   90.0   16.666666666666668
200.0   60.0   33.333333333333336
250.0   60.0   33.333333333333336
200.0   90.0   33.333333333333336
200.0   60.0   50.0
250.0   60.0   33.333333333333336
250.0   90.0   33.333333333333336
200.0   90.0   33.333333333333336
250.0   90.0   50.0
200.0   60.0   50.0
200.0   90.0   50.0
250.0   90.0   50.0
200.0   90.0   33.333333333333336
200.0   60.0   50.0
250.0   90.0   50.0
250.0   60.0   50.0
250.0   60.0   33.333333333333336
200.0   60.0   50.0
250.0   90.0   50.0
250.0   60.0   33.333333333333336
200.0   90.0   33.333333333333336
200.0   90.0   0.0
250.0   90.0   0.0
200.0   120.0   0.0
200.0   90.0   16.666666666666668
250.0   90.0   0.0
250.0   120.0   0.0
200.0   120.0   0.0
250.0   120.0   16.666666666666668
200.0   90.0   16.666666666666668
200.0   120.0   16.666666666666668
250.0   120.0   16.666666666666668
200.0   120.0   0.0
200.0   90.0   16.666666666666668
250.0   120.0   16.666666666666668
250.0   90.0   16.666666666666668
250.0   90.0   0.0
200.0   90.0   16.666666666666668
250.0   120.0   16.666666666666668
250.0   90.0   0.0
200.0   120.0   0.0
200.0   90.0   16.666666666666668
250.0   90.0   16.666666666666668
200.0   120.0   16.666666666666668
200.0   90.0   33.333333333333336
250.0   90.0   16.666666666666668
250.0   120.0   16.666666666666668
200.0   120.0   16.666666666666668
250.0   120.0   33.333333333333336
200.0   90.0   33.333333333333336
200.0   120.0   33.333333333333336
250.0   120.0   33.333333333333336
200.0   120.0   16.666666666666668
200.0   90.0   33.333333333333336
250.0   120.0   33.333333333333336
250.0   90.0   33.333333333333336
250.0   90.0   16.666666666666668
200.0   90.0   33.333333333333336
250.0   120.0   33.333333333333336
250.0   90.0   16.666666666666668
200.0   120.0   16.666666666666668
200.0   90.0   33.333333333333336
250.0   90.0   33.333333333333336
200.0   120.0   33.333333333333336
200.0   90.0   50.0
250.0   90.0   33.333333333333336
250.0   120.0   33.333333333333336
200.0   120.0   33.333333333333336
250.0   120.0   50.0
200.0   90.0   50.0
200.0   120.0   50.0
250.0   120.0   50.0
200.0   120.0   33.333333333333336
200.0   90.0   50.0
250.0   120.0   50.0
250.0   90.0   50.0
250.0   90.0   33.333333333333336
200.0   90.0   50.0
250.0   120.0   50.0
250.0   90.0   33.333333333333336
200.0   120.0   33.333333333333336
200.0   120.0   0.0
250.0   120.0   0.0
200.0   150.0   0.0
200.0   120.0   16.666666666666668
250.0   120.0   0.0
250.0   150.0   0.0
200.0   150.0   0.0
250.0   150.0   16.666666666666668
200.0   120.0   16.666666666666668
200.0   150.0   16.666666666666668
250.0   150.0   16.666666666666668
200.0   150.0   0.0
200.0   120.0   16.666666666666668
250.0   150.0   16.666666666666668
250.0   120.0   16.666666666666668
250.0   120.0   0.0
200.0   120.0   16.666666666666668
250.0   150.0   16.666666666666668
250.0   120.0   0.0
200.0   150.0   0.0
200.0   120.0   16.666666666666668
250.0   120.0   16.666666666666668
200.0   150.0   16.666666666666668
200.0   120.0   33.333333333333336
250.0   120.0   16.666666666666668
250.0   150.0   16.666666666666668
200.0   150.0   16.666666666666668
250.0   150.0   33.333333333333336
200.0   120.0   33.333333333333336
200.0   150.0   33.333333333333336
250.0   150.0   33.333333333333336
200.0   150.0   16.666666666666668
200.0   120.0   33.333333333333336
250.0   150.0   33.333333333333336
250.0   120.0   33.333333333333336
250.0   120.0   16.666666666666668
200.0   120.0   33.333333333333336
250.0   150.0   33.333333333333336
250.0   120.0   16.666666666666668
200.0   150.0   16.666666666666668
200.0   120.0   33.333333333333336
250.0   120.0   33.333333333333336
200.0   150.0   33.333333333333336
200.0   120.0   50.0
250.0   120.0   33.333333333333336
250.0   150.0   33.333333333333336
200.0   150.0   33.333333333333336
250.0   150.0   50.0
200.0   120.0   50.0
200.0   150.0   50.0
250.0   150.0   50.0
200.0   150.0   33.333333333333336
200.0   120.0   50.0
250.0   150.0   50.0
250.0   120.0   50.0
250.0   120.0   33.333333333333336
200.0   120.0   50.0
250.0   150.0   50.0
250.0   120.0   33.333333333333336
200.0   150.0   33.333333333333336
250.0   0.0   0.0
300.0   0.0   0.0
250.0   30.0   0.0
250.0   0.0   16.666666666666668
300.0   0.0   0.0
300.0   30.0   0.0
250.0   30.0   0.0
300.0   30.0   16.666666666666668
250.0   0.0   16.666666666666668
250.0   30.0   16.666666666666668
300.0   30.0   16.666666666666668
250.0   30.0   0.0
250.0   0.0   16.666666666666668
300.0   30.0   16.666666666666668
300.0   0.0   16.666666666666668
300.0   0.0   0.0
250.0   0.0   16.666666666666668
300.0   30.0   16.666666666666668
300.0   0.0   0.0
250.0   30.0   0.0
250.0   0.0   16.666666666666668
300.0   0.0   16.666666666666668
250.0   30.0   16.666666666666668
250.0   0.0   33.333333333333336
300.0   0.0   16.666666666666668
300.0   30.0   16.666666666666668
250.0   30.0   16.666666666666668
300.0   30.0   33.333333333333336
250.0   0.0   33.333333333333336
250.0   30.0   33.333333333333336
300.0   30.0   33.333333333333336
250.0   30.0   16.666666666666668
250.0   0.0   33.333333333333336
300.0   30.0   33.333333333333336
300.0   0.0   33.333333333333336
300.0   0.0   16.666666666666668
250.0   0.0   33.333333333333336
300.0   30.0   33.333333333333336
300.0   0.0   16.666666666666668
250.0   30.0   16.666666666666668
250.0   0.0   33.333333333333336
300.0   0.0   33.333333333333336
250.0   30.0   33.333333333333336
250.0   0.0   50.0
300.0   0.0   33.333333333333336
300.0   30.0   33.333333333333336
250.0   30.0   33.333333333333336
300.0   30.0   50.0
250.0   0.0   50.0
250.0   30.0   50.0
300.0   30.0   50.0
250.0   30.0   33.333333333333336
250.0   0.0   50.0
300.0   30.0   50.0
300.0   0.0   50.0
300.0   0.0   33.333333333333336
250.0   0.0   50.0
300.0   30.0   50.0
300.0   0.0   33.333333333333336
250.0   30.0   33.333333333333336
250.0   30.0   0.0
300.0   30.0   0.0
250.0   60.0   0.0
250.0   30.0   16.666666666666668
300.0   30.0   0.0
300.0   60.0   0.0
250.0   60.0   0.0
300.0   60.0   16.666666666666668
250.0   30.0   16.666666666666668
250.0   60.0   16.666666666666668
300.0   60.0   16.666666666666668
250.0   60.0   0.0
250.0   30.0   16.666666666666668
300.0   60.0   16.666666666666668
300.0   30.0   16.666666666666668
300.0   30.0   0.0
250.0   30.0   16.666666666666668
300.0   60.0   16.666666666666668
300.0   30.0   0.0
250.0   60.0   0.0
250.0   30.0   16.666666666666668
300.0   30.0   16.666666666666668
250.0   60.0   16.666666666666668
250.0   30.0   33.333333333333336
300.0   30.0   16.666666666666668
300.0   60.0   16.666666666666668
250.0   60.0   16.666666666666668
300.0   60.0   33.333333333333336
250.0   30.0   33.333333333333336
250.0   60.0   33.333333333333336
300.0   60.0   33.333333333333336
250.0   60.0   16.666666666666668
250.0   30.0   33.333333333333336
300.0   60.0   33.333333333333336
300.0   30.0   33.333333333333336
300.0   30.0   16.666666666666668
250.0   30.0   33.333333333333336
300.0   60.0   33.333333333333336
300.0   30.0   16.666666666666668
250.0   60.0   16.666666666666668
250.0   30.0   33.333333333333336
300.0   30.0   33.333333333333336
250.0   60.0   33.333333333333336
250.0   30.0   50.0
300.0   30.0   33.333333333333336
300.0   60.0   33.333333333333336
250.0   60.0   33.333333333333336
300.0   60.0   50.0
250.0   30.0   50.0
250.0   60.0   50.0
300.0   60.0   50.0
250.0   60.0   33.333333333333336
250.0   30.0   50.0
300.0   60.0   50.0
300.0   30.0   50.0
300.0   30.0   33.333333333333336
250.0   30.0   50.0
300.0   60.0   50.0
300.0   30.0   33.333333333333336
250.0   60.0   33.333333333333336
250.0   60.0   0.0
300.0   60.0   0.0
250.0   90.0   0.0
250.0   60.0   16.666666666666668
300.0   60.0   0.0
300.0   90.0   0.0
250.0   90.0   0.0
300.0   90.0   16.666666666666668
250.0   60.0   16.666666666666668
250.0   90.0   16.666666666666668
300.0   90.0   16.666666666666668
250.0   90.0   0.0
250.0   60.0   16.666666666666668
300.0   90.0   16.666666666666668
300.0   60.0   16.666666666666668
300.0   60.0   0.0
250.0   60.0   16.666666666666668
300.0   90.0   16.666666666666668
300.0   60.0   0.0
250.0   90.0   0.0
250.0   60.0   16.666666666666668
300.0   60.0   16.666666666666668
250.0   90.0   16.666666666666668
250.0   60.0   33.333333333333336
300.0   60.0   16.666666666666668
300.0   90.0   16.666666666666668
250.0   90.0   16.666666666666668
300.0   90.0   33.333333333333336
250.0   60.0   33.333333333333336
250.0   90.0   33.333333333333336
300.0   90.0   33.333333333333336
250.0   90.0   16.666666666666668
250.0   60.0   33.333333333333336
300.0   90.0   33.333333333333336
300.0   60.0   33.333333333333336
300.0   60.0   16.666666666666668
250.0   60.0   33.333333333333336
300.0   90.0   33.333333333333336
300.0   60.0   16.666666666666668
250.0   90.0   16.666666666666668
250.0   60.0   33.333333333333336
300.0   60.0   33.333333333333336
250.0   90.0   33.333333333333336
250.0   60.0   50.0
300.0   60.0   33.333333333333336
300.0   90.0   33.333333333333336
250.0   90.0   33.333333333333336
300.0   90.0   50.0
250.0   60.0   50.0
250.0   90.0   50.0
300.0   90.0   50.0
250.0   90.0   33.333333333333336
250.0   60.0   50.0
300.0   90.0   50.0
300.0   60.0   50.0
300.0   60.0   33.333333333333336
250.0   60.0   50.0
300.0   90.0   50.0
300.0   60.0   33.333333333333336
250.0   90.0   33.333333333333336
250.0   90.0   0.0
300.0   90.0   0.0
250.0   120.0   0.0
250.0   90.0   16.666666666666668
300.0   90.0   0.0
300.0   120.0   0.0
250.0   120.0   0.0
300.0   120.0   16.666666666666668
250.0   90.0   16.666666666666668
250.0   120.0   16.666666666666668
300.0   120.0   16.666666666666668
250.0   120.0   0.0
250.0   90.0   16.666666666666668
300.0   120.0   16.666666666666668
300.0   90.0   16.666666666666668
300.0   90.0   0.0
250.0   90.0   16.666666666666668
300.0   120.0   16.666666666666668
300.0   90.0   0.0
250.0   120.0   0.0
250.0   90.0   16.666666666666668
300.0   90.0   16.666666666666668
250.0   120.0   16.666666666666668
250.0   90.0   33.333333333333336
300.0   90.0   16.666666666666668
300.0   120.0   16.666666666666668
250.0   120.0   16.666666666666668
300.0   120.0   33.333333333333336
250.0   90.0   33.333333333333336
250.0   120.0   33.333333333333336
300.0   120.0   33.333333333333336
250.0   120.0   16.666666666666668
250.0   90.0   33.333333333333336
300.0   120.0   33.333333333333336
300.0   90.0   33.333333333333336
300.0   90.0   16.666666666666668
250.0   90.0   33.333333333333336
300.0   120.0   33.333333333333336
300.0   90.0   16.666666666666668
250.0   120.0   16.666666666666668
250.0   90.0   33.333333333333336
300.0   90.0   33.333333333333336
250.0   120.0   33.333333333333336
250.0   90.0   50.0
300.0   90.0   33.333333333333336
300.0   120.0   33.333333333333336
250.0   120.0   33.333333333333336
300.0   120.0   50.0
250.0   90.0   50.0
250.0   120.0   50.0
300.0   120.0   50.0
250.0   120.0   33.333333333333336
250.0   90.0   50.0
300.0   120.0   50.0
300.0   90.0   50.0
300.0   90.0   33.333333333333336
250.0   90.0   50.0
300.0   120.0   50.0
300.0   90.0   33.333333333333336
250.0   120.0   33.333333333333336
250.0   120.0   0.0
300.0   120.0   0.0
250.0   150.0   0.0
250.0   120.0   16.666666666666668
300.0   120.0   0.0
300.0   150.0   0.0
250.0   150.0   0.0
300.0   150.0   16.666666666666668
250.0   120.0   16.666666666666668
250.0   150.0   16.666666666666668
300.0   150.0   16.666666666666668
250.0   150.0   0.0
250.0   120.0   16.666666666666668
300.0   150.0   16.666666666666668
300.0   120.0   16.666666666666668
300.0   120.0   0.0
250.0   120.0   16.666666666666668
300.0   150.0   16.666666666666668
300.0   120.0   0.0
250.0   150.0   0.0
250.0   120.0   16.666666666666668
300.0   120.0   16.666666666666668
250.0   150.0   16.666666666666668
250.0   120.0   33.333333333333336
300.0   120.0   16.666666666666668
300.0   150.0   16.666666666666668
250.0   150.0   16.666666666666668
300.0   150.0   33.333333333333336
250.0   120.0   33.333333333333336
250.0   150.0   33.333333333333336
300.0   150.0   33.333333333333336
250.0   150.0   16.666666666666668
250.0   120.0   33.333333333333336
300.0   150.0   33.333333333333336
300.0   120.0   33.333333333333336
300.0   120.0   16.666666666666668
250.0   120.0   33.333333333333336
300.0   150.0   33.333333333333336
300.0   120.0   16.666666666666668
250.0   150.0   16.666666666666668
250.0   120.0   33.333333333333336
300.0   120.0   33.333333333333336
250.0   150.0   33.333333333333336
250.0   120.0   50.0
300.0   120.0   33.333333333333336
300.0   150.0   33.333333333333336
250.0   150.0   33.333333333333336
300.0   150.0   50.0
250.0   120.0   50.0
250.0   150.0   50.0
300.0   150.0   50.0
250.0   150.0   33.333333333333336
250.0   120.0   50.0
300.0   150.0   50.0
300.0   120.0   50.0
300.0   120.0   33.333333333333336
250.0   120.0   50.0
300.0   150.0   50.0
300.0   120.0   33.333333333333336
250.0   150.0   33.333333333333336
300.0   0.0   0.0
350.0   0.0   0.0
300.0   30.0   0.0
300.0   0.0   16.666666666666668
350.0   0.0   0.0
350.0   30.0   0.0
300.0   30.0   0.0
350.0   30.0   16.666666666666668
300.0   0.0   16.666666666666668
300.0   30.0   16.666666666666668
350.0   30.0   16.666666666666668
300.0   30.0   0.0
300.0   0.0   16.666666666666668
350.0   30.0   16.666666666666668
350.0   0.0   16.666666666666668
350.0   0.0   0.0
300.0   0.0   16.666666666666668
350.0   30.0   16.666666666666668
350.0   0.0   0.0
300.0   30.0   0.0
300.0   0.0   16.666666666666668
350.0   0.0   16.666666666666668
300.0   30.0   16.666666666666668
300.0   0.0   33.333333333333336
350.0   0.0   16.666666666666668
350.0   30.0   16.666666666666668
300.0   30.0   16.666666666666668
350.0   30.0   33.333333333333336
300.0   0.0   33.333333333333336
300.0   30.0   33.333333333333336
350.0   30.0   33.333333333333336
300.0   30.0   16.666666666666668
300.0   0.0   33.333333333333336
350.0   30.0   33.333333333333336
350.0   0.0   33.333333333333336
350.0   0.0   16.666666666666668
300.0   0.0   33.333333333333336
350.0   30.0   33.333333333333336
350.0   0.0   16.666666666666668
300.0   30.0   16.666666666666668
300.0   0.0   33.333333333333336
350.0   0.0   33.333333333333336
300.0   30.0   33.333333333333336
300.0   0.0   50.0
350.0   0.0   33.333333333333336
350.0   30.0   33.333333333333336
300.0   30.0   33.333333333333336
350.0   30.0   50.0
300.0   0.0   50.0
300.0   30.0   50.0
350.0   30.0   50.0
300.0   30.0   33.333333333333336
300.0   0.0   50.0
350.0   30.0   50.0
350.0   0.0   50.0
350.0   0.0   33.333333333333336
300.0   0.0   50.0
350.0   30.0   50.0
350.0   0.0   33.333333333333336
300.0   30.0   33.333333333333336
300.0   30.0   0.0
350.0   30.0   0.0
300.0   60.0   0.0
300.0   30.0   16.666666666666668
350.0   30.0   0.0
350.0   60.0   0.0
300.0   60.0   0.0
350.0   60.0   16.666666666666668
300.0   30.0   16.666666666666668
300.0   60.0   16.666666666666668
350.0   60.0   16.666666666666668
300.0   60.0   0.0
300.0   30.0   16.666666666666668
350.0   60.0   16.666666666666668
350.0   30.0   16.666666666666668
350.0   30.0   0.0
300.0   30.0   16.666666666666668
350.0   60.0   16.666666666666668
350.0   30.0   0.0
300.0   60.0   0.0
300.0   30.0   16.666666666666668
350.0   30.0   16.666666666666668
300.0   60.0   16.666666666666668
300.0   30.0   33.333333333333336
350.0   30.0   16.666666666666668
350.0   60.0   16.666666666666668
300.0   60.0   16.666666666666668
350.0   60.0   33.333333333333336
300.0   30.0   33.333333333333336
300.0   60.0   33.333333333333336
350.0   60.0   33.333333333333336
300.0   60.0   16.666666666666668
300.0   30.0   33.333333333333336
350.0   60.0   33.333333333333336
350.0   30.0   33.333333333333336
350.0   30.0   16.666666666666668
300.0   30.0   33.333333333333336
350.0   60.0   33.333333333333336
350.0   30.0   16.666666666666668
300.0   60.0   16.666666666666668
300.0   30.0   33.333333333333336
350.0   30.0   33.333333333333336
300.0   60.0   33.333333333333336
300.0   30.0   50.0
350.0   30.0   33.333333333333336
350.0   60.0   33.333333333333336
300.0   60.0   33.333333333333336
350.0   60.0   50.0
300.0   30.0   50.0
300.0   60.0   50.0
350.0   60.0   50.0
300.0   60.0   33.333333333333336
300.0   30.0   50.0
350.0   60.0   50.0
350.0   30.0   50.0
350.0   30.0   33.333333333333336
300.0   30.0   50.0
350.0   60.0   50.0
350.0   30.0   33.333333333333336
300.0   60.0   33.333333333333336
300.0   60.0   0.0
350.0   60.0   0.0
300.0   90.0   0.0
300.0   60.0   16.666666666666668
350.0   60.0   0.0
350.0   90.0   0.0
300.0   90.0   0.0
350.0   90.0   16.666666666666668
300.0   60.0   16.666666666666668
300.0   90.0   16.666666666666668
350.0   90.0   16.666666666666668
300.0   90.0   0.0
300.0   60.0   16.666666666666668
350.0   90.0   16.666666666666668
350.0   60.0   16.666666666666668
350.0   60.0   0.0
300.0   60.0   16.666666666666668
350.0   90.0   16.666666666666668
350.0   60.0   0.0
300.0   90.0   0.0
300.0   60.0   16.666666666666668
350.0   60.0   16.666666666666668
300.0   90.0   16.666666666666668
300.0   60.0   33.333333333333336
350.0   60.0   16.666666666666668
350.0   90.0   16.666666666666668
300.0   90.0   16.666666666666668
350.0   90.0   33.333333333333336
300.0   60.0   33.333333333333336
300.0   90.0   33.333333333333336
350.0   90.0   33.333333333333336
300.0   90.0   16.666666666666668
300.0   60.0   33.333333333333336
350.0   90.0   33.333333333333336
350.0   60.0   33.333333333333336
350.0   60.0   16.666666666666668
300.0   60.0   33.333333333333336
350.0   90.0   33.333333333333336
350.0   60.0   16.666666666666668
300.0   90.0   16.666666666666668
300.0   60.0   33.333333333333336
350.0   60.0   33.333333333333336
300.0   90.0   33.333333333333336
300.0   60.0   50.0
350.0   60.0   33.333333333333336
350.0   90.0   33.333333333333336
300.0   90.0   33.333333333333336
350.0   90.0   50.0
300.0   60.0   50.0
300.0   90.0   50.0
350.0   90.0   50.0
300.0   90.0   33.333333333333336
300.0   60.0   50.0
350.0   90.0   50.0
350.0   60.0   50.0
350.0   60.0   33.333333333333336
300.0   60.0   50.0
350.0   90.0   50.0
350.0   60.0   33.333333333333336
300.0   90.0   33.333333333333336
300.0   90.0   0.0
350.0   90.0   0.0
300.0   120.0   0.0
300.0   90.0   16.666666666666668
350.0   90.0   0.0
350.0   120.0   0.0
300.0   120.0   0.0
350.0   120.0   16.666666666666668
300.0   90.0   16.666666666666668
300.0   120.0   16.666666666666668
350.0   120.0   16.666666666666668
300.0   120.0   0.0
300.0   90.0   16.666666666666668
350.0   120.0   16.666666666666668
350.0   90.0   16.666666666666668
350.0   90.0   0.0
300.0   90.0   16.666666666666668
350.0   120.0   16.666666666666668
350.0   90.0   0.0
300.0   120.0   0.0
300.0   90.0   16.666666666666668
350.0   90.0   16.666666666666668
300.0   120.0   16.666666666666668
300.0   90.0   33.333333333333336
350.0   90.0   16.666666666666668
350.0   120.0   16.666666666666668
300.0   120.0   16.666666666666668
350.0   120.0   33.333333333333336
300.0   90.0   33.333333333333336
300.0   120.0   33.333333333333336
350.0   120.0   33.333333333333336
300.0   120.0   16.666666666666668
300.0   90.0   33.333333333333336
350.0   120.0   33.333333333333336
350.0   90.0   33.333333333333336
350.0   90.0   16.666666666666668
300.0   90.0   33.333333333333336
350.0   120.0   33.333333333333336
350.0   90.0   16.666666666666668
300.0   120.0   16.666666666666668
300.0   90.0   33.333333333333336
350.0   90.0   33.333333333333336
300.0   120.0   33.333333333333336
300.0   90.0   50.0
350.0   90.0   33.333333333333336
350.0   120.0   33.333333333333336
300.0   120.0   33.333333333333336
350.0   120.0   50.0
300.0   90.0   50.0
300.0   120.0   50.0
350.0   120.0   50.0
300.0   120.0   33.333333333333336
300.0   90.0   50.0
350.0   120.0   50.0
350.0   90.0   50.0
350.0   90.0   33.333333333333336
300.0   90.0   50.0
350.0   120.0   50.0
350.0   90.0   33.333333333333336
300.0   120.0   33.333333333333336
300.0   120.0   0.0
350.0   120.0   0.0
300.0   150.0   0.0
300.0   120.0   16.666666666666668
350.0   120.0   0.0
350.0   150.0   0.0
300.0   150.0   0.0
350.0   150.0   16.666666666666668
300.0   120.0   16.666666666666668
300.0   150.0   16.666666666666668
350.0   150.0   16.666666666666668
300.0   150.0   0.0
300.0   120.0   16.666666666666668
350.0   150.0   16.666666666666668
350.0   120.0   16.666666666666668
350.0   120.0   0.0
300.0   120.0   16.666666666666668
350.0   150.0   16.666666666666668
350.0   120.0   0.0
300.0   150.0   0.0
300.0   120.0   16.666666666666668
350.0   120.0   16.666666666666668
300.0   150.0   16.666666666666668
300.0   120.0   33.333333333333336
350.0   120.0   16.666666666666668
350.0   150.0   16.666666666666668
300.0   150.0   16.666666666666668
350.0   150.0   33.333333333333336
300.0   120.0   33.333333333333336
300.0   150.0   33.333333333333336
350.0   150.0   33.333333333333336
300.0   150.0   16.666666666666668
300.0   120.0   33.333333333333336
350.0   150.0   33.333333333333336
350.0   120.0   33.333333333333336
350.0   120.0   16.666666666666668
300.0   120.0   33.333333333333336
350.0   150.0   33.333333333333336
350.0   120.0   16.666666666666668
300.0   150.0   16.666666666666668
300.0   120.0   33.333333333333336
350.0   120.0   33.333333333333336
300.0   150.0   33.333333333333336
300.0   120.0   50.0
350.0   120.0   33.333333333333336
350.0   150.0   33.333333333333336
300.0   150.0   33.333333333333336
350.0   150.0   50.0
300.0   120.0   50.0
300.0   150.0   50.0
350.0   150.0   50.0
300.0   150.0   33.333333333333336
300.0   120.0   50.0
350.0   150.0   50.0
350.0   120.0   50.0
350.0   120.0   33.333333333333336
300.0   120.0   50.0
350.0   150.0   50.0
350.0   120.0   33.333333333333336
300.0   150.0   33.333333333333336
350.0   0.0   0.0
400.0   0.0   0.0
350.0   30.0   0.0
350.0   0.0   16.666666666666668
400.0   0.0   0.0
400.0   30.0   0.0
350.0   30.0   0.0
400.0   30.0   16.666666666666668
350.0   0.0   16.666666666666668
350.0   30.0   16.666666666666668
400.0   30.0   16.666666666666668
350.0   30.0   0.0
350.0   0.0   16.666666666666668
400.0   30.0   16.666666666666668
400.0   0.0   16.666666666666668
400.0   0.0   0.0
350.0   0.0   16.666666666666668
400.0   30.0   16.666666666666668
400.0   0.0   0.0
350.0   30.0   0.0
350.0   0.0   16.666666666666668
400.0   0.0   16.666666666666668
350.0   30.0   16.666666666666668
350.0   0.0   33.333333333333336
400.0   0.0   16.666666666666668
400.0   30.0   16.666666666666668
350.0   30.0   16.666666666666668
400.0   30.0   33.333333333333336
350.0   0.0   33.333333333333336
350.0   30.0   33.333333333333336
400.0   30.0   33.333333333333336
350.0   30.0   16.666666666666668
350.0   0.0   33.333333333333336
400.0   30.0   33.333333333333336
400.0   0.0   33.333333333333336
400.0   0.0   16.666666666666668
350.0   0.0   33.333333333333336
400.0   30.0   33.333333333333336
400.0   0.0   16.666666666666668
350.0   30.0   16.666666666666668
350.0   0.0   33.333333333333336
400.0   0.0   33.333333333333336
350.0   30.0   33.333333333333336
350.0   0.0   50.0
400.0   0.0   33.333333333333336
400.0   30.0   33.333333333333336
350.0   30.0   33.333333333333336
400.0   30.0   50.0
350.0   0.0   50.0
350.0   30.0   50.0
400.0   30.0   50.0
350.0   30.0   33.333333333333336
350.0   0.0   50.0
400.0   30.0   50.0
400.0   0.0   50.0
400.0   0.0   33.333333333333336
350.0   0.0   50.0
400.0   30.0   50.0
400.0   0.0   33.333333333333336
350.0   30.0   33.333333333333336
350.0   30.0   0.0
400.0   30.0   0.0
350.0   60.0   0.0
350.0   30.0   16.666666666666668
400.0   30.0   0.0
400.0   60.0   0.0
350.0   60.0   0.0
400.0   60.0   16.666666666666668
350.0   30.0   16.666666666666668
350.0   60.0   16.666666666666668
400.0   60.0   16.666666666666668
350.0   60.0   0.0
350.0   30.0   16.666666666666668
400.0   60.0   16.666666666666668
400.0   30.0   16.666666666666668
400.0   30.0   0.0
350.0   30.0   16.666666666666668
400.0   60.0   16.666666666666668
400.0   30.0   0.0
350.0   60.0   0.0
350.0   30.0   16.666666666666668
400.0   30.0   16.666666666666668
350.0   60.0   16.666666666666668
350.0   30.0   33.333333333333336
400.0   30.0   16.666666666666668
400.0   60.0   16.666666666666668
350.0   60.0   16.666666666666668
400.0   60.0   33.333333333333336
350.0   30.0   33.333333333333336
350.0   60.0   33.333333333333336
400.0   60.0   33.333333333333336
350.0   60.0   16.666666666666668
350.0   30.0   33.333333333333336
400.0   60.0   33.333333333333336
400.0   30.0   33.333333333333336
400.0   30.0   16.666666666666668
350.0   30.0   33.333333333333336
400.0   60.0   33.333333333333336
400.0   30.0   16.666666666666668
350.0   60.0   16.666666666666668
350.0   30.0   33.333333333333336
400.0   30.0   33.333333333333336
350.0   60.0   33.333333333333336
350.0   30.0   50.0
400.0   30.0   33.333333333333336
400.0   60.0   33.333333333333336
350.0   60.0   33.333333333333336
400.0   60.0   50.0
350.0   30.0   50.0
350.0   60.0   50.0
400.0   60.0   50.0
350.0   60.0   33.333333333333336
350.0   30.0   50.0
400.0   60.0   50.0
400.0   30.0   50.0
400.0   30.0   33.333333333333336
350.0   30.0   50.0
400.0   60.0   50.0
400.0   30.0   33.333333333333336
350.0   60.0   33.333333333333336
350.0   60.0   0.0
400.0   60.0   0.0
350.0   90.0   0.0
350.0   60.0   16.666666666666668
400.0   60.0   0.0
400.0   90.0   0.0
350.0   90.0   0.0
400.0   90.0   16.666666666666668
350.0   60.0   16.666666666666668
350.0   90.0   16.666666666666668
400.0   90.0   16.666666666666668
350.0   90.0   0.0
350.0   60.0   16.666666666666668
400.0   90.0   16.666666666666668
400.0   60.0   16.666666666666668
400.0   60.0   0.0
350.0   60.0   16.666666666666668
400.0   90.0   16.666666666666668
400.0   60.0   0.0
350.0   90.0   0.0
350.0   60.0   16.666666666666668
400.0   60.0   16.666666666666668
350.0   90.0   16.666666666666668
350.0   60.0   33.333333333333336
400.0   60.0   16.666666666666668
400.0   90.0   16.666666666666668
350.0   90.0   16.666666666666668
400.0   90.0   33.333333333333336
350.0   60.0   33.333333333333336
350.0   90.0   33.333333333333336
400.0   90.0   33.333333333333336
350.0   90.0   16.666666666666668
350.0   60.0   33.333333333333336
400.0   90.0   33.333333333333336
400.0   60.0   33.333333333333336
400.0   60.0   16.666666666666668
350.0   60.0   33.333333333333336
400.0   90.0   33.333333333333336
400.0   60.0   16.666666666666668
350.0   90.0   16.666666666666668
350.0   60.0   33.333333333333336
400.0   60.0   33.333333333333336
350.0   90.0   33.333333333333336
350.0   60.0   50.0
400.0   60.0   33.333333333333336
400.0   90.0   33.333333333333336
350.0   90.0   33.333333333333336
400.0   90.0   50.0
350.0   60.0   50.0
350.0   90.0   50.0
400.0   90.0   50.0
350.0   90.0   33.333333333333336
350.0   60.0   50.0
400.0   90.0   50.0
400.0   60.0   50.0
400.0   60.0   33.333333333333336
350.0   60.0   50.0
400.0   90.0   50.0
400.0   60.0   33.333333333333336
350.0   90.0   33.333333333333336
350.0   90.0   0.0
400.0   90.0   0.0
350.0   120.0   0.0
350.0   90.0   16.666666666666668
400.0   90.0   0.0
400.0   120.0   0.0
350.0   120.0   0.0
400.0   120.0   16.666666666666668
350.0   90.0   16.666666666666668
350.0   120.0   16.666666666666668
400.0   120.0   16.666666666666668
350.0   120.0   0.0
350.0   90.0   16.666666666666668
400.0   120.0   16.666666666666668
400.0   90.0   16.666666666666668
400.0   90.0   0.0
350.0   90.0   16.666666666666668
400.0   120.0   16.666666666666668
400.0   90.0   0.0
350.0   120.0   0.0
350.0   90.0   16.666666666666668
400.0   90.0   16.666666666666668
350.0   120.0   16.666666666666668
350.0   90.0   33.333333333333336
400.0   90.0   16.666666666666668
400.0   120.0   16.666666666666668
350.0   120.0   16.666666666666668
400.0   120.0   33.333333333333336
350.0   90.0   33.333333333333336
350.0   120.0   33.333333333333336
400.0   120.0   33.333333333333336
350.0   120.0   16.666666666666668
350.0   90.0   33.333333333333336
400.0   120.0   33.333333333333336
400.0   90.0   33.333333333333336
400.0   90.0   16.666666666666668
350.0   90.0   33.333333333333336
400.0   120.0   33.333333333333336
400.0   90.0   16.666666666666668
350.0   120.0   16.666666666666668
350.0   90.0   33.333333333333336
400.0   90.0   33.333333333333336
350.0   120.0   33.333333333333336
350.0   90.0   50.0
400.0   90.0   33.333333333333336
400.0   120.0   33.333333333333336
350.0   120.0   33.333333333333336
400.0   120.0   50.0
350.0   90.0   50.0
350.0   120.0   50.0
400.0   120.0   50.0
350.0   120.0   33.333333333333336
350.0   90.0   50.0
400.0   120.0   50.0
400.0   90.0   50.0
400.0   90.0   33.333333333333336
350.0   90.0   50.0
400.0   120.0   50.0
400.0   90.0   33.333333333333336
350.0   120.0   33.333333333333336
350.0   120.0   0.0
400.0   120.0   0.0
350.0   150.0   0.0
350.0   120.0   16.666666666666668
400.0   120.0   0.0
400.0   150.0   0.0
350.0   150.0   0.0
400.0   150.0   16.666666666666668
350.0   120.0   16.666666666666668
350.0   150.0   16.666666666666668
400.0   150.0   16.666666666666668
350.0   150.0   0.0
350.0   120.0   16.666666666666668
400.0   150.0   16.666666666666668
400.0   120.0   16.666666666666668
400.0   120.0   0.0
350.0   120.0   16.666666666666668
400.0   150.0   16.666666666666668
400.0   120.0   0.0
350.0   150.0   0.0
350.0   120.0   16.666666666666668
400.0   120.0   16.666666666666668
350.0   150.0   16.666666666666668
350.0   120.0   33.333333333333336
400.0   120.0   16.666666666666668
400.0   150.0   16.666666666666668
350.0   150.0   16.666666666666668
400.0   150.0   33.333333333333336
350.0   120.0   33.333333333333336
350.0   150.0   33.333333333333336
400.0   150.0   33.333333333333336
350.0   150.0   16.666666666666668
350.0   120.0   33.333333333333336
400.0   150.0   33.333333333333336
400.0   120.0   33.333333333333336
400.0   120.0   16.666666666666668
350.0   120.0   33.333333333333336
400.0   150.0   33.333333333333336
400.0   120.0   16.666666666666668
350.0   150.0   16.666666666666668
350.0   120.0   33.333333333333336
400.0   120.0   33.333333333333336
350.0   150.0   33.333333333333336
350.0   120.0   50.0
400.0   120.0   33.333333333333336
400.0   150.0   33.333333333333336
350.0   150.0   33.333333333333336
400.0   150.0   50.0
350.0   120.0   50.0
350.0   150.0   50.0
400.0   150.0   50.0
350.0   150.0   33.333333333333336
350.0   120.0   50.0
400.0   150.0   50.0
400.0   120.0   50.0
400.0   120.0   33.333333333333336
350.0   120.0   50.0
400.0   150.0   50.0
400.0   120.0   33.333333333333336
350.0   150.0   33.333333333333336
400.0   0.0   0.0
450.0   0.0   0.0
400.0   30.0   0.0
400.0   0.0   16.666666666666668
450.0   0.0   0.0
450.0   30.0   0.0
400.0   30.0   0.0
450.0   30.0   16.666666666666668
400.0   0.0   16.666666666666668
400.0   30.0   16.666666666666668
450.0   30.0   16.666666666666668
400.0   30.0   0.0
400.0   0.0   16.666666666666668
450.0   30.0   16.666666666666668
450.0   0.0   16.666666666666668
450.0   0.0   0.0
400.0   0.0   16.666666666666668
450.0   30.0   16.666666666666668
450.0   0.0   0.0
400.0   30.0   0.0
400.0   0.0   16.666666666666668
450.0   0.0   16.666666666666668
400.0   30.0   16.666666666666668
400.0   0.0   33.333333333333336
450.0   0.0   16.666666666666668
450.0   30.0   16.666666666666668
400.0   30.0   16.666666666666668
450.0   30.0   33.333333333333336
400.0   0.0   33.333333333333336
400.0   30.0   33.333333333333336
450.0   30.0   33.333333333333336
400.0   30.0   16.666666666666668
400.0   0.0   33.333333333333336
450.0   30.0   33.333333333333336
450.0   0.0   33.333333333333336
450.0   0.0   16.666666666666668
400.0   0.0   33.333333333333336
450.0   30.0   33.333333333333336
450.0   0.0   16.666666666666668
400.0   30.0   16.666666666666668
400.0   0.0   33.333333333333336
450.0   0.0   33.333333333333336
400.0   30.0   33.333333333333336
400.0   0.0   50.0
450.0   0.0   33.333333333333336
450.0   30.0   33.333333333333336
400.0   30.0   33.333333333333336
450.0   30.0   50.0
400.0   0.0   50.0
400.0   30.0   50.0
450.0   30.0   50.0
400.0   30.0   33.333333333333336
400.0   0.0   50.0
450.0   30.0   50.0
450.0   0.0   50.0
450.0   0.0   33.333333333333336
400.0   0.0   50.0
450.0   30.0   50.0
450.0   0.0   33.333333333333336
400.0   30.0   33.333333333333336
400.0   30.0   0.0
450.0   30.0   0.0
400.0   60.0   0.0
400.0   30.0   16.666666666666668
450.0   30.0   0.0
450.0   60.0   0.0
400.0   60.0   0.0
450.0   60.0   16.666666666666668
400.0   30.0   16.666666666666668
400.0   60.0   16.666666666666668
450.0   60.0   16.666666666666668
400.0   60.0   0.0
400.0   30.0   16.666666666666668
450.0   60.0   16.666666666666668
450.0   30.0   16.666666666666668
450.0   30.0   0.0
400.0   30.0   16.666666666666668
450.0   60.0   16.666666666666668
450.0   30.0   0.0
400.0   60.0   0.0
400.0   30.0   16.666666666666668
450.0   30.0   16.666666666666668
400.0   60.0   16.666666666666668
400.0   30.0   33.333333333333336
450.0   30.0   16.666666666666668
450.0   60.0   16.666666666666668
400.0   60.0   16.666666666666668
450.0   60.0   33.333333333333336
400.0   30.0   33.333333333333336
400.0   60.0   33.333333333333336
450.0   60.0   33.333333333333336
400.0   60.0   16.666666666666668
400.0   30.0   33.333333333333336
450.0   60.0   33.333333333333336
450.0   30.0   33.333333333333336
450.0   30.0   16.666666666666668
400.0   30.0   33.333333333333336
450.0   60.0   33.333333333333336
450.0   30.0   16.666666666666668
400.0   60.0   16.666666666666668
400.0   30.0   33.333333333333336
450.0   30.0   33.333333333333336
400.0   60.0   33.333333333333336
400.0   30.0   50.0
450.0   30.0   33.333333333333336
450.0   60.0   33.333333333333336
400.0   60.0   33.333333333333336
450.0   60.0   50.0
400.0   30.0   50.0
400.0   60.0   50.0
450.0   60.0   50.0
400.0   60.0   33.333333333333336
400.0   30.0   50.0
450.0   60.0   50.0
450.0   30.0   50.0
450.0   30.0   33.333333333333336
400.0   30.0   50.0
450.0   60.0   50.0
450.0   30.0   33.333333333333336
400.0   60.0   33.333333333333336
400.0   60.0   0.0
450.0   60.0   0.0
400.0   90.0   0.0
400.0   60.0   16.666666666666668
450.0   60.0   0.0
450.0   90.0   0.0
400.0   90.0   0.0
450.0   90.0   16.666666666666668
400.0   60.0   16.666666666666668
400.0   90.0   16.666666666666668
450.0   90.0   16.666666666666668
400.0   90.0   0.0
400.0   60.0   16.666666666666668
450.0   90.0   16.666666666666668
450.0   60.0   16.666666666666668
450.0   60.0   0.0
400.0   60.0   16.666666666666668
450.0   90.0   16.666666666666668
450.0   60.0   0.0
400.0   90.0   0.0
400.0   60.0   16.666666666666668
450.0   60.0   16.666666666666668
400.0   90.0   16.666666666666668
400.0   60.0   33.333333333333336
450.0   60.0   16.666666666666668
450.0   90.0   16.666666666666668
400.0   90.0   16.666666666666668
450.0   90.0   33.333333333333336
400.0   60.0   33.333333333333336
400.0   90.0   33.333333333333336
450.0   90.0   33.333333333333336
400.0   90.0   16.666666666666668
400.0   60.0   33.333333333333336
450.0   90.0   33.333333333333336
450.0   60.0   33.333333333333336
450.0   60.0   16.666666666666668
400.0   60.0   33.333333333333336
450.0   90.0   33.333333333333336
450.0   60.0   16.666666666666668
400.0   90.0   16.666666666666668
400.0   60.0   33.333333333333336
450.0   60.0   33.333333333333336
400.0   90.0   33.333333333333336
400.0   60.0   50.0
450.0   60.0   33.333333333333336
450.0   90.0   33.333333333333336
400.0   90.0   33.333333333333336
450.0   90.0   50.0
400.0   60.0   50.0
400.0   90.0   50.0
450.0   90.0   50.0
400.0   90.0   33.333333333333336
400.0   60.0   50.0
450.0   90.0   50.0
450.0   60.0   50.0
450.0   60.0   33.333333333333336
400.0   60.0   50.0
450.0   90.0   50.0
450.0   60.0   33.333333333333336
400.0   90.0   33.333333333333336
400.0   90.0   0.0
450.0   90.0   0.0
400.0   120.0   0.0
400.0   90.0   16.666666666666668
450.0   90.0   0.0
450.0   120.0   0.0
400.0   120.0   0.0
450.0   120.0   16.666666666666668
400.0   90.0   16.666666666666668
400.0   120.0   16.666666666666668
450.0   120.0   16.666666666666668
400.0   120.0   0.0
400.0   90.0   16.666666666666668
450.0   120.0   16.666666666666668
450.0   90.0   16.666666666666668
450.0   90.0   0.0
400.0   90.0   16.666666666666668
450.0   120.0   16.666666666666668
450.0   90.0   0.0
400.0   120.0   0.0
400.0   90.0   16.666666666666668
450.0   90.0   16.666666666666668
400.0   120.0   16.666666666666668
400.0   90.0   33.333333333333336
450.0   90.0   16.666666666666668
450.0   120.0   16.666666666666668
400.0   120.0   16.666666666666668
450.0   120.0   33.333333333333336
400.0   90.0   33.333333333333336
400.0   120.0   33.333333333333336
450.0   120.0   33.333333333333336
400.0   120.0   16.666666666666668
400.0   90.0   33.333333333333336
450.0   120.0   33.333333333333336
450.0   90.0   33.333333333333336
450.0   90.0   16.666666666666668
400.0   90.0   33.333333333333336
450.0   120.0   33.333333333333336
450.0   90.0   16.666666666666668
400.0   120.0   16.666666666666668
400.0   90.0   33.333333333333336
450.0   90.0   33.333333333333336
400.0   120.0   33.333333333333336
400.0   90.0   50.0
450.0   90.0   33.333333333333336
450.0   120.0   33.333333333333336
400.0   120.0   33.333333333333336
450.0   120.0   50.0
400.0   90.0   50.0
400.0   120.0   50.0
450.0   120.0   50.0
400.0   120.0   33.333333333333336
400.0   90.0   50.0
450.0   120.0   50.0
450.0   90.0   50.0
450.0   90.0   33.333333333333336
400.0   90.0   50.0
450.0   120.0   50.0
450.0   90.0   33.333333333333336
400.0   120.0   33.333333333333336
400.0   120.0   0.0
450.0   120.0   0.0
400.0   150.0   0.0
400.0   120.0   16.666666666666668
450.0   120.0   0.0
450.0   150.0   0.0
400.0   150.0   0.0
450.0   150.0   16.666666666666668
400.0   120.0   16.666666666666668
400.0   150.0   16.666666666666668
450.0   150.0   16.666666666666668
400.0   150.0   0.0
400.0   120.0   16.666666666666668
450.0   150.0   16.666666666666668
450.0   120.0   16.666666666666668
450.0   120.0   0.0
400.0   120.0   16.666666666666668
450.0   150.0   16.666666666666668
450.0   120.0   0.0
400.0   150.0   0.0
400.0   120.0   16.666666666666668
450.0   120.0   16.666666666666668
400.0   150.0   16.666666666666668
400.0   120.0   33.333333333333336
450.0   120.0   16.666666666666668
450.0   150.0   16.666666666666668
400.0   150.0   16.666666666666668
450.0   150.0   33.333333333333336
400.0   120.0   33.333333333333336
400.0   150.0   33.333333333333336
450.0   150.0   33.333333333333336
400.0   150.0   16.666666666666668
400.0   120.0   33.333333333333336
450.0   150.0   33.333333333333336
450.0   120.0   33.333333333333336
450.0   120.0   16.666666666666668
400.0   120.0   33.333333333333336
450.0   150.0   33.333333333333336
450.0   120.0   16.666666666666668
400.0   150.0   16.666666666666668
400.0   120.0   33.333333333333336
450.0   120.0   33.333333333333336
400.0   150.0   33.333333333333336
400.0   120.0   50.0
450.0   120.0   33.333333333333336
450.0   150.0   33.333333333333336
400.0   150.0   33.333333333333336
450.0   150.0   50.0
400.0   120.0   50.0
400.0   150.0   50.0
450.0   150.0   50.0
400.0   150.0   33.333333333333336
400.0   120.0   50.0
450.0   150.0   50.0
450.0   120.0   50.0
450.0   120.0   33.333333333333336
400.0   120.0   50.0
450.0   150.0   50.0
450.0   120.0   33.333333333333336
400.0   150.0   33.333333333333336
450.0   0.0   0.0
500.0   0.0   0.0
450.0   30.0   0.0
450.0   0.0   16.666666666666668
500.0   0.0   0.0
500.0   30.0   0.0
450.0   30.0   0.0
500.0   30.0   16.666666666666668
450.0   0.0   16.666666666666668
450.0   30.0   16.666666666666668
500.0   30.0   16.666666666666668
450.0   30.0   0.0
450.0   0.0   16.666666666666668
500.0   30.0   16.666666666666668
500.0   0.0   16.666666666666668
500.0   0.0   0.0
450.0   0.0   16.666666666666668
500.0   30.0   16.666666666666668
500.0   0.0   0.0
450.0   30.0   0.0
450.0   0.0   16.666666666666668
500.0   0.0   16.666666666666668
450.0   30.0   16.666666666666668
450.0   0.0   33.333333333333336
500.0   0.0   16.666666666666668
500.0   30.0   16.666666666666668
450.0   30.0   16.666666666666668
500.0   30.0   33.333333333333336
450.0   0.0   33.333333333333336
450.0   30.0   33.333333333333336
500.0   30.0   33.333333333333336
450.0   30.0   16.666666666666668
450.0   0.0   33.333333333333336
500.0   30.0   33.333333333333336
500.0   0.0   33.333333333333336
500.0   0.0   16.666666666666668
450.0   0.0   33.333333333333336
500.0   30.0   33.333333333333336
500.0   0.0   16.666666666666668
450.0   30.0   16.666666666666668
450.0   0.0   33.333333333333336
500.0   0.0   33.333333333333336
450.0   30.0   33.333333333333336
450.0   0.0   50.0
500.0   0.0   33.333333333333336
500.0   30.0   33.333333333333336
450.0   30.0   33.333333333333336
500.0   30.0   50.0
450.0   0.0   50.0
450.0   30.0   50.0
500.0   30.0   50.0
450.0   30.0   33.333333333333336
450.0   0.0   50.0
500.0   30.0   50.0
500.0   0.0   50.0
500.0   0.0   33.333333333333336
450.0   0.0   50.0
500.0   30.0   50.0
500.0   0.0   33.333333333333336
450.0   30.0   33.333333333333336
450.0   30.0   0.0
500.0   30.0   0.0
450.0   60.0   0.0
450.0   30.0   16.666666666666668
500.0   30.0   0.0
500.0   60.0   0.0
450.0   60.0   0.0
500.0   60.0   16.666666666666668
450.0   30.0   16.666666666666668
450.0   60.0   16.666666666666668
500.0   60.0   16.666666666666668
450.0   60.0   0.0
450.0   30.0   16.666666666666668
500.0   60.0   16.666666666666668
500.0   30.0   16.666666666666668
500.0   30.0   0.0
450.0   30.0   16.666666666666668
500.0   60.0   16.666666666666668
500.0   30.0   0.0
450.0   60.0   0.0
450.0   30.0   16.666666666666668
500.0   30.0   16.666666666666668
450.0   60.0   16.666666666666668
450.0   30.0   33.333333333333336
500.0   30.0   16.666666666666668
500.0   60.0   16.666666666666668
450.0   60.0   16.666666666666668
500.0   60.0   33.333333333333336
450.0   30.0   33.333333333333336
450.0   60.0   33.333333333333336
500.0   60.0   33.333333333333336
450.0   60.0   16.666666666666668
450.0   30.0   33.333333333333336
500.0   60.0   33.333333333333336
500.0   30.0   33.333333333333336
500.0   30.0   16.666666666666668
450.0   30.0   33.333333333333336
500.0   60.0   33.333333333333336
500.0   30.0   16.666666666666668
450.0   60.0   16.666666666666668
450.0   30.0   33.333333333333336
500.0   30.0   33.333333333333336
450.0   60.0   33.333333333333336
450.0   30.0   50.0
500.0   30.0   33.333333333333336
500.0   60.0   33.333333333333336
450.0   60.0   33.333333333333336
500.0   60.0   50.0
450.0   30.0   50.0
450.0   60.0   50.0
500.0   60.0   50.0
450.0   60.0   33.333333333333336
450.0   30.0   50.0
500.0   60.0   50.0
500.0   30.0   50.0
500.0   30.0   33.333333333333336
450.0   30.0   50.0
500.0   60.0   50.0
500.0   30.0   33.333333333333336
450.0   60.0   33.333333333333336
450.0   60.0   0.0
500.0   60.0   0.0
450.0   90.0   0.0
450.0   60.0   16.666666666666668
500.0   60.0   0.0
500.0   90.0   0.0
450.0   90.0   0.0
500.0   90.0   16.666666666666668
450.0   60.0   16.666666666666668
450.0   90.0   16.666666666666668
500.0   90.0   16.666666666666668
450.0   90.0   0.0
450.0   60.0   16.666666666666668
500.0   90.0   16.666666666666668
500.0   60.0   16.666666666666668
500.0   60.0   0.0
450.0   60.0   16.666666666666668
500.0   90.0   16.666666666666668
500.0   60.0   0.0
450.0   90.0   0.0
450.0   60.0   16.666666666666668
500.0   60.0   16.666666666666668
450.0   90.0   16.666666666666668
450.0   60.0   33.333333333333336
500.0   60.0   16.666666666666668
500.0   90.0   16.666666666666668
450.0   90.0   16.666666666666668
500.0   90.0   33.333333333333336
450.0   60.0   33.333333333333336
450.0   90.0   33.333333333333336
500.0   90.0   33.333333333333336
450.0   90.0   16.666666666666668
450.0   60.0   33.333333333333336
500.0   90.0   33.333333333333336
500.0   60.0   33.333333333333336
500.0   60.0   16.666666666666668
450.0   60.0   33.333333333333336
500.0   90.0   33.333333333333336
500.0   60.0   16.666666666666668
450.0   90.0   16.666666666666668
450.0   60.0   33.333333333333336
500.0   60.0   33.333333333333336
450.0   90.0   33.333333333333336
450.0   60.0   50.0
500.0   60.0   33.333333333333336
500.0   90.0   33.333333333333336
450.0   90.0   33.333333333333336
500.0   90.0   50.0
450.0   60.0   50.0
450.0   90.0   50.0
500.0   90.0   50.0
450.0   90.0   33.333333333333336
450.0   60.0   50.0
500.0   90.0   50.0
500.0   60.0   50.0
500.0   60.0   33.333333333333336
450.0   60.0   50.0
500.0   90.0   50.0
500.0   60.0   33.333333333333336
450.0   90.0   33.333333333333336
450.0   90.0   0.0
500.0   90.0   0.0
450.0   120.0   0.0
450.0   90.0   16.666666666666668
500.0   90.0   0.0
500.0   120.0   0.0
450.0   120.0   0.0
500.0   120.0   16.666666666666668
450.0   90.0   16.666666666666668
450.0   120.0   16.666666666666668
500.0   120.0   16.666666666666668
450.0   120.0   0.0
450.0   90.0   16.666666666666668
500.0   120.0   16.666666666666668
500.0   90.0   16.666666666666668
500.0   90.0   0.0
450.0   90.0   16.666666666666668
500.0   120.0   16.666666666666668
500.0   90.0   0.0
450.0   120.0   0.0
450.0   90.0   16.666666666666668
500.0   90.0   16.666666666666668
450.0   120.0   16.666666666666668
450.0   90.0   33.333333333333336
500.0   90.0   16.666666666666668
500.0   120.0   16.666666666666668
450.0   120.0   16.666666666666668
500.0   120.0   33.333333333333336
450.0   90.0   33.333333333333336
450.0   120.0   33.333333333333336
500.0   120.0   33.333333333333336
450.0   120.0   16.666666666666668
450.0   90.0   33.333333333333336
500.0   120.0   33.333333333333336
500.0   90.0   33.333333333333336
500.0   90.0   16.666666666666668
450.0   90.0   33.333333333333336
500.0   120.0   33.333333333333336
500.0   90.0   16.666666666666668
450.0   120.0   16.666666666666668
450.0   90.0   33.333333333333336
500.0   90.0   33.333333333333336
450.0   120.0   33.333333333333336
450.0   90.0   50.0
500.0   90.0   33.333333333333336
500.0   120.0   33.333333333333336
450.0   120.0   33.333333333333336
500.0   120.0   50.0
450.0   90.0   50.0
450.0   120.0   50.0
500.0   120.0   50.0
450.0   120.0   33.333333333333336
450.0   90.0   50.0
500.0   120.0   50.0
500.0   90.0   50.0
500.0   90.0   33.333333333333336
450.0   90.0   50.0
500.0   120.0   50.0
500.0   90.0   33.333333333333336
450.0   120.0   33.333333333333336
450.0   120.0   0.0
500.0   120.0   0.0
450.0   150.0   0.0
450.0   120.0   16.666666666666668
500.0   120.0   0.0
500.0   150.0   0.0
450.0   150.0   0.0
500.0   150.0   16.666666666666668
450.0   120.0   16.666666666666668
450.0   150.0   16.666666666666668
500.0   150.0   16.666666666666668
450.0   150.0   0.0
450.0   120.0   16.666666666666668
500.0   150.0   16.666666666666668
500.0   120.0   16.666666666666668
500.0   120.0   0.0
450.0   120.0   16.666666666666668
500.0   150.0   16.666666666666668
500.0   120.0   0.0
450.0   150.0   0.0
450.0   120.0   16.666666666666668
500.0   120.0   16.666666666666668
450.0   150.0   16.666666666666668
450.0   120.0   33.333333333333336
500.0   120.0   16.666666666666668
500.0   150.0   16.666666666666668
450.0   150.0   16.666666666666668
500.0   150.0   33.333333333333336
450.0   120.0   33.333333333333336
450.0   150.0   33.333333333333336
500.0   150.0   33.333333333333336
450.0   150.0   16.666666666666668
450.0   120.0   33.333333333333336
500.0   150.0   33.333333333333336
500.0   120.0   33.333333333333336
500.0   120.0   16.666666666666668
450.0   120.0   33.333333333333336
500.0   150.0   33.333333333333336
500.0   120.0   16.666666666666668
450.0   150.0   16.666666666666668
450.0   120.0   33.333333333333336
500.0   120.0   33.333333333333336
450.0   150.0   33.333333333333336
450.0   120.0   50.0
500.0   120.0   33.333333333333336
500.0   150.0   33.333333333333336
450.0   150.0   33.333333333333336
500.0   150.0   50.0
450.0   120.0   50.0
450.0   150.0   50.0
500.0   150.0   50.0
450.0   150.0   33.333333333333336
450.0   120.0   50.0
500.0   150.0   50.0
500.0   120.0   50.0
500.0   120.0   33.333333333333336
450.0   120.0   50.0
500.0   150.0   50.0
500.0   120.0   33.333333333333336
450.0   150.0   33.333333333333336
             </DataArray>   
          </Points>  
          <Cells>  
             <DataArray type="Int32" Name="connectivity" format="ascii">   
0   1   2   3
4   5   6   7
8   9   10   11
12   13   14   15
16   17   18   19
20   21   22   23
24   25   26   27
28   29   30   31
32   33   34   35
36   37   38   39
40   41   42   43
44   45   46   47
48   49   50   51
52   53   54   55
56   57   58   59
60   61   62   63
64   65   66   67
68   69   70   71
72   73   74   75
76   77   78   79
80   81   82   83
84   85   86   87
88   89   90   91
92   93   94   95
96   97   98   99
100   101   102   103
104   105   106   107
108   109   110   111
112   113   114   115
116   117   118   119
120   121   122   123
124   125   126   127
128   129   130   131
132   133   134   135
136   137   138   139
140   141   142   143
144   145   146   147
148   149   150   151
152   153   154   155
156   157   158   159
160   161   162   163
164   165   166   167
168   169   170   171
172   173   174   175
176   177   178   179
180   181   182   183
184   185   186   187
188   189   190   191
192   193   194   195
196   197   198   199
200   201   202   203
204   205   206   207
208   209   210   211
212   213   214   215
216   217   218   219
220   221   222   223
224   225   226   227
228   229   230   231
232   233   234   235
236   237   238   239
240   241   242   243
244   245   246   247
248   249   250   251
252   253   254   255
256   257   258   259
260   261   262   263
264   265   266   267
268   269   270   271
272   273   274   275
276   277   278   279
280   281   282   283
284   285   286   287
288   289   290   291
292   293   294   295
296   297   298   299
300   301   302   303
304   305   306   307
308   309   310   311
312   313   314   315
316   317   318   319
320   321   322   323
324   325   326   327
328   329   330   331
332   333   334   335
336   337   338   339
340   341   342   343
344   345   346   347
348   349   350   351
352   353   354   355
356   357   358   359
360   361   362   363
364   365   366   367
368   369   370   371
372   373   374   375
376   377   378   379
380   381   382   383
384   385   386   387
388   389   390   391
392   393   394   395
396   397   398   399
400   401   402   403
404   405   406   407
408   409   410   411
412   413   414   415
416   417   418   419
420   421   422   423
424   425   426   427
428   429   430   431
432   433   434   435
436   437   438   439
440   441   442   443
444   445   446   447
448   449   450   451
452   453   454   455
456   457   458   459
460   461   462   463
464   465   466   467
468   469   470   471
472   473   474   475
476   477   478   479
480   481   482   483
484   485   486   487
488   489   490   491
492   493   494   495
496   497   498   499
500   501   502   503
504   505   506   507
508   509   510   511
512   513   514   515
516   517   518   519
520   521   522   523
524   525   526   527
528   529   530   531
532   533   534   535
536   537   538   539
540   541   542   543
544   545   546   547
548   549   550   551
552   553   554   555
556   557   558   559
560   561   562   563
564   565   566   567
568   569   570   571
572   573   574   575
576   577   578   579
580   581   582   583
584   585   586   587
588   589   590   591
592   593   594   595
596   597   598   599
600   601   602   603
604   605   606   607
608   609   610   611
612   613   614   615
616   617   618   619
620   621   622   623
624   625   626   627
628   629   630   631
632   633   634   635
636   637   638   639
640   641   642   643
644   645   646   647
648   649   650   651
652   653   654   655
656   657   658   659
660   661   662   663
664   665   666   667
668   669   670   671
672   673   674   675
676   677   678   679
680   681   682   683
684   685   686   687
688   689   690   691
692   693   694   695
696   697   698   699
700   701   702   703
704   705   706   707
708   709   710   711
712   713   714   715
716   717   718   719
720   721   722   723
724   725   726   727
728   729   730   731
732   733   734   735
736   737   738   739
740   741   742   743
744   745   746   747
748   749   750   751
752   753   754   755
756   757   758   759
760   761   762   763
764   765   766   767
768   769   770   771
772   773   774   775
776   777   778   779
780   781   782   783
784   785   786   787
788   789   790   791
792   793   794   795
796   797   798   799
800   801   802   803
804   805   806   807
808   809   810   811
812   813   814   815
816   817   818   819
820   821   822   823
824   825   826   827
828   829   830   831
832   833   834   835
836   837   838   839
840   841   842   843
844   845   846   847
848   849   850   851
852   853   854   855
856   857   858   859
860   861   862   863
864   865   866   867
868   869   870   871
872   873   874   875
876   877   878   879
880   881   882   883
884   885   886   887
888   889   890   891
892   893   894   895
896   897   898   899
900   901   902   903
904   905   906   907
908   909   910   911
912   913   914   915
916   917   918   919
920   921   922   923
924   925   926   927
928   929   930   931
932   933   934   935
936   937   938   939
940   941   942   943
944   945   946   947
948   949   950   951
952   953   954   955
956   957   958   959
960   961   962   963
964   965   966   967
968   969   970   971
972   973   974   975
976   977   978   979
980   981   982   983
984   985   986   987
988   989   990   991
992   993   994   995
996   997   998   999
1000   1001   1002   1003
1004   1005   1006   1007
1008   1009   1010   1011
1012   1013   1014   1015
1016   1017   1018   1019
1020   1021   1022   1023
1024   1025   1026   1027
1028   1029   1030   1031
1032   1033   1034   1035
1036   1037   1038   1039
1040   1041   1042   1043
1044   1045   1046   1047
1048   1049   1050   1051
1052   1053   1054   1055
1056   1057   1058   1059
1060   1061   1062   1063
1064   1065   1066   1067
1068   1069   1070   1071
1072   1073   1074   1075
1076   1077   1078   1079
1080   1081   1082   1083
1084   1085   1086   1087
1088   1089   1090   1091
1092   1093   1094   1095
1096   1097   1098   1099
1100   1101   1102   1103
1104   1105   1106   1107
1108   1109   1110   1111
1112   1113   1114   1115
1116   1117   1118   1119
1120   1121   1122   1123
1124   1125   1126   1127
1128   1129   1130   1131
1132   1133   1134   1135
1136   1137   1138   1139
1140   1141   1142   1143
1144   1145   1146   1147
1148   1149   1150   1151
1152   1153   1154   1155
1156   1157   1158   1159
1160   1161   1162   1163
1164   1165   1166   1167
1168   1169   1170   1171
1172   1173   1174   1175
1176   1177   1178   1179
1180   1181   1182   1183
1184   1185   1186   1187
1188   1189   1190   1191
1192   1193   1194   1195
1196   1197   1198   1199
1200   1201   1202   1203
1204   1205   1206   1207
1208   1209   1210   1211
1212   1213   1214   1215
1216   1217   1218   1219
1220   1221   1222   1223
1224   1225   1226   1227
1228   1229   1230   1231
1232   1233   1234   1235
1236   1237   1238   1239
1240   1241   1242   1243
1244   1245   1246   1247
1248   1249   1250   1251
1252   1253   1254   1255
1256   1257   1258   1259
1260   1261   1262   1263
1264   1265   1266   1267
1268   1269   1270   1271
1272   1273   1274   1275
1276   1277   1278   1279
1280   1281   1282   1283
1284   1285   1286   1287
1288   1289   1290   1291
1292   1293   1294   1295
1296   1297   1298   1299
1300   1301   1302   1303
1304   1305   1306   1307
1308   1309   1310   1311
1312   1313   1314   1315
1316   1317   1318   1319
1320   1321   1322   1323
1324   1325   1326   1327
1328   1329   1330   1331
1332   1333   1334   1335
1336   1337   1338   1339
1340   1341   1342   1343
1344   1345   1346   1347
1348   1349   1350   1351
1352   1353   1354   1355
1356   1357   1358   1359
1360   1361   1362   1363
1364   1365   1366   1367
1368   1369   1370   1371
1372   1373   1374   1375
1376   1377   1378   1379
1380   1381   1382   1383
1384   1385   1386   1387
1388   1389   1390   1391
1392   1393   1394   1395
1396   1397   1398   1399
1400   1401   1402   1403
1404   1405   1406   1407
1408   1409   1410   1411
1412   1413   1414   1415
1416   1417   1418   1419
1420   1421   1422   1423
1424   1425   1426   1427
1428   1429   1430   1431
1432   1433   1434   1435
1436   1437   1438   1439
1440   1441   1442   1443
1444   1445   1446   1447
1448   1449   1450   1451
1452   1453   1454   1455
1456   1457   1458   1459
1460   1461   1462   1463
1464   1465   1466   1467
1468   1469   1470   1471
1472   1473   1474   1475
1476   1477   1478   1479
1480   1481   1482   1483
1484   1485   1486   1487
1488   1489   1490   1491
1492   1493   1494   1495
1496   1497   1498   1499
1500   1501   1502   1503
1504   1505   1506   1507
1508   1509   1510   1511
1512   1513   1514   1515
1516   1517   1518   1519
1520   1521   1522   1523
1524   1525   1526   1527
1528   1529   1530   1531
1532   1533   1534   1535
1536   1537   1538   1539
1540   1541   1542   1543
1544   1545   1546   1547
1548   1549   1550   1551
1552   1553   1554   1555
1556   1557   1558   1559
1560   1561   1562   1563
1564   1565   1566   1567
1568   1569   1570   1571
1572   1573   1574   1575
1576   1577   1578   1579
1580   1581   1582   1583
1584   1585   1586   1587
1588   1589   1590   1591
1592   1593   1594   1595
1596   1597   1598   1599
1600   1601   1602   1603
1604   1605   1606   1607
1608   1609   1610   1611
1612   1613   1614   1615
1616   1617   1618   1619
1620   1621   1622   1623
1624   1625   1626   1627
1628   1629   1630   1631
1632   1633   1634   1635
1636   1637   1638   1639
1640   1641   1642   1643
1644   1645   1646   1647
1648   1649   1650   1651
1652   1653   1654   1655
1656   1657   1658   1659
1660   1661   1662   1663
1664   1665   1666   1667
1668   1669   1670   1671
1672   1673   1674   1675
1676   1677   1678   1679
1680   1681   1682   1683
1684   1685   1686   1687
1688   1689   1690   1691
1692   1693   1694   1695
1696   1697   1698   1699
1700   1701   1702   1703
1704   1705   1706   1707
1708   1709   1710   1711
1712   1713   1714   1715
1716   1717   1718   1719
1720   1721   1722   1723
1724   1725   1726   1727
1728   1729   1730   1731
1732   1733   1734   1735
1736   1737   1738   1739
1740   1741   1742   1743
1744   1745   1746   1747
1748   1749   1750   1751
1752   1753   1754   1755
1756   1757   1758   1759
1760   1761   1762   1763
1764   1765   1766   1767
1768   1769   1770   1771
1772   1773   1774   1775
1776   1777   1778   1779
1780   1781   1782   1783
1784   1785   1786   1787
1788   1789   1790   1791
1792   1793   1794   1795
1796   1797   1798   1799
1800   1801   1802   1803
1804   1805   1806   1807
1808   1809   1810   1811
1812   1813   1814   1815
1816   1817   1818   1819
1820   1821   1822   1823
1824   1825   1826   1827
1828   1829   1830   1831
1832   1833   1834   1835
1836   1837   1838   1839
1840   1841   1842   1843
1844   1845   1846   1847
1848   1849   1850   1851
1852   1853   1854   1855
1856   1857   1858   1859
1860   1861   1862   1863
1864   1865   1866   1867
1868   1869   1870   1871
1872   1873   1874   1875
1876   1877   1878   1879
1880   1881   1882   1883
1884   1885   1886   1887
1888   1889   1890   1891
1892   1893   1894   1895
1896   1897   1898   1899
1900   1901   1902   1903
1904   1905   1906   1907
1908   1909   1910   1911
1912   1913   1914   1915
1916   1917   1918   1919
1920   1921   1922   1923
1924   1925   1926   1927
1928   1929   1930   1931
1932   1933   1934   1935
1936   1937   1938   1939
1940   1941   1942   1943
1944   1945   1946   1947
1948   1949   1950   1951
1952   1953   1954   1955
1956   1957   1958   1959
1960   1961   1962   1963
1964   1965   1966   1967
1968   1969   1970   1971
1972   1973   1974   1975
1976   1977   1978   1979
1980   1981   1982   1983
1984   1985   1986   1987
1988   1989   1990   1991
1992   1993   1994   1995
1996   1997   1998   1999
2000   2001   2002   2003
2004   2005   2006   2007
2008   2009   2010   2011
2012   2013   2014   2015
2016   2017   2018   2019
2020   2021   2022   2023
2024   2025   2026   2027
2028   2029   2030   2031
2032   2033   2034   2035
2036   2037   2038   2039
2040   2041   2042   2043
2044   2045   2046   2047
2048   2049   2050   2051
2052   2053   2054   2055
2056   2057   2058   2059
2060   2061   2062   2063
2064   2065   2066   2067
2068   2069   2070   2071
2072   2073   2074   2075
2076   2077   2078   2079
2080   2081   2082   2083
2084   2085   2086   2087
2088   2089   2090   2091
2092   2093   2094   2095
2096   2097   2098   2099
2100   2101   2102   2103
2104   2105   2106   2107
2108   2109   2110   2111
2112   2113   2114   2115
2116   2117   2118   2119
2120   2121   2122   2123
2124   2125   2126   2127
2128   2129   2130   2131
2132   2133   2134   2135
2136   2137   2138   2139
2140   2141   2142   2143
2144   2145   2146   2147
2148   2149   2150   2151
2152   2153   2154   2155
2156   2157   2158   2159
2160   2161   2162   2163
2164   2165   2166   2167
2168   2169   2170   2171
2172   2173   2174   2175
2176   2177   2178   2179
2180   2181   2182   2183
2184   2185   2186   2187
2188   2189   2190   2191
2192   2193   2194   2195
2196   2197   2198   2199
2200   2201   2202   2203
2204   2205   2206   2207
2208   2209   2210   2211
2212   2213   2214   2215
2216   2217   2218   2219
2220   2221   2222   2223
2224   2225   2226   2227
2228   2229   2230   2231
2232   2233   2234   2235
2236   2237   2238   2239
2240   2241   2242   2243
2244   2245   2246   2247
2248   2249   2250   2251
2252   2253   2254   2255
2256   2257   2258   2259
2260   2261   2262   2263
2264   2265   2266   2267
2268   2269   2270   2271
2272   2273   2274   2275
2276   2277   2278   2279
2280   2281   2282   2283
2284   2285   2286   2287
2288   2289   2290   2291
2292   2293   2294   2295
2296   2297   2298   2299
2300   2301   2302   2303
2304   2305   2306   2307
2308   2309   2310   2311
2312   2313   2314   2315
2316   2317   2318   2319
2320   2321   2322   2323
2324   2325   2326   2327
2328   2329   2330   2331
2332   2333   2334   2335
2336   2337   2338   2339
2340   2341   2342   2343
2344   2345   2346   2347
2348   2349   2350   2351
2352   2353   2354   2355
2356   2357   2358   2359
2360   2361   2362   2363
2364   2365   2366   2367
2368   2369   2370   2371
2372   2373   2374   2375
2376   2377   2378   2379
2380   2381   2382   2383
2384   2385   2386   2387
2388   2389   2390   2391
2392   2393   2394   2395
2396   2397   2398   2399
2400   2401   2402   2403
2404   2405   2406   2407
2408   2409   2410   2411
2412   2413   2414   2415
2416   2417   2418   2419
2420   2421   2422   2423
2424   2425   2426   2427
2428   2429   2430   2431
2432   2433   2434   2435
2436   2437   2438   2439
2440   2441   2442   2443
2444   2445   2446   2447
2448   2449   2450   2451
2452   2453   2454   2455
2456   2457   2458   2459
2460   2461   2462   2463
2464   2465   2466   2467
2468   2469   2470   2471
2472   2473   2474   2475
2476   2477   2478   2479
2480   2481   2482   2483
2484   2485   2486   2487
2488   2489   2490   2491
2492   2493   2494   2495
2496   2497   2498   2499
2500   2501   2502   2503
2504   2505   2506   2507
2508   2509   2510   2511
2512   2513   2514   2515
2516   2517   2518   2519
2520   2521   2522   2523
2524   2525   2526   2527
2528   2529   2530   2531
2532   2533   2534   2535
2536   2537   2538   2539
2540   2541   2542   2543
2544   2545   2546   2547
2548   2549   2550   2551
2552   2553   2554   2555
2556   2557   2558   2559
2560   2561   2562   2563
2564   2565   2566   2567
2568   2569   2570   2571
2572   2573   2574   2575
2576   2577   2578   2579
2580   2581   2582   2583
2584   2585   2586   2587
2588   2589   2590   2591
2592   2593   2594   2595
2596   2597   2598   2599
2600   2601   2602   2603
2604   2605   2606   2607
2608   2609   2610   2611
2612   2613   2614   2615
2616   2617   2618   2619
2620   2621   2622   2623
2624   2625   2626   2627
2628   2629   2630   2631
2632   2633   2634   2635
2636   2637   2638   2639
2640   2641   2642   2643
2644   2645   2646   2647
2648   2649   2650   2651
2652   2653   2654   2655
2656   2657   2658   2659
2660   2661   2662   2663
2664   2665   2666   2667
2668   2669   2670   2671
2672   2673   2674   2675
2676   2677   2678   2679
2680   2681   2682   2683
2684   2685   2686   2687
2688   2689   2690   2691
2692   2693   2694   2695
2696   2697   2698   2699
2700   2701   2702   2703
2704   2705   2706   2707
2708   2709   2710   2711
2712   2713   2714   2715
2716   2717   2718   2719
2720   2721   2722   2723
2724   2725   2726   2727
2728   2729   2730   2731
2732   2733   2734   2735
2736   2737   2738   2739
2740   2741   2742   2743
2744   2745   2746   2747
2748   2749   2750   2751
2752   2753   2754   2755
2756   2757   2758   2759
2760   2761   2762   2763
2764   2765   2766   2767
2768   2769   2770   2771
2772   2773   2774   2775
2776   2777   2778   2779
2780   2781   2782   2783
2784   2785   2786   2787
2788   2789   2790   2791
2792   2793   2794   2795
2796   2797   2798   2799
2800   2801   2802   2803
2804   2805   2806   2807
2808   2809   2810   2811
2812   2813   2814   2815
2816   2817   2818   2819
2820   2821   2822   2823
2824   2825   2826   2827
2828   2829   2830   2831
2832   2833   2834   2835
2836   2837   2838   2839
2840   2841   2842   2843
2844   2845   2846   2847
2848   2849   2850   2851
2852   2853   2854   2855
2856   2857   2858   2859
2860   2861   2862   2863
2864   2865   2866   2867
2868   2869   2870   2871
2872   2873   2874   2875
2876   2877   2878   2879
2880   2881   2882   2883
2884   2885   2886   2887
2888   2889   2890   2891
2892   2893   2894   2895
2896   2897   2898   2899
2900   2901   2902   2903
2904   2905   2906   2907
2908   2909   2910   2911
2912   2913   2914   2915
2916   2917   2918   2919
2920   2921   2922   2923
2924   2925   2926   2927
2928   2929   2930   2931
2932   2933   2934   2935
2936   2937   2938   2939
2940   2941   2942   2943
2944   2945   2946   2947
2948   2949   2950   2951
2952   2953   2954   2955
2956   2957   2958   2959
2960   2961   2962   2963
2964   2965   2966   2967
2968   2969   2970   2971
2972   2973   2974   2975
2976   2977   2978   2979
2980   2981   2982   2983
2984   2985   2986   2987
2988   2989   2990   2991
2992   2993   2994   2995
2996   2997   2998   2999
3000   3001   3002   3003
3004   3005   3006   3007
3008   3009   3010   3011
3012   3013   3014   3015
3016   3017   3018   3019
3020   3021   3022   3023
3024   3025   3026   3027
3028   3029   3030   3031
3032   3033   3034   3035
3036   3037   3038   3039
3040   3041   3042   3043
3044   3045   3046   3047
3048   3049   3050   3051
3052   3053   3054   3055
3056   3057   3058   3059
3060   3061   3062   3063
3064   3065   3066   3067
3068   3069   3070   3071
3072   3073   3074   3075
3076   3077   3078   3079
3080   3081   3082   3083
3084   3085   3086   3087
3088   3089   3090   3091
3092   3093   3094   3095
3096   3097   3098   3099
3100   3101   3102   3103
3104   3105   3106   3107
3108   3109   3110   3111
3112   3113   3114   3115
3116   3117   3118   3119
3120   3121   3122   3123
3124   3125   3126   3127
3128   3129   3130   3131
3132   3133   3134   3135
3136   3137   3138   3139
3140   3141   3142   3143
3144   3145   3146   3147
3148   3149   3150   3151
3152   3153   3154   3155
3156   3157   3158   3159
3160   3161   3162   3163
3164   3165   3166   3167
3168   3169   3170   3171
3172   3173   3174   3175
3176   3177   3178   3179
3180   3181   3182   3183
3184   3185   3186   3187
3188   3189   3190   3191
3192   3193   3194   3195
3196   3197   3198   3199
3200   3201   3202   3203
3204   3205   3206   3207
3208   3209   3210   3211
3212   3213   3214   3215
3216   3217   3218   3219
3220   3221   3222   3223
3224   3225   3226   3227
3228   3229   3230   3231
3232   3233   3234   3235
3236   3237   3238   3239
3240   3241   3242   3243
3244   3245   3246   3247
3248   3249   3250   3251
3252   3253   3254   3255
3256   3257   3258   3259
3260   3261   3262   3263
3264   3265   3266   3267
3268   3269   3270   3271
3272   3273   3274   3275
3276   3277   3278   3279
3280   3281   3282   3283
3284   3285   3286   3287
3288   3289   3290   3291
3292   3293   3294   3295
3296   3297   3298   3299
3300   3301   3302   3303
3304   3305   3306   3307
3308   3309   3310   3311
3312   3313   3314   3315
3316   3317   3318   3319
3320   3321   3322   3323
3324   3325   3326   3327
3328   3329   3330   3331
3332   3333   3334   3335
3336   3337   3338   3339
3340   3341   3342   3343
3344   3345   3346   3347
3348   3349   3350   3351
3352   3353   3354   3355
3356   3357   3358   3359
3360   3361   3362   3363
3364   3365   3366   3367
3368   3369   3370   3371
3372   3373   3374   3375
3376   3377   3378   3379
3380   3381   3382   3383
3384   3385   3386   3387
3388   3389   3390   3391
3392   3393   3394   3395
3396   3397   3398   3399
3400   3401   3402   3403
3404   3405   3406   3407
3408   3409   3410   3411
3412   3413   3414   3415
3416   3417   3418   3419
3420   3421   3422   3423
3424   3425   3426   3427
3428   3429   3430   3431
3432   3433   3434   3435
3436   3437   3438   3439
3440   3441   3442   3443
3444   3445   3446   3447
3448   3449   3450   3451
3452   3453   3454   3455
3456   3457   3458   3459
3460   3461   3462   3463
3464   3465   3466   3467
3468   3469   3470   3471
3472   3473   3474   3475
3476   3477   3478   3479
3480   3481   3482   3483
3484   3485   3486   3487
3488   3489   3490   3491
3492   3493   3494   3495
3496   3497   3498   3499
3500   3501   3502   3503
3504   3505   3506   3507
3508   3509   3510   3511
3512   3513   3514   3515
3516   3517   3518   3519
3520   3521   3522   3523
3524   3525   3526   3527
3528   3529   3530   3531
3532   3533   3534   3535
3536   3537   3538   3539
3540   3541   3542   3543
3544   3545   3546   3547
3548   3549   3550   3551
3552   3553   3554   3555
3556   3557   3558   3559
3560   3561   3562   3563
3564   3565   3566   3567
3568   3569   3570   3571
3572   3573   3574   3575
3576   3577   3578   3579
3580   3581   3582   3583
3584   3585   3586   3587
3588   3589   3590   3591
3592   3593   3594   3595
3596   3597   3598   3599
3600   3601   3602   3603
3604   3605   3606   3607
3608   3609   3610   3611
3612   3613   3614   3615
3616   3617   3618   3619
3620   3621   3622   3623
3624   3625   3626   3627
3628   3629   3630   3631
3632   3633   3634   3635
3636   3637   3638   3639
3640   3641   3642   3643
3644   3645   3646   3647
3648   3649   3650   3651
3652   3653   3654   3655
3656   3657   3658   3659
3660   3661   3662   3663
3664   3665   3666   3667
3668   3669   3670   3671
3672   3673   3674   3675
3676   3677   3678   3679
3680   3681   3682   3683
3684   3685   3686   3687
3688   3689   3690   3691
3692   3693   3694   3695
3696   3697   3698   3699
3700   3701   3702   3703
3704   3705   3706   3707
3708   3709   3710   3711
3712   3713   3714   3715
3716   3717   3718   3719
3720   3721   3722   3723
3724   3725   3726   3727
3728   3729   3730   3731
3732   3733   3734   3735
3736   3737   3738   3739
3740   3741   3742   3743
3744   3745   3746   3747
3748   3749   3750   3751
3752   3753   3754   3755
3756   3757   3758   3759
3760   3761   3762   3763
3764   3765   3766   3767
3768   3769   3770   3771
3772   3773   3774   3775
3776   3777   3778   3779
3780   3781   3782   3783
3784   3785   3786   3787
3788   3789   3790   3791
3792   3793   3794   3795
3796   3797   3798   3799
3800   3801   3802   3803
3804   3805   3806   3807
3808   3809   3810   3811
3812   3813   3814   3815
3816   3817   3818   3819
3820   3821   3822   3823
3824   3825   3826   3827
3828   3829   3830   3831
3832   3833   3834   3835
3836   3837   3838   3839
3840   3841   3842   3843
3844   3845   3846   3847
3848   3849   3850   3851
3852   3853   3854   3855
3856   3857   3858   3859
3860   3861   3862   3863
3864   3865   3866   3867
3868   3869   3870   3871
3872   3873   3874   3875
3876   3877   3878   3879
3880   3881   3882   3883
3884   3885   3886   3887
3888   3889   3890   3891
3892   3893   3894   3895
3896   3897   3898   3899
3900   3901   3902   3903
3904   3905   3906   3907
3908   3909   3910   3911
3912   3913   3914   3915
3916   3917   3918   3919
3920   3921   3922   3923
3924   3925   3926   3927
3928   3929   3930   3931
3932   3933   3934   3935
3936   3937   3938   3939
3940   3941   3942   3943
3944   3945   3946   3947
3948   3949   3950   3951
3952   3953   3954   3955
3956   3957   3958   3959
3960   3961   3962   3963
3964   3965   3966   3967
3968   3969   3970   3971
3972   3973   3974   3975
3976   3977   3978   3979
3980   3981   3982   3983
3984   3985   3986   3987
3988   3989   3990   3991
3992   3993   3994   3995
3996   3997   3998   3999
4000   4001   4002   4003
4004   4005   4006   4007
4008   4009   4010   4011
4012   4013   4014   4015
4016   4017   4018   4019
4020   4021   4022   4023
4024   4025   4026   4027
4028   4029   4030   4031
4032   4033   4034   4035
4036   4037   4038   4039
4040   4041   4042   4043
4044   4045   4046   4047
4048   4049   4050   4051
4052   4053   4054   4055
4056   4057   4058   4059
4060   4061   4062   4063
4064   4065   4066   4067
4068   4069   4070   4071
4072   4073   4074   4075
4076   4077   4078   4079
4080   4081   4082   4083
4084   4085   4086   4087
4088   4089   4090   4091
4092   4093   4094   4095
4096   4097   4098   4099
4100   4101   4102   4103
4104   4105   4106   4107
4108   4109   4110   4111
4112   4113   4114   4115
4116   4117   4118   4119
4120   4121   4122   4123
4124   4125   4126   4127
4128   4129   4130   4131
4132   4133   4134   4135
4136   4137   4138   4139
4140   4141   4142   4143
4144   4145   4146   4147
4148   4149   4150   4151
4152   4153   4154   4155
4156   4157   4158   4159
4160   4161   4162   4163
4164   4165   4166   4167
4168   4169   4170   4171
4172   4173   4174   4175
4176   4177   4178   4179
4180   4181   4182   4183
4184   4185   4186   4187
4188   4189   4190   4191
4192   4193   4194   4195
4196   4197   4198   4199
4200   4201   4202   4203
4204   4205   4206   4207
4208   4209   4210   4211
4212   4213   4214   4215
4216   4217   4218   4219
4220   4221   4222   4223
4224   4225   4226   4227
4228   4229   4230   4231
4232   4233   4234   4235
4236   4237   4238   4239
4240   4241   4242   4243
4244   4245   4246   4247
4248   4249   4250   4251
4252   4253   4254   4255
4256   4257   4258   4259
4260   4261   4262   4263
4264   4265   4266   4267
4268   4269   4270   4271
4272   4273   4274   4275
4276   4277   4278   4279
4280   4281   4282   4283
4284   4285   4286   4287
4288   4289   4290   4291
4292   4293   4294   4295
4296   4297   4298   4299
4300   4301   4302   4303
4304   4305   4306   4307
4308   4309   4310   4311
4312   4313   4314   4315
4316   4317   4318   4319
4320   4321   4322   4323
4324   4325   4326   4327
4328   4329   4330   4331
4332   4333   4334   4335
4336   4337   4338   4339
4340   4341   4342   4343
4344   4345   4346   4347
4348   4349   4350   4351
4352   4353   4354   4355
4356   4357   4358   4359
4360   4361   4362   4363
4364   4365   4366   4367
4368   4369   4370   4371
4372   4373   4374   4375
4376   4377   4378   4379
4380   4381   4382   4383
4384   4385   4386   4387
4388   4389   4390   4391
4392   4393   4394   4395
4396   4397   4398   4399
4400   4401   4402   4403
4404   4405   4406   4407
4408   4409   4410   4411
4412   4413   4414   4415
4416   4417   4418   4419
4420   4421   4422   4423
4424   4425   4426   4427
4428   4429   4430   4431
4432   4433   4434   4435
4436   4437   4438   4439
4440   4441   4442   4443
4444   4445   4446   4447
4448   4449   4450   4451
4452   4453   4454   4455
4456   4457   4458   4459
4460   4461   4462   4463
4464   4465   4466   4467
4468   4469   4470   4471
4472   4473   4474   4475
4476   4477   4478   4479
4480   4481   4482   4483
4484   4485   4486   4487
4488   4489   4490   4491
4492   4493   4494   4495
4496   4497   4498   4499
4500   4501   4502   4503
4504   4505   4506   4507
4508   4509   4510   4511
4512   4513   4514   4515
4516   4517   4518   4519
4520   4521   4522   4523
4524   4525   4526   4527
4528   4529   4530   4531
4532   4533   4534   4535
4536   4537   4538   4539
4540   4541   4542   4543
4544   4545   4546   4547
4548   4549   4550   4551
4552   4553   4554   4555
4556   4557   4558   4559
4560   4561   4562   4563
4564   4565   4566   4567
4568   4569   4570   4571
4572   4573   4574   4575
4576   4577   4578   4579
4580   4581   4582   4583
4584   4585   4586   4587
4588   4589   4590   4591
4592   4593   4594   4595
4596   4597   4598   4599
4600   4601   4602   4603
4604   4605   4606   4607
4608   4609   4610   4611
4612   4613   4614   4615
4616   4617   4618   4619
4620   4621   4622   4623
4624   4625   4626   4627
4628   4629   4630   4631
4632   4633   4634   4635
4636   4637   4638   4639
4640   4641   4642   4643
4644   4645   4646   4647
4648   4649   4650   4651
4652   4653   4654   4655
4656   4657   4658   4659
4660   4661   4662   4663
4664   4665   4666   4667
4668   4669   4670   4671
4672   4673   4674   4675
4676   4677   4678   4679
4680   4681   4682   4683
4684   4685   4686   4687
4688   4689   4690   4691
4692   4693   4694   4695
4696   4697   4698   4699
4700   4701   4702   4703
4704   4705   4706   4707
4708   4709   4710   4711
4712   4713   4714   4715
4716   4717   4718   4719
4720   4721   4722   4723
4724   4725   4726   4727
4728   4729   4730   4731
4732   4733   4734   4735
4736   4737   4738   4739
4740   4741   4742   4743
4744   4745   4746   4747
4748   4749   4750   4751
4752   4753   4754   4755
4756   4757   4758   4759
4760   4761   4762   4763
4764   4765   4766   4767
4768   4769   4770   4771
4772   4773   4774   4775
4776   4777   4778   4779
4780   4781   4782   4783
4784   4785   4786   4787
4788   4789   4790   4791
4792   4793   4794   4795
4796   4797   4798   4799
4800   4801   4802   4803
4804   4805   4806   4807
4808   4809   4810   4811
4812   4813   4814   4815
4816   4817   4818   4819
4820   4821   4822   4823
4824   4825   4826   4827
4828   4829   4830   4831
4832   4833   4834   4835
4836   4837   4838   4839
4840   4841   4842   4843
4844   4845   4846   4847
4848   4849   4850   4851
4852   4853   4854   4855
4856   4857   4858   4859
4860   4861   4862   4863
4864   4865   4866   4867
4868   4869   4870   4871
4872   4873   4874   4875
4876   4877   4878   4879
4880   4881   4882   4883
4884   4885   4886   4887
4888   4889   4890   4891
4892   4893   4894   4895
4896   4897   4898   4899
4900   4901   4902   4903
4904   4905   4906   4907
4908   4909   4910   4911
4912   4913   4914   4915
4916   4917   4918   4919
4920   4921   4922   4923
4924   4925   4926   4927
4928   4929   4930   4931
4932   4933   4934   4935
4936   4937   4938   4939
4940   4941   4942   4943
4944   4945   4946   4947
4948   4949   4950   4951
4952   4953   4954   4955
4956   4957   4958   4959
4960   4961   4962   4963
4964   4965   4966   4967
4968   4969   4970   4971
4972   4973   4974   4975
4976   4977   4978   4979
4980   4981   4982   4983
4984   4985   4986   4987
4988   4989   4990   4991
4992   4993   4994   4995
4996   4997   4998   4999
5000   5001   5002   5003
5004   5005   5006   5007
5008   5009   5010   5011
5012   5013   5014   5015
5016   5017   5018   5019
5020   5021   5022   5023
5024   5025   5026   5027
5028   5029   5030   5031
5032   5033   5034   5035
5036   5037   5038   5039
5040   5041   5042   5043
5044   5045   5046   5047
5048   5049   5050   5051
5052   5053   5054   5055
5056   5057   5058   5059
5060   5061   5062   5063
5064   5065   5066   5067
5068   5069   5070   5071
5072   5073   5074   5075
5076   5077   5078   5079
5080   5081   5082   5083
5084   5085   5086   5087
5088   5089   5090   5091
5092   5093   5094   5095
5096   5097   5098   5099
5100   5101   5102   5103
5104   5105   5106   5107
5108   5109   5110   5111
5112   5113   5114   5115
5116   5117   5118   5119
5120   5121   5122   5123
5124   5125   5126   5127
5128   5129   5130   5131
5132   5133   5134   5135
5136   5137   5138   5139
5140   5141   5142   5143
5144   5145   5146   5147
5148   5149   5150   5151
5152   5153   5154   5155
5156   5157   5158   5159
5160   5161   5162   5163
5164   5165   5166   5167
5168   5169   5170   5171
5172   5173   5174   5175
5176   5177   5178   5179
5180   5181   5182   5183
5184   5185   5186   5187
5188   5189   5190   5191
5192   5193   5194   5195
5196   5197   5198   5199
5200   5201   5202   5203
5204   5205   5206   5207
5208   5209   5210   5211
5212   5213   5214   5215
5216   5217   5218   5219
5220   5221   5222   5223
5224   5225   5226   5227
5228   5229   5230   5231
5232   5233   5234   5235
5236   5237   5238   5239
5240   5241   5242   5243
5244   5245   5246   5247
5248   5249   5250   5251
5252   5253   5254   5255
5256   5257   5258   5259
5260   5261   5262   5263
5264   5265   5266   5267
5268   5269   5270   5271
5272   5273   5274   5275
5276   5277   5278   5279
5280   5281   5282   5283
5284   5285   5286   5287
5288   5289   5290   5291
5292   5293   5294   5295
5296   5297   5298   5299
5300   5301   5302   5303
5304   5305   5306   5307
5308   5309   5310   5311
5312   5313   5314   5315
5316   5317   5318   5319
5320   5321   5322   5323
5324   5325   5326   5327
5328   5329   5330   5331
5332   5333   5334   5335
5336   5337   5338   5339
5340   5341   5342   5343
5344   5345   5346   5347
5348   5349   5350   5351
5352   5353   5354   5355
5356   5357   5358   5359
5360   5361   5362   5363
5364   5365   5366   5367
5368   5369   5370   5371
5372   5373   5374   5375
5376   5377   5378   5379
5380   5381   5382   5383
5384   5385   5386   5387
5388   5389   5390   5391
5392   5393   5394   5395
5396   5397   5398   5399
5400   5401   5402   5403
5404   5405   5406   5407
5408   5409   5410   5411
5412   5413   5414   5415
5416   5417   5418   5419
5420   5421   5422   5423
5424   5425   5426   5427
5428   5429   5430   5431
5432   5433   5434   5435
5436   5437   5438   5439
5440   5441   5442   5443
5444   5445   5446   5447
5448   5449   5450   5451
5452   5453   5454   5455
5456   5457   5458   5459
5460   5461   5462   5463
5464   5465   5466   5467
5468   5469   5470   5471
5472   5473   5474   5475
5476   5477   5478   5479
5480   5481   5482   5483
5484   5485   5486   5487
5488   5489   5490   5491
5492   5493   5494   5495
5496   5497   5498   5499
5500   5501   5502   5503
5504   5505   5506   5507
5508   5509   5510   5511
5512   5513   5514   5515
5516   5517   5518   5519
5520   5521   5522   5523
5524   5525   5526   5527
5528   5529   5530   5531
5532   5533   5534   5535
5536   5537   5538   5539
5540   5541   5542   5543
5544   5545   5546   5547
5548   5549   5550   5551
5552   5553   5554   5555
5556   5557   5558   5559
5560   5561   5562   5563
5564   5565   5566   5567
5568   5569   5570   5571
5572   5573   5574   5575
5576   5577   5578   5579
5580   5581   5582   5583
5584   5585   5586   5587
5588   5589   5590   5591
5592   5593   5594   5595
5596   5597   5598   5599
5600   5601   5602   5603
5604   5605   5606   5607
5608   5609   5610   5611
5612   5613   5614   5615
5616   5617   5618   5619
5620   5621   5622   5623
5624   5625   5626   5627
5628   5629   5630   5631
5632   5633   5634   5635
5636   5637   5638   5639
5640   5641   5642   5643
5644   5645   5646   5647
5648   5649   5650   5651
5652   5653   5654   5655
5656   5657   5658   5659
5660   5661   5662   5663
5664   5665   5666   5667
5668   5669   5670   5671
5672   5673   5674   5675
5676   5677   5678   5679
5680   5681   5682   5683
5684   5685   5686   5687
5688   5689   5690   5691
5692   5693   5694   5695
5696   5697   5698   5699
5700   5701   5702   5703
5704   5705   5706   5707
5708   5709   5710   5711
5712   5713   5714   5715
5716   5717   5718   5719
5720   5721   5722   5723
5724   5725   5726   5727
5728   5729   5730   5731
5732   5733   5734   5735
5736   5737   5738   5739
5740   5741   5742   5743
5744   5745   5746   5747
5748   5749   5750   5751
5752   5753   5754   5755
5756   5757   5758   5759
5760   5761   5762   5763
5764   5765   5766   5767
5768   5769   5770   5771
5772   5773   5774   5775
5776   5777   5778   5779
5780   5781   5782   5783
5784   5785   5786   5787
5788   5789   5790   5791
5792   5793   5794   5795
5796   5797   5798   5799
5800   5801   5802   5803
5804   5805   5806   5807
5808   5809   5810   5811
5812   5813   5814   5815
5816   5817   5818   5819
5820   5821   5822   5823
5824   5825   5826   5827
5828   5829   5830   5831
5832   5833   5834   5835
5836   5837   5838   5839
5840   5841   5842   5843
5844   5845   5846   5847
5848   5849   5850   5851
5852   5853   5854   5855
5856   5857   5858   5859
5860   5861   5862   5863
5864   5865   5866   5867
5868   5869   5870   5871
5872   5873   5874   5875
5876   5877   5878   5879
5880   5881   5882   5883
5884   5885   5886   5887
5888   5889   5890   5891
5892   5893   5894   5895
5896   5897   5898   5899
5900   5901   5902   5903
5904   5905   5906   5907
5908   5909   5910   5911
5912   5913   5914   5915
5916   5917   5918   5919
5920   5921   5922   5923
5924   5925   5926   5927
5928   5929   5930   5931
5932   5933   5934   5935
5936   5937   5938   5939
5940   5941   5942   5943
5944   5945   5946   5947
5948   5949   5950   5951
5952   5953   5954   5955
5956   5957   5958   5959
5960   5961   5962   5963
5964   5965   5966   5967
5968   5969   5970   5971
5972   5973   5974   5975
5976   5977   5978   5979
5980   5981   5982   5983
5984   5985   5986   5987
5988   5989   5990   5991
5992   5993   5994   5995
5996   5997   5998   5999
              </DataArray>   
              <DataArray type="Int32" Name="offsets" format="ascii">   
4
8
12
16
20
24
28
32
36
40
44
48
52
56
60
64
68
72
76
80
84
88
92
96
100
104
108
112
116
120
124
128
132
136
140
144
148
152
156
160
164
168
172
176
180
184
188
192
196
200
204
208
212
216
220
224
228
232
236
240
244
248
252
256
260
264
268
272
276
280
284
288
292
296
300
304
308
312
316
320
324
328
332
336
340
344
348
352
356
360
364
368
372
376
380
384
388
392
396
400
404
408
412
416
420
424
428
432
436
440
444
448
452
456
460
464
468
472
476
480
484
488
492
496
500
504
508
512
516
520
524
528
532
536
540
544
548
552
556
560
564
568
572
576
580
584
588
592
596
600
604
608
612
616
620
624
628
632
636
640
644
648
652
656
660
664
668
672
676
680
684
688
692
696
700
704
708
712
716
720
724
728
732
736
740
744
748
752
756
760
764
768
772
776
780
784
788
792
796
800
804
808
812
816
820
824
828
832
836
840
844
848
852
856
860
864
868
872
876
880
884
888
892
896
900
904
908
912
916
920
924
928
932
936
940
944
948
952
956
960
964
968
972
976
980
984
988
992
996
1000
1004
1008
1012
1016
1020
1024
1028
1032
1036
1040
1044
1048
1052
1056
1060
1064
1068
1072
1076
1080
1084
1088
1092
1096
1100
1104
1108
1112
1116
1120
1124
1128
1132
1136
1140
1144
1148
1152
1156
1160
1164
1168
1172
1176
1180
1184
1188
1192
1196
1200
1204
1208
1212
1216
1220
1224
1228
1232
1236
1240
1244
1248
1252
1256
1260
1264
1268
1272
1276
1280
1284
1288
1292
1296
1300
1304
1308
1312
1316
1320
1324
1328
1332
1336
1340
1344
1348
1352
1356
1360
1364
1368
1372
1376
1380
1384
1388
1392
1396
1400
1404
1408
1412
1416
1420
1424
1428
1432
1436
1440
1444
1448
1452
1456
1460
1464
1468
1472
1476
1480
1484
1488
1492
1496
1500
1504
1508
1512
1516
1520
1524
1528
1532
1536
1540
1544
1548
1552
1556
1560
1564
1568
1572
1576
1580
1584
1588
1592
1596
1600
1604
1608
1612
1616
1620
1624
1628
1632
1636
1640
1644
1648
1652
1656
1660
1664
1668
1672
1676
1680
1684
1688
1692
1696
1700
1704
1708
1712
1716
1720
1724
1728
1732
1736
1740
1744
1748
1752
1756
1760
1764
1768
1772
1776
1780
1784
1788
1792
1796
1800
1804
1808
1812
1816
1820
1824
1828
1832
1836
1840
1844
1848
1852
1856
1860
1864
1868
1872
1876
1880
1884
1888
1892
1896
1900
1904
1908
1912
1916
1920
1924
1928
1932
1936
1940
1944
1948
1952
1956
1960
1964
1968
1972
1976
1980
1984
1988
1992
1996
2000
2004
2008
2012
2016
2020
2024
2028
2032
2036
2040
2044
2048
2052
2056
2060
2064
2068
2072
2076
2080
2084
2088
2092
2096
2100
2104
2108
2112
2116
2120
2124
2128
2132
2136
2140
2144
2148
2152
2156
2160
2164
2168
2172
2176
2180
2184
2188
2192
2196
2200
2204
2208
2212
2216
2220
2224
2228
2232
2236
2240
2244
2248
2252
2256
2260
2264
2268
2272
2276
2280
2284
2288
2292
2296
2300
2304
2308
2312
2316
2320
2324
2328
2332
2336
2340
2344
2348
2352
2356
2360
2364
2368
2372
2376
2380
2384
2388
2392
2396
2400
2404
2408
2412
2416
2420
2424
2428
2432
2436
2440
2444
2448
2452
2456
2460
2464
2468
2472
2476
2480
2484
2488
2492
2496
2500
2504
2508
2512
2516
2520
2524
2528
2532
2536
2540
2544
2548
2552
2556
2560
2564
2568
2572
2576
2580
2584
2588
2592
2596
2600
2604
2608
2612
2616
2620
2624
2628
2632
2636
2640
2644
2648
2652
2656
2660
2664
2668
2672
2676
2680
2684
2688
2692
2696
2700
2704
2708
2712
2716
2720
2724
2728
2732
2736
2740
2744
2748
2752
2756
2760
2764
2768
2772
2776
2780
2784
2788
2792
2796
2800
2804
2808
2812
2816
2820
2824
2828
2832
2836
2840
2844
2848
2852
2856
2860
2864
2868
2872
2876
2880
2884
2888
2892
2896
2900
2904
2908
2912
2916
2920
2924
2928
2932
2936
2940
2944
2948
2952
2956
2960
2964
2968
2972
2976
2980
2984
2988
2992
2996
3000
3004
3008
3012
3016
3020
3024
3028
3032
3036
3040
3044
3048
3052
3056
3060
3064
3068
3072
3076
3080
3084
3088
3092
3096
3100
3104
3108
3112
3116
3120
3124
3128
3132
3136
3140
3144
3148
3152
3156
3160
3164
3168
3172
3176
3180
3184
3188
3192
3196
3200
3204
3208
3212
3216
3220
3224
3228
3232
3236
3240
3244
3248
3252
3256
3260
3264
3268
3272
3276
3280
3284
3288
3292
3296
3300
3304
3308
3312
3316
3320
3324
3328
3332
3336
3340
3344
3348
3352
3356
3360
3364
3368
3372
3376
3380
3384
3388
3392
3396
3400
3404
3408
3412
3416
3420
3424
3428
3432
3436
3440
3444
3448
3452
3456
3460
3464
3468
3472
3476
3480
3484
3488
3492
3496
3500
3504
3508
3512
3516
3520
3524
3528
3532
3536
3540
3544
3548
3552
3556
3560
3564
3568
3572
3576
3580
3584
3588
3592
3596
3600
3604
3608
3612
3616
3620
3624
3628
3632
3636
3640
3644
3648
3652
3656
3660
3664
3668
3672
3676
3680
3684
3688
3692
3696
3700
3704
3708
3712
3716
3720
3724
3728
3732
3736
3740
3744
3748
3752
3756
3760
3764
3768
3772
3776
3780
3784
3788
3792
3796
3800
3804
3808
3812
3816
3820
3824
3828
3832
3836
3840
3844
3848
3852
3856
3860
3864
3868
3872
3876
3880
3884
3888
3892
3896
3900
3904
3908
3912
3916
3920
3924
3928
3932
3936
3940
3944
3948
3952
3956
3960
3964
3968
3972
3976
3980
3984
3988
3992
3996
4000
4004
4008
4012
4016
4020
4024
4028
4032
4036
4040
4044
4048
4052
4056
4060
4064
4068
4072
4076
4080
4084
4088
4092
4096
4100
4104
4108
4112
4116
4120
4124
4128
4132
4136
4140
4144
4148
4152
4156
4160
4164
4168
4172
4176
4180
4184
4188
4192
4196
4200
4204
4208
4212
4216
4220
4224
4228
4232
4236
4240
4244
4248
4252
4256
4260
4264
4268
4272
4276
4280
4284
4288
4292
4296
4300
4304
4308
4312
4316
4320
4324
4328
4332
4336
4340
4344
4348
4352
4356
4360
4364
4368
4372
4376
4380
4384
4388
4392
4396
4400
4404
4408
4412
4416
4420
4424
4428
4432
4436
4440
4444
4448
4452
4456
4460
4464
4468
4472
4476
4480
4484
4488
4492
4496
4500
4504
4508
4512
4516
4520
4524
4528
4532
4536
4540
4544
4548
4552
4556
4560
4564
4568
4572
4576
4580
4584
4588
4592
4596
4600
4604
4608
4612
4616
4620
4624
4628
4632
4636
4640
4644
4648
4652
4656
4660
4664
4668
4672
4676
4680
4684
4688
4692
4696
4700
4704
4708
4712
4716
4720
4724
4728
4732
4736
4740
4744
4748
4752
4756
4760
4764
4768
4772
4776
4780
4784
4788
4792
4796
4800
4804
4808
4812
4816
4820
4824
4828
4832
4836
4840
4844
4848
4852
4856
4860
4864
4868
4872
4876
4880
4884
4888
4892
4896
4900
4904
4908
4912
4916
4920
4924
4928
4932
4936
4940
4944
4948
4952
4956
4960
4964
4968
4972
4976
4980
4984
4988
4992
4996
5000
5004
5008
5012
5016
5020
5024
5028
5032
5036
5040
5044
5048
5052
5056
5060
5064
5068
5072
5076
5080
5084
5088
5092
5096
5100
5104
5108
5112
5116
5120
5124
5128
5132
5136
5140
5144
5148
5152
5156
5160
5164
5168
5172
5176
5180
5184
5188
5192
5196
5200
5204
5208
5212
5216
5220
5224
5228
5232
5236
5240
5244
5248
5252
5256
5260
5264
5268
5272
5276
5280
5284
5288
5292
5296
5300
5304
5308
5312
5316
5320
5324
5328
5332
5336
5340
5344
5348
5352
5356
5360
5364
5368
5372
5376
5380
5384
5388
5392
5396
5400
5404
5408
5412
5416
5420
5424
5428
5432
5436
5440
5444
5448
5452
5456
5460
5464
5468
5472
5476
5480
5484
5488
5492
5496
5500
5504
5508
5512
5516
5520
5524
5528
5532
5536
5540
5544
5548
5552
5556
5560
5564
5568
5572
5576
5580
5584
5588
5592
5596
5600
5604
5608
5612
5616
5620
5624
5628
5632
5636
5640
5644
5648
5652
5656
5660
5664
5668
5672
5676
5680
5684
5688
5692
5696
5700
5704
5708
5712
5716
5720
5724
5728
5732
5736
5740
5744
5748
5752
5756
5760
5764
5768
5772
5776
5780
5784
5788
5792
5796
5800
5804
5808
5812
5816
5820
5824
5828
5832
5836
5840
5844
5848
5852
5856
5860
5864
5868
5872
5876
5880
5884
5888
5892
5896
5900
5904
5908
5912
5916
5920
5924
5928
5932
5936
5940
5944
5948
5952
5956
5960
5964
5968
5972
5976
5980
5984
5988
5992
5996
6000
              </DataArray>   
              <DataArray type="UInt8" Name="types" format="ascii">   
10
10
10
10
10
10
10
10
10
10
10
10
10
10
10
10
10
10
10
10
10
10
10
10
10
10
10
10
10
10
10
10
10
10
10
10
10
10
10
10
10
10
10
10
10
10
10
10
10
10
10
10
10
10
10
10
10
10
10
10
10
10
10
10
10
10
10
10
10
10
10
10
10
10
10
10
10
10
10
10
10
10
10
10
10
10
10
10
10
10
10
10
10
10
10
10
10
10
10
10
10
10
10
10
10
10
10
10
10
10
10
10
10
10
10
10
10
10
10
10
10
10
10
10
10
10
10
10
10
10
10
10
10
10
10
10
10
10
10
10
10
10
10
10
10
10
10
10
10
10
10
10
10
10
10
10
10
10
10
10
10
10
10
10
10
10
10
10
10
10
10
10
10
10
10
10
10
10
10
10
10
10
10
10
10
10
10
10
10
10
10
10
10
10
10
10
10
10
10
10
10
10
10
10
10
10
10
10
10
10
10
10
10
10
10
10
10
10
10
10
10
10
10
10
10
10
10
10
10
10
10
10
10
10
10
10
10
10
10
10
10
10
10
10
10
10
10
10
10
10
10
10
10
10
10
10
10
10
10
10
10
10
10
10
10
10
10
10
10
10
10
10
10
10
10
10
10
10
10
10
10
10
10
10
10
10
10
10
10
10
10
10
10
10
10
10
10
10
10
10
10
10
10
10
10
10
10
10
10
10
10
10
10
10
10
10
10
10
10
10
10
10
10
10
10
10
10
10
10
10
10
10
10
10
10
10
10
10
10
10
10
10
10
10
10
10
10
10
10
10
10
10
10
10
10
10
10
10
10
10
10
10
10
10
10
10
10
10
10
10
10
10
10
10
10
10
10
10
10
10
10
10
10
10
10
10
10
10
10
10
10
10
10
10
10
10
10
10
10
10
10
10
10
10
10
10
10
10
10
10
10
10
10
10
10
10
10
10
10
10
10
10
10
10
10
10
10
10
10
10
10
10
10
10
10
10
10
10
10
10
10
10
10
10
10
10
10
10
10
10
10
10
10
10
10
10
10
10
10
10
10
10
10
10
10
10
10
10
10
10
10
10
10
10
10
10
10
10
10
10
10
10
10
10
10
10
10
10
10
10
10
10
10
10
10
10
10
10
10
10
10
10
10
10
10
10
10
10
10
10
10
10
10
10
10
10
10
10
10
10
10
10
10
10
10
10
10
10
10
10
10
10
10
10
10
10
10
10
10
10
10
10
10
10
10
10
10
10
10
10
10
10
10
10
10
10
10
10
10
10
10
10
10
10
10
10
10
10
10
10
10
10
10
10
10
10
10
10
10
10
10
10
10
10
10
10
10
10
10
10
10
10
10
10
10
10
10
10
10
10
10
10
10
10
10
10
10
10
10
10
10
10
10
10
10
10
10
10
10
10
10
10
10
10
10
10
10
10
10
10
10
10
10
10
10
10
10
10
10
10
10
10
10
10
10
10
10
10
10
10
10
10
10
10
10
10
10
10
10
10
10
10
10
10
10
10
10
10
10
10
10
10
10
10
10
10
10
10
10
10
10
10
10
10
10
10
10
10
10
10
10
10
10
10
10
10
10
10
10
10
10
10
10
10
10
10
10
10
10
10
10
10
10
10
10
10
10
10
10
10
10
10
10
10
10
10
10
10
10
10
10
10
10
10
10
10
10
10
10
10
10
10
10
10
10
10
10
10
10
10
10
10
10
10
10
10
10
10
10
10
10
10
10
10
10
10
10
10
10
10
10
10
10
10
10
10
10
10
10
10
10
10
10
10
10
10
10
10
10
10
10
10
10
10
10
10
10
10
10
10
10
10
10
10
10
10
10
10
10
10
10
10
10
10
10
10
10
10
10
10
10
10
10
10
10
10
10
10
10
10
10
10
10
10
10
10
10
10
10
10
10
10
10
10
10
10
10
10
10
10
10
10
10
10
10
10
10
10
10
10
10
10
10
10
10
10
10
10
10
10
10
10
10
10
10
10
10
10
10
10
10
10
10
10
10
10
10
10
10
10
10
10
10
10
10
10
10
10
10
10
10
10
10
10
10
10
10
10
10
10
10
10
10
10
10
10
10
10
10
10
10
10
10
10
10
10
10
10
10
10
10
10
10
10
10
10
10
10
10
10
10
10
10
10
10
10
10
10
10
10
10
10
10
10
10
10
10
10
10
10
10
10
10
10
10
10
10
10
10
10
10
10
10
10
10
10
10
10
10
10
10
10
10
10
10
10
10
10
10
10
10
10
10
10
10
10
10
10
10
10
10
10
10
10
10
10
10
10
10
10
10
10
10
10
10
10
10
10
10
10
10
10
10
10
10
10
10
10
10
10
10
10
10
10
10
10
10
10
10
10
10
10
10
10
10
10
10
10
10
10
10
10
10
10
10
10
10
10
10
10
10
10
10
10
10
10
10
10
10
10
10
10
10
10
10
10
10
10
10
10
10
10
10
10
10
10
10
10
10
10
10
10
10
10
10
10
10
10
10
10
10
10
10
10
10
10
10
10
10
10
10
10
10
10
10
10
10
10
10
10
10
10
10
10
10
10
10
10
10
10
10
10
10
10
10
10
10
10
10
10
10
10
10
10
10
10
10
10
10
10
10
10
10
10
10
10
10
10
10
10
10
10
10
10
10
10
10
10
10
10
10
10
10
10
10
10
10
10
10
10
10
10
10
10
10
10
10
10
10
10
10
10
10
10
10
10
10
10
10
10
10
10
10
10
10
10
10
10
10
10
10
10
10
10
10
10
10
10
10
10
10
10
10
10
10
10
10
10
10
10
10
10
10
10
10
10
10
10
10
10
10
10
10
10
10
10
10
10
10
10
10
10
10
10
10
10
10
10
10
10
10
10
10
10
10
10
10
10
10
10
10
10
10
10
10
10
10
10
10
10
10
10
10
10
10
10
10
10
10
10
10
10
10
10
10
10
10
10
10
10
10
10
10
10
10
10
10
10
10
10
10
10
10
10
10
10
10
10
10
10
10
10
10
10
10
10
10
10
10
10
10
10
10
10
10
10
10
10
10
10
10
10
10
10
10
10
10
10
10
10
10
10
10
10
10
10
10
10
10
10
10
10
10
10
10
10
10
10
10
10
10
10
10
10
10
10
10
10
10
10
10
10
10
10
10
10
10
10
10
10
10
10
10
10
10
10
10
10
10
10
10
10
10
10
10
10
10
10
10
10
10
10
10
10
10
10
10
10
10
10
10
10
10
10
10
10
10
10
10
10
10
10
10
10
10
10
10
10
10
10
10
10
10
10
10
10
10
10
10
10
10
10
10
10
10
10
10
10
10
10
10
10
10
10
10
10
10
10
10
10
10
10
10
10
10
10
10
10
10
10
10
10
10
10
10
10
10
10
10
10
10
10
10
10
10
10
10
10
10
10
              </DataArray>   
          </Cells>  
          <PointData>  
             <DataArray type="Float64" NumberOfComponents="3" Name="Strains" format="ascii">   
-0.0001256662772533755   0.0   -8.238872985365726e-05
-0.0001256662772533755   0.0   -8.238872985365726e-05
-0.0001256662772533755   0.0   -8.238872985365726e-05
-0.0001256662772533755   0.0   -8.238872985365726e-05
-7.997242082077715e-05   1.3932860892949567e-05   2.1274140697762306e-06
-7.997242082077715e-05   1.3932860892949567e-05   2.1274140697762306e-06
-7.997242082077715e-05   1.3932860892949567e-05   2.1274140697762306e-06
-7.997242082077715e-05   1.3932860892949567e-05   2.1274140697762306e-06
-7.839695842424309e-05   0.0   -7.774734525313615e-05
-7.839695842424309e-05   0.0   -7.774734525313615e-05
-7.839695842424309e-05   0.0   -7.774734525313615e-05
-7.839695842424309e-05   0.0   -7.774734525313615e-05
-0.00013152329092700626   1.6714681082323274e-05   7.677336020755045e-07
-0.00013152329092700626   1.6714681082323274e-05   7.677336020755045e-07
-0.00013152329092700626   1.6714681082323274e-05   7.677336020755045e-07
-0.00013152329092700626   1.6714681082323274e-05   7.677336020755045e-07
-0.00010203161783880913   3.8678205004342466e-06   -4.067693852911959e-05
-0.00010203161783880913   3.8678205004342466e-06   -4.067693852911959e-05
-0.00010203161783880913   3.8678205004342466e-06   -4.067693852911959e-05
-0.00010203161783880913   3.8678205004342466e-06   -4.067693852911959e-05
-0.00013152329092700648   0.0   -8.777615390253013e-05
-0.00013152329092700648   0.0   -8.777615390253013e-05
-0.00013152329092700648   0.0   -8.777615390253013e-05
-0.00013152329092700648   0.0   -8.777615390253013e-05
-7.839695842424309e-05   1.67146810823233e-05   1.0796542251469458e-05
-7.839695842424309e-05   1.67146810823233e-05   1.0796542251469458e-05
-7.839695842424309e-05   1.67146810823233e-05   1.0796542251469458e-05
-7.839695842424309e-05   1.67146810823233e-05   1.0796542251469458e-05
-7.862468381293002e-05   0.0   -7.965211219229976e-05
-7.862468381293002e-05   0.0   -7.965211219229976e-05
-7.862468381293002e-05   0.0   -7.965211219229976e-05
-7.862468381293002e-05   0.0   -7.965211219229976e-05
-0.00013563965890356835   1.7905773259718137e-05   4.629382336266921e-06
-0.00013563965890356835   1.7905773259718137e-05   4.629382336266921e-06
-0.00013563965890356835   1.7905773259718137e-05   4.629382336266921e-06
-0.00013563965890356835   1.7905773259718137e-05   4.629382336266921e-06
-0.00010507398736996808   6.770034758525286e-06   -3.963196045235114e-05
-0.00010507398736996808   6.770034758525286e-06   -3.963196045235114e-05
-0.00010507398736996808   6.770034758525286e-06   -3.963196045235114e-05
-0.00010507398736996808   6.770034758525286e-06   -3.963196045235114e-05
-0.0001356396589035686   0.0   -9.039557614813067e-05
-0.0001356396589035686   0.0   -9.039557614813067e-05
-0.0001356396589035686   0.0   -9.039557614813067e-05
-0.0001356396589035686   0.0   -9.039557614813067e-05
-7.862468381293002e-05   1.7905773259718164e-05   1.537284629209783e-05
-7.862468381293002e-05   1.7905773259718164e-05   1.537284629209783e-05
-7.862468381293002e-05   1.7905773259718164e-05   1.537284629209783e-05
-7.862468381293002e-05   1.7905773259718164e-05   1.537284629209783e-05
-7.85908331639066e-05   0.0   -8.01405155168807e-05
-7.85908331639066e-05   0.0   -8.01405155168807e-05
-7.85908331639066e-05   0.0   -8.01405155168807e-05
-7.85908331639066e-05   0.0   -8.01405155168807e-05
-0.00014450086792640622   2.0393697999184906e-05   1.7473323621108075e-05
-0.00014450086792640622   2.0393697999184906e-05   1.7473323621108075e-05
-0.00014450086792640622   2.0393697999184906e-05   1.7473323621108075e-05
-0.00014450086792640622   2.0393697999184906e-05   1.7473323621108075e-05
-0.0001071152460337374   8.545883859374979e-06   -3.77273577161206e-05
-0.0001071152460337374   8.545883859374979e-06   -3.77273577161206e-05
-0.0001071152460337374   8.545883859374979e-06   -3.77273577161206e-05
-0.0001071152460337374   8.545883859374979e-06   -3.77273577161206e-05
-7.997242082077729e-05   0.0   -7.402901331788752e-05
-7.997242082077729e-05   0.0   -7.402901331788752e-05
-7.997242082077729e-05   0.0   -7.402901331788752e-05
-7.997242082077729e-05   0.0   -7.402901331788752e-05
-3.641220336714074e-05   5.1122341749948805e-06   1.6386896098369609e-06
-3.641220336714074e-05   5.1122341749948805e-06   1.6386896098369609e-06
-3.641220336714074e-05   5.1122341749948805e-06   1.6386896098369609e-06
-3.641220336714074e-05   5.1122341749948805e-06   1.6386896098369609e-06
-3.502720595829042e-05   0.0   -7.338266513898891e-05
-3.502720595829042e-05   0.0   -7.338266513898891e-05
-3.502720595829042e-05   0.0   -7.338266513898891e-05
-3.502720595829042e-05   0.0   -7.338266513898891e-05
-7.839695842424309e-05   7.274466856912055e-06   -5.464424476548394e-06
-7.839695842424309e-05   7.274466856912055e-06   -5.464424476548394e-06
-7.839695842424309e-05   7.274466856912055e-06   -5.464424476548394e-06
-7.839695842424309e-05   7.274466856912055e-06   -5.464424476548394e-06
-5.749981338953376e-05   5.386234824154905e-07   -3.6251493509699065e-05
-5.749981338953376e-05   5.386234824154905e-07   -3.6251493509699065e-05
-5.749981338953376e-05   5.386234824154905e-07   -3.6251493509699065e-05
-5.749981338953376e-05   5.386234824154905e-07   -3.6251493509699065e-05
-7.839695842424302e-05   0.0   -7.774734525313608e-05
-7.839695842424302e-05   0.0   -7.774734525313608e-05
-7.839695842424302e-05   0.0   -7.774734525313608e-05
-7.839695842424302e-05   0.0   -7.774734525313608e-05
-3.502720595829042e-05   7.274466856912055e-06   -1.0997443624011417e-06
-3.502720595829042e-05   7.274466856912055e-06   -1.0997443624011417e-06
-3.502720595829042e-05   7.274466856912055e-06   -1.0997443624011417e-06
-3.502720595829042e-05   7.274466856912055e-06   -1.0997443624011417e-06
-3.425205980279823e-05   0.0   -7.430518708936409e-05
-3.425205980279823e-05   0.0   -7.430518708936409e-05
-3.425205980279823e-05   0.0   -7.430518708936409e-05
-3.425205980279823e-05   0.0   -7.430518708936409e-05
-7.862468381293002e-05   8.911541838226152e-06   -5.6977388420801375e-06
-7.862468381293002e-05   8.911541838226152e-06   -5.6977388420801375e-06
-7.862468381293002e-05   8.911541838226152e-06   -5.6977388420801375e-06
-7.862468381293002e-05   8.911541838226152e-06   -5.6977388420801375e-06
-5.6324509113520545e-05   2.8684651364767257e-06   -3.9238850653379265e-05
-5.6324509113520545e-05   2.8684651364767257e-06   -3.9238850653379265e-05
-5.6324509113520545e-05   2.8684651364767257e-06   -3.9238850653379265e-05
-5.6324509113520545e-05   2.8684651364767257e-06   -3.9238850653379265e-05
-7.862468381293002e-05   0.0   -7.965211219229976e-05
-7.862468381293002e-05   0.0   -7.965211219229976e-05
-7.862468381293002e-05   0.0   -7.965211219229976e-05
-7.862468381293002e-05   0.0   -7.965211219229976e-05
-3.425205980279823e-05   8.911541838226152e-06   -3.5081373914444205e-07
-3.425205980279823e-05   8.911541838226152e-06   -3.5081373914444205e-07
-3.425205980279823e-05   8.911541838226152e-06   -3.5081373914444205e-07
-3.425205980279823e-05   8.911541838226152e-06   -3.5081373914444205e-07
-3.3547324096917925e-05   0.0   -7.391968799240436e-05
-3.3547324096917925e-05   0.0   -7.391968799240436e-05
-3.3547324096917925e-05   0.0   -7.391968799240436e-05
-3.3547324096917925e-05   0.0   -7.391968799240436e-05
-7.85908331639064e-05   1.0368045874127108e-05   -5.068000405232894e-06
-7.85908331639064e-05   1.0368045874127108e-05   -5.068000405232894e-06
-7.85908331639064e-05   1.0368045874127108e-05   -5.068000405232894e-06
-7.85908331639064e-05   1.0368045874127108e-05   -5.068000405232894e-06
-5.608600395492396e-05   4.777020166579464e-06   -3.922143366234198e-05
-5.608600395492396e-05   4.777020166579464e-06   -3.922143366234198e-05
-5.608600395492396e-05   4.777020166579464e-06   -3.922143366234198e-05
-5.608600395492396e-05   4.777020166579464e-06   -3.922143366234198e-05
-3.6412203367140805e-05   0.0   -7.096167281289057e-05
-3.6412203367140805e-05   0.0   -7.096167281289057e-05
-3.6412203367140805e-05   0.0   -7.096167281289057e-05
-3.6412203367140805e-05   0.0   -7.096167281289057e-05
4.749687099943355e-06   -6.532899665074519e-07   -2.7504960143213833e-06
4.749687099943355e-06   -6.532899665074519e-07   -2.7504960143213833e-06
4.749687099943355e-06   -6.532899665074519e-07   -2.7504960143213833e-06
4.749687099943355e-06   -6.532899665074519e-07   -2.7504960143213833e-06
5.630654315925846e-06   0.0   -7.260930740040499e-05
5.630654315925846e-06   0.0   -7.260930740040499e-05
5.630654315925846e-06   0.0   -7.260930740040499e-05
5.630654315925846e-06   0.0   -7.260930740040499e-05
-3.502720595829036e-05   1.288929564306109e-06   -5.619564681961768e-06
-3.502720595829036e-05   1.288929564306109e-06   -5.619564681961768e-06
-3.502720595829036e-05   1.288929564306109e-06   -5.619564681961768e-06
-3.502720595829036e-05   1.288929564306109e-06   -5.619564681961768e-06
-1.5390774525607414e-05   -1.3730288229288817e-06   -3.674977537075886e-05
-1.5390774525607414e-05   -1.3730288229288817e-06   -3.674977537075886e-05
-1.5390774525607414e-05   -1.3730288229288817e-06   -3.674977537075886e-05
-1.5390774525607414e-05   -1.3730288229288817e-06   -3.674977537075886e-05
-3.502720595829042e-05   0.0   -7.338266513898891e-05
-3.502720595829042e-05   0.0   -7.338266513898891e-05
-3.502720595829042e-05   0.0   -7.338266513898891e-05
-3.502720595829042e-05   0.0   -7.338266513898891e-05
5.630654315925856e-06   1.288929564306109e-06   -4.846206943378092e-06
5.630654315925856e-06   1.288929564306109e-06   -4.846206943378092e-06
5.630654315925856e-06   1.288929564306109e-06   -4.846206943378092e-06
5.630654315925856e-06   1.288929564306109e-06   -4.846206943378092e-06
6.325092892861361e-06   0.0   -7.250593813482915e-05
6.325092892861361e-06   0.0   -7.250593813482915e-05
6.325092892861361e-06   0.0   -7.250593813482915e-05
6.325092892861361e-06   0.0   -7.250593813482915e-05
-3.4252059802798107e-05   2.998748257557993e-06   -6.676599263264745e-06
-3.4252059802798107e-05   2.998748257557993e-06   -6.676599263264745e-06
-3.4252059802798107e-05   2.998748257557993e-06   -6.676599263264745e-06
-3.4252059802798107e-05   2.998748257557993e-06   -6.676599263264745e-06
-1.43510565327145e-05   7.306058367996946e-07   -3.8484052594282505e-05
-1.43510565327145e-05   7.306058367996946e-07   -3.8484052594282505e-05
-1.43510565327145e-05   7.306058367996946e-07   -3.8484052594282505e-05
-1.43510565327145e-05   7.306058367996946e-07   -3.8484052594282505e-05
-3.425205980279823e-05   0.0   -7.430518708936409e-05
-3.425205980279823e-05   0.0   -7.430518708936409e-05
-3.425205980279823e-05   0.0   -7.430518708936409e-05
-3.425205980279823e-05   0.0   -7.430518708936409e-05
6.325092892861372e-06   2.9987482575580065e-06   -4.877350308729957e-06
6.325092892861372e-06   2.9987482575580065e-06   -4.877350308729957e-06
6.325092892861372e-06   2.9987482575580065e-06   -4.877350308729957e-06
6.325092892861372e-06   2.9987482575580065e-06   -4.877350308729957e-06
7.261664879808323e-06   0.0   -7.093195895801707e-05
7.261664879808323e-06   0.0   -7.093195895801707e-05
7.261664879808323e-06   0.0   -7.093195895801707e-05
7.261664879808323e-06   0.0   -7.093195895801707e-05
-3.354732409691784e-05   4.979548390645375e-06   -5.904706364527264e-06
-3.354732409691784e-05   4.979548390645375e-06   -5.904706364527264e-06
-3.354732409691784e-05   4.979548390645375e-06   -5.904706364527264e-06
-3.354732409691784e-05   4.979548390645375e-06   -5.904706364527264e-06
-1.3495197461494921e-05   2.811023442789062e-06   -3.802380245485174e-05
-1.3495197461494921e-05   2.811023442789062e-06   -3.802380245485174e-05
-1.3495197461494921e-05   2.811023442789062e-06   -3.802380245485174e-05
-1.3495197461494921e-05   2.811023442789062e-06   -3.802380245485174e-05
4.749687099943364e-06   0.0   -7.135364679279504e-05
4.749687099943364e-06   0.0   -7.135364679279504e-05
4.749687099943364e-06   0.0   -7.135364679279504e-05
4.749687099943364e-06   0.0   -7.135364679279504e-05
4.942465396976656e-05   -5.796972138749203e-06   -3.7355195967252554e-07
4.942465396976656e-05   -5.796972138749203e-06   -3.7355195967252554e-07
4.942465396976656e-05   -5.796972138749203e-06   -3.7355195967252554e-07
4.942465396976656e-05   -5.796972138749203e-06   -3.7355195967252554e-07
4.9503452814381575e-05   0.0   -7.523251895698309e-05
4.9503452814381575e-05   0.0   -7.523251895698309e-05
4.9503452814381575e-05   0.0   -7.523251895698309e-05
4.9503452814381575e-05   0.0   -7.523251895698309e-05
5.630654315925865e-06   -4.372019260963082e-06   5.120234303542698e-07
5.630654315925865e-06   -4.372019260963082e-06   5.120234303542698e-07
5.630654315925865e-06   -4.372019260963082e-06   5.120234303542698e-07
5.630654315925865e-06   -4.372019260963082e-06   5.120234303542698e-07
2.712656995716247e-05   -3.2323934701567036e-06   -3.5998278112857196e-05
2.712656995716247e-05   -3.2323934701567036e-06   -3.5998278112857196e-05
2.712656995716247e-05   -3.2323934701567036e-06   -3.5998278112857196e-05
2.712656995716247e-05   -3.2323934701567036e-06   -3.5998278112857196e-05
5.630654315925865e-06   0.0   -7.260930740040524e-05
5.630654315925865e-06   0.0   -7.260930740040524e-05
5.630654315925865e-06   0.0   -7.260930740040524e-05
5.630654315925865e-06   0.0   -7.260930740040524e-05
4.9503452814381575e-05   -4.372019260963082e-06   -2.1111881262235774e-06
4.9503452814381575e-05   -4.372019260963082e-06   -2.1111881262235774e-06
4.9503452814381575e-05   -4.372019260963082e-06   -2.1111881262235774e-06
4.9503452814381575e-05   -4.372019260963082e-06   -2.1111881262235774e-06
4.928360612748329e-05   0.0   -7.41581618945917e-05
4.928360612748329e-05   0.0   -7.41581618945917e-05
4.928360612748329e-05   0.0   -7.41581618945917e-05
4.928360612748329e-05   0.0   -7.41581618945917e-05
6.325092892861372e-06   -2.753706266270706e-06   -9.084160771260938e-07
6.325092892861372e-06   -2.753706266270706e-06   -9.084160771260938e-07
6.325092892861372e-06   -2.753706266270706e-06   -9.084160771260938e-07
6.325092892861372e-06   -2.753706266270706e-06   -9.084160771260938e-07
2.745713022170458e-05   -1.2907120784887196e-06   -3.700627480453393e-05
2.745713022170458e-05   -1.2907120784887196e-06   -3.700627480453393e-05
2.745713022170458e-05   -1.2907120784887196e-06   -3.700627480453393e-05
2.745713022170458e-05   -1.2907120784887196e-06   -3.700627480453393e-05
6.325092892861367e-06   0.0   -7.250593813482922e-05
6.325092892861367e-06   0.0   -7.250593813482922e-05
6.325092892861367e-06   0.0   -7.250593813482922e-05
6.325092892861367e-06   0.0   -7.250593813482922e-05
4.928360612748329e-05   -2.753706266270706e-06   -2.560639836888512e-06
4.928360612748329e-05   -2.753706266270706e-06   -2.560639836888512e-06
4.928360612748329e-05   -2.753706266270706e-06   -2.560639836888512e-06
4.928360612748329e-05   -2.753706266270706e-06   -2.560639836888512e-06
5.0230557136314675e-05   0.0   -7.127910561239778e-05
5.0230557136314675e-05   0.0   -7.127910561239778e-05
5.0230557136314675e-05   0.0   -7.127910561239778e-05
5.0230557136314675e-05   0.0   -7.127910561239778e-05
7.261664879808336e-06   -5.785777573009791e-07   6.828614694933592e-07
7.261664879808336e-06   -5.785777573009791e-07   6.828614694933592e-07
7.261664879808336e-06   -5.785777573009791e-07   6.828614694933592e-07
7.261664879808336e-06   -5.785777573009791e-07   6.828614694933592e-07
2.8277825014588002e-05   1.0223604353595827e-06   -3.530463500406906e-05
2.8277825014588002e-05   1.0223604353595827e-06   -3.530463500406906e-05
2.8277825014588002e-05   1.0223604353595827e-06   -3.530463500406906e-05
2.8277825014588002e-05   1.0223604353595827e-06   -3.530463500406906e-05
4.942465396976656e-05   0.0   -7.483183007604456e-05
4.942465396976656e-05   0.0   -7.483183007604456e-05
4.942465396976656e-05   0.0   -7.483183007604456e-05
4.942465396976656e-05   0.0   -7.483183007604456e-05
0.00011153517017765647   -1.4689184772362878e-05   1.9872186073688184e-05
0.00011153517017765647   -1.4689184772362878e-05   1.9872186073688184e-05
0.00011153517017765647   -1.4689184772362878e-05   1.9872186073688184e-05
0.00011153517017765647   -1.4689184772362878e-05   1.9872186073688184e-05
0.0001047377214707448   0.0   -8.273429378856082e-05
0.0001047377214707448   0.0   -8.273429378856082e-05
0.0001047377214707448   0.0   -8.273429378856082e-05
0.0001047377214707448   0.0   -8.273429378856082e-05
4.9503452814381575e-05   -1.2502958052629563e-05   1.6824595470288936e-05
4.9503452814381575e-05   -1.2502958052629563e-05   1.6824595470288936e-05
4.9503452814381575e-05   -1.2502958052629563e-05   1.6824595470288936e-05
4.9503452814381575e-05   -1.2502958052629563e-05   1.6824595470288936e-05
7.708118772025568e-05   -6.585386427096883e-06   -3.26888390148208e-05
7.708118772025568e-05   -6.585386427096883e-06   -3.26888390148208e-05
7.708118772025568e-05   -6.585386427096883e-06   -3.26888390148208e-05
7.708118772025568e-05   -6.585386427096883e-06   -3.26888390148208e-05
4.9503452814381535e-05   0.0   -7.523251895698302e-05
4.9503452814381535e-05   0.0   -7.523251895698302e-05
4.9503452814381535e-05   0.0   -7.523251895698302e-05
4.9503452814381535e-05   0.0   -7.523251895698302e-05
0.00010473772147074443   -1.2502958052629508e-05   9.322820638711177e-06
0.00010473772147074443   -1.2502958052629508e-05   9.322820638711177e-06
0.00010473772147074443   -1.2502958052629508e-05   9.322820638711177e-06
0.00010473772147074443   -1.2502958052629508e-05   9.322820638711177e-06
0.00010159960908629834   0.0   -8.101411670467774e-05
0.00010159960908629834   0.0   -8.101411670467774e-05
0.00010159960908629834   0.0   -8.101411670467774e-05
0.00010159960908629834   0.0   -8.101411670467774e-05
4.928360612748329e-05   -1.1426591350143395e-05   1.303517637010003e-05
4.928360612748329e-05   -1.1426591350143395e-05   1.303517637010003e-05
4.928360612748329e-05   -1.1426591350143395e-05   1.303517637010003e-05
4.928360612748329e-05   -1.1426591350143395e-05   1.303517637010003e-05
7.555153095033991e-05   -4.817998123078876e-06   -3.470985427089972e-05
7.555153095033991e-05   -4.817998123078876e-06   -3.470985427089972e-05
7.555153095033991e-05   -4.817998123078876e-06   -3.470985427089972e-05
7.555153095033991e-05   -4.817998123078876e-06   -3.470985427089972e-05
4.928360612748329e-05   0.0   -7.41581618945917e-05
4.928360612748329e-05   0.0   -7.41581618945917e-05
4.928360612748329e-05   0.0   -7.41581618945917e-05
4.928360612748329e-05   0.0   -7.41581618945917e-05
0.00010159960908629799   -1.1426591350143341e-05   6.1792215600139705e-06
0.00010159960908629799   -1.1426591350143341e-05   6.1792215600139705e-06
0.00010159960908629799   -1.1426591350143341e-05   6.1792215600139705e-06
0.00010159960908629799   -1.1426591350143341e-05   6.1792215600139705e-06
9.69333155667554e-05   0.0   -7.661110353883411e-05
9.69333155667554e-05   0.0   -7.661110353883411e-05
9.69333155667554e-05   0.0   -7.661110353883411e-05
9.69333155667554e-05   0.0   -7.661110353883411e-05
5.0230557136314675e-05   -8.886663210727421e-06   6.55882510500369e-06
5.0230557136314675e-05   -8.886663210727421e-06   6.55882510500369e-06
5.0230557136314675e-05   -8.886663210727421e-06   6.55882510500369e-06
5.0230557136314675e-05   -8.886663210727421e-06   6.55882510500369e-06
7.310846084711944e-05   -2.0441180368687816e-06   -3.567654151731939e-05
7.310846084711944e-05   -2.0441180368687816e-06   -3.567654151731939e-05
7.310846084711944e-05   -2.0441180368687816e-06   -3.567654151731939e-05
7.310846084711944e-05   -2.0441180368687816e-06   -3.567654151731939e-05
-0.00010909722178394673   1.393286089294954e-05   -7.152449729581529e-05
-0.00010909722178394673   1.393286089294954e-05   -7.152449729581529e-05
-0.00010909722178394673   1.393286089294954e-05   -7.152449729581529e-05
-0.00010909722178394673   1.393286089294954e-05   -7.152449729581529e-05
-6.987013748204272e-05   1.2533449570725655e-05   -6.985670252642926e-06
-6.987013748204272e-05   1.2533449570725655e-05   -6.985670252642926e-06
-6.987013748204272e-05   1.2533449570725655e-05   -6.985670252642926e-06
-6.987013748204272e-05   1.2533449570725655e-05   -6.985670252642926e-06
-7.163193917631199e-05   1.6714681082323246e-05   -6.0063644451577726e-05
-7.163193917631199e-05   1.6714681082323246e-05   -6.0063644451577726e-05
-7.163193917631199e-05   1.6714681082323246e-05   -6.0063644451577726e-05
-7.163193917631199e-05   1.6714681082323246e-05   -6.0063644451577726e-05
-0.00011028625163828979   1.503947004482777e-05   5.365336274216223e-06
-0.00011028625163828979   1.503947004482777e-05   5.365336274216223e-06
-0.00011028625163828979   1.503947004482777e-05   5.365336274216223e-06
-0.00011028625163828979   1.503947004482777e-05   5.365336274216223e-06
-8.664834244504694e-05   1.4551598260382765e-05   -3.373845597718882e-05
-8.664834244504694e-05   1.4551598260382765e-05   -3.373845597718882e-05
-8.664834244504694e-05   1.4551598260382765e-05   -3.373845597718882e-05
-8.664834244504694e-05   1.4551598260382765e-05   -3.373845597718882e-05
-0.00011028625163828979   1.6714681082323246e-05   -5.9058517829080386e-05
-0.00011028625163828979   1.6714681082323246e-05   -5.9058517829080386e-05
-0.00011028625163828979   1.6714681082323246e-05   -5.9058517829080386e-05
-0.00011028625163828979   1.6714681082323246e-05   -5.9058517829080386e-05
-7.163193917631223e-05   1.503947004482777e-05   4.360209651718965e-06
-7.163193917631223e-05   1.503947004482777e-05   4.360209651718965e-06
-7.163193917631223e-05   1.503947004482777e-05   4.360209651718965e-06
-7.163193917631223e-05   1.503947004482777e-05   4.360209651718965e-06
-7.200509476833605e-05   1.7905773259718137e-05   -5.399670005356552e-05
-7.200509476833605e-05   1.7905773259718137e-05   -5.399670005356552e-05
-7.200509476833605e-05   1.7905773259718137e-05   -5.399670005356552e-05
-7.200509476833605e-05   1.7905773259718137e-05   -5.399670005356552e-05
-0.00011106934913519213   1.61703697359139e-05   1.2151632672143474e-05
-0.00011106934913519213   1.61703697359139e-05   1.2151632672143474e-05
-0.00011106934913519213   1.61703697359139e-05   1.2151632672143474e-05
-0.00011106934913519213   1.61703697359139e-05   1.2151632672143474e-05
-8.920135190937549e-05   1.61275161674566e-05   -2.4269317229809554e-05
-8.920135190937549e-05   1.61275161674566e-05   -2.4269317229809554e-05
-8.920135190937549e-05   1.61275161674566e-05   -2.4269317229809554e-05
-8.920135190937549e-05   1.61275161674566e-05   -2.4269317229809554e-05
-0.00011106934913519194   1.7905773259718137e-05   -5.2955457939282954e-05
-0.00011106934913519194   1.7905773259718137e-05   -5.2955457939282954e-05
-0.00011106934913519194   1.7905773259718137e-05   -5.2955457939282954e-05
-0.00011106934913519194   1.7905773259718137e-05   -5.2955457939282954e-05
-7.200509476833616e-05   1.61703697359139e-05   1.111039055786092e-05
-7.200509476833616e-05   1.61703697359139e-05   1.111039055786092e-05
-7.200509476833616e-05   1.61703697359139e-05   1.111039055786092e-05
-7.200509476833616e-05   1.61703697359139e-05   1.111039055786092e-05
-7.16005584750848e-05   2.039369799918488e-05   -3.9885148083825775e-05
-7.16005584750848e-05   2.039369799918488e-05   -3.9885148083825775e-05
-7.16005584750848e-05   2.039369799918488e-05   -3.9885148083825775e-05
-7.16005584750848e-05   2.039369799918488e-05   -3.9885148083825775e-05
-0.00010799953986924678   1.706774027478012e-05   2.27753955410867e-05
-0.00010799953986924678   1.706774027478012e-05   2.27753955410867e-05
-0.00010799953986924678   1.706774027478012e-05   2.27753955410867e-05
-0.00010799953986924678   1.706774027478012e-05   2.27753955410867e-05
-8.68874239692079e-05   1.768741096474743e-05   -1.2783266706291806e-05
-8.68874239692079e-05   1.768741096474743e-05   -1.2783266706291806e-05
-8.68874239692079e-05   1.768741096474743e-05   -1.2783266706291806e-05
-8.68874239692079e-05   1.768741096474743e-05   -1.2783266706291806e-05
-6.987013748204272e-05   5.1122341749948805e-06   -7.592020905408581e-05
-6.987013748204272e-05   5.1122341749948805e-06   -7.592020905408581e-05
-6.987013748204272e-05   5.1122341749948805e-06   -7.592020905408581e-05
-6.987013748204272e-05   5.1122341749948805e-06   -7.592020905408581e-05
-3.309818392977654e-05   5.831885783778824e-06   -1.4201828835038351e-05
-3.309818392977654e-05   5.831885783778824e-06   -1.4201828835038351e-05
-3.309818392977654e-05   5.831885783778824e-06   -1.4201828835038351e-05
-3.309818392977654e-05   5.831885783778824e-06   -1.4201828835038351e-05
-3.3893052559406814e-05   7.274466856912028e-06   -7.580744101415637e-05
-3.3893052559406814e-05   7.274466856912028e-06   -7.580744101415637e-05
-3.3893052559406814e-05   7.274466856912028e-06   -7.580744101415637e-05
-3.3893052559406814e-05   7.274466856912028e-06   -7.580744101415637e-05
-7.163193917631199e-05   8.13641713264386e-06   -1.3426466818086712e-05
-7.163193917631199e-05   8.13641713264386e-06   -1.3426466818086712e-05
-7.163193917631199e-05   8.13641713264386e-06   -1.3426466818086712e-05
-7.163193917631199e-05   8.13641713264386e-06   -1.3426466818086712e-05
-5.197682751456678e-05   6.551858587677719e-06   -4.5234251127349446e-05
-5.197682751456678e-05   6.551858587677719e-06   -4.5234251127349446e-05
-5.197682751456678e-05   6.551858587677719e-06   -4.5234251127349446e-05
-5.197682751456678e-05   6.551858587677719e-06   -4.5234251127349446e-05
-7.163193917631192e-05   7.274466856912028e-06   -7.632461117959536e-05
-7.163193917631192e-05   7.274466856912028e-06   -7.632461117959536e-05
-7.163193917631192e-05   7.274466856912028e-06   -7.632461117959536e-05
-7.163193917631192e-05   7.274466856912028e-06   -7.632461117959536e-05
-3.3893052559406875e-05   8.136417132643915e-06   -1.2909296652647618e-05
-3.3893052559406875e-05   8.136417132643915e-06   -1.2909296652647618e-05
-3.3893052559406875e-05   8.136417132643915e-06   -1.2909296652647618e-05
-3.3893052559406875e-05   8.136417132643915e-06   -1.2909296652647618e-05
-3.414632625228345e-05   8.911541838226098e-06   -7.438810427028204e-05
-3.414632625228345e-05   8.911541838226098e-06   -7.438810427028204e-05
-3.414632625228345e-05   8.911541838226098e-06   -7.438810427028204e-05
-3.414632625228345e-05   8.911541838226098e-06   -7.438810427028204e-05
-7.200509476833605e-05   1.0043510033995071e-05   -1.1969337660989088e-05
-7.200509476833605e-05   1.0043510033995071e-05   -1.1969337660989088e-05
-7.200509476833605e-05   1.0043510033995071e-05   -1.1969337660989088e-05
-7.200509476833605e-05   1.0043510033995071e-05   -1.1969337660989088e-05
-5.238769694220822e-05   8.31388296063725e-06   -4.362722446052064e-05
-5.238769694220822e-05   8.31388296063725e-06   -4.362722446052064e-05
-5.238769694220822e-05   8.31388296063725e-06   -4.362722446052064e-05
-5.238769694220822e-05   8.31388296063725e-06   -4.362722446052064e-05
-7.200509476833605e-05   8.911541838226098e-06   -7.506728518774341e-05
-7.200509476833605e-05   8.911541838226098e-06   -7.506728518774341e-05
-7.200509476833605e-05   8.911541838226098e-06   -7.506728518774341e-05
-7.200509476833605e-05   8.911541838226098e-06   -7.506728518774341e-05
-3.414632625228356e-05   1.0043510033995126e-05   -1.1290156743527786e-05
-3.414632625228356e-05   1.0043510033995126e-05   -1.1290156743527786e-05
-3.414632625228356e-05   1.0043510033995126e-05   -1.1290156743527786e-05
-3.414632625228356e-05   1.0043510033995126e-05   -1.1290156743527786e-05
-3.40678119959774e-05   1.0368045874127108e-05   -7.362646507508093e-05
-3.40678119959774e-05   1.0368045874127108e-05   -7.362646507508093e-05
-3.40678119959774e-05   1.0368045874127108e-05   -7.362646507508093e-05
-3.40678119959774e-05   1.0368045874127108e-05   -7.362646507508093e-05
-7.160055847508473e-05   1.2095088931788147e-05   -1.2108113444498627e-05
-7.160055847508473e-05   1.2095088931788147e-05   -1.2108113444498627e-05
-7.160055847508473e-05   1.2095088931788147e-05   -1.2108113444498627e-05
-7.160055847508473e-05   1.2095088931788147e-05   -1.2108113444498627e-05
-5.270101085372836e-05   9.908692482205191e-06   -4.229552161034308e-05
-5.270101085372836e-05   9.908692482205191e-06   -4.229552161034308e-05
-5.270101085372836e-05   9.908692482205191e-06   -4.229552161034308e-05
-5.270101085372836e-05   9.908692482205191e-06   -4.229552161034308e-05
-3.309818392977648e-05   -6.532899665074519e-07   -7.948562973306935e-05
-3.309818392977648e-05   -6.532899665074519e-07   -7.948562973306935e-05
-3.309818392977648e-05   -6.532899665074519e-07   -7.948562973306935e-05
-3.309818392977648e-05   -6.532899665074519e-07   -7.948562973306935e-05
3.210617948258134e-06   -1.726815986633043e-07   -1.8682594915638435e-05
3.210617948258134e-06   -1.726815986633043e-07   -1.8682594915638435e-05
3.210617948258134e-06   -1.726815986633043e-07   -1.8682594915638435e-05
3.210617948258134e-06   -1.726815986633043e-07   -1.8682594915638435e-05
3.0566645665060144e-06   1.2889295643061225e-06   -7.993037206618158e-05
3.0566645665060144e-06   1.2889295643061225e-06   -7.993037206618158e-05
3.0566645665060144e-06   1.2889295643061225e-06   -7.993037206618158e-05
3.0566645665060144e-06   1.2889295643061225e-06   -7.993037206618158e-05
-3.3893052559406814e-05   1.950411676865469e-06   -1.8744399457195453e-05
-3.3893052559406814e-05   1.950411676865469e-06   -1.8744399457195453e-05
-3.3893052559406814e-05   1.950411676865469e-06   -1.8744399457195453e-05
-3.3893052559406814e-05   1.950411676865469e-06   -1.8744399457195453e-05
-1.5272774778069174e-05   6.47243122511241e-07   -4.899629462681252e-05
-1.5272774778069174e-05   6.47243122511241e-07   -4.899629462681252e-05
-1.5272774778069174e-05   6.47243122511241e-07   -4.899629462681252e-05
-1.5272774778069174e-05   6.47243122511241e-07   -4.899629462681252e-05
-3.3893052559406814e-05   1.288929564306136e-06   -8.0327261333717e-05
-3.3893052559406814e-05   1.288929564306136e-06   -8.0327261333717e-05
-3.3893052559406814e-05   1.288929564306136e-06   -8.0327261333717e-05
-3.3893052559406814e-05   1.288929564306136e-06   -8.0327261333717e-05
3.0566645665060144e-06   1.950411676865415e-06   -1.8347510189659907e-05
3.0566645665060144e-06   1.950411676865415e-06   -1.8347510189659907e-05
3.0566645665060144e-06   1.950411676865415e-06   -1.8347510189659907e-05
3.0566645665060144e-06   1.950411676865415e-06   -1.8347510189659907e-05
2.848363998073951e-06   2.9987482575580065e-06   -8.00983227145078e-05
2.848363998073951e-06   2.9987482575580065e-06   -8.00983227145078e-05
2.848363998073951e-06   2.9987482575580065e-06   -8.00983227145078e-05
2.848363998073951e-06   2.9987482575580065e-06   -8.00983227145078e-05
-3.414632625228345e-05   4.024693390715546e-06   -1.9056072710473373e-05
-3.414632625228345e-05   4.024693390715546e-06   -1.9056072710473373e-05
-3.414632625228345e-05   4.024693390715546e-06   -1.9056072710473373e-05
-3.414632625228345e-05   4.024693390715546e-06   -1.9056072710473373e-05
-1.5562698069944776e-05   2.4467149527129957e-06   -4.908199928490282e-05
-1.5562698069944776e-05   2.4467149527129957e-06   -4.908199928490282e-05
-1.5562698069944776e-05   2.4467149527129957e-06   -4.908199928490282e-05
-1.5562698069944776e-05   2.4467149527129957e-06   -4.908199928490282e-05
-3.414632625228345e-05   2.9987482575580065e-06   -8.071388979440231e-05
-3.414632625228345e-05   2.9987482575580065e-06   -8.071388979440231e-05
-3.414632625228345e-05   2.9987482575580065e-06   -8.071388979440231e-05
-3.414632625228345e-05   2.9987482575580065e-06   -8.071388979440231e-05
2.848363998073955e-06   4.024693390715546e-06   -1.844050563057889e-05
2.848363998073955e-06   4.024693390715546e-06   -1.844050563057889e-05
2.848363998073955e-06   4.024693390715546e-06   -1.844050563057889e-05
2.848363998073955e-06   4.024693390715546e-06   -1.844050563057889e-05
2.4340581649728406e-06   4.979548390645361e-06   -7.996009385376565e-05
2.4340581649728406e-06   4.979548390645361e-06   -7.996009385376565e-05
2.4340581649728406e-06   4.979548390645361e-06   -7.996009385376565e-05
2.4340581649728406e-06   4.979548390645361e-06   -7.996009385376565e-05
-3.4067811995977426e-05   6.186056232455309e-06   -1.984754829060125e-05
-3.4067811995977426e-05   6.186056232455309e-06   -1.984754829060125e-05
-3.4067811995977426e-05   6.186056232455309e-06   -1.984754829060125e-05
-3.4067811995977426e-05   6.186056232455309e-06   -1.984754829060125e-05
-1.5740215903121958e-05   4.295316773150732e-06   -4.9259098103110864e-05
-1.5740215903121958e-05   4.295316773150732e-06   -4.9259098103110864e-05
-1.5740215903121958e-05   4.295316773150732e-06   -4.9259098103110864e-05
-1.5740215903121958e-05   4.295316773150732e-06   -4.9259098103110864e-05
3.210617948258134e-06   -5.796972138749163e-06   -7.334213737446446e-05
3.210617948258134e-06   -5.796972138749163e-06   -7.334213737446446e-05
3.210617948258134e-06   -5.796972138749163e-06   -7.334213737446446e-05
3.210617948258134e-06   -5.796972138749163e-06   -7.334213737446446e-05
4.062758983562286e-05   -5.960198253493487e-06   -1.1078453231036473e-05
4.062758983562286e-05   -5.960198253493487e-06   -1.1078453231036473e-05
4.062758983562286e-05   -5.960198253493487e-06   -1.1078453231036473e-05
4.062758983562286e-05   -5.960198253493487e-06   -1.1078453231036473e-05
4.095509941151215e-05   -4.372019260963069e-06   -7.436803134482897e-05
4.095509941151215e-05   -4.372019260963069e-06   -7.436803134482897e-05
4.095509941151215e-05   -4.372019260963069e-06   -7.436803134482897e-05
4.095509941151215e-05   -4.372019260963069e-06   -7.436803134482897e-05
3.0566645665060144e-06   -4.031835348263099e-06   -1.1408083617438575e-05
3.0566645665060144e-06   -4.031835348263099e-06   -1.1408083617438575e-05
3.0566645665060144e-06   -4.031835348263099e-06   -1.1408083617438575e-05
3.0566645665060144e-06   -4.031835348263099e-06   -1.1408083617438575e-05
2.168177449420144e-05   -4.825284603816339e-06   -4.197386394359917e-05
2.168177449420144e-05   -4.825284603816339e-06   -4.197386394359917e-05
2.168177449420144e-05   -4.825284603816339e-06   -4.197386394359917e-05
2.168177449420144e-05   -4.825284603816339e-06   -4.197386394359917e-05
3.0566645665060093e-06   -4.372019260963082e-06   -7.457214169244906e-05
3.0566645665060093e-06   -4.372019260963082e-06   -7.457214169244906e-05
3.0566645665060093e-06   -4.372019260963082e-06   -7.457214169244906e-05
3.0566645665060093e-06   -4.372019260963082e-06   -7.457214169244906e-05
4.095509941151222e-05   -4.031835348263153e-06   -1.1203973269818547e-05
4.095509941151222e-05   -4.031835348263153e-06   -1.1203973269818547e-05
4.095509941151222e-05   -4.031835348263153e-06   -1.1203973269818547e-05
4.095509941151222e-05   -4.031835348263153e-06   -1.1203973269818547e-05
4.074685460169677e-05   -2.7537062662706788e-06   -7.57626558372091e-05
4.074685460169677e-05   -2.7537062662706788e-06   -7.57626558372091e-05
4.074685460169677e-05   -2.7537062662706788e-06   -7.57626558372091e-05
4.074685460169677e-05   -2.7537062662706788e-06   -7.57626558372091e-05
2.848363998073951e-06   -2.1424851901128664e-06   -1.2965237476865879e-05
2.848363998073951e-06   -2.1424851901128664e-06   -1.2965237476865879e-05
2.848363998073951e-06   -2.1424851901128664e-06   -1.2965237476865879e-05
2.848363998073951e-06   -2.1424851901128664e-06   -1.2965237476865879e-05
2.144461695218453e-05   -3.2851172400366418e-06   -4.32734131704291e-05
2.144461695218453e-05   -3.2851172400366418e-06   -4.32734131704291e-05
2.144461695218453e-05   -3.2851172400366418e-06   -4.32734131704291e-05
2.144461695218453e-05   -3.2851172400366418e-06   -4.32734131704291e-05
2.8483639980739474e-06   -2.753706266270706e-06   -7.612938848290381e-05
2.8483639980739474e-06   -2.753706266270706e-06   -7.612938848290381e-05
2.8483639980739474e-06   -2.753706266270706e-06   -7.612938848290381e-05
2.8483639980739474e-06   -2.753706266270706e-06   -7.612938848290381e-05
4.0746854601696903e-05   -2.1424851901128664e-06   -1.2598504831171174e-05
4.0746854601696903e-05   -2.1424851901128664e-06   -1.2598504831171174e-05
4.0746854601696903e-05   -2.1424851901128664e-06   -1.2598504831171174e-05
4.0746854601696903e-05   -2.1424851901128664e-06   -1.2598504831171174e-05
3.9550922983494645e-05   -5.785777573009791e-07   -7.589614615662079e-05
3.9550922983494645e-05   -5.785777573009791e-07   -7.589614615662079e-05
3.9550922983494645e-05   -5.785777573009791e-07   -7.589614615662079e-05
3.9550922983494645e-05   -5.785777573009791e-07   -7.589614615662079e-05
2.4340581649728406e-06   1.9493707188457084e-07   -1.4498813689929182e-05
2.4340581649728406e-06   1.9493707188457084e-07   -1.4498813689929182e-05
2.4340581649728406e-06   1.9493707188457084e-07   -1.4498813689929182e-05
2.4340581649728406e-06   1.9493707188457084e-07   -1.4498813689929182e-05
2.120483300172654e-05   -1.4861887147228094e-06   -4.477476294588751e-05
2.120483300172654e-05   -1.4861887147228094e-06   -4.477476294588751e-05
2.120483300172654e-05   -1.4861887147228094e-06   -4.477476294588751e-05
2.120483300172654e-05   -1.4861887147228094e-06   -4.477476294588751e-05
4.062758983562286e-05   -1.4689184772362878e-05   -4.43808241465326e-05
4.062758983562286e-05   -1.4689184772362878e-05   -4.43808241465326e-05
4.062758983562286e-05   -1.4689184772362878e-05   -4.43808241465326e-05
4.062758983562286e-05   -1.4689184772362878e-05   -4.43808241465326e-05
7.75655717071451e-05   -1.1081494925193952e-05   1.9347092880972353e-05
7.75655717071451e-05   -1.1081494925193952e-05   1.9347092880972353e-05
7.75655717071451e-05   -1.1081494925193952e-05   1.9347092880972353e-05
7.75655717071451e-05   -1.1081494925193952e-05   1.9347092880972353e-05
8.050133181254221e-05   -1.2502958052629535e-05   -5.3964442226319786e-05
8.050133181254221e-05   -1.2502958052629535e-05   -5.3964442226319786e-05
8.050133181254221e-05   -1.2502958052629535e-05   -5.3964442226319786e-05
8.050133181254221e-05   -1.2502958052629535e-05   -5.3964442226319786e-05
4.095509941151229e-05   -1.0056615515967988e-05   1.0478139586733275e-05
4.095509941151229e-05   -1.0056615515967988e-05   1.0478139586733275e-05
4.095509941151229e-05   -1.0056615515967988e-05   1.0478139586733275e-05
4.095509941151229e-05   -1.0056615515967988e-05   1.0478139586733275e-05
5.7126337048319045e-05   -1.203207599075344e-05   -1.528864685640673e-05
5.7126337048319045e-05   -1.203207599075344e-05   -1.528864685640673e-05
5.7126337048319045e-05   -1.203207599075344e-05   -1.528864685640673e-05
5.7126337048319045e-05   -1.203207599075344e-05   -1.528864685640673e-05
4.095509941151219e-05   -1.2502958052629508e-05   -5.543224774831654e-05
4.095509941151219e-05   -1.2502958052629508e-05   -5.543224774831654e-05
4.095509941151219e-05   -1.2502958052629508e-05   -5.543224774831654e-05
4.095509941151219e-05   -1.2502958052629508e-05   -5.543224774831654e-05
8.050133181254221e-05   -1.0056615515967988e-05   1.1945945108730231e-05
8.050133181254221e-05   -1.0056615515967988e-05   1.1945945108730231e-05
8.050133181254221e-05   -1.0056615515967988e-05   1.1945945108730231e-05
8.050133181254221e-05   -1.0056615515967988e-05   1.1945945108730231e-05
8.018955808054386e-05   -1.1426591350143395e-05   -5.869243293222461e-05
8.018955808054386e-05   -1.1426591350143395e-05   -5.869243293222461e-05
8.018955808054386e-05   -1.1426591350143395e-05   -5.869243293222461e-05
8.018955808054386e-05   -1.1426591350143395e-05   -5.869243293222461e-05
4.0746854601696903e-05   -8.969246853482969e-06   5.570999501190705e-06
4.0746854601696903e-05   -8.969246853482969e-06   5.570999501190705e-06
4.0746854601696903e-05   -8.969246853482969e-06   5.570999501190705e-06
4.0746854601696903e-05   -8.969246853482969e-06   5.570999501190705e-06
5.9113195897253905e-05   -1.0628448885826019e-05   -2.404404810533184e-05
5.9113195897253905e-05   -1.0628448885826019e-05   -2.404404810533184e-05
5.9113195897253905e-05   -1.0628448885826019e-05   -2.404404810533184e-05
5.9113195897253905e-05   -1.0628448885826019e-05   -2.404404810533184e-05
4.074685460169684e-05   -1.1426591350143341e-05   -6.016683963022076e-05
4.074685460169684e-05   -1.1426591350143341e-05   -6.016683963022076e-05
4.074685460169684e-05   -1.1426591350143341e-05   -6.016683963022076e-05
4.074685460169684e-05   -1.1426591350143341e-05   -6.016683963022076e-05
8.018955808054386e-05   -8.969246853482969e-06   7.045406199186874e-06
8.018955808054386e-05   -8.969246853482969e-06   7.045406199186874e-06
8.018955808054386e-05   -8.969246853482969e-06   7.045406199186874e-06
8.018955808054386e-05   -8.969246853482969e-06   7.045406199186874e-06
7.969248951604407e-05   -8.886663210727407e-06   -6.831840942032077e-05
7.969248951604407e-05   -8.886663210727407e-06   -6.831840942032077e-05
7.969248951604407e-05   -8.886663210727407e-06   -6.831840942032077e-05
7.969248951604407e-05   -8.886663210727407e-06   -6.831840942032077e-05
3.955092298349479e-05   -6.628952466711843e-06   -2.770424979148012e-06
3.955092298349479e-05   -6.628952466711843e-06   -2.770424979148012e-06
3.955092298349479e-05   -6.628952466711843e-06   -2.770424979148012e-06
3.955092298349479e-05   -6.628952466711843e-06   -2.770424979148012e-06
5.741304979468342e-05   -9.153429149443492e-06   -3.102595032149005e-05
5.741304979468342e-05   -9.153429149443492e-06   -3.102595032149005e-05
5.741304979468342e-05   -9.153429149443492e-06   -3.102595032149005e-05
5.741304979468342e-05   -9.153429149443492e-06   -3.102595032149005e-05
-8.695835534423664e-05   1.2533449570725655e-05   -5.998247298663804e-05
-8.695835534423664e-05   1.2533449570725655e-05   -5.998247298663804e-05
-8.695835534423664e-05   1.2533449570725655e-05   -5.998247298663804e-05
-8.695835534423664e-05   1.2533449570725655e-05   -5.998247298663804e-05
-5.69964603583244e-05   9.581361589025583e-06   -1.181723413247114e-05
-5.69964603583244e-05   9.581361589025583e-06   -1.181723413247114e-05
-5.69964603583244e-05   9.581361589025583e-06   -1.181723413247114e-05
-5.69964603583244e-05   9.581361589025583e-06   -1.181723413247114e-05
-5.727456039050674e-05   1.503947004482777e-05   -4.9801246938560345e-05
-5.727456039050674e-05   1.503947004482777e-05   -4.9801246938560345e-05
-5.727456039050674e-05   1.503947004482777e-05   -4.9801246938560345e-05
-5.727456039050674e-05   1.503947004482777e-05   -4.9801246938560345e-05
-8.564819204124333e-05   1.1588242182650871e-05   -4.4112413669333394e-07
-8.564819204124333e-05   1.1588242182650871e-05   -4.4112413669333394e-07
-8.564819204124333e-05   1.1588242182650871e-05   -4.4112413669333394e-07
-8.564819204124333e-05   1.1588242182650871e-05   -4.4112413669333394e-07
-6.868660575225233e-05   1.274344786139853e-05   -2.940355802559378e-05
-6.868660575225233e-05   1.274344786139853e-05   -2.940355802559378e-05
-6.868660575225233e-05   1.274344786139853e-05   -2.940355802559378e-05
-6.868660575225233e-05   1.274344786139853e-05   -2.940355802559378e-05
-8.564819204124333e-05   1.503947004482777e-05   -4.773051022125425e-05
-8.564819204124333e-05   1.503947004482777e-05   -4.773051022125425e-05
-8.564819204124333e-05   1.503947004482777e-05   -4.773051022125425e-05
-8.564819204124333e-05   1.503947004482777e-05   -4.773051022125425e-05
-5.727456039050674e-05   1.1588242182650871e-05   -2.5118608539992945e-06
-5.727456039050674e-05   1.1588242182650871e-05   -2.5118608539992945e-06
-5.727456039050674e-05   1.1588242182650871e-05   -2.5118608539992945e-06
-5.727456039050674e-05   1.1588242182650871e-05   -2.5118608539992945e-06
-5.721926017091339e-05   1.61703697359139e-05   -4.260383965415892e-05
-5.721926017091339e-05   1.61703697359139e-05   -4.260383965415892e-05
-5.721926017091339e-05   1.61703697359139e-05   -4.260383965415892e-05
-5.721926017091339e-05   1.61703697359139e-05   -4.260383965415892e-05
-8.436971053684539e-05   1.2469558473273356e-05   4.867397713311807e-06
-8.436971053684539e-05   1.2469558473273356e-05   4.867397713311807e-06
-8.436971053684539e-05   1.2469558473273356e-05   4.867397713311807e-06
-8.436971053684539e-05   1.2469558473273356e-05   4.867397713311807e-06
-6.928443385970173e-05   1.39068891230155e-05   -2.113712847177224e-05
-6.928443385970173e-05   1.39068891230155e-05   -2.113712847177224e-05
-6.928443385970173e-05   1.39068891230155e-05   -2.113712847177224e-05
-6.928443385970173e-05   1.39068891230155e-05   -2.113712847177224e-05
-8.436971053684539e-05   1.61703697359139e-05   -4.03833528965746e-05
-8.436971053684539e-05   1.61703697359139e-05   -4.03833528965746e-05
-8.436971053684539e-05   1.61703697359139e-05   -4.03833528965746e-05
-8.436971053684539e-05   1.61703697359139e-05   -4.03833528965746e-05
-5.721926017091347e-05   1.2469558473273464e-05   2.6469109557278716e-06
-5.721926017091347e-05   1.2469558473273464e-05   2.6469109557278716e-06
-5.721926017091347e-05   1.2469558473273464e-05   2.6469109557278716e-06
-5.721926017091347e-05   1.2469558473273464e-05   2.6469109557278716e-06
-5.727958485360847e-05   1.706774027478012e-05   -3.2521630174849677e-05
-5.727958485360847e-05   1.706774027478012e-05   -3.2521630174849677e-05
-5.727958485360847e-05   1.706774027478012e-05   -3.2521630174849677e-05
-5.727958485360847e-05   1.706774027478012e-05   -3.2521630174849677e-05
-8.269826528781621e-05   1.3335653644817478e-05   1.2082089193473744e-05
-8.269826528781621e-05   1.3335653644817478e-05   1.2082089193473744e-05
-8.269826528781621e-05   1.3335653644817478e-05   1.2082089193473744e-05
-8.269826528781621e-05   1.3335653644817478e-05   1.2082089193473744e-05
-6.770975434564335e-05   1.4518009080163744e-05   -1.3608175638021185e-05
-6.770975434564335e-05   1.4518009080163744e-05   -1.3608175638021185e-05
-6.770975434564335e-05   1.4518009080163744e-05   -1.3608175638021185e-05
-6.770975434564335e-05   1.4518009080163744e-05   -1.3608175638021185e-05
-5.69964603583244e-05   5.831885783778824e-06   -6.940167532332392e-05
-5.69964603583244e-05   5.831885783778824e-06   -6.940167532332392e-05
-5.69964603583244e-05   5.831885783778824e-06   -6.940167532332392e-05
-5.69964603583244e-05   5.831885783778824e-06   -6.940167532332392e-05
-2.8995364739191286e-05   4.77584854435061e-06   -2.3366804968425554e-05
-2.8995364739191286e-05   4.77584854435061e-06   -2.3366804968425554e-05
-2.8995364739191286e-05   4.77584854435061e-06   -2.3366804968425554e-05
-2.8995364739191286e-05   4.77584854435061e-06   -2.3366804968425554e-05
-2.9349718210768073e-05   8.13641713264386e-06   -6.842023284351446e-05
-2.9349718210768073e-05   8.13641713264386e-06   -6.842023284351446e-05
-2.9349718210768073e-05   8.13641713264386e-06   -6.842023284351446e-05
-2.9349718210768073e-05   8.13641713264386e-06   -6.842023284351446e-05
-5.727456039050666e-05   6.749234740729688e-06   -2.104651977546815e-05
-5.727456039050666e-05   6.749234740729688e-06   -2.104651977546815e-05
-5.727456039050666e-05   6.749234740729688e-06   -2.104651977546815e-05
-5.727456039050666e-05   6.749234740729688e-06   -2.104651977546815e-05
-4.278485524606868e-05   6.723592306726056e-06   -4.5180642889129354e-05
-4.278485524606868e-05   6.723592306726056e-06   -4.5180642889129354e-05
-4.278485524606868e-05   6.723592306726056e-06   -4.5180642889129354e-05
-4.278485524606868e-05   6.723592306726056e-06   -4.5180642889129354e-05
-5.7274560390506684e-05   8.13641713264386e-06   -6.758792340836578e-05
-5.7274560390506684e-05   8.13641713264386e-06   -6.758792340836578e-05
-5.7274560390506684e-05   8.13641713264386e-06   -6.758792340836578e-05
-5.7274560390506684e-05   8.13641713264386e-06   -6.758792340836578e-05
-2.9349718210768127e-05   6.749234740729797e-06   -2.1878829210616542e-05
-2.9349718210768127e-05   6.749234740729797e-06   -2.1878829210616542e-05
-2.9349718210768127e-05   6.749234740729797e-06   -2.1878829210616542e-05
-2.9349718210768127e-05   6.749234740729797e-06   -2.1878829210616542e-05
-2.958026232344729e-05   1.0043510033995071e-05   -6.660853858530771e-05
-2.958026232344729e-05   1.0043510033995071e-05   -6.660853858530771e-05
-2.958026232344729e-05   1.0043510033995071e-05   -6.660853858530771e-05
-2.958026232344729e-05   1.0043510033995071e-05   -6.660853858530771e-05
-5.721926017091339e-05   8.501892180163575e-06   -1.9618571460565772e-05
-5.721926017091339e-05   8.501892180163575e-06   -1.9618571460565772e-05
-5.721926017091339e-05   8.501892180163575e-06   -1.9618571460565772e-05
-5.721926017091339e-05   8.501892180163575e-06   -1.9618571460565772e-05
-4.286603463531373e-05   8.346737820136806e-06   -4.344752140388169e-05
-4.286603463531373e-05   8.346737820136806e-06   -4.344752140388169e-05
-4.286603463531373e-05   8.346737820136806e-06   -4.344752140388169e-05
-4.286603463531373e-05   8.346737820136806e-06   -4.344752140388169e-05
-5.721926017091339e-05   1.0043510033995071e-05   -6.568356787300895e-05
-5.721926017091339e-05   1.0043510033995071e-05   -6.568356787300895e-05
-5.721926017091339e-05   1.0043510033995071e-05   -6.568356787300895e-05
-5.721926017091339e-05   1.0043510033995071e-05   -6.568356787300895e-05
-2.95802623234474e-05   8.501892180163575e-06   -2.0543542172864407e-05
-2.95802623234474e-05   8.501892180163575e-06   -2.0543542172864407e-05
-2.95802623234474e-05   8.501892180163575e-06   -2.0543542172864407e-05
-2.95802623234474e-05   8.501892180163575e-06   -2.0543542172864407e-05
-2.9877773756834835e-05   1.2095088931788147e-05   -6.644718598287328e-05
-2.9877773756834835e-05   1.2095088931788147e-05   -6.644718598287328e-05
-2.9877773756834835e-05   1.2095088931788147e-05   -6.644718598287328e-05
-2.9877773756834835e-05   1.2095088931788147e-05   -6.644718598287328e-05
-5.7279584853608446e-05   1.0365719836653202e-05   -1.9739879364502827e-05
-5.7279584853608446e-05   1.0365719836653202e-05   -1.9739879364502827e-05
-5.7279584853608446e-05   1.0365719836653202e-05   -1.9739879364502827e-05
-5.7279584853608446e-05   1.0365719836653202e-05   -1.9739879364502827e-05
-4.337608545391821e-05   9.953974641461008e-06   -4.2665331246870806e-05
-4.337608545391821e-05   9.953974641461008e-06   -4.2665331246870806e-05
-4.337608545391821e-05   9.953974641461008e-06   -4.2665331246870806e-05
-4.337608545391821e-05   9.953974641461008e-06   -4.2665331246870806e-05
-2.899536473919123e-05   -1.726815986633043e-07   -7.480442876828738e-05
-2.899536473919123e-05   -1.726815986633043e-07   -7.480442876828738e-05
-2.899536473919123e-05   -1.726815986633043e-07   -7.480442876828738e-05
-2.899536473919123e-05   -1.726815986633043e-07   -7.480442876828738e-05
-1.3098513289881635e-06   2.539306507792858e-07   -2.840593906828335e-05
-1.3098513289881635e-06   2.539306507792858e-07   -2.840593906828335e-05
-1.3098513289881635e-06   2.539306507792858e-07   -2.840593906828335e-05
-1.3098513289881635e-06   2.539306507792858e-07   -2.840593906828335e-05
-1.5944487310361372e-06   1.950411676865415e-06   -7.410800808050049e-05
-1.5944487310361372e-06   1.950411676865415e-06   -7.410800808050049e-05
-1.5944487310361372e-06   1.950411676865415e-06   -7.410800808050049e-05
-1.5944487310361372e-06   1.950411676865415e-06   -7.410800808050049e-05
-2.9349718210768073e-05   2.1959576228015604e-06   -2.7996553181842423e-05
-2.9349718210768073e-05   2.1959576228015604e-06   -2.7996553181842423e-05
-2.9349718210768073e-05   2.1959576228015604e-06   -2.7996553181842423e-05
-2.9349718210768073e-05   2.1959576228015604e-06   -2.7996553181842423e-05
-1.522646420760852e-05   1.2790974802978942e-06   -5.098519376827282e-05
-1.522646420760852e-05   1.2790974802978942e-06   -5.098519376827282e-05
-1.522646420760852e-05   1.2790974802978942e-06   -5.098519376827282e-05
-1.522646420760852e-05   1.2790974802978942e-06   -5.098519376827282e-05
-2.9349718210768073e-05   1.950411676865469e-06   -7.425533564806228e-05
-2.9349718210768073e-05   1.950411676865469e-06   -7.425533564806228e-05
-2.9349718210768073e-05   1.950411676865469e-06   -7.425533564806228e-05
-2.9349718210768073e-05   1.950411676865469e-06   -7.425533564806228e-05
-1.5944487310361397e-06   2.195957622801452e-06   -2.7849225614280632e-05
-1.5944487310361397e-06   2.195957622801452e-06   -2.7849225614280632e-05
-1.5944487310361397e-06   2.195957622801452e-06   -2.7849225614280632e-05
-1.5944487310361397e-06   2.195957622801452e-06   -2.7849225614280632e-05
-1.8008542978680103e-06   4.024693390715546e-06   -7.430998222696783e-05
-1.8008542978680103e-06   4.024693390715546e-06   -7.430998222696783e-05
-1.8008542978680103e-06   4.024693390715546e-06   -7.430998222696783e-05
-1.8008542978680103e-06   4.024693390715546e-06   -7.430998222696783e-05
-2.9580262323447345e-05   4.132147266191545e-06   -2.8075441176288174e-05
-2.9580262323447345e-05   4.132147266191545e-06   -2.8075441176288174e-05
-2.9580262323447345e-05   4.132147266191545e-06   -2.8075441176288174e-05
-2.9580262323447345e-05   4.132147266191545e-06   -2.8075441176288174e-05
-1.55931534813741e-05   2.9916449043029597e-06   -5.070298782927666e-05
-1.55931534813741e-05   2.9916449043029597e-06   -5.070298782927666e-05
-1.55931534813741e-05   2.9916449043029597e-06   -5.070298782927666e-05
-1.55931534813741e-05   2.9916449043029597e-06   -5.070298782927666e-05
-2.9580262323447345e-05   4.024693390715546e-06   -7.437445455225357e-05
-2.9580262323447345e-05   4.024693390715546e-06   -7.437445455225357e-05
-2.9580262323447345e-05   4.024693390715546e-06   -7.437445455225357e-05
-2.9580262323447345e-05   4.024693390715546e-06   -7.437445455225357e-05
-1.8008542978680128e-06   4.132147266191545e-06   -2.8010968851002217e-05
-1.8008542978680128e-06   4.132147266191545e-06   -2.8010968851002217e-05
-1.8008542978680128e-06   4.132147266191545e-06   -2.8010968851002217e-05
-1.8008542978680128e-06   4.132147266191545e-06   -2.8010968851002217e-05
-2.1239146452687726e-06   6.186056232455309e-06   -7.526644006310211e-05
-2.1239146452687726e-06   6.186056232455309e-06   -7.526644006310211e-05
-2.1239146452687726e-06   6.186056232455309e-06   -7.526644006310211e-05
-2.1239146452687726e-06   6.186056232455309e-06   -7.526644006310211e-05
-2.9877773756834807e-05   6.11340056657229e-06   -2.8966414810962577e-05
-2.9877773756834807e-05   6.11340056657229e-06   -2.8966414810962577e-05
-2.9877773756834807e-05   6.11340056657229e-06   -2.8966414810962577e-05
-2.9877773756834807e-05   6.11340056657229e-06   -2.8966414810962577e-05
-1.598258038852828e-05   4.7245310641292e-06   -5.1291748723340414e-05
-1.598258038852828e-05   4.7245310641292e-06   -5.1291748723340414e-05
-1.598258038852828e-05   4.7245310641292e-06   -5.1291748723340414e-05
-1.598258038852828e-05   4.7245310641292e-06   -5.1291748723340414e-05
-1.3098513289881651e-06   -5.960198253493487e-06   -6.684638406517329e-05
-1.3098513289881651e-06   -5.960198253493487e-06   -6.684638406517329e-05
-1.3098513289881651e-06   -5.960198253493487e-06   -6.684638406517329e-05
-1.3098513289881651e-06   -5.960198253493487e-06   -6.684638406517329e-05
2.6239534405974758e-05   -3.999352865783224e-06   -1.9754233940942384e-05
2.6239534405974758e-05   -3.999352865783224e-06   -1.9754233940942384e-05
2.6239534405974758e-05   -3.999352865783224e-06   -1.9754233940942384e-05
2.6239534405974758e-05   -3.999352865783224e-06   -1.9754233940942384e-05
2.621722922694485e-05   -4.031835348263099e-06   -6.60814272167366e-05
2.621722922694485e-05   -4.031835348263099e-06   -6.60814272167366e-05
2.621722922694485e-05   -4.031835348263099e-06   -6.60814272167366e-05
2.621722922694485e-05   -4.031835348263099e-06   -6.60814272167366e-05
-1.5944487310361397e-06   -2.2199115290251394e-06   -2.081578491164439e-05
-1.5944487310361397e-06   -2.2199115290251394e-06   -2.081578491164439e-05
-1.5944487310361397e-06   -2.2199115290251394e-06   -2.081578491164439e-05
-1.5944487310361397e-06   -2.2199115290251394e-06   -2.081578491164439e-05
1.2293336242115318e-05   -3.913128574783769e-06   -4.294616297277498e-05
1.2293336242115318e-05   -3.913128574783769e-06   -4.294616297277498e-05
1.2293336242115318e-05   -3.913128574783769e-06   -4.294616297277498e-05
1.2293336242115318e-05   -3.913128574783769e-06   -4.294616297277498e-05
-1.5944487310361397e-06   -4.031835348263153e-06   -6.716858150827932e-05
-1.5944487310361397e-06   -4.031835348263153e-06   -6.716858150827932e-05
-1.5944487310361397e-06   -4.031835348263153e-06   -6.716858150827932e-05
-1.5944487310361397e-06   -4.031835348263153e-06   -6.716858150827932e-05
2.621722922694485e-05   -2.219911529025031e-06   -1.9728630620101492e-05
2.621722922694485e-05   -2.219911529025031e-06   -1.9728630620101492e-05
2.621722922694485e-05   -2.219911529025031e-06   -1.9728630620101492e-05
2.621722922694485e-05   -2.219911529025031e-06   -1.9728630620101492e-05
2.633804564405073e-05   -2.1424851901128664e-06   -6.783170894955707e-05
2.633804564405073e-05   -2.1424851901128664e-06   -6.783170894955707e-05
2.633804564405073e-05   -2.1424851901128664e-06   -6.783170894955707e-05
2.633804564405073e-05   -2.1424851901128664e-06   -6.783170894955707e-05
-1.800854297868017e-06   -4.7080998394951473e-07   -2.1936547503390675e-05
-1.800854297868017e-06   -4.7080998394951473e-07   -2.1936547503390675e-05
-1.800854297868017e-06   -4.7080998394951473e-07   -2.1936547503390675e-05
-1.800854297868017e-06   -4.7080998394951473e-07   -2.1936547503390675e-05
1.1914683703898721e-05   -2.3700032685619815e-06   -4.365626153556743e-05
1.1914683703898721e-05   -2.3700032685619815e-06   -4.365626153556743e-05
1.1914683703898721e-05   -2.3700032685619815e-06   -4.365626153556743e-05
1.1914683703898721e-05   -2.3700032685619815e-06   -4.365626153556743e-05
-1.800854297868012e-06   -2.1424851901128664e-06   -6.883471407325475e-05
-1.800854297868012e-06   -2.1424851901128664e-06   -6.883471407325475e-05
-1.800854297868012e-06   -2.1424851901128664e-06   -6.883471407325475e-05
-1.800854297868012e-06   -2.1424851901128664e-06   -6.883471407325475e-05
2.633804564405073e-05   -4.7080998394951473e-07   -2.093354237969237e-05
2.633804564405073e-05   -4.7080998394951473e-07   -2.093354237969237e-05
2.633804564405073e-05   -4.7080998394951473e-07   -2.093354237969237e-05
2.633804564405073e-05   -4.7080998394951473e-07   -2.093354237969237e-05
2.613335952643502e-05   1.9493707188451663e-07   -6.981364073871727e-05
2.613335952643502e-05   1.9493707188451663e-07   -6.981364073871727e-05
2.613335952643502e-05   1.9493707188451663e-07   -6.981364073871727e-05
2.613335952643502e-05   1.9493707188451663e-07   -6.981364073871727e-05
-2.123914645268776e-06   1.574886119882937e-06   -2.354615321467674e-05
-2.123914645268776e-06   1.574886119882937e-06   -2.354615321467674e-05
-2.123914645268776e-06   1.574886119882937e-06   -2.354615321467674e-05
-2.123914645268776e-06   1.574886119882937e-06   -2.354615321467674e-05
1.1780629232675153e-05   -7.183702203092997e-07   -4.53444392071343e-05
1.1780629232675153e-05   -7.183702203092997e-07   -4.53444392071343e-05
1.1780629232675153e-05   -7.183702203092997e-07   -4.53444392071343e-05
1.1780629232675153e-05   -7.183702203092997e-07   -4.53444392071343e-05
2.6239534405974704e-05   -1.1081494925193952e-05   -3.740894462883978e-05
2.6239534405974704e-05   -1.1081494925193952e-05   -3.740894462883978e-05
2.6239534405974704e-05   -1.1081494925193952e-05   -3.740894462883978e-05
2.6239534405974704e-05   -1.1081494925193952e-05   -3.740894462883978e-05
5.204998846413937e-05   -7.257726285489854e-06   7.902739985257267e-06
5.204998846413937e-05   -7.257726285489854e-06   7.902739985257267e-06
5.204998846413937e-05   -7.257726285489854e-06   7.902739985257267e-06
5.204998846413937e-05   -7.257726285489854e-06   7.902739985257267e-06
5.3797483153472e-05   -1.0056615515967933e-05   -4.2105355547098617e-05
5.3797483153472e-05   -1.0056615515967933e-05   -4.2105355547098617e-05
5.3797483153472e-05   -1.0056615515967933e-05   -4.2105355547098617e-05
5.3797483153472e-05   -1.0056615515967933e-05   -4.2105355547098617e-05
2.621722922694481e-05   -6.233350827491318e-06   1.5677755173607586e-06
2.621722922694481e-05   -6.233350827491318e-06   1.5677755173607586e-06
2.621722922694481e-05   -6.233350827491318e-06   1.5677755173607586e-06
2.621722922694481e-05   -6.233350827491318e-06   1.5677755173607586e-06
3.788451026871367e-05   -8.554957344103216e-06   -1.648472897562025e-05
3.788451026871367e-05   -8.554957344103216e-06   -1.648472897562025e-05
3.788451026871367e-05   -8.554957344103216e-06   -1.648472897562025e-05
3.788451026871367e-05   -8.554957344103216e-06   -1.648472897562025e-05
2.621722922694478e-05   -1.0056615515967933e-05   -4.4399314360184456e-05
2.621722922694478e-05   -1.0056615515967933e-05   -4.4399314360184456e-05
2.621722922694478e-05   -1.0056615515967933e-05   -4.4399314360184456e-05
2.621722922694478e-05   -1.0056615515967933e-05   -4.4399314360184456e-05
5.3797483153472e-05   -6.233350827491318e-06   3.861734330446896e-06
5.3797483153472e-05   -6.233350827491318e-06   3.861734330446896e-06
5.3797483153472e-05   -6.233350827491318e-06   3.861734330446896e-06
5.3797483153472e-05   -6.233350827491318e-06   3.861734330446896e-06
5.513926125833219e-05   -8.969246853482969e-06   -4.7492829529762736e-05
5.513926125833219e-05   -8.969246853482969e-06   -4.7492829529762736e-05
5.513926125833219e-05   -8.969246853482969e-06   -4.7492829529762736e-05
5.513926125833219e-05   -8.969246853482969e-06   -4.7492829529762736e-05
2.6338045644050637e-05   -5.353621707762462e-06   -1.660178593392795e-06
2.6338045644050637e-05   -5.353621707762462e-06   -1.660178593392795e-06
2.6338045644050637e-05   -5.353621707762462e-06   -1.660178593392795e-06
2.6338045644050637e-05   -5.353621707762462e-06   -1.660178593392795e-06
3.9167347932772836e-05   -7.89392352085823e-06   -2.151816798673877e-05
3.9167347932772836e-05   -7.89392352085823e-06   -2.151816798673877e-05
3.9167347932772836e-05   -7.89392352085823e-06   -2.151816798673877e-05
3.9167347932772836e-05   -7.89392352085823e-06   -2.151816798673877e-05
2.633804564405069e-05   -8.969246853482969e-06   -4.9662204617195136e-05
2.633804564405069e-05   -8.969246853482969e-06   -4.9662204617195136e-05
2.633804564405069e-05   -8.969246853482969e-06   -4.9662204617195136e-05
2.633804564405069e-05   -8.969246853482969e-06   -4.9662204617195136e-05
5.513926125833208e-05   -5.353621707762462e-06   5.091964940398888e-07
5.513926125833208e-05   -5.353621707762462e-06   5.091964940398888e-07
5.513926125833208e-05   -5.353621707762462e-06   5.091964940398888e-07
5.513926125833208e-05   -5.353621707762462e-06   5.091964940398888e-07
5.656794323754196e-05   -6.628952466711843e-06   -5.6656053281548344e-05
5.656794323754196e-05   -6.628952466711843e-06   -5.6656053281548344e-05
5.656794323754196e-05   -6.628952466711843e-06   -5.6656053281548344e-05
5.656794323754196e-05   -6.628952466711843e-06   -5.6656053281548344e-05
2.6133359526434925e-05   -3.473439726880273e-06   -7.825054740269216e-06
2.6133359526434925e-05   -3.473439726880273e-06   -7.825054740269216e-06
2.6133359526434925e-05   -3.473439726880273e-06   -7.825054740269216e-06
2.6133359526434925e-05   -3.473439726880273e-06   -7.825054740269216e-06
3.899580370346042e-05   -6.8017770544583946e-06   -2.726545930543123e-05
3.899580370346042e-05   -6.8017770544583946e-06   -2.726545930543123e-05
3.899580370346042e-05   -6.8017770544583946e-06   -2.726545930543123e-05
3.899580370346042e-05   -6.8017770544583946e-06   -2.726545930543123e-05
-6.253237589006681e-05   9.581361589025583e-06   -4.754661189744757e-05
-6.253237589006681e-05   9.581361589025583e-06   -4.754661189744757e-05
-6.253237589006681e-05   9.581361589025583e-06   -4.754661189744757e-05
-6.253237589006681e-05   9.581361589025583e-06   -4.754661189744757e-05
-4.256182901102052e-05   6.099137573547034e-06   -1.6351701508323964e-05
-4.256182901102052e-05   6.099137573547034e-06   -1.6351701508323964e-05
-4.256182901102052e-05   6.099137573547034e-06   -1.6351701508323964e-05
-4.256182901102052e-05   6.099137573547034e-06   -1.6351701508323964e-05
-4.2407222251414405e-05   1.1588242182650871e-05   -4.0392015885421114e-05
-4.2407222251414405e-05   1.1588242182650871e-05   -4.0392015885421114e-05
-4.2407222251414405e-05   1.1588242182650871e-05   -4.0392015885421114e-05
-4.2407222251414405e-05   1.1588242182650871e-05   -4.0392015885421114e-05
-6.066593085102289e-05   7.761225777418689e-06   -7.664625042934294e-06
-6.066593085102289e-05   7.761225777418689e-06   -7.664625042934294e-06
-6.066593085102289e-05   7.761225777418689e-06   -7.664625042934294e-06
-6.066593085102289e-05   7.761225777418689e-06   -7.664625042934294e-06
-4.983407862320895e-05   9.225519541605776e-06   -2.6596288347803033e-05
-4.983407862320895e-05   9.225519541605776e-06   -2.6596288347803033e-05
-4.983407862320895e-05   9.225519541605776e-06   -2.6596288347803033e-05
-4.983407862320895e-05   9.225519541605776e-06   -2.6596288347803033e-05
-6.066593085102289e-05   1.1588242182650871e-05   -3.809580604228178e-05
-6.066593085102289e-05   1.1588242182650871e-05   -3.809580604228178e-05
-6.066593085102289e-05   1.1588242182650871e-05   -3.809580604228178e-05
-6.066593085102289e-05   1.1588242182650871e-05   -3.809580604228178e-05
-4.2407222251414486e-05   7.761225777418689e-06   -9.960834886073595e-06
-4.2407222251414486e-05   7.761225777418689e-06   -9.960834886073595e-06
-4.2407222251414486e-05   7.761225777418689e-06   -9.960834886073595e-06
-4.2407222251414486e-05   7.761225777418689e-06   -9.960834886073595e-06
-4.208583223170372e-05   1.2469558473273356e-05   -3.5221390539752224e-05
-4.208583223170372e-05   1.2469558473273356e-05   -3.5221390539752224e-05
-4.208583223170372e-05   1.2469558473273356e-05   -3.5221390539752224e-05
-4.208583223170372e-05   1.2469558473273356e-05   -3.5221390539752224e-05
-5.927003989865642e-05   8.53511202169319e-06   -4.220376557216056e-06
-5.927003989865642e-05   8.53511202169319e-06   -4.220376557216056e-06
-5.927003989865642e-05   8.53511202169319e-06   -4.220376557216056e-06
-5.927003989865642e-05   8.53511202169319e-06   -4.220376557216056e-06
-4.983817993738909e-05   1.0152853235696974e-05   -2.091078788773093e-05
-4.983817993738909e-05   1.0152853235696974e-05   -2.091078788773093e-05
-4.983817993738909e-05   1.0152853235696974e-05   -2.091078788773093e-05
-4.983817993738909e-05   1.0152853235696974e-05   -2.091078788773093e-05
-5.927003989865642e-05   1.2469558473273356e-05   -3.286072266880393e-05
-5.927003989865642e-05   1.2469558473273356e-05   -3.286072266880393e-05
-5.927003989865642e-05   1.2469558473273356e-05   -3.286072266880393e-05
-5.927003989865642e-05   1.2469558473273356e-05   -3.286072266880393e-05
-4.20858322317038e-05   8.53511202169319e-06   -6.581044428164103e-06
-4.20858322317038e-05   8.53511202169319e-06   -6.581044428164103e-06
-4.20858322317038e-05   8.53511202169319e-06   -6.581044428164103e-06
-4.20858322317038e-05   8.53511202169319e-06   -6.581044428164103e-06
-4.195673925386356e-05   1.3335653644817587e-05   -2.8061950173701887e-05
-4.195673925386356e-05   1.3335653644817587e-05   -2.8061950173701887e-05
-4.195673925386356e-05   1.3335653644817587e-05   -2.8061950173701887e-05
-4.195673925386356e-05   1.3335653644817587e-05   -2.8061950173701887e-05
-5.74428500931731e-05   9.50745617563282e-06   4.515303999176167e-08
-5.74428500931731e-05   9.50745617563282e-06   4.515303999176167e-08
-5.74428500931731e-05   9.50745617563282e-06   4.515303999176167e-08
-5.74428500931731e-05   9.50745617563282e-06   4.515303999176167e-08
-4.8364381192538594e-05   1.0654337627959902e-05   -1.5773757332462163e-05
-4.8364381192538594e-05   1.0654337627959902e-05   -1.5773757332462163e-05
-4.8364381192538594e-05   1.0654337627959902e-05   -1.5773757332462163e-05
-4.8364381192538594e-05   1.0654337627959902e-05   -1.5773757332462163e-05
-4.2561829011020463e-05   4.77584854435061e-06   -6.055189479903207e-05
-4.2561829011020463e-05   4.77584854435061e-06   -6.055189479903207e-05
-4.2561829011020463e-05   4.77584854435061e-06   -6.055189479903207e-05
-4.2561829011020463e-05   4.77584854435061e-06   -6.055189479903207e-05
-2.4465431212138442e-05   3.1506347950161894e-06   -3.1366360050496265e-05
-2.4465431212138442e-05   3.1506347950161894e-06   -3.1366360050496265e-05
-2.4465431212138442e-05   3.1506347950161894e-06   -3.1366360050496265e-05
-2.4465431212138442e-05   3.1506347950161894e-06   -3.1366360050496265e-05
-2.44771586341853e-05   6.749234740729688e-06   -6.003322229084537e-05
-2.44771586341853e-05   6.749234740729688e-06   -6.003322229084537e-05
-2.44771586341853e-05   6.749234740729688e-06   -6.003322229084537e-05
-2.44771586341853e-05   6.749234740729688e-06   -6.003322229084537e-05
-4.2407222251414405e-05   4.904988934137291e-06   -2.9043235444841276e-05
-4.2407222251414405e-05   4.904988934137291e-06   -2.9043235444841276e-05
-4.2407222251414405e-05   4.904988934137291e-06   -2.9043235444841276e-05
-4.2407222251414405e-05   4.904988934137291e-06   -2.9043235444841276e-05
-3.316938650382262e-05   5.222248402750665e-06   -4.462998403866237e-05
-3.316938650382262e-05   5.222248402750665e-06   -4.462998403866237e-05
-3.316938650382262e-05   5.222248402750665e-06   -4.462998403866237e-05
-3.316938650382262e-05   5.222248402750665e-06   -4.462998403866237e-05
-4.240722225141438e-05   6.749234740729688e-06   -5.8926674806889564e-05
-4.240722225141438e-05   6.749234740729688e-06   -5.8926674806889564e-05
-4.240722225141438e-05   6.749234740729688e-06   -5.8926674806889564e-05
-4.240722225141438e-05   6.749234740729688e-06   -5.8926674806889564e-05
-2.44771586341853e-05   4.904988934137508e-06   -3.0149782928796704e-05
-2.44771586341853e-05   4.904988934137508e-06   -3.0149782928796704e-05
-2.44771586341853e-05   4.904988934137508e-06   -3.0149782928796704e-05
-2.44771586341853e-05   4.904988934137508e-06   -3.0149782928796704e-05
-2.445880305256111e-05   8.501892180163575e-06   -5.868752206612045e-05
-2.445880305256111e-05   8.501892180163575e-06   -5.868752206612045e-05
-2.445880305256111e-05   8.501892180163575e-06   -5.868752206612045e-05
-2.445880305256111e-05   8.501892180163575e-06   -5.868752206612045e-05
-4.208583223170372e-05   6.500810330038742e-06   -2.810849099080785e-05
-4.208583223170372e-05   6.500810330038742e-06   -2.810849099080785e-05
-4.208583223170372e-05   6.500810330038742e-06   -2.810849099080785e-05
-4.208583223170372e-05   6.500810330038742e-06   -2.810849099080785e-05
-3.301455809646075e-05   6.662483645735167e-06   -4.332428520563029e-05
-3.301455809646075e-05   6.662483645735167e-06   -4.332428520563029e-05
-3.301455809646075e-05   6.662483645735167e-06   -4.332428520563029e-05
-3.301455809646075e-05   6.662483645735167e-06   -4.332428520563029e-05
-4.208583223170372e-05   8.501892180163575e-06   -5.748687295604554e-05
-4.208583223170372e-05   8.501892180163575e-06   -5.748687295604554e-05
-4.208583223170372e-05   8.501892180163575e-06   -5.748687295604554e-05
-4.208583223170372e-05   8.501892180163575e-06   -5.748687295604554e-05
-2.4458803052561164e-05   6.500810330038742e-06   -2.9309140100882623e-05
-2.4458803052561164e-05   6.500810330038742e-06   -2.9309140100882623e-05
-2.4458803052561164e-05   6.500810330038742e-06   -2.9309140100882623e-05
-2.4458803052561164e-05   6.500810330038742e-06   -2.9309140100882623e-05
-2.4477988239710296e-05   1.0365719836653202e-05   -5.892389069766721e-05
-2.4477988239710296e-05   1.0365719836653202e-05   -5.892389069766721e-05
-2.4477988239710296e-05   1.0365719836653202e-05   -5.892389069766721e-05
-2.4477988239710296e-05   1.0365719836653202e-05   -5.892389069766721e-05
-4.1956739253863585e-05   8.233679930042892e-06   -2.851341506344534e-05
-4.1956739253863585e-05   8.233679930042892e-06   -2.851341506344534e-05
-4.1956739253863585e-05   8.233679930042892e-06   -2.851341506344534e-05
-4.1956739253863585e-05   8.233679930042892e-06   -2.851341506344534e-05
-3.32280721010973e-05   8.086740849807855e-06   -4.297303020324813e-05
-3.32280721010973e-05   8.086740849807855e-06   -4.297303020324813e-05
-3.32280721010973e-05   8.086740849807855e-06   -4.297303020324813e-05
-3.32280721010973e-05   8.086740849807855e-06   -4.297303020324813e-05
-2.44654312121384e-05   2.539306507792858e-07   -6.682212449815643e-05
-2.44654312121384e-05   2.539306507792858e-07   -6.682212449815643e-05
-2.44654312121384e-05   2.539306507792858e-07   -6.682212449815643e-05
-2.44654312121384e-05   2.539306507792858e-07   -6.682212449815643e-05
-6.622908912412598e-06   5.407846057341615e-07   -3.691247495897368e-05
-6.622908912412598e-06   5.407846057341615e-07   -3.691247495897368e-05
-6.622908912412598e-06   5.407846057341615e-07   -3.691247495897368e-05
-6.622908912412598e-06   5.407846057341615e-07   -3.691247495897368e-05
-6.635217936954168e-06   2.1959576228015604e-06   -6.60860542956483e-05
-6.635217936954168e-06   2.1959576228015604e-06   -6.60860542956483e-05
-6.635217936954168e-06   2.1959576228015604e-06   -6.60860542956483e-05
-6.635217936954168e-06   2.1959576228015604e-06   -6.60860542956483e-05
-2.447715863418526e-05   2.3041109001725735e-06   -3.641437843335252e-05
-2.447715863418526e-05   2.3041109001725735e-06   -3.641437843335252e-05
-2.447715863418526e-05   2.3041109001725735e-06   -3.641437843335252e-05
-2.447715863418526e-05   2.3041109001725735e-06   -3.641437843335252e-05
-1.5447004012276686e-05   1.55133441035371e-06   -5.101297024264219e-05
-1.5447004012276686e-05   1.55133441035371e-06   -5.101297024264219e-05
-1.5447004012276686e-05   1.55133441035371e-06   -5.101297024264219e-05
-1.5447004012276686e-05   1.55133441035371e-06   -5.101297024264219e-05
-2.447715863418526e-05   2.1959576228015604e-06   -6.615094626207104e-05
-2.447715863418526e-05   2.1959576228015604e-06   -6.615094626207104e-05
-2.447715863418526e-05   2.1959576228015604e-06   -6.615094626207104e-05
-2.447715863418526e-05   2.1959576228015604e-06   -6.615094626207104e-05
-6.635217936954168e-06   2.3041109001725735e-06   -3.634948646692986e-05
-6.635217936954168e-06   2.3041109001725735e-06   -3.634948646692986e-05
-6.635217936954168e-06   2.3041109001725735e-06   -3.634948646692986e-05
-6.635217936954168e-06   2.3041109001725735e-06   -3.634948646692986e-05
-6.611538675397726e-06   4.132147266191653e-06   -6.625487001453553e-05
-6.611538675397726e-06   4.132147266191653e-06   -6.625487001453553e-05
-6.611538675397726e-06   4.132147266191653e-06   -6.625487001453553e-05
-6.611538675397726e-06   4.132147266191653e-06   -6.625487001453553e-05
-2.445880305256111e-05   4.073065691205134e-06   -3.647398044093826e-05
-2.445880305256111e-05   4.073065691205134e-06   -3.647398044093826e-05
-2.445880305256111e-05   4.073065691205134e-06   -3.647398044093826e-05
-2.445880305256111e-05   4.073065691205134e-06   -3.647398044093826e-05
-1.5550146608923856e-05   3.093554745588027e-06   -5.073403461296338e-05
-1.5550146608923856e-05   3.093554745588027e-06   -5.073403461296338e-05
-1.5550146608923856e-05   3.093554745588027e-06   -5.073403461296338e-05
-1.5550146608923856e-05   3.093554745588027e-06   -5.073403461296338e-05
-2.445880305256111e-05   4.132147266191545e-06   -6.621942106954388e-05
-2.445880305256111e-05   4.132147266191545e-06   -6.621942106954388e-05
-2.445880305256111e-05   4.132147266191545e-06   -6.621942106954388e-05
-2.445880305256111e-05   4.132147266191545e-06   -6.621942106954388e-05
-6.611538675397738e-06   4.073065691205351e-06   -3.650942938592986e-05
-6.611538675397738e-06   4.073065691205351e-06   -3.650942938592986e-05
-6.611538675397738e-06   4.073065691205351e-06   -3.650942938592986e-05
-6.611538675397738e-06   4.073065691205351e-06   -3.650942938592986e-05
-6.621817368393161e-06   6.113400566572398e-06   -6.725707550159221e-05
-6.621817368393161e-06   6.113400566572398e-06   -6.725707550159221e-05
-6.621817368393161e-06   6.113400566572398e-06   -6.725707550159221e-05
-6.621817368393161e-06   6.113400566572398e-06   -6.725707550159221e-05
-2.447798823971027e-05   5.872949208995124e-06   -3.735251990151712e-05
-2.447798823971027e-05   5.872949208995124e-06   -3.735251990151712e-05
-2.447798823971027e-05   5.872949208995124e-06   -3.735251990151712e-05
-2.447798823971027e-05   5.872949208995124e-06   -3.735251990151712e-05
-1.5683576571654002e-05   4.65602400405538e-06   -5.1279717558647044e-05
-1.5683576571654002e-05   4.65602400405538e-06   -5.1279717558647044e-05
-1.5683576571654002e-05   4.65602400405538e-06   -5.1279717558647044e-05
-1.5683576571654002e-05   4.65602400405538e-06   -5.1279717558647044e-05
-6.622908912412586e-06   -3.999352865783224e-06   -5.9174814230468476e-05
-6.622908912412586e-06   -3.999352865783224e-06   -5.9174814230468476e-05
-6.622908912412586e-06   -3.999352865783224e-06   -5.9174814230468476e-05
-6.622908912412586e-06   -3.999352865783224e-06   -5.9174814230468476e-05
1.0963625162493194e-05   -1.8465020008044328e-06   -2.8572213586638322e-05
1.0963625162493194e-05   -1.8465020008044328e-06   -2.8572213586638322e-05
1.0963625162493194e-05   -1.8465020008044328e-06   -2.8572213586638322e-05
1.0963625162493194e-05   -1.8465020008044328e-06   -2.8572213586638322e-05
1.110735022417712e-05   -2.2199115290251394e-06   -5.783237503658047e-05
1.110735022417712e-05   -2.2199115290251394e-06   -5.783237503658047e-05
1.110735022417712e-05   -2.2199115290251394e-06   -5.783237503658047e-05
1.110735022417712e-05   -2.2199115290251394e-06   -5.783237503658047e-05
-6.635217936954168e-06   -1.8618060163922215e-07   -2.9481666657793203e-05
-6.635217936954168e-06   -1.8618060163922215e-07   -2.9481666657793203e-05
-6.635217936954168e-06   -1.8618060163922215e-07   -2.9481666657793203e-05
-6.635217936954168e-06   -1.8618060163922215e-07   -2.9481666657793203e-05
2.21301406052831e-06   -1.9098034376254826e-06   -4.319454628533891e-05
2.21301406052831e-06   -1.9098034376254826e-06   -4.319454628533891e-05
2.21301406052831e-06   -1.9098034376254826e-06   -4.319454628533891e-05
2.21301406052831e-06   -1.9098034376254826e-06   -4.319454628533891e-05
-6.635217936954168e-06   -2.2199115290251394e-06   -5.9052613593011934e-05
-6.635217936954168e-06   -2.2199115290251394e-06   -5.9052613593011934e-05
-6.635217936954168e-06   -2.2199115290251394e-06   -5.9052613593011934e-05
-6.635217936954168e-06   -2.2199115290251394e-06   -5.9052613593011934e-05
1.1107350224177147e-05   -1.86180601639439e-07   -2.826142810136178e-05
1.1107350224177147e-05   -1.86180601639439e-07   -2.826142810136178e-05
1.1107350224177147e-05   -1.86180601639439e-07   -2.826142810136178e-05
1.1107350224177147e-05   -1.86180601639439e-07   -2.826142810136178e-05
1.1445173224727527e-05   -4.7080998394962315e-07   -5.905098984230816e-05
1.1445173224727527e-05   -4.7080998394962315e-07   -5.905098984230816e-05
1.1445173224727527e-05   -4.7080998394962315e-07   -5.905098984230816e-05
1.1445173224727527e-05   -4.7080998394962315e-07   -5.905098984230816e-05
-6.611538675397738e-06   1.411621390409604e-06   -3.0085928833381584e-05
-6.611538675397738e-06   1.411621390409604e-06   -3.0085928833381584e-05
-6.611538675397738e-06   1.411621390409604e-06   -3.0085928833381584e-05
-6.611538675397738e-06   1.411621390409604e-06   -3.0085928833381584e-05
2.1114738832470086e-06   -5.287194069017453e-07   -4.34600786194027e-05
2.1114738832470086e-06   -5.287194069017453e-07   -4.34600786194027e-05
2.1114738832470086e-06   -5.287194069017453e-07   -4.34600786194027e-05
2.1114738832470086e-06   -5.287194069017453e-07   -4.34600786194027e-05
-6.611538675397733e-06   -4.7080998394951473e-07   -6.018044866692345e-05
-6.611538675397733e-06   -4.7080998394951473e-07   -6.018044866692345e-05
-6.611538675397733e-06   -4.7080998394951473e-07   -6.018044866692345e-05
-6.611538675397733e-06   -4.7080998394951473e-07   -6.018044866692345e-05
1.1445173224727554e-05   1.4116213904093872e-06   -2.8956470008766077e-05
1.1445173224727554e-05   1.4116213904093872e-06   -2.8956470008766077e-05
1.1445173224727554e-05   1.4116213904093872e-06   -2.8956470008766077e-05
1.1445173224727554e-05   1.4116213904093872e-06   -2.8956470008766077e-05
1.161027748829362e-05   1.574886119882937e-06   -6.07920510100671e-05
1.161027748829362e-05   1.574886119882937e-06   -6.07920510100671e-05
1.161027748829362e-05   1.574886119882937e-06   -6.07920510100671e-05
1.161027748829362e-05   1.574886119882937e-06   -6.07920510100671e-05
-6.62181736839315e-06   3.2435019460650034e-06   -3.140639574463162e-05
-6.62181736839315e-06   3.2435019460650034e-06   -3.140639574463162e-05
-6.62181736839315e-06   3.2435019460650034e-06   -3.140639574463162e-05
-6.62181736839315e-06   3.2435019460650034e-06   -3.140639574463162e-05
2.172933139732124e-06   9.491368562242501e-07   -4.468769420426917e-05
2.172933139732124e-06   9.491368562242501e-07   -4.468769420426917e-05
2.172933139732124e-06   9.491368562242501e-07   -4.468769420426917e-05
2.172933139732124e-06   9.491368562242501e-07   -4.468769420426917e-05
1.096362516249318e-05   -7.257726285489962e-06   -3.2520390969103955e-05
1.096362516249318e-05   -7.257726285489962e-06   -3.2520390969103955e-05
1.096362516249318e-05   -7.257726285489962e-06   -3.2520390969103955e-05
1.096362516249318e-05   -7.257726285489962e-06   -3.2520390969103955e-05
2.6596544133120927e-05   -3.3962524506594635e-06   -4.148641717159488e-06
2.6596544133120927e-05   -3.3962524506594635e-06   -4.148641717159488e-06
2.6596544133120927e-05   -3.3962524506594635e-06   -4.148641717159488e-06
2.6596544133120927e-05   -3.3962524506594635e-06   -4.148641717159488e-06
2.8448516191583925e-05   -6.233350827491318e-06   -3.415939885236582e-05
2.8448516191583925e-05   -6.233350827491318e-06   -3.415939885236582e-05
2.8448516191583925e-05   -6.233350827491318e-06   -3.415939885236582e-05
2.8448516191583925e-05   -6.233350827491318e-06   -3.415939885236582e-05
1.1107350224177134e-05   -2.2724007495708923e-06   -7.634025620106854e-06
1.1107350224177134e-05   -2.2724007495708923e-06   -7.634025620106854e-06
1.1107350224177134e-05   -2.2724007495708923e-06   -7.634025620106854e-06
1.1107350224177134e-05   -2.2724007495708923e-06   -7.634025620106854e-06
1.8456972100210143e-05   -4.641660190241015e-06   -1.846183974909307e-05
1.8456972100210143e-05   -4.641660190241015e-06   -1.846183974909307e-05
1.8456972100210143e-05   -4.641660190241015e-06   -1.846183974909307e-05
1.8456972100210143e-05   -4.641660190241015e-06   -1.846183974909307e-05
1.110735022417712e-05   -6.233350827491318e-06   -3.653596889911787e-05
1.110735022417712e-05   -6.233350827491318e-06   -3.653596889911787e-05
1.110735022417712e-05   -6.233350827491318e-06   -3.653596889911787e-05
1.110735022417712e-05   -6.233350827491318e-06   -3.653596889911787e-05
2.8448516191583817e-05   -2.2724007495706754e-06   -5.25745557335448e-06
2.8448516191583817e-05   -2.2724007495706754e-06   -5.25745557335448e-06
2.8448516191583817e-05   -2.2724007495706754e-06   -5.25745557335448e-06
2.8448516191583817e-05   -2.2724007495706754e-06   -5.25745557335448e-06
2.9873451374498464e-05   -5.353621707762462e-06   -3.7462985677272565e-05
2.9873451374498464e-05   -5.353621707762462e-06   -3.7462985677272565e-05
2.9873451374498464e-05   -5.353621707762462e-06   -3.7462985677272565e-05
2.9873451374498464e-05   -5.353621707762462e-06   -3.7462985677272565e-05
1.1445173224727554e-05   -1.4958877432025286e-06   -9.063829139723667e-06
1.1445173224727554e-05   -1.4958877432025286e-06   -9.063829139723667e-06
1.1445173224727554e-05   -1.4958877432025286e-06   -9.063829139723667e-06
1.1445173224727554e-05   -1.4958877432025286e-06   -9.063829139723667e-06
1.958998433334921e-05   -4.064843399454246e-06   -2.109714092700854e-05
1.958998433334921e-05   -4.064843399454246e-06   -2.109714092700854e-05
1.958998433334921e-05   -4.064843399454246e-06   -2.109714092700854e-05
1.958998433334921e-05   -4.064843399454246e-06   -2.109714092700854e-05
1.144517322472754e-05   -5.353621707762462e-06   -3.977762605600842e-05
1.144517322472754e-05   -5.353621707762462e-06   -3.977762605600842e-05
1.144517322472754e-05   -5.353621707762462e-06   -3.977762605600842e-05
1.144517322472754e-05   -5.353621707762462e-06   -3.977762605600842e-05
2.9873451374498383e-05   -1.4958877432025286e-06   -6.749188760987539e-06
2.9873451374498383e-05   -1.4958877432025286e-06   -6.749188760987539e-06
2.9873451374498383e-05   -1.4958877432025286e-06   -6.749188760987539e-06
2.9873451374498383e-05   -1.4958877432025286e-06   -6.749188760987539e-06
3.1766324489526714e-05   -3.473439726880273e-06   -4.379575603147349e-05
3.1766324489526714e-05   -3.473439726880273e-06   -4.379575603147349e-05
3.1766324489526714e-05   -3.473439726880273e-06   -4.379575603147349e-05
3.1766324489526714e-05   -3.473439726880273e-06   -4.379575603147349e-05
1.1610277488293633e-05   3.1836828095262865e-08   -1.2305510295736844e-05
1.1610277488293633e-05   3.1836828095262865e-08   -1.2305510295736844e-05
1.1610277488293633e-05   3.1836828095262865e-08   -1.2305510295736844e-05
1.1610277488293633e-05   3.1836828095262865e-08   -1.2305510295736844e-05
1.9965242168203957e-05   -3.2050093387555115e-06   -2.4288343728810302e-05
1.9965242168203957e-05   -3.2050093387555115e-06   -2.4288343728810302e-05
1.9965242168203957e-05   -3.2050093387555115e-06   -2.4288343728810302e-05
1.9965242168203957e-05   -3.2050093387555115e-06   -2.4288343728810302e-05
-3.7888165455582856e-05   6.099137573547251e-06   -3.548384397914796e-05
-3.7888165455582856e-05   6.099137573547251e-06   -3.548384397914796e-05
-3.7888165455582856e-05   6.099137573547251e-06   -3.548384397914796e-05
-3.7888165455582856e-05   6.099137573547251e-06   -3.548384397914796e-05
-2.7956843999931292e-05   2.488161980783313e-06   -2.1098226908720458e-05
-2.7956843999931292e-05   2.488161980783313e-06   -2.1098226908720458e-05
-2.7956843999931292e-05   2.488161980783313e-06   -2.1098226908720458e-05
-2.7956843999931292e-05   2.488161980783313e-06   -2.1098226908720458e-05
-2.754460335455865e-05   7.761225777418689e-06   -3.130304130705922e-05
-2.754460335455865e-05   7.761225777418689e-06   -3.130304130705922e-05
-2.754460335455865e-05   7.761225777418689e-06   -3.130304130705922e-05
-2.754460335455865e-05   7.761225777418689e-06   -3.130304130705922e-05
-3.583177349627116e-05   3.871870305117379e-06   -1.5157477787490579e-05
-3.583177349627116e-05   3.871870305117379e-06   -1.5157477787490579e-05
-3.583177349627116e-05   3.871870305117379e-06   -1.5157477787490579e-05
-3.583177349627116e-05   3.871870305117379e-06   -1.5157477787490579e-05
-3.0936583097258076e-05   5.470291380520664e-06   -2.427518109775575e-05
-3.0936583097258076e-05   5.470291380520664e-06   -2.427518109775575e-05
-3.0936583097258076e-05   5.470291380520664e-06   -2.427518109775575e-05
-3.0936583097258076e-05   5.470291380520664e-06   -2.427518109775575e-05
-3.583177349627116e-05   7.761225777418689e-06   -2.8969428023678458e-05
-3.583177349627116e-05   7.761225777418689e-06   -2.8969428023678458e-05
-3.583177349627116e-05   7.761225777418689e-06   -2.8969428023678458e-05
-3.583177349627116e-05   7.761225777418689e-06   -2.8969428023678458e-05
-2.7544603354558704e-05   3.871870305117162e-06   -1.7491091070871506e-05
-2.7544603354558704e-05   3.871870305117162e-06   -1.7491091070871506e-05
-2.7544603354558704e-05   3.871870305117162e-06   -1.7491091070871506e-05
-2.7544603354558704e-05   3.871870305117162e-06   -1.7491091070871506e-05
-2.6956562400061272e-05   8.53511202169319e-06   -2.7952362553915417e-05
-2.6956562400061272e-05   8.53511202169319e-06   -2.7952362553915417e-05
-2.6956562400061272e-05   8.53511202169319e-06   -2.7952362553915417e-05
-2.6956562400061272e-05   8.53511202169319e-06   -2.7952362553915417e-05
-3.4190523093386934e-05   4.5704114077205725e-06   -1.351694102998905e-05
-3.4190523093386934e-05   4.5704114077205725e-06   -1.351694102998905e-05
-3.4190523093386934e-05   4.5704114077205725e-06   -1.351694102998905e-05
-3.4190523093386934e-05   4.5704114077205725e-06   -1.351694102998905e-05
-3.0393716810519827e-05   6.216692519785084e-06   -2.0832720168672885e-05
-3.0393716810519827e-05   6.216692519785084e-06   -2.0832720168672885e-05
-3.0393716810519827e-05   6.216692519785084e-06   -2.0832720168672885e-05
-3.0393716810519827e-05   6.216692519785084e-06   -2.0832720168672885e-05
-3.4190523093386826e-05   8.53511202169319e-06   -2.557354218553191e-05
-3.4190523093386826e-05   8.53511202169319e-06   -2.557354218553191e-05
-3.4190523093386826e-05   8.53511202169319e-06   -2.557354218553191e-05
-3.4190523093386826e-05   8.53511202169319e-06   -2.557354218553191e-05
-2.6956562400061272e-05   4.5704114077205725e-06   -1.5895761398372475e-05
-2.6956562400061272e-05   4.5704114077205725e-06   -1.5895761398372475e-05
-2.6956562400061272e-05   4.5704114077205725e-06   -1.5895761398372475e-05
-2.6956562400061272e-05   4.5704114077205725e-06   -1.5895761398372475e-05
-2.655509344987912e-05   9.507456175632603e-06   -2.3652643646913636e-05
-2.655509344987912e-05   9.507456175632603e-06   -2.3652643646913636e-05
-2.655509344987912e-05   9.507456175632603e-06   -2.3652643646913636e-05
-2.655509344987912e-05   9.507456175632603e-06   -2.3652643646913636e-05
-3.2100396828006945e-05   5.676648080340076e-06   -1.2111986492858193e-05
-3.2100396828006945e-05   5.676648080340076e-06   -1.2111986492858193e-05
-3.2100396828006945e-05   5.676648080340076e-06   -1.2111986492858193e-05
-3.2100396828006945e-05   5.676648080340076e-06   -1.2111986492858193e-05
-2.897284830173324e-05   6.7332551866780815e-06   -1.7958531633784514e-05
-2.897284830173324e-05   6.7332551866780815e-06   -1.7958531633784514e-05
-2.897284830173324e-05   6.7332551866780815e-06   -1.7958531633784514e-05
-2.897284830173324e-05   6.7332551866780815e-06   -1.7958531633784514e-05
-2.7956843999931292e-05   3.1506347950159726e-06   -5.168995962737772e-05
-2.7956843999931292e-05   3.1506347950159726e-06   -5.168995962737772e-05
-2.7956843999931292e-05   3.1506347950159726e-06   -5.168995962737772e-05
-2.7956843999931292e-05   3.1506347950159726e-06   -5.168995962737772e-05
-1.9889804579750845e-05   1.4253781903761451e-06   -3.9280047889861066e-05
-1.9889804579750845e-05   1.4253781903761451e-06   -3.9280047889861066e-05
-1.9889804579750845e-05   1.4253781903761451e-06   -3.9280047889861066e-05
-1.9889804579750845e-05   1.4253781903761451e-06   -3.9280047889861066e-05
-1.961916612588035e-05   4.904988934137508e-06   -5.152141569102794e-05
-1.961916612588035e-05   4.904988934137508e-06   -5.152141569102794e-05
-1.961916612588035e-05   4.904988934137508e-06   -5.152141569102794e-05
-1.961916612588035e-05   4.904988934137508e-06   -5.152141569102794e-05
-2.7544603354558704e-05   3.011699225469438e-06   -3.717637981802955e-05
-2.7544603354558704e-05   3.011699225469438e-06   -3.717637981802955e-05
-2.7544603354558704e-05   3.011699225469438e-06   -3.717637981802955e-05
-2.7544603354558704e-05   3.011699225469438e-06   -3.717637981802955e-05
-2.3521064834952003e-05   3.42676451166226e-06   -4.41313165224242e-05
-2.3521064834952003e-05   3.42676451166226e-06   -4.41313165224242e-05
-2.3521064834952003e-05   3.42676451166226e-06   -4.41313165224242e-05
-2.3521064834952003e-05   3.42676451166226e-06   -4.41313165224242e-05
-2.7544603354558595e-05   4.904988934137291e-06   -5.038544186582671e-05
-2.7544603354558595e-05   4.904988934137291e-06   -5.038544186582671e-05
-2.7544603354558595e-05   4.904988934137291e-06   -5.038544186582671e-05
-2.7544603354558595e-05   4.904988934137291e-06   -5.038544186582671e-05
-1.961916612588035e-05   3.011699225469438e-06   -3.8312353643230404e-05
-1.961916612588035e-05   3.011699225469438e-06   -3.8312353643230404e-05
-1.961916612588035e-05   3.011699225469438e-06   -3.8312353643230404e-05
-1.961916612588035e-05   3.011699225469438e-06   -3.8312353643230404e-05
-1.932036885987301e-05   6.500810330038742e-06   -5.0688549438001294e-05
-1.932036885987301e-05   6.500810330038742e-06   -5.0688549438001294e-05
-1.932036885987301e-05   6.500810330038742e-06   -5.0688549438001294e-05
-1.932036885987301e-05   6.500810330038742e-06   -5.0688549438001294e-05
-2.6956562400061326e-05   4.486243127634938e-06   -3.675281988291165e-05
-2.6956562400061326e-05   4.486243127634938e-06   -3.675281988291165e-05
-2.6956562400061326e-05   4.486243127634938e-06   -3.675281988291165e-05
-2.6956562400061326e-05   4.486243127634938e-06   -3.675281988291165e-05
-2.3165548770732116e-05   4.708817387265914e-06   -4.320472048757203e-05
-2.3165548770732116e-05   4.708817387265914e-06   -4.320472048757203e-05
-2.3165548770732116e-05   4.708817387265914e-06   -4.320472048757203e-05
-2.3165548770732116e-05   4.708817387265914e-06   -4.320472048757203e-05
-2.6956562400061272e-05   6.500810330038742e-06   -4.947980911655886e-05
-2.6956562400061272e-05   6.500810330038742e-06   -4.947980911655886e-05
-2.6956562400061272e-05   6.500810330038742e-06   -4.947980911655886e-05
-2.6956562400061272e-05   6.500810330038742e-06   -4.947980911655886e-05
-1.9320368859872982e-05   4.486243127634938e-06   -3.796156020435403e-05
-1.9320368859872982e-05   4.486243127634938e-06   -3.796156020435403e-05
-1.9320368859872982e-05   4.486243127634938e-06   -3.796156020435403e-05
-1.9320368859872982e-05   4.486243127634938e-06   -3.796156020435403e-05
-1.905436350472427e-05   8.233679930042892e-06   -5.1179957436057674e-05
-1.905436350472427e-05   8.233679930042892e-06   -5.1179957436057674e-05
-1.905436350472427e-05   8.233679930042892e-06   -5.1179957436057674e-05
-1.905436350472427e-05   8.233679930042892e-06   -5.1179957436057674e-05
-2.655509344987923e-05   6.124239651346657e-06   -3.741307669358115e-05
-2.655509344987923e-05   6.124239651346657e-06   -3.741307669358115e-05
-2.655509344987923e-05   6.124239651346657e-06   -3.741307669358115e-05
-2.655509344987923e-05   6.124239651346657e-06   -3.741307669358115e-05
-2.302576390027774e-05   6.00684638569441e-06   -4.3224856650192804e-05
-2.302576390027774e-05   6.00684638569441e-06   -4.3224856650192804e-05
-2.302576390027774e-05   6.00684638569441e-06   -4.3224856650192804e-05
-2.302576390027774e-05   6.00684638569441e-06   -4.3224856650192804e-05
-1.988980457975079e-05   5.407846057343783e-07   -5.8443340871612115e-05
-1.988980457975079e-05   5.407846057343783e-07   -5.8443340871612115e-05
-1.988980457975079e-05   5.407846057343783e-07   -5.8443340871612115e-05
-1.988980457975079e-05   5.407846057343783e-07   -5.8443340871612115e-05
-1.2030802005647683e-05   8.148465261274308e-07   -4.518056609587127e-05
-1.2030802005647683e-05   8.148465261274308e-07   -4.518056609587127e-05
-1.2030802005647683e-05   8.148465261274308e-07   -4.518056609587127e-05
-1.2030802005647683e-05   8.148465261274308e-07   -4.518056609587127e-05
-1.1766874258968428e-05   2.3041109001725735e-06   -5.771047864188924e-05
-1.1766874258968428e-05   2.3041109001725735e-06   -5.771047864188924e-05
-1.1766874258968428e-05   2.3041109001725735e-06   -5.771047864188924e-05
-1.1766874258968428e-05   2.3041109001725735e-06   -5.771047864188924e-05
-1.961916612588035e-05   2.4299984896635363e-06   -4.469885808406344e-05
-1.961916612588035e-05   2.4299984896635363e-06   -4.469885808406344e-05
-1.961916612588035e-05   2.4299984896635363e-06   -4.469885808406344e-05
-1.961916612588035e-05   2.4299984896635363e-06   -4.469885808406344e-05
-1.57253096583374e-05   1.7469724971044993e-06   -5.077880326776737e-05
-1.57253096583374e-05   1.7469724971044993e-06   -5.077880326776737e-05
-1.57253096583374e-05   1.7469724971044993e-06   -5.077880326776737e-05
-1.57253096583374e-05   1.7469724971044993e-06   -5.077880326776737e-05
-1.961916612588032e-05   2.3041109001725735e-06   -5.7786011195583515e-05
-1.961916612588032e-05   2.3041109001725735e-06   -5.7786011195583515e-05
-1.961916612588032e-05   2.3041109001725735e-06   -5.7786011195583515e-05
-1.961916612588032e-05   2.3041109001725735e-06   -5.7786011195583515e-05
-1.1766874258968428e-05   2.4299984896635363e-06   -4.462332553036908e-05
-1.1766874258968428e-05   2.4299984896635363e-06   -4.462332553036908e-05
-1.1766874258968428e-05   2.4299984896635363e-06   -4.462332553036908e-05
-1.1766874258968428e-05   2.4299984896635363e-06   -4.462332553036908e-05
-1.1470237855416766e-05   4.073065691205351e-06   -5.786163426511578e-05
-1.1470237855416766e-05   4.073065691205351e-06   -5.786163426511578e-05
-1.1470237855416766e-05   4.073065691205351e-06   -5.786163426511578e-05
-1.1470237855416766e-05   4.073065691205351e-06   -5.786163426511578e-05
-1.9320368859872982e-05   4.0593248794404575e-06   -4.4769838103962944e-05
-1.9320368859872982e-05   4.0593248794404575e-06   -4.4769838103962944e-05
-1.9320368859872982e-05   4.0593248794404575e-06   -4.4769838103962944e-05
-1.9320368859872982e-05   4.0593248794404575e-06   -4.4769838103962944e-05
-1.5547838104814772e-05   3.13428049931834e-06   -5.050236273432013e-05
-1.5547838104814772e-05   3.13428049931834e-06   -5.050236273432013e-05
-1.5547838104814772e-05   3.13428049931834e-06   -5.050236273432013e-05
-1.5547838104814772e-05   3.13428049931834e-06   -5.050236273432013e-05
-1.9320368859872955e-05   4.073065691205134e-06   -5.78533897780568e-05
-1.9320368859872955e-05   4.073065691205134e-06   -5.78533897780568e-05
-1.9320368859872955e-05   4.073065691205134e-06   -5.78533897780568e-05
-1.9320368859872955e-05   4.073065691205134e-06   -5.78533897780568e-05
-1.1470237855416785e-05   4.0593248794404575e-06   -4.4778082591022004e-05
-1.1470237855416785e-05   4.0593248794404575e-06   -4.4778082591022004e-05
-1.1470237855416785e-05   4.0593248794404575e-06   -4.4778082591022004e-05
-1.1470237855416785e-05   4.0593248794404575e-06   -4.4778082591022004e-05
-1.1203645585539738e-05   5.872949208995124e-06   -5.8835680976955735e-05
-1.1203645585539738e-05   5.872949208995124e-06   -5.8835680976955735e-05
-1.1203645585539738e-05   5.872949208995124e-06   -5.8835680976955735e-05
-1.1203645585539738e-05   5.872949208995124e-06   -5.8835680976955735e-05
-1.9054363504724298e-05   5.7132114643413355e-06   -4.5655308464855325e-05
-1.9054363504724298e-05   5.7132114643413355e-06   -4.5655308464855325e-05
-1.9054363504724298e-05   5.7132114643413355e-06   -4.5655308464855325e-05
-1.9054363504724298e-05   5.7132114643413355e-06   -4.5655308464855325e-05
-1.540082033680635e-05   4.5400234346287295e-06   -5.104063426022477e-05
-1.540082033680635e-05   4.5400234346287295e-06   -5.104063426022477e-05
-1.540082033680635e-05   4.5400234346287295e-06   -5.104063426022477e-05
-1.540082033680635e-05   4.5400234346287295e-06   -5.104063426022477e-05
-1.203080200564764e-05   -1.8465020008046496e-06   -5.1230352866028154e-05
-1.203080200564764e-05   -1.8465020008046496e-06   -5.1230352866028154e-05
-1.203080200564764e-05   -1.8465020008046496e-06   -5.1230352866028154e-05
-1.203080200564764e-05   -1.8465020008046496e-06   -5.1230352866028154e-05
-4.4053746508416775e-06   3.445960788486021e-07   -3.720664842689315e-05
-4.4053746508416775e-06   3.445960788486021e-07   -3.720664842689315e-05
-4.4053746508416775e-06   3.445960788486021e-07   -3.720664842689315e-05
-4.4053746508416775e-06   3.445960788486021e-07   -3.720664842689315e-05
-4.011752279902108e-06   -1.86180601639439e-07   -4.9585722498739215e-05
-4.011752279902108e-06   -1.86180601639439e-07   -4.9585722498739215e-05
-4.011752279902108e-06   -1.86180601639439e-07   -4.9585722498739215e-05
-4.011752279902108e-06   -1.86180601639439e-07   -4.9585722498739215e-05
-1.1766874258968407e-05   1.908713288382687e-06   -3.7917455534308174e-05
-1.1766874258968407e-05   1.908713288382687e-06   -3.7917455534308174e-05
-1.1766874258968407e-05   1.908713288382687e-06   -3.7917455534308174e-05
-1.1766874258968407e-05   1.908713288382687e-06   -3.7917455534308174e-05
-7.972466695016082e-06   2.18599427743299e-07   -4.322739982451265e-05
-7.972466695016082e-06   2.18599427743299e-07   -4.322739982451265e-05
-7.972466695016082e-06   2.18599427743299e-07   -4.322739982451265e-05
-7.972466695016082e-06   2.18599427743299e-07   -4.322739982451265e-05
-1.1766874258968387e-05   -1.86180601639439e-07   -5.0842658832752404e-05
-1.1766874258968387e-05   -1.86180601639439e-07   -5.0842658832752404e-05
-1.1766874258968387e-05   -1.86180601639439e-07   -5.0842658832752404e-05
-1.1766874258968387e-05   -1.86180601639439e-07   -5.0842658832752404e-05
-4.011752279902108e-06   1.9087132883829037e-06   -3.666051920029516e-05
-4.011752279902108e-06   1.9087132883829037e-06   -3.666051920029516e-05
-4.011752279902108e-06   1.9087132883829037e-06   -3.666051920029516e-05
-4.011752279902108e-06   1.9087132883829037e-06   -3.666051920029516e-05
-3.4285070503351585e-06   1.411621390409604e-06   -5.025525922154909e-05
-3.4285070503351585e-06   1.411621390409604e-06   -5.025525922154909e-05
-3.4285070503351585e-06   1.411621390409604e-06   -5.025525922154909e-05
-3.4285070503351585e-06   1.411621390409604e-06   -5.025525922154909e-05
-1.1470237855416766e-05   3.3830788754398485e-06   -3.80352490374311e-05
-1.1470237855416766e-05   3.3830788754398485e-06   -3.80352490374311e-05
-1.1470237855416766e-05   3.3830788754398485e-06   -3.80352490374311e-05
-1.1470237855416766e-05   3.3830788754398485e-06   -3.80352490374311e-05
-7.734122545794473e-06   1.4811975457842096e-06   -4.312097908900828e-05
-7.734122545794473e-06   1.4811975457842096e-06   -4.312097908900828e-05
-7.734122545794473e-06   1.4811975457842096e-06   -4.312097908900828e-05
-7.734122545794473e-06   1.4811975457842096e-06   -4.312097908900828e-05
-1.1470237855416734e-05   1.411621390409604e-06   -5.1438133712566956e-05
-1.1470237855416734e-05   1.411621390409604e-06   -5.1438133712566956e-05
-1.1470237855416734e-05   1.411621390409604e-06   -5.1438133712566956e-05
-1.1470237855416734e-05   1.411621390409604e-06   -5.1438133712566956e-05
-3.4285070503351585e-06   3.3830788754398485e-06   -3.685237454641296e-05
-3.4285070503351585e-06   3.3830788754398485e-06   -3.685237454641296e-05
-3.4285070503351585e-06   3.3830788754398485e-06   -3.685237454641296e-05
-3.4285070503351585e-06   3.3830788754398485e-06   -3.685237454641296e-05
-3.0210872565551684e-06   3.2435019460650034e-06   -5.166094953153915e-05
-3.0210872565551684e-06   3.2435019460650034e-06   -5.166094953153915e-05
-3.0210872565551684e-06   3.2435019460650034e-06   -5.166094953153915e-05
-3.0210872565551684e-06   3.2435019460650034e-06   -5.166094953153915e-05
-1.1203645585539738e-05   5.050729402705919e-06   -3.9107688790549354e-05
-1.1203645585539738e-05   5.050729402705919e-06   -3.9107688790549354e-05
-1.1203645585539738e-05   5.050729402705919e-06   -3.9107688790549354e-05
-1.1203645585539738e-05   5.050729402705919e-06   -3.9107688790549354e-05
-7.484407344421038e-06   2.805061786968592e-06   -4.395901862297148e-05
-7.484407344421038e-06   2.805061786968592e-06   -4.395901862297148e-05
-7.484407344421038e-06   2.805061786968592e-06   -4.395901862297148e-05
-7.484407344421038e-06   2.805061786968592e-06   -4.395901862297148e-05
-4.4053746508416775e-06   -3.3962524506594635e-06   -2.7809006449655755e-05
-4.4053746508416775e-06   -3.3962524506594635e-06   -2.7809006449655755e-05
-4.4053746508416775e-06   -3.3962524506594635e-06   -2.7809006449655755e-05
-4.4053746508416775e-06   -3.3962524506594635e-06   -2.7809006449655755e-05
1.2499421414107186e-06   4.7370660129263456e-07   -1.6061503031397075e-05
1.2499421414107186e-06   4.7370660129263456e-07   -1.6061503031397075e-05
1.2499421414107186e-06   4.7370660129263456e-07   -1.6061503031397075e-05
1.2499421414107186e-06   4.7370660129263456e-07   -1.6061503031397075e-05
3.3192941934039044e-06   -2.2724007495706754e-06   -2.6569217134307112e-05
3.3192941934039044e-06   -2.2724007495706754e-06   -2.6569217134307112e-05
3.3192941934039044e-06   -2.2724007495706754e-06   -2.6569217134307112e-05
3.3192941934039044e-06   -2.2724007495706754e-06   -2.6569217134307112e-05
-4.011752279902108e-06   1.7094373890580439e-06   -1.673990922864061e-05
-4.011752279902108e-06   1.7094373890580439e-06   -1.673990922864061e-05
-4.011752279902108e-06   1.7094373890580439e-06   -1.673990922864061e-05
-4.011752279902108e-06   1.7094373890580439e-06   -1.673990922864061e-05
-9.38015307157814e-07   -7.040158416619924e-07   -2.0414732244783103e-05
-9.38015307157814e-07   -7.040158416619924e-07   -2.0414732244783103e-05
-9.38015307157814e-07   -7.040158416619924e-07   -2.0414732244783103e-05
-9.38015307157814e-07   -7.040158416619924e-07   -2.0414732244783103e-05
-4.011752279902108e-06   -2.2724007495706754e-06   -2.895832001748402e-05
-4.011752279902108e-06   -2.2724007495706754e-06   -2.895832001748402e-05
-4.011752279902108e-06   -2.2724007495706754e-06   -2.895832001748402e-05
-4.011752279902108e-06   -2.2724007495706754e-06   -2.895832001748402e-05
3.3192941934039044e-06   1.7094373890580439e-06   -1.4350806345463487e-05
3.3192941934039044e-06   1.7094373890580439e-06   -1.4350806345463487e-05
3.3192941934039044e-06   1.7094373890580439e-06   -1.4350806345463487e-05
3.3192941934039044e-06   1.7094373890580439e-06   -1.4350806345463487e-05
4.953071742051405e-06   -1.4958877432025286e-06   -2.802227046951489e-05
4.953071742051405e-06   -1.4958877432025286e-06   -2.802227046951489e-05
4.953071742051405e-06   -1.4958877432025286e-06   -2.802227046951489e-05
4.953071742051405e-06   -1.4958877432025286e-06   -2.802227046951489e-05
-3.4285070503351585e-06   2.4046920617838696e-06   -1.639332036519538e-05
-3.4285070503351585e-06   2.4046920617838696e-06   -1.639332036519538e-05
-3.4285070503351585e-06   2.4046920617838696e-06   -1.639332036519538e-05
-3.4285070503351585e-06   2.4046920617838696e-06   -1.639332036519538e-05
1.1379935626813873e-07   -1.1282413750544722e-07   -2.0786654656627262e-05
1.1379935626813873e-07   -1.1282413750544722e-07   -2.0786654656627262e-05
1.1379935626813873e-07   -1.1282413750544722e-07   -2.0786654656627262e-05
1.1379935626813873e-07   -1.1282413750544722e-07   -2.0786654656627262e-05
-3.4285070503351585e-06   -1.4958877432025286e-06   -3.036261835250671e-05
-3.4285070503351585e-06   -1.4958877432025286e-06   -3.036261835250671e-05
-3.4285070503351585e-06   -1.4958877432025286e-06   -3.036261835250671e-05
-3.4285070503351585e-06   -1.4958877432025286e-06   -3.036261835250671e-05
4.953071742051405e-06   2.4046920617838696e-06   -1.4052972482203564e-05
4.953071742051405e-06   2.4046920617838696e-06   -1.4052972482203564e-05
4.953071742051405e-06   2.4046920617838696e-06   -1.4052972482203564e-05
4.953071742051405e-06   2.4046920617838696e-06   -1.4052972482203564e-05
7.013489632087366e-06   3.1836828095262865e-08   -3.139696248059668e-05
7.013489632087366e-06   3.1836828095262865e-08   -3.139696248059668e-05
7.013489632087366e-06   3.1836828095262865e-08   -3.139696248059668e-05
7.013489632087366e-06   3.1836828095262865e-08   -3.139696248059668e-05
-3.0210872565551684e-06   3.6389553243572e-06   -1.683693876394909e-05
-3.0210872565551684e-06   3.6389553243572e-06   -1.683693876394909e-05
-3.0210872565551684e-06   3.6389553243572e-06   -1.683693876394909e-05
-3.0210872565551684e-06   3.6389553243572e-06   -1.683693876394909e-05
1.0158690276839912e-06   5.633051667936102e-07   -2.171980914314329e-05
1.0158690276839912e-06   5.633051667936102e-07   -2.171980914314329e-05
1.0158690276839912e-06   5.633051667936102e-07   -2.171980914314329e-05
1.0158690276839912e-06   5.633051667936102e-07   -2.171980914314329e-05
-1.3235010356462274e-05   2.488161980783313e-06   -2.3679142363893218e-05
-1.3235010356462274e-05   2.488161980783313e-06   -2.3679142363893218e-05
-1.3235010356462274e-05   2.488161980783313e-06   -2.3679142363893218e-05
-1.3235010356462274e-05   2.488161980783313e-06   -2.3679142363893218e-05
-1.3378684223413584e-05   -1.1520200140727882e-06   -2.610270800572557e-05
-1.3378684223413584e-05   -1.1520200140727882e-06   -2.610270800572557e-05
-1.3378684223413584e-05   -1.1520200140727882e-06   -2.610270800572557e-05
-1.3378684223413584e-05   -1.1520200140727882e-06   -2.610270800572557e-05
-1.2706575992588176e-05   3.871870305117379e-06   -2.2247437749639033e-05
-1.2706575992588176e-05   3.871870305117379e-06   -2.2247437749639033e-05
-1.2706575992588176e-05   3.871870305117379e-06   -2.2247437749639033e-05
-1.2706575992588176e-05   3.871870305117379e-06   -2.2247437749639033e-05
-1.092892311610927e-05   -3.19813756206877e-08   -2.2867881535327465e-05
-1.092892311610927e-05   -3.19813756206877e-08   -2.2867881535327465e-05
-1.092892311610927e-05   -3.19813756206877e-08   -2.2867881535327465e-05
-1.092892311610927e-05   -3.19813756206877e-08   -2.2867881535327465e-05
-1.2013067523682021e-05   1.712754291374437e-06   -2.210781558957119e-05
-1.2013067523682021e-05   1.712754291374437e-06   -2.210781558957119e-05
-1.2013067523682021e-05   1.712754291374437e-06   -2.210781558957119e-05
-1.2013067523682021e-05   1.712754291374437e-06   -2.210781558957119e-05
-1.092892311610927e-05   3.871870305117379e-06   -1.9905126741196172e-05
-1.092892311610927e-05   3.871870305117379e-06   -1.9905126741196172e-05
-1.092892311610927e-05   3.871870305117379e-06   -1.9905126741196172e-05
-1.092892311610927e-05   3.871870305117379e-06   -1.9905126741196172e-05
-1.2706575992588176e-05   -3.198137562112138e-08   -2.5210192543770544e-05
-1.2706575992588176e-05   -3.198137562112138e-08   -2.5210192543770544e-05
-1.2706575992588176e-05   -3.198137562112138e-08   -2.5210192543770544e-05
-1.2706575992588176e-05   -3.198137562112138e-08   -2.5210192543770544e-05
-1.1859163114817195e-05   4.5704114077205725e-06   -2.064609935529464e-05
-1.1859163114817195e-05   4.5704114077205725e-06   -2.064609935529464e-05
-1.1859163114817195e-05   4.5704114077205725e-06   -2.064609935529464e-05
-1.1859163114817195e-05   4.5704114077205725e-06   -2.064609935529464e-05
-9.020752569114168e-06   6.009429889654652e-07   -2.299510254687978e-05
-9.020752569114168e-06   6.009429889654652e-07   -2.299510254687978e-05
-9.020752569114168e-06   6.009429889654652e-07   -2.299510254687978e-05
-9.020752569114168e-06   6.009429889654652e-07   -2.299510254687978e-05
-1.0920196702010268e-05   2.2874236406333296e-06   -2.084125071638804e-05
-1.0920196702010268e-05   2.2874236406333296e-06   -2.084125071638804e-05
-1.0920196702010268e-05   2.2874236406333296e-06   -2.084125071638804e-05
-1.0920196702010268e-05   2.2874236406333296e-06   -2.084125071638804e-05
-9.020752569114168e-06   4.5704114077205725e-06   -1.826441830404151e-05
-9.020752569114168e-06   4.5704114077205725e-06   -1.826441830404151e-05
-9.020752569114168e-06   4.5704114077205725e-06   -1.826441830404151e-05
-9.020752569114168e-06   4.5704114077205725e-06   -1.826441830404151e-05
-1.185916311481725e-05   6.009429889654652e-07   -2.5376783598132855e-05
-1.185916311481725e-05   6.009429889654652e-07   -2.5376783598132855e-05
-1.185916311481725e-05   6.009429889654652e-07   -2.5376783598132855e-05
-1.185916311481725e-05   6.009429889654652e-07   -2.5376783598132855e-05
-1.119725406329439e-05   5.676648080340076e-06   -1.915578816062821e-05
-1.119725406329439e-05   5.676648080340076e-06   -1.915578816062821e-05
-1.119725406329439e-05   5.676648080340076e-06   -1.915578816062821e-05
-1.119725406329439e-05   5.676648080340076e-06   -1.915578816062821e-05
-6.664776350542693e-06   1.8635002491267962e-06   -2.4422028983152972e-05
-6.664776350542693e-06   1.8635002491267962e-06   -2.4422028983152972e-05
-6.664776350542693e-06   1.8635002491267962e-06   -2.4422028983152972e-05
-6.664776350542693e-06   1.8635002491267962e-06   -2.4422028983152972e-05
-9.553372003903412e-06   2.837301218261163e-06   -2.0191983475699123e-05
-9.553372003903412e-06   2.837301218261163e-06   -2.0191983475699123e-05
-9.553372003903412e-06   2.837301218261163e-06   -2.0191983475699123e-05
-9.553372003903412e-06   2.837301218261163e-06   -2.0191983475699123e-05
-1.337868422341353e-05   1.4253781903759283e-06   -4.300991857916314e-05
-1.337868422341353e-05   1.4253781903759283e-06   -4.300991857916314e-05
-1.337868422341353e-05   1.4253781903759283e-06   -4.300991857916314e-05
-1.337868422341353e-05   1.4253781903759283e-06   -4.300991857916314e-05
-1.5388464729197774e-05   -2.5173324391929847e-07   -4.736581961604751e-05
-1.5388464729197774e-05   -2.5173324391929847e-07   -4.736581961604751e-05
-1.5388464729197774e-05   -2.5173324391929847e-07   -4.736581961604751e-05
-1.5388464729197774e-05   -2.5173324391929847e-07   -4.736581961604751e-05
-1.4844667752778658e-05   3.011699225469438e-06   -4.304312361994565e-05
-1.4844667752778658e-05   3.011699225469438e-06   -4.304312361994565e-05
-1.4844667752778658e-05   3.011699225469438e-06   -4.304312361994565e-05
-1.4844667752778658e-05   3.011699225469438e-06   -4.304312361994565e-05
-1.270657599258823e-05   1.161037353555102e-06   -4.549621276378111e-05
-1.270657599258823e-05   1.161037353555102e-06   -4.549621276378111e-05
-1.270657599258823e-05   1.161037353555102e-06   -4.549621276378111e-05
-1.270657599258823e-05   1.161037353555102e-06   -4.549621276378111e-05
-1.3915536855893364e-05   1.6460369178178738e-06   -4.377227773016425e-05
-1.3915536855893364e-05   1.6460369178178738e-06   -4.377227773016425e-05
-1.3915536855893364e-05   1.6460369178178738e-06   -4.377227773016425e-05
-1.3915536855893364e-05   1.6460369178178738e-06   -4.377227773016425e-05
-1.2706575992588176e-05   3.011699225469438e-06   -4.19327264967967e-05
-1.2706575992588176e-05   3.011699225469438e-06   -4.19327264967967e-05
-1.2706575992588176e-05   3.011699225469438e-06   -4.19327264967967e-05
-1.2706575992588176e-05   3.011699225469438e-06   -4.19327264967967e-05
-1.4844667752778631e-05   1.1610373535555357e-06   -4.660660988692973e-05
-1.4844667752778631e-05   1.1610373535555357e-06   -4.660660988692973e-05
-1.4844667752778631e-05   1.1610373535555357e-06   -4.660660988692973e-05
-1.4844667752778631e-05   1.1610373535555357e-06   -4.660660988692973e-05
-1.4279160201996596e-05   4.486243127634721e-06   -4.268243554768521e-05
-1.4279160201996596e-05   4.486243127634721e-06   -4.268243554768521e-05
-1.4279160201996596e-05   4.486243127634721e-06   -4.268243554768521e-05
-1.4279160201996596e-05   4.486243127634721e-06   -4.268243554768521e-05
-1.1859163114817303e-05   2.520780281215721e-06   -4.553648631846569e-05
-1.1859163114817303e-05   2.520780281215721e-06   -4.553648631846569e-05
-1.1859163114817303e-05   2.520780281215721e-06   -4.553648631846569e-05
-1.1859163114817303e-05   2.520780281215721e-06   -4.553648631846569e-05
-1.3370552605053665e-05   2.7844483779259667e-06   -4.3175704692764813e-05
-1.3370552605053665e-05   2.7844483779259667e-06   -4.3175704692764813e-05
-1.3370552605053665e-05   2.7844483779259667e-06   -4.3175704692764813e-05
-1.3370552605053665e-05   2.7844483779259667e-06   -4.3175704692764813e-05
-1.1859163114817195e-05   4.486243127634721e-06   -4.150315783983368e-05
-1.1859163114817195e-05   4.486243127634721e-06   -4.150315783983368e-05
-1.1859163114817195e-05   4.486243127634721e-06   -4.150315783983368e-05
-1.1859163114817195e-05   4.486243127634721e-06   -4.150315783983368e-05
-1.4279160201996542e-05   2.5207802812161548e-06   -4.6715764026317055e-05
-1.4279160201996542e-05   2.5207802812161548e-06   -4.6715764026317055e-05
-1.4279160201996542e-05   2.5207802812161548e-06   -4.6715764026317055e-05
-1.4279160201996542e-05   2.5207802812161548e-06   -4.6715764026317055e-05
-1.3746293371415106e-05   6.124239651346657e-06   -4.338913249403594e-05
-1.3746293371415106e-05   6.124239651346657e-06   -4.338913249403594e-05
-1.3746293371415106e-05   6.124239651346657e-06   -4.338913249403594e-05
-1.3746293371415106e-05   6.124239651346657e-06   -4.338913249403594e-05
-1.119725406329439e-05   4.073008001579705e-06   -4.6406792351043314e-05
-1.119725406329439e-05   4.073008001579705e-06   -4.6406792351043314e-05
-1.119725406329439e-05   4.073008001579705e-06   -4.6406792351043314e-05
-1.119725406329439e-05   4.073008001579705e-06   -4.6406792351043314e-05
-1.289076098851784e-05   3.978131248215822e-06   -4.352735475698612e-05
-1.289076098851784e-05   3.978131248215822e-06   -4.352735475698612e-05
-1.289076098851784e-05   3.978131248215822e-06   -4.352735475698612e-05
-1.289076098851784e-05   3.978131248215822e-06   -4.352735475698612e-05
-1.538846472919772e-05   8.148465261276477e-07   -5.008114079798644e-05
-1.538846472919772e-05   8.148465261276477e-07   -5.008114079798644e-05
-1.538846472919772e-05   8.148465261276477e-07   -5.008114079798644e-05
-1.538846472919772e-05   8.148465261276477e-07   -5.008114079798644e-05
-1.7508384339840975e-05   1.1685615000055216e-06   -5.340211116473207e-05
-1.7508384339840975e-05   1.1685615000055216e-06   -5.340211116473207e-05
-1.7508384339840975e-05   1.1685615000055216e-06   -5.340211116473207e-05
-1.7508384339840975e-05   1.1685615000055216e-06   -5.340211116473207e-05
-1.6973785661660304e-05   2.4299984896633195e-06   -4.931070171600334e-05
-1.6973785661660304e-05   2.4299984896633195e-06   -4.931070171600334e-05
-1.6973785661660304e-05   2.4299984896633195e-06   -4.931070171600334e-05
-1.6973785661660304e-05   2.4299984896633195e-06   -4.931070171600334e-05
-1.4844667752778631e-05   2.628209064289063e-06   -5.297815790891464e-05
-1.4844667752778631e-05   2.628209064289063e-06   -5.297815790891464e-05
-1.4844667752778631e-05   2.628209064289063e-06   -5.297815790891464e-05
-1.4844667752778631e-05   2.628209064289063e-06   -5.297815790891464e-05
-1.6081450788002396e-05   1.987581722251051e-06   -5.053247644498638e-05
-1.6081450788002396e-05   1.987581722251051e-06   -5.053247644498638e-05
-1.6081450788002396e-05   1.987581722251051e-06   -5.053247644498638e-05
-1.6081450788002396e-05   1.987581722251051e-06   -5.053247644498638e-05
-1.4844667752778604e-05   2.4299984896633195e-06   -4.942962806077887e-05
-1.4844667752778604e-05   2.4299984896633195e-06   -4.942962806077887e-05
-1.4844667752778604e-05   2.4299984896633195e-06   -4.942962806077887e-05
-1.4844667752778604e-05   2.4299984896633195e-06   -4.942962806077887e-05
-1.697378566166033e-05   2.628209064289063e-06   -5.285923156413965e-05
-1.697378566166033e-05   2.628209064289063e-06   -5.285923156413965e-05
-1.697378566166033e-05   2.628209064289063e-06   -5.285923156413965e-05
-1.697378566166033e-05   2.628209064289063e-06   -5.285923156413965e-05
-1.6411771431710154e-05   4.0593248794404575e-06   -4.945428779043297e-05
-1.6411771431710154e-05   4.0593248794404575e-06   -4.945428779043297e-05
-1.6411771431710154e-05   4.0593248794404575e-06   -4.945428779043297e-05
-1.6411771431710154e-05   4.0593248794404575e-06   -4.945428779043297e-05
-1.4279160201996596e-05   4.120034307542736e-06   -5.304506549681646e-05
-1.4279160201996596e-05   4.120034307542736e-06   -5.304506549681646e-05
-1.4279160201996596e-05   4.120034307542736e-06   -5.304506549681646e-05
-1.4279160201996596e-05   4.120034307542736e-06   -5.304506549681646e-05
-1.5632436137638485e-05   3.235824535934191e-06   -5.025907974111571e-05
-1.5632436137638485e-05   3.235824535934191e-06   -5.025907974111571e-05
-1.5632436137638485e-05   3.235824535934191e-06   -5.025907974111571e-05
-1.5632436137638485e-05   3.235824535934191e-06   -5.025907974111571e-05
-1.4279160201996542e-05   4.0593248794404575e-06   -4.949071344729388e-05
-1.4279160201996542e-05   4.0593248794404575e-06   -4.949071344729388e-05
-1.4279160201996542e-05   4.0593248794404575e-06   -4.949071344729388e-05
-1.4279160201996542e-05   4.0593248794404575e-06   -4.949071344729388e-05
-1.6411771431710154e-05   4.120034307542736e-06   -5.300863983995522e-05
-1.6411771431710154e-05   4.120034307542736e-06   -5.300863983995522e-05
-1.6411771431710154e-05   4.120034307542736e-06   -5.300863983995522e-05
-1.6411771431710154e-05   4.120034307542736e-06   -5.300863983995522e-05
-1.5881647179488947e-05   5.713211464341119e-06   -5.041414975410184e-05
-1.5881647179488947e-05   5.713211464341119e-06   -5.041414975410184e-05
-1.5881647179488947e-05   5.713211464341119e-06   -5.041414975410184e-05
-1.5881647179488947e-05   5.713211464341119e-06   -5.041414975410184e-05
-1.3746293371415106e-05   5.6324620376583395e-06   -5.392462311154842e-05
-1.3746293371415106e-05   5.6324620376583395e-06   -5.392462311154842e-05
-1.3746293371415106e-05   5.6324620376583395e-06   -5.392462311154842e-05
-1.3746293371415106e-05   5.6324620376583395e-06   -5.392462311154842e-05
-1.5218923347478601e-05   4.501514740484032e-06   -5.079167143980459e-05
-1.5218923347478601e-05   4.501514740484032e-06   -5.079167143980459e-05
-1.5218923347478601e-05   4.501514740484032e-06   -5.079167143980459e-05
-1.5218923347478601e-05   4.501514740484032e-06   -5.079167143980459e-05
-1.7508384339840917e-05   3.445960788486021e-07   -4.320965299247357e-05
-1.7508384339840917e-05   3.445960788486021e-07   -4.320965299247357e-05
-1.7508384339840917e-05   3.445960788486021e-07   -4.320965299247357e-05
-1.7508384339840917e-05   3.445960788486021e-07   -4.320965299247357e-05
-1.9744375054017485e-05   2.5984842646426323e-06   -4.5583971271291775e-05
-1.9744375054017485e-05   2.5984842646426323e-06   -4.5583971271291775e-05
-1.9744375054017485e-05   2.5984842646426323e-06   -4.5583971271291775e-05
-1.9744375054017485e-05   2.5984842646426323e-06   -4.5583971271291775e-05
-1.9098033958478918e-05   1.908713288382687e-06   -4.131240415338204e-05
-1.9098033958478918e-05   1.908713288382687e-06   -4.131240415338204e-05
-1.9098033958478918e-05   1.908713288382687e-06   -4.131240415338204e-05
-1.9098033958478918e-05   1.908713288382687e-06   -4.131240415338204e-05
-1.6973785661660304e-05   4.0627592326506964e-06   -4.614524554797344e-05
-1.6973785661660304e-05   4.0627592326506964e-06   -4.614524554797344e-05
-1.6973785661660304e-05   4.0627592326506964e-06   -4.614524554797344e-05
-1.6973785661660304e-05   4.0627592326506964e-06   -4.614524554797344e-05
-1.8189551389270988e-05   2.391979383166388e-06   -4.311650142559901e-05
-1.8189551389270988e-05   2.391979383166388e-06   -4.311650142559901e-05
-1.8189551389270988e-05   2.391979383166388e-06   -4.311650142559901e-05
-1.8189551389270988e-05   2.391979383166388e-06   -4.311650142559901e-05
-1.6973785661660274e-05   1.9087132883829037e-06   -4.2604831719942715e-05
-1.6973785661660274e-05   1.9087132883829037e-06   -4.2604831719942715e-05
-1.6973785661660274e-05   1.9087132883829037e-06   -4.2604831719942715e-05
-1.6973785661660274e-05   1.9087132883829037e-06   -4.2604831719942715e-05
-1.9098033958478918e-05   4.06275923265113e-06   -4.485281798141303e-05
-1.9098033958478918e-05   4.06275923265113e-06   -4.485281798141303e-05
-1.9098033958478918e-05   4.06275923265113e-06   -4.485281798141303e-05
-1.9098033958478918e-05   4.06275923265113e-06   -4.485281798141303e-05
-1.826393484396538e-05   3.3830788754398485e-06   -4.149293646335539e-05
-1.826393484396538e-05   3.3830788754398485e-06   -4.149293646335539e-05
-1.826393484396538e-05   3.3830788754398485e-06   -4.149293646335539e-05
-1.826393484396538e-05   3.3830788754398485e-06   -4.149293646335539e-05
-1.6411771431710127e-05   5.413941831251129e-06   -4.5798393257267155e-05
-1.6411771431710127e-05   5.413941831251129e-06   -4.5798393257267155e-05
-1.6411771431710127e-05   5.413941831251129e-06   -4.5798393257267155e-05
-1.6411771431710127e-05   5.413941831251129e-06   -4.5798393257267155e-05
-1.761198773094788e-05   3.5533851238862303e-06   -4.268169873411932e-05
-1.761198773094788e-05   3.5533851238862303e-06   -4.268169873411932e-05
-1.761198773094788e-05   3.5533851238862303e-06   -4.268169873411932e-05
-1.761198773094788e-05   3.5533851238862303e-06   -4.268169873411932e-05
-1.6411771431710086e-05   3.3830788754398485e-06   -4.271145423684157e-05
-1.6411771431710086e-05   3.3830788754398485e-06   -4.271145423684157e-05
-1.6411771431710086e-05   3.3830788754398485e-06   -4.271145423684157e-05
-1.6411771431710086e-05   3.3830788754398485e-06   -4.271145423684157e-05
-1.8263934843965407e-05   5.413941831251129e-06   -4.4579875483780626e-05
-1.8263934843965407e-05   5.413941831251129e-06   -4.4579875483780626e-05
-1.8263934843965407e-05   5.413941831251129e-06   -4.4579875483780626e-05
-1.8263934843965407e-05   5.413941831251129e-06   -4.4579875483780626e-05
-1.7608375180881478e-05   5.050729402706136e-06   -4.264385809453898e-05
-1.7608375180881478e-05   5.050729402706136e-06   -4.264385809453898e-05
-1.7608375180881478e-05   5.050729402706136e-06   -4.264385809453898e-05
-1.7608375180881478e-05   5.050729402706136e-06   -4.264385809453898e-05
-1.5881647179488947e-05   6.928778300147216e-06   -4.664856743532421e-05
-1.5881647179488947e-05   6.928778300147216e-06   -4.664856743532421e-05
-1.5881647179488947e-05   6.928778300147216e-06   -4.664856743532421e-05
-1.5881647179488947e-05   6.928778300147216e-06   -4.664856743532421e-05
-1.7178404332779383e-05   4.74082044233542e-06   -4.317453079848594e-05
-1.7178404332779383e-05   4.74082044233542e-06   -4.317453079848594e-05
-1.7178404332779383e-05   4.74082044233542e-06   -4.317453079848594e-05
-1.7178404332779383e-05   4.74082044233542e-06   -4.317453079848594e-05
-1.9744375054017404e-05   4.7370660129263456e-07   -2.3034150116672683e-05
-1.9744375054017404e-05   4.7370660129263456e-07   -2.3034150116672683e-05
-1.9744375054017404e-05   4.7370660129263456e-07   -2.3034150116672683e-05
-1.9744375054017404e-05   4.7370660129263456e-07   -2.3034150116672683e-05
-2.389064593642516e-05   4.364322075417742e-06   -2.76102323028772e-05
-2.389064593642516e-05   4.364322075417742e-06   -2.76102323028772e-05
-2.389064593642516e-05   4.364322075417742e-06   -2.76102323028772e-05
-2.389064593642516e-05   4.364322075417742e-06   -2.76102323028772e-05
-2.1602535079862323e-05   1.7094373890580439e-06   -1.9002664434300933e-05
-2.1602535079862323e-05   1.7094373890580439e-06   -1.9002664434300933e-05
-2.1602535079862323e-05   1.7094373890580439e-06   -1.9002664434300933e-05
-2.1602535079862323e-05   1.7094373890580439e-06   -1.9002664434300933e-05
-1.9098033958478877e-05   5.6913203014359245e-06   -2.5565962717366482e-05
-1.9098033958478877e-05   5.6913203014359245e-06   -2.5565962717366482e-05
-1.9098033958478877e-05   5.6913203014359245e-06   -2.5565962717366482e-05
-1.9098033958478877e-05   5.6913203014359245e-06   -2.5565962717366482e-05
-2.023056530485203e-05   3.2208940580181165e-06   -2.2196154727361012e-05
-2.023056530485203e-05   3.2208940580181165e-06   -2.2196154727361012e-05
-2.023056530485203e-05   3.2208940580181165e-06   -2.2196154727361012e-05
-2.023056530485203e-05   3.2208940580181165e-06   -2.2196154727361012e-05
-1.9098033958478823e-05   1.7094373890580439e-06   -2.139179418172727e-05
-1.9098033958478823e-05   1.7094373890580439e-06   -2.139179418172727e-05
-1.9098033958478823e-05   1.7094373890580439e-06   -2.139179418172727e-05
-1.9098033958478823e-05   1.7094373890580439e-06   -2.139179418172727e-05
-2.1602535079862323e-05   5.6913203014359245e-06   -2.317683296994017e-05
-2.1602535079862323e-05   5.6913203014359245e-06   -2.317683296994017e-05
-2.1602535079862323e-05   5.6913203014359245e-06   -2.317683296994017e-05
-2.1602535079862323e-05   5.6913203014359245e-06   -2.317683296994017e-05
-1.9741476184967366e-05   2.4046920617838696e-06   -1.869732121739993e-05
-1.9741476184967366e-05   2.4046920617838696e-06   -1.869732121739993e-05
-1.9741476184967366e-05   2.4046920617838696e-06   -1.869732121739993e-05
-1.9741476184967366e-05   2.4046920617838696e-06   -1.869732121739993e-05
-1.826393484396538e-05   6.298960503013564e-06   -2.3496451183807566e-05
-1.826393484396538e-05   6.298960503013564e-06   -2.3496451183807566e-05
-1.826393484396538e-05   6.298960503013564e-06   -2.3496451183807566e-05
-1.826393484396538e-05   6.298960503013564e-06   -2.3496451183807566e-05
-1.925134928698933e-05   3.83466501587687e-06   -2.037218315315242e-05
-1.925134928698933e-05   3.83466501587687e-06   -2.037218315315242e-05
-1.925134928698933e-05   3.83466501587687e-06   -2.037218315315242e-05
-1.925134928698933e-05   3.83466501587687e-06   -2.037218315315242e-05
-1.826393484396534e-05   2.4046920617838696e-06   -2.103388228213781e-05
-1.826393484396534e-05   2.4046920617838696e-06   -2.103388228213781e-05
-1.826393484396534e-05   2.4046920617838696e-06   -2.103388228213781e-05
-1.826393484396534e-05   2.4046920617838696e-06   -2.103388228213781e-05
-1.9741476184967366e-05   6.298960503013564e-06   -2.1159890119069793e-05
-1.9741476184967366e-05   6.298960503013564e-06   -2.1159890119069793e-05
-1.9741476184967366e-05   6.298960503013564e-06   -2.1159890119069793e-05
-1.9741476184967366e-05   6.298960503013564e-06   -2.1159890119069793e-05
-1.746656479705949e-05   3.6389553243569833e-06   -1.9295667392600396e-05
-1.746656479705949e-05   3.6389553243569833e-06   -1.9295667392600396e-05
-1.746656479705949e-05   3.6389553243569833e-06   -1.9295667392600396e-05
-1.746656479705949e-05   3.6389553243569833e-06   -1.9295667392600396e-05
-1.760837518088145e-05   7.241917239894993e-06   -2.1221093902219637e-05
-1.760837518088145e-05   7.241917239894993e-06   -2.1221093902219637e-05
-1.760837518088145e-05   7.241917239894993e-06   -2.1221093902219637e-05
-1.760837518088145e-05   7.241917239894993e-06   -2.1221093902219637e-05
-1.7815373035576548e-05   4.3317894761964355e-06   -1.9130020819508676e-05
-1.7815373035576548e-05   4.3317894761964355e-06   -1.9130020819508676e-05
-1.7815373035576548e-05   4.3317894761964355e-06   -1.9130020819508676e-05
-1.7815373035576548e-05   4.3317894761964355e-06   -1.9130020819508676e-05
1.1637786695080712e-05   -1.1520200140723545e-06   -1.202112369825723e-05
1.1637786695080712e-05   -1.1520200140723545e-06   -1.202112369825723e-05
1.1637786695080712e-05   -1.1520200140723545e-06   -1.202112369825723e-05
1.1637786695080712e-05   -1.1520200140723545e-06   -1.202112369825723e-05
1.1877765455333756e-06   -4.8602367486850866e-06   -3.166273732160374e-05
1.1877765455333756e-06   -4.8602367486850866e-06   -3.166273732160374e-05
1.1877765455333756e-06   -4.8602367486850866e-06   -3.166273732160374e-05
1.1877765455333756e-06   -4.8602367486850866e-06   -3.166273732160374e-05
2.109692683329833e-06   -3.198137562112138e-08   -1.3273318479973574e-05
2.109692683329833e-06   -3.198137562112138e-08   -1.3273318479973574e-05
2.109692683329833e-06   -3.198137562112138e-08   -1.3273318479973574e-05
2.109692683329833e-06   -3.198137562112138e-08   -1.3273318479973574e-05
1.4206736798716771e-05   -3.993225135990024e-06   -3.105831241606344e-05
1.4206736798716771e-05   -3.993225135990024e-06   -3.105831241606344e-05
1.4206736798716771e-05   -3.993225135990024e-06   -3.105831241606344e-05
1.4206736798716771e-05   -3.993225135990024e-06   -3.105831241606344e-05
7.014475835284651e-06   -2.026430085386166e-06   -2.0251287840705582e-05
7.014475835284651e-06   -2.026430085386166e-06   -2.0251287840705582e-05
7.014475835284651e-06   -2.026430085386166e-06   -2.0251287840705582e-05
7.014475835284651e-06   -2.026430085386166e-06   -2.0251287840705582e-05
1.4206736798716771e-05   -3.198137562112138e-08   -1.0896572223751712e-05
1.4206736798716771e-05   -3.198137562112138e-08   -1.0896572223751712e-05
1.4206736798716771e-05   -3.198137562112138e-08   -1.0896572223751712e-05
1.4206736798716771e-05   -3.198137562112138e-08   -1.0896572223751712e-05
2.109692683329833e-06   -3.993225135990024e-06   -3.34350586722853e-05
2.109692683329833e-06   -3.993225135990024e-06   -3.34350586722853e-05
2.109692683329833e-06   -3.993225135990024e-06   -3.34350586722853e-05
2.109692683329833e-06   -3.993225135990024e-06   -3.34350586722853e-05
3.1961172949320285e-06   6.009429889654652e-07   -1.3372535922853831e-05
3.1961172949320285e-06   6.009429889654652e-07   -1.3372535922853831e-05
3.1961172949320285e-06   6.009429889654652e-07   -1.3372535922853831e-05
3.1961172949320285e-06   6.009429889654652e-07   -1.3372535922853831e-05
1.637936894702816e-05   -3.415989622180312e-06   -3.2934462442993384e-05
1.637936894702816e-05   -3.415989622180312e-06   -3.2934462442993384e-05
1.637936894702816e-05   -3.415989622180312e-06   -3.2934462442993384e-05
1.637936894702816e-05   -3.415989622180312e-06   -3.2934462442993384e-05
8.644894625665277e-06   -1.6217877726936933e-06   -2.1120193017081174e-05
8.644894625665277e-06   -1.6217877726936933e-06   -2.1120193017081174e-05
8.644894625665277e-06   -1.6217877726936933e-06   -2.1120193017081174e-05
8.644894625665277e-06   -1.6217877726936933e-06   -2.1120193017081174e-05
1.6379368947028216e-05   6.009429889654652e-07   -1.0962376356166495e-05
1.6379368947028216e-05   6.009429889654652e-07   -1.0962376356166495e-05
1.6379368947028216e-05   6.009429889654652e-07   -1.0962376356166495e-05
1.6379368947028216e-05   6.009429889654652e-07   -1.0962376356166495e-05
3.1961172949319743e-06   -3.415989622180312e-06   -3.534462200968083e-05
3.1961172949319743e-06   -3.415989622180312e-06   -3.534462200968083e-05
3.1961172949319743e-06   -3.415989622180312e-06   -3.534462200968083e-05
3.1961172949319743e-06   -3.415989622180312e-06   -3.534462200968083e-05
4.09138127751863e-06   1.8635002491267962e-06   -1.4646302699295854e-05
4.09138127751863e-06   1.8635002491267962e-06   -1.4646302699295854e-05
4.09138127751863e-06   1.8635002491267962e-06   -1.4646302699295854e-05
4.09138127751863e-06   1.8635002491267962e-06   -1.4646302699295854e-05
1.8989142390675603e-05   -1.9607332270043555e-06   -3.7181364468878535e-05
1.8989142390675603e-05   -1.9607332270043555e-06   -3.7181364468878535e-05
1.8989142390675603e-05   -1.9607332270043555e-06   -3.7181364468878535e-05
1.8989142390675603e-05   -1.9607332270043555e-06   -3.7181364468878535e-05
9.943972841049928e-06   -1.0282662468311457e-06   -2.2665562074274115e-05
9.943972841049928e-06   -1.0282662468311457e-06   -2.2665562074274115e-05
9.943972841049928e-06   -1.0282662468311457e-06   -2.2665562074274115e-05
9.943972841049928e-06   -1.0282662468311457e-06   -2.2665562074274115e-05
1.1877765455333214e-06   -2.5173324391929847e-07   -3.450289848876977e-05
1.1877765455333214e-06   -2.5173324391929847e-07   -3.450289848876977e-05
1.1877765455333214e-06   -2.5173324391929847e-07   -3.450289848876977e-05
1.1877765455333214e-06   -2.5173324391929847e-07   -3.450289848876977e-05
-1.1021962676885746e-05   -1.9256970899819356e-06   -5.5856842167105653e-05
-1.1021962676885746e-05   -1.9256970899819356e-06   -5.5856842167105653e-05
-1.1021962676885746e-05   -1.9256970899819356e-06   -5.5856842167105653e-05
-1.1021962676885746e-05   -1.9256970899819356e-06   -5.5856842167105653e-05
-1.021259360732042e-05   1.161037353555102e-06   -3.469867714962164e-05
-1.021259360732042e-05   1.161037353555102e-06   -3.469867714962164e-05
-1.021259360732042e-05   1.161037353555102e-06   -3.469867714962164e-05
-1.021259360732042e-05   1.161037353555102e-06   -3.469867714962164e-05
2.109692683329833e-06   -7.378600625075442e-07   -5.409648251773438e-05
2.109692683329833e-06   -7.378600625075442e-07   -5.409648251773438e-05
2.109692683329833e-06   -7.378600625075442e-07   -5.409648251773438e-05
2.109692683329833e-06   -7.378600625075442e-07   -5.409648251773438e-05
-4.380425025893883e-06   -7.511767644670028e-08   -4.3677265100664615e-05
-4.380425025893883e-06   -7.511767644670028e-08   -4.3677265100664615e-05
-4.380425025893883e-06   -7.511767644670028e-08   -4.3677265100664615e-05
-4.380425025893883e-06   -7.511767644670028e-08   -4.3677265100664615e-05
2.109692683329833e-06   1.161037353555102e-06   -3.355933869998392e-05
2.109692683329833e-06   1.161037353555102e-06   -3.355933869998392e-05
2.109692683329833e-06   1.161037353555102e-06   -3.355933869998392e-05
2.109692683329833e-06   1.161037353555102e-06   -3.355933869998392e-05
-1.021259360732042e-05   -7.378600625075442e-07   -5.523582096737226e-05
-1.021259360732042e-05   -7.378600625075442e-07   -5.523582096737226e-05
-1.021259360732042e-05   -7.378600625075442e-07   -5.523582096737226e-05
-1.021259360732042e-05   -7.378600625075442e-07   -5.523582096737226e-05
-9.398637191792935e-06   2.520780281215721e-06   -3.475063864242806e-05
-9.398637191792935e-06   2.520780281215721e-06   -3.475063864242806e-05
-9.398637191792935e-06   2.520780281215721e-06   -3.475063864242806e-05
-9.398637191792935e-06   2.520780281215721e-06   -3.475063864242806e-05
3.1961172949320285e-06   4.901136158130641e-07   -5.45234961210615e-05
3.1961172949320285e-06   4.901136158130641e-07   -5.45234961210615e-05
3.1961172949320285e-06   4.901136158130641e-07   -5.45234961210615e-05
3.1961172949320285e-06   4.901136158130641e-07   -5.45234961210615e-05
-3.663109425487262e-06   8.999287855028862e-07   -4.333734068884303e-05
-3.663109425487262e-06   8.999287855028862e-07   -4.333734068884303e-05
-3.663109425487262e-06   8.999287855028862e-07   -4.333734068884303e-05
-3.663109425487262e-06   8.999287855028862e-07   -4.333734068884303e-05
3.1961172949320285e-06   2.520780281215721e-06   -3.3532238643186555e-05
3.1961172949320285e-06   2.520780281215721e-06   -3.3532238643186555e-05
3.1961172949320285e-06   2.520780281215721e-06   -3.3532238643186555e-05
3.1961172949320285e-06   2.520780281215721e-06   -3.3532238643186555e-05
-9.398637191792935e-06   4.901136158130641e-07   -5.574189612030317e-05
-9.398637191792935e-06   4.901136158130641e-07   -5.574189612030317e-05
-9.398637191792935e-06   4.901136158130641e-07   -5.574189612030317e-05
-9.398637191792935e-06   4.901136158130641e-07   -5.574189612030317e-05
-8.620680935660053e-06   4.073008001579705e-06   -3.5620628878578215e-05
-8.620680935660053e-06   4.073008001579705e-06   -3.5620628878578215e-05
-8.620680935660053e-06   4.073008001579705e-06   -3.5620628878578215e-05
-8.620680935660053e-06   4.073008001579705e-06   -3.5620628878578215e-05
4.09138127751863e-06   1.943922151379472e-06   -5.552994772375588e-05
4.09138127751863e-06   1.943922151379472e-06   -5.552994772375588e-05
4.09138127751863e-06   1.943922151379472e-06   -5.552994772375588e-05
4.09138127751863e-06   1.943922151379472e-06   -5.552994772375588e-05
-2.8648356762363725e-06   1.9803296559938594e-06   -4.395809730360005e-05
-2.8648356762363725e-06   1.9803296559938594e-06   -4.395809730360005e-05
-2.8648356762363725e-06   1.9803296559938594e-06   -4.395809730360005e-05
-2.8648356762363725e-06   1.9803296559938594e-06   -4.395809730360005e-05
-1.1021962676885773e-05   1.168561500005088e-06   -4.175579732941829e-05
-1.1021962676885773e-05   1.168561500005088e-06   -4.175579732941829e-05
-1.1021962676885773e-05   1.168561500005088e-06   -4.175579732941829e-05
-1.1021962676885773e-05   1.168561500005088e-06   -4.175579732941829e-05
-2.3126945383302324e-05   1.4732575205635666e-06   -6.174795089444437e-05
-2.3126945383302324e-05   1.4732575205635666e-06   -6.174795089444437e-05
-2.3126945383302324e-05   1.4732575205635666e-06   -6.174795089444437e-05
-2.3126945383302324e-05   1.4732575205635666e-06   -6.174795089444437e-05
-2.2311673044098112e-05   2.628209064289063e-06   -4.1009473150501255e-05
-2.2311673044098112e-05   2.628209064289063e-06   -4.1009473150501255e-05
-2.2311673044098112e-05   2.628209064289063e-06   -4.1009473150501255e-05
-2.2311673044098112e-05   2.628209064289063e-06   -4.1009473150501255e-05
-1.021259360732042e-05   2.7294624327985767e-06   -6.123535756623647e-05
-1.021259360732042e-05   2.7294624327985767e-06   -6.123535756623647e-05
-1.021259360732042e-05   2.7294624327985767e-06   -6.123535756623647e-05
-1.021259360732042e-05   2.7294624327985767e-06   -6.123535756623647e-05
-1.6571742602184566e-05   2.256224158168549e-06   -5.03528329433517e-05
-1.6571742602184566e-05   2.256224158168549e-06   -5.03528329433517e-05
-1.6571742602184566e-05   2.256224158168549e-06   -5.03528329433517e-05
-1.6571742602184566e-05   2.256224158168549e-06   -5.03528329433517e-05
-1.021259360732042e-05   2.628209064289063e-06   -4.107022517160709e-05
-1.021259360732042e-05   2.628209064289063e-06   -4.107022517160709e-05
-1.021259360732042e-05   2.628209064289063e-06   -4.107022517160709e-05
-1.021259360732042e-05   2.628209064289063e-06   -4.107022517160709e-05
-2.2311673044098112e-05   2.729462432798143e-06   -6.117460554513096e-05
-2.2311673044098112e-05   2.729462432798143e-06   -6.117460554513096e-05
-2.2311673044098112e-05   2.729462432798143e-06   -6.117460554513096e-05
-2.2311673044098112e-05   2.729462432798143e-06   -6.117460554513096e-05
-2.1483516912353715e-05   4.120034307542736e-06   -4.111614785330393e-05
-2.1483516912353715e-05   4.120034307542736e-06   -4.111614785330393e-05
-2.1483516912353715e-05   4.120034307542736e-06   -4.111614785330393e-05
-2.1483516912353715e-05   4.120034307542736e-06   -4.111614785330393e-05
-9.398637191792962e-06   4.05968807358232e-06   -6.122140631386209e-05
-9.398637191792962e-06   4.05968807358232e-06   -6.122140631386209e-05
-9.398637191792962e-06   4.05968807358232e-06   -6.122140631386209e-05
-9.398637191792962e-06   4.05968807358232e-06   -6.122140631386209e-05
-1.5854018465647086e-05   3.3524172450842722e-06   -5.0038075027007255e-05
-1.5854018465647086e-05   3.3524172450842722e-06   -5.0038075027007255e-05
-1.5854018465647086e-05   3.3524172450842722e-06   -5.0038075027007255e-05
-1.5854018465647086e-05   3.3524172450842722e-06   -5.0038075027007255e-05
-9.398637191792962e-06   4.120034307542736e-06   -4.1079940112927465e-05
-9.398637191792962e-06   4.120034307542736e-06   -4.1079940112927465e-05
-9.398637191792962e-06   4.120034307542736e-06   -4.1079940112927465e-05
-9.398637191792962e-06   4.120034307542736e-06   -4.1079940112927465e-05
-2.1483516912353674e-05   4.05968807358232e-06   -6.125761405423855e-05
-2.1483516912353674e-05   4.05968807358232e-06   -6.125761405423855e-05
-2.1483516912353674e-05   4.05968807358232e-06   -6.125761405423855e-05
-2.1483516912353674e-05   4.05968807358232e-06   -6.125761405423855e-05
-2.069377968341457e-05   5.6324620376583395e-06   -4.2039471127230986e-05
-2.069377968341457e-05   5.6324620376583395e-06   -4.2039471127230986e-05
-2.069377968341457e-05   5.6324620376583395e-06   -4.2039471127230986e-05
-2.069377968341457e-05   5.6324620376583395e-06   -4.2039471127230986e-05
-8.620680935660053e-06   5.41287790764523e-06   -6.202955189548072e-05
-8.620680935660053e-06   5.41287790764523e-06   -6.202955189548072e-05
-8.620680935660053e-06   5.41287790764523e-06   -6.202955189548072e-05
-8.620680935660053e-06   5.41287790764523e-06   -6.202955189548072e-05
-1.5186099383519736e-05   4.465224954891024e-06   -5.051859604406268e-05
-1.5186099383519736e-05   4.465224954891024e-06   -5.051859604406268e-05
-1.5186099383519736e-05   4.465224954891024e-06   -5.051859604406268e-05
-1.5186099383519736e-05   4.465224954891024e-06   -5.051859604406268e-05
-2.312694538330237e-05   2.5984842646426323e-06   -3.5107172735119544e-05
-2.312694538330237e-05   2.5984842646426323e-06   -3.5107172735119544e-05
-2.312694538330237e-05   2.5984842646426323e-06   -3.5107172735119544e-05
-2.312694538330237e-05   2.5984842646426323e-06   -3.5107172735119544e-05
-3.5083039286033264e-05   4.770849815306528e-06   -5.3730576575939434e-05
-3.5083039286033264e-05   4.770849815306528e-06   -5.3730576575939434e-05
-3.5083039286033264e-05   4.770849815306528e-06   -5.3730576575939434e-05
-3.5083039286033264e-05   4.770849815306528e-06   -5.3730576575939434e-05
-3.415188654944698e-05   4.0627592326506964e-06   -3.3066133112150424e-05
-3.415188654944698e-05   4.0627592326506964e-06   -3.3066133112150424e-05
-3.415188654944698e-05   4.0627592326506964e-06   -3.3066133112150424e-05
-3.415188654944698e-05   4.0627592326506964e-06   -3.3066133112150424e-05
-2.2311673044098112e-05   6.111682602959016e-06   -5.40291763099171e-05
-2.2311673044098112e-05   6.111682602959016e-06   -5.40291763099171e-05
-2.2311673044098112e-05   6.111682602959016e-06   -5.40291763099171e-05
-2.2311673044098112e-05   6.111682602959016e-06   -5.40291763099171e-05
-2.8469886997806728e-05   4.560574299543492e-06   -4.283482140501969e-05
-2.8469886997806728e-05   4.560574299543492e-06   -4.283482140501969e-05
-2.8469886997806728e-05   4.560574299543492e-06   -4.283482140501969e-05
-2.8469886997806728e-05   4.560574299543492e-06   -4.283482140501969e-05
-2.2311673044098153e-05   4.06275923265113e-06   -3.429548713433563e-05
-2.2311673044098153e-05   4.06275923265113e-06   -3.429548713433563e-05
-2.2311673044098153e-05   4.06275923265113e-06   -3.429548713433563e-05
-2.2311673044098153e-05   4.06275923265113e-06   -3.429548713433563e-05
-3.415188654944703e-05   6.111682602959016e-06   -5.279982228773234e-05
-3.415188654944703e-05   6.111682602959016e-06   -5.279982228773234e-05
-3.415188654944703e-05   6.111682602959016e-06   -5.279982228773234e-05
-3.415188654944703e-05   6.111682602959016e-06   -5.279982228773234e-05
-3.3038065614745724e-05   5.413941831251129e-06   -3.27624218396552e-05
-3.3038065614745724e-05   5.413941831251129e-06   -3.27624218396552e-05
-3.3038065614745724e-05   5.413941831251129e-06   -3.27624218396552e-05
-3.3038065614745724e-05   5.413941831251129e-06   -3.27624218396552e-05
-2.1483516912353715e-05   7.3197408828524525e-06   -5.316348244126937e-05
-2.1483516912353715e-05   7.3197408828524525e-06   -5.316348244126937e-05
-2.1483516912353715e-05   7.3197408828524525e-06   -5.316348244126937e-05
-2.1483516912353715e-05   7.3197408828524525e-06   -5.316348244126937e-05
-2.753195436527531e-05   5.618918932665407e-06   -4.206226018295509e-05
-2.753195436527531e-05   5.618918932665407e-06   -4.206226018295509e-05
-2.753195436527531e-05   5.618918932665407e-06   -4.206226018295509e-05
-2.753195436527531e-05   5.618918932665407e-06   -4.206226018295509e-05
-2.148351691235369e-05   5.413941831251129e-06   -3.390590127061574e-05
-2.148351691235369e-05   5.413941831251129e-06   -3.390590127061574e-05
-2.148351691235369e-05   5.413941831251129e-06   -3.390590127061574e-05
-2.148351691235369e-05   5.413941831251129e-06   -3.390590127061574e-05
-3.3038065614745724e-05   7.3197408828524525e-06   -5.202000301030864e-05
-3.3038065614745724e-05   7.3197408828524525e-06   -5.202000301030864e-05
-3.3038065614745724e-05   7.3197408828524525e-06   -5.202000301030864e-05
-3.3038065614745724e-05   7.3197408828524525e-06   -5.202000301030864e-05
-3.2109840477860554e-05   6.928778300147216e-06   -3.366902316959781e-05
-3.2109840477860554e-05   6.928778300147216e-06   -3.366902316959781e-05
-3.2109840477860554e-05   6.928778300147216e-06   -3.366902316959781e-05
-3.2109840477860554e-05   6.928778300147216e-06   -3.366902316959781e-05
-2.069377968341457e-05   8.672016009146199e-06   -5.3741733785740624e-05
-2.069377968341457e-05   8.672016009146199e-06   -5.3741733785740624e-05
-2.069377968341457e-05   8.672016009146199e-06   -5.3741733785740624e-05
-2.069377968341457e-05   8.672016009146199e-06   -5.3741733785740624e-05
-2.6902292016159355e-05   6.662128819469142e-06   -4.2188280917359764e-05
-2.6902292016159355e-05   6.662128819469142e-06   -4.2188280917359764e-05
-2.6902292016159355e-05   6.662128819469142e-06   -4.2188280917359764e-05
-2.6902292016159355e-05   6.662128819469142e-06   -4.2188280917359764e-05
-3.5083039286033264e-05   4.364322075417742e-06   -1.8164383720781913e-05
-3.5083039286033264e-05   4.364322075417742e-06   -1.8164383720781913e-05
-3.5083039286033264e-05   4.364322075417742e-06   -1.8164383720781913e-05
-3.5083039286033264e-05   4.364322075417742e-06   -1.8164383720781913e-05
-4.8704112287437025e-05   8.201338384237079e-06   -3.856396227116328e-05
-4.8704112287437025e-05   8.201338384237079e-06   -3.856396227116328e-05
-4.8704112287437025e-05   8.201338384237079e-06   -3.856396227116328e-05
-4.8704112287437025e-05   8.201338384237079e-06   -3.856396227116328e-05
-4.615174354247707e-05   5.6913203014359245e-06   -1.1438338779201206e-05
-4.615174354247707e-05   5.6913203014359245e-06   -1.1438338779201206e-05
-4.615174354247707e-05   5.6913203014359245e-06   -1.1438338779201206e-05
-4.615174354247707e-05   5.6913203014359245e-06   -1.1438338779201206e-05
-3.415188654944698e-05   9.59288541627426e-06   -3.377903950315433e-05
-3.415188654944698e-05   9.59288541627426e-06   -3.377903950315433e-05
-3.415188654944698e-05   9.59288541627426e-06   -3.377903950315433e-05
-3.415188654944698e-05   9.59288541627426e-06   -3.377903950315433e-05
-3.935361677165515e-05   7.122373521410447e-06   -2.3627181995889302e-05
-3.935361677165515e-05   7.122373521410447e-06   -2.3627181995889302e-05
-3.935361677165515e-05   7.122373521410447e-06   -2.3627181995889302e-05
-3.935361677165515e-05   7.122373521410447e-06   -2.3627181995889302e-05
-3.415188654944702e-05   5.6913203014359245e-06   -1.3779277848104121e-05
-3.415188654944702e-05   5.6913203014359245e-06   -1.3779277848104121e-05
-3.415188654944702e-05   5.6913203014359245e-06   -1.3779277848104121e-05
-3.415188654944702e-05   5.6913203014359245e-06   -1.3779277848104121e-05
-4.615174354247691e-05   9.59288541627426e-06   -3.143810043425136e-05
-4.615174354247691e-05   9.59288541627426e-06   -3.143810043425136e-05
-4.615174354247691e-05   9.59288541627426e-06   -3.143810043425136e-05
-4.615174354247691e-05   9.59288541627426e-06   -3.143810043425136e-05
-4.4042145216479815e-05   6.298960503013564e-06   -9.403581321383234e-06
-4.4042145216479815e-05   6.298960503013564e-06   -9.403581321383234e-06
-4.4042145216479815e-05   6.298960503013564e-06   -9.403581321383234e-06
-4.4042145216479815e-05   6.298960503013564e-06   -9.403581321383234e-06
-3.3038065614745656e-05   1.009132086684508e-05   -3.001913020923906e-05
-3.3038065614745656e-05   1.009132086684508e-05   -3.001913020923906e-05
-3.3038065614745656e-05   1.009132086684508e-05   -3.001913020923906e-05
-3.3038065614745656e-05   1.009132086684508e-05   -3.001913020923906e-05
-3.841513020803886e-05   7.74742729970062e-06   -1.9651019746797058e-05
-3.841513020803886e-05   7.74742729970062e-06   -1.9651019746797058e-05
-3.841513020803886e-05   7.74742729970062e-06   -1.9651019746797058e-05
-3.841513020803886e-05   7.74742729970062e-06   -1.9651019746797058e-05
-3.3038065614745724e-05   6.298960503013564e-06   -1.1678997539681926e-05
-3.3038065614745724e-05   6.298960503013564e-06   -1.1678997539681926e-05
-3.3038065614745724e-05   6.298960503013564e-06   -1.1678997539681926e-05
-3.3038065614745724e-05   6.298960503013564e-06   -1.1678997539681926e-05
-4.4042145216479733e-05   1.009132086684508e-05   -2.7743713990940368e-05
-4.4042145216479733e-05   1.009132086684508e-05   -2.7743713990940368e-05
-4.4042145216479733e-05   1.009132086684508e-05   -2.7743713990940368e-05
-4.4042145216479733e-05   1.009132086684508e-05   -2.7743713990940368e-05
-4.154870332361422e-05   7.241917239895427e-06   -7.278555599675744e-06
-4.154870332361422e-05   7.241917239895427e-06   -7.278555599675744e-06
-4.154870332361422e-05   7.241917239895427e-06   -7.278555599675744e-06
-4.154870332361422e-05   7.241917239895427e-06   -7.278555599675744e-06
-3.2109840477860554e-05   1.0724956198698496e-05   -2.5099817051213956e-05
-3.2109840477860554e-05   1.0724956198698496e-05   -2.5099817051213956e-05
-3.2109840477860554e-05   1.0724956198698496e-05   -2.5099817051213956e-05
-3.2109840477860554e-05   1.0724956198698496e-05   -2.5099817051213956e-05
-3.6433831821832025e-05   8.049827578825771e-06   -1.6288087639338106e-05
-3.6433831821832025e-05   8.049827578825771e-06   -1.6288087639338106e-05
-3.6433831821832025e-05   8.049827578825771e-06   -1.6288087639338106e-05
-3.6433831821832025e-05   8.049827578825771e-06   -1.6288087639338106e-05
3.703391687534112e-05   -4.8602367486850866e-06   -3.364225952715797e-07
3.703391687534112e-05   -4.8602367486850866e-06   -3.364225952715797e-07
3.703391687534112e-05   -4.8602367486850866e-06   -3.364225952715797e-07
3.703391687534112e-05   -4.8602367486850866e-06   -3.364225952715797e-07
1.5793118975707707e-05   -8.774785539537519e-06   -3.808648170250525e-05
1.5793118975707707e-05   -8.774785539537519e-06   -3.808648170250525e-05
1.5793118975707707e-05   -8.774785539537519e-06   -3.808648170250525e-05
1.5793118975707707e-05   -8.774785539537519e-06   -3.808648170250525e-05
1.691792631248345e-05   -3.993225135990458e-06   -4.237127648860049e-06
1.691792631248345e-05   -3.993225135990458e-06   -4.237127648860049e-06
1.691792631248345e-05   -3.993225135990458e-06   -4.237127648860049e-06
1.691792631248345e-05   -3.993225135990458e-06   -4.237127648860049e-06
3.984510800108561e-05   -8.159718819865814e-06   -3.9949200919538446e-05
3.984510800108561e-05   -8.159718819865814e-06   -3.9949200919538446e-05
3.984510800108561e-05   -8.159718819865814e-06   -3.9949200919538446e-05
3.984510800108561e-05   -8.159718819865814e-06   -3.9949200919538446e-05
2.6293140757071784e-05   -5.780705051326718e-06   -1.878999710730532e-05
2.6293140757071784e-05   -5.780705051326718e-06   -1.878999710730532e-05
2.6293140757071784e-05   -5.780705051326718e-06   -1.878999710730532e-05
2.6293140757071784e-05   -5.780705051326718e-06   -1.878999710730532e-05
3.984510800108572e-05   -3.993225135990458e-06   -1.7372314385347056e-06
3.984510800108572e-05   -3.993225135990458e-06   -1.7372314385347056e-06
3.984510800108572e-05   -3.993225135990458e-06   -1.7372314385347056e-06
3.984510800108572e-05   -3.993225135990458e-06   -1.7372314385347056e-06
1.6917926312483397e-05   -8.159718819865814e-06   -4.2449097129864007e-05
1.6917926312483397e-05   -8.159718819865814e-06   -4.2449097129864007e-05
1.6917926312483397e-05   -8.159718819865814e-06   -4.2449097129864007e-05
1.6917926312483397e-05   -8.159718819865814e-06   -4.2449097129864007e-05
1.8163659834400303e-05   -3.415989622180312e-06   -5.945682578342628e-06
1.8163659834400303e-05   -3.415989622180312e-06   -5.945682578342628e-06
1.8163659834400303e-05   -3.415989622180312e-06   -5.945682578342628e-06
1.8163659834400303e-05   -3.415989622180312e-06   -5.945682578342628e-06
4.220792666241791e-05   -7.63225470366835e-06   -4.348970157614556e-05
4.220792666241791e-05   -7.63225470366835e-06   -4.348970157614556e-05
4.220792666241791e-05   -7.63225470366835e-06   -4.348970157614556e-05
4.220792666241791e-05   -7.63225470366835e-06   -4.348970157614556e-05
2.840474772822921e-05   -5.5459939136089965e-06   -2.1736159826533366e-05
2.840474772822921e-05   -5.5459939136089965e-06   -2.1736159826533366e-05
2.840474772822921e-05   -5.5459939136089965e-06   -2.1736159826533366e-05
2.840474772822921e-05   -5.5459939136089965e-06   -2.1736159826533366e-05
4.2207926662417967e-05   -3.415989622180312e-06   -3.415923529449848e-06
4.2207926662417967e-05   -3.415989622180312e-06   -3.415923529449848e-06
4.2207926662417967e-05   -3.415989622180312e-06   -3.415923529449848e-06
4.2207926662417967e-05   -3.415989622180312e-06   -3.415923529449848e-06
1.816365983440025e-05   -7.63225470366835e-06   -4.601946062503877e-05
1.816365983440025e-05   -7.63225470366835e-06   -4.601946062503877e-05
1.816365983440025e-05   -7.63225470366835e-06   -4.601946062503877e-05
1.816365983440025e-05   -7.63225470366835e-06   -4.601946062503877e-05
1.919437876566081e-05   -1.9607332270043555e-06   -9.892702233051283e-06
1.919437876566081e-05   -1.9607332270043555e-06   -9.892702233051283e-06
1.919437876566081e-05   -1.9607332270043555e-06   -9.892702233051283e-06
1.919437876566081e-05   -1.9607332270043555e-06   -9.892702233051283e-06
4.495124419693291e-05   -5.962926074014763e-06   -5.041949557696543e-05
4.495124419693291e-05   -5.962926074014763e-06   -5.041949557696543e-05
4.495124419693291e-05   -5.962926074014763e-06   -5.041949557696543e-05
4.495124419693291e-05   -5.962926074014763e-06   -5.041949557696543e-05
2.9552495712285528e-05   -4.894963117167694e-06   -2.5395692543329212e-05
2.9552495712285528e-05   -4.894963117167694e-06   -2.5395692543329212e-05
2.9552495712285528e-05   -4.894963117167694e-06   -2.5395692543329212e-05
2.9552495712285528e-05   -4.894963117167694e-06   -2.5395692543329212e-05
1.5793118975707815e-05   -1.9256970899819356e-06   -2.587487840764735e-05
1.5793118975707815e-05   -1.9256970899819356e-06   -2.587487840764735e-05
1.5793118975707815e-05   -1.9256970899819356e-06   -2.587487840764735e-05
1.5793118975707815e-05   -1.9256970899819356e-06   -2.587487840764735e-05
-6.701977540585604e-06   -4.11517868999017e-06   -6.468039489480773e-05
-6.701977540585604e-06   -4.11517868999017e-06   -6.468039489480773e-05
-6.701977540585604e-06   -4.11517868999017e-06   -6.468039489480773e-05
-6.701977540585604e-06   -4.11517868999017e-06   -6.468039489480773e-05
-5.6547271710713064e-06   -7.378600625075442e-07   -2.6413434673193577e-05
-5.6547271710713064e-06   -7.378600625075442e-07   -2.6413434673193577e-05
-5.6547271710713064e-06   -7.378600625075442e-07   -2.6413434673193577e-05
-5.6547271710713064e-06   -7.378600625075442e-07   -2.6413434673193577e-05
1.6917926312483397e-05   -3.262665360648058e-06   -6.251964063356727e-05
1.6917926312483397e-05   -3.262665360648058e-06   -6.251964063356727e-05
1.6917926312483397e-05   -3.262665360648058e-06   -6.251964063356727e-05
1.6917926312483397e-05   -3.262665360648058e-06   -6.251964063356727e-05
5.144905873202287e-06   -1.9908809388781597e-06   -4.3661010554494196e-05
5.144905873202287e-06   -1.9908809388781597e-06   -4.3661010554494196e-05
5.144905873202287e-06   -1.9908809388781597e-06   -4.3661010554494196e-05
5.144905873202287e-06   -1.9908809388781597e-06   -4.3661010554494196e-05
1.691792631248345e-05   -7.378600625075442e-07   -2.48985514943094e-05
1.691792631248345e-05   -7.378600625075442e-07   -2.48985514943094e-05
1.691792631248345e-05   -7.378600625075442e-07   -2.48985514943094e-05
1.691792631248345e-05   -7.378600625075442e-07   -2.48985514943094e-05
-5.654727171071279e-06   -3.262665360648058e-06   -6.403452381245167e-05
-5.654727171071279e-06   -3.262665360648058e-06   -6.403452381245167e-05
-5.654727171071279e-06   -3.262665360648058e-06   -6.403452381245167e-05
-5.654727171071279e-06   -3.262665360648058e-06   -6.403452381245167e-05
-4.654793671826949e-06   4.901136158134978e-07   -2.6750875705703345e-05
-4.654793671826949e-06   4.901136158134978e-07   -2.6750875705703345e-05
-4.654793671826949e-06   4.901136158134978e-07   -2.6750875705703345e-05
-4.654793671826949e-06   4.901136158134978e-07   -2.6750875705703345e-05
1.816365983440025e-05   -2.220418077486519e-06   -6.31553125334354e-05
1.816365983440025e-05   -2.220418077486519e-06   -6.31553125334354e-05
1.816365983440025e-05   -2.220418077486519e-06   -6.31553125334354e-05
1.816365983440025e-05   -2.220418077486519e-06   -6.31553125334354e-05
5.976695051035185e-06   -1.237278762583182e-06   -4.343358815010116e-05
5.976695051035185e-06   -1.237278762583182e-06   -4.343358815010116e-05
5.976695051035185e-06   -1.237278762583182e-06   -4.343358815010116e-05
5.976695051035185e-06   -1.237278762583182e-06   -4.343358815010116e-05
1.8163659834400303e-05   4.901136158130641e-07   -2.5124556689723465e-05
1.8163659834400303e-05   4.901136158130641e-07   -2.5124556689723465e-05
1.8163659834400303e-05   4.901136158130641e-07   -2.5124556689723465e-05
1.8163659834400303e-05   4.901136158130641e-07   -2.5124556689723465e-05
-4.654793671826949e-06   -2.220418077486519e-06   -6.47816315494155e-05
-4.654793671826949e-06   -2.220418077486519e-06   -6.47816315494155e-05
-4.654793671826949e-06   -2.220418077486519e-06   -6.47816315494155e-05
-4.654793671826949e-06   -2.220418077486519e-06   -6.47816315494155e-05
-3.7152982261827363e-06   1.943922151379472e-06   -2.765874793321044e-05
-3.7152982261827363e-06   1.943922151379472e-06   -2.765874793321044e-05
-3.7152982261827363e-06   1.943922151379472e-06   -2.765874793321044e-05
-3.7152982261827363e-06   1.943922151379472e-06   -2.765874793321044e-05
1.919437876566081e-05   -9.094154002214916e-07   -6.412954038865641e-05
1.919437876566081e-05   -9.094154002214916e-07   -6.412954038865641e-05
1.919437876566081e-05   -9.094154002214916e-07   -6.412954038865641e-05
1.919437876566081e-05   -9.094154002214916e-07   -6.412954038865641e-05
7.012973085009563e-06   -3.081200440351213e-07   -4.41879748012831e-05
7.012973085009563e-06   -3.081200440351213e-07   -4.41879748012831e-05
7.012973085009563e-06   -3.081200440351213e-07   -4.41879748012831e-05
7.012973085009563e-06   -3.081200440351213e-07   -4.41879748012831e-05
-6.701977540585604e-06   1.473257520563133e-06   -3.326249370732572e-05
-6.701977540585604e-06   1.473257520563133e-06   -3.326249370732572e-05
-6.701977540585604e-06   1.473257520563133e-06   -3.326249370732572e-05
-6.701977540585604e-06   1.473257520563133e-06   -3.326249370732572e-05
-2.880089513667892e-05   7.373993307791676e-07   -7.053553794801864e-05
-2.880089513667892e-05   7.373993307791676e-07   -7.053553794801864e-05
-2.880089513667892e-05   7.373993307791676e-07   -7.053553794801864e-05
-2.880089513667892e-05   7.373993307791676e-07   -7.053553794801864e-05
-2.7673596004401957e-05   2.7294624327985767e-06   -3.3033956953907847e-05
-2.7673596004401957e-05   2.7294624327985767e-06   -3.3033956953907847e-05
-2.7673596004401957e-05   2.7294624327985767e-06   -3.3033956953907847e-05
-2.7673596004401957e-05   2.7294624327985767e-06   -3.3033956953907847e-05
-5.654727171071279e-06   1.6944862963820702e-06   -6.911108599427584e-05
-5.654727171071279e-06   1.6944862963820702e-06   -6.911108599427584e-05
-5.654727171071279e-06   1.6944862963820702e-06   -6.911108599427584e-05
-5.654727171071279e-06   1.6944862963820702e-06   -6.911108599427584e-05
-1.7089759879366944e-05   2.0195103458435157e-06   -5.024771257679326e-05
-1.7089759879366944e-05   2.0195103458435157e-06   -5.024771257679326e-05
-1.7089759879366944e-05   2.0195103458435157e-06   -5.024771257679326e-05
-1.7089759879366944e-05   2.0195103458435157e-06   -5.024771257679326e-05
-5.6547271710713064e-06   2.7294624327985767e-06   -3.241297127205833e-05
-5.6547271710713064e-06   2.7294624327985767e-06   -3.241297127205833e-05
-5.6547271710713064e-06   2.7294624327985767e-06   -3.241297127205833e-05
-5.6547271710713064e-06   2.7294624327985767e-06   -3.241297127205833e-05
-2.7673596004401957e-05   1.6944862963820702e-06   -6.973207167612562e-05
-2.7673596004401957e-05   1.6944862963820702e-06   -6.973207167612562e-05
-2.7673596004401957e-05   1.6944862963820702e-06   -6.973207167612562e-05
-2.7673596004401957e-05   1.6944862963820702e-06   -6.973207167612562e-05
-2.6586446193805542e-05   4.059688073581886e-06   -3.298414797948718e-05
-2.6586446193805542e-05   4.059688073581886e-06   -3.298414797948718e-05
-2.6586446193805542e-05   4.059688073581886e-06   -3.298414797948718e-05
-2.6586446193805542e-05   4.059688073581886e-06   -3.298414797948718e-05
-4.654793671826949e-06   2.803417939874122e-06   -6.878314010256008e-05
-4.654793671826949e-06   2.803417939874122e-06   -6.878314010256008e-05
-4.654793671826949e-06   2.803417939874122e-06   -6.878314010256008e-05
-4.654793671826949e-06   2.803417939874122e-06   -6.878314010256008e-05
-1.6119450030139953e-05   2.9154372961706643e-06   -4.974259111914937e-05
-1.6119450030139953e-05   2.9154372961706643e-06   -4.974259111914937e-05
-1.6119450030139953e-05   2.9154372961706643e-06   -4.974259111914937e-05
-1.6119450030139953e-05   2.9154372961706643e-06   -4.974259111914937e-05
-4.654793671826949e-06   4.05968807358232e-06   -3.223038589926226e-05
-4.654793671826949e-06   4.05968807358232e-06   -3.223038589926226e-05
-4.654793671826949e-06   4.05968807358232e-06   -3.223038589926226e-05
-4.654793671826949e-06   4.05968807358232e-06   -3.223038589926226e-05
-2.6586446193805542e-05   2.803417939874122e-06   -6.953690218278489e-05
-2.6586446193805542e-05   2.803417939874122e-06   -6.953690218278489e-05
-2.6586446193805542e-05   2.803417939874122e-06   -6.953690218278489e-05
-2.6586446193805542e-05   2.803417939874122e-06   -6.953690218278489e-05
-2.5581835421199678e-05   5.41287790764523e-06   -3.375888129504654e-05
-2.5581835421199678e-05   5.41287790764523e-06   -3.375888129504654e-05
-2.5581835421199678e-05   5.41287790764523e-06   -3.375888129504654e-05
-2.5581835421199678e-05   5.41287790764523e-06   -3.375888129504654e-05
-3.7152982261827634e-06   3.949576740592837e-06   -6.932512925317686e-05
-3.7152982261827634e-06   3.949576740592837e-06   -6.932512925317686e-05
-3.7152982261827634e-06   3.949576740592837e-06   -6.932512925317686e-05
-3.7152982261827634e-06   3.949576740592837e-06   -6.932512925317686e-05
-1.5252315006026156e-05   3.83476032610533e-06   -5.002787810474616e-05
-1.5252315006026156e-05   3.83476032610533e-06   -5.002787810474616e-05
-1.5252315006026156e-05   3.83476032610533e-06   -5.002787810474616e-05
-1.5252315006026156e-05   3.83476032610533e-06   -5.002787810474616e-05
-2.880089513667896e-05   4.770849815306528e-06   -2.699005363308968e-05
-2.880089513667896e-05   4.770849815306528e-06   -2.699005363308968e-05
-2.880089513667896e-05   4.770849815306528e-06   -2.699005363308968e-05
-2.880089513667896e-05   4.770849815306528e-06   -2.699005363308968e-05
-5.048385368287275e-05   5.76337801141448e-06   -6.253280095908087e-05
-5.048385368287275e-05   5.76337801141448e-06   -6.253280095908087e-05
-5.048385368287275e-05   5.76337801141448e-06   -6.253280095908087e-05
-5.048385368287275e-05   5.76337801141448e-06   -6.253280095908087e-05
-4.912552095058084e-05   6.111682602959016e-06   -2.5367818574120477e-05
-4.912552095058084e-05   6.111682602959016e-06   -2.5367818574120477e-05
-4.912552095058084e-05   6.111682602959016e-06   -2.5367818574120477e-05
-4.912552095058084e-05   6.111682602959016e-06   -2.5367818574120477e-05
-2.7673596004402004e-05   6.979531177248727e-06   -6.164173596232562e-05
-2.7673596004402004e-05   6.979531177248727e-06   -6.164173596232562e-05
-2.7673596004402004e-05   6.979531177248727e-06   -6.164173596232562e-05
-2.7673596004402004e-05   6.979531177248727e-06   -6.164173596232562e-05
-3.873573887637102e-05   6.161269960332054e-06   -4.271387444556088e-05
-3.873573887637102e-05   6.161269960332054e-06   -4.271387444556088e-05
-3.873573887637102e-05   6.161269960332054e-06   -4.271387444556088e-05
-3.873573887637102e-05   6.161269960332054e-06   -4.271387444556088e-05
-2.7673596004402004e-05   6.11168260295945e-06   -2.5888527718694217e-05
-2.7673596004402004e-05   6.11168260295945e-06   -2.5888527718694217e-05
-2.7673596004402004e-05   6.11168260295945e-06   -2.5888527718694217e-05
-2.7673596004402004e-05   6.11168260295945e-06   -2.5888527718694217e-05
-4.9125520950580927e-05   6.979531177248727e-06   -6.112102681775215e-05
-4.9125520950580927e-05   6.979531177248727e-06   -6.112102681775215e-05
-4.9125520950580927e-05   6.979531177248727e-06   -6.112102681775215e-05
-4.9125520950580927e-05   6.979531177248727e-06   -6.112102681775215e-05
-4.7623378546626826e-05   7.3197408828524525e-06   -2.4465663197996293e-05
-4.7623378546626826e-05   7.3197408828524525e-06   -2.4465663197996293e-05
-4.7623378546626826e-05   7.3197408828524525e-06   -2.4465663197996293e-05
-4.7623378546626826e-05   7.3197408828524525e-06   -2.4465663197996293e-05
-2.658644619380559e-05   8.026996163721777e-06   -5.9951570287886585e-05
-2.658644619380559e-05   8.026996163721777e-06   -5.9951570287886585e-05
-2.658644619380559e-05   8.026996163721777e-06   -5.9951570287886585e-05
-2.658644619380559e-05   8.026996163721777e-06   -5.9951570287886585e-05
-3.736273990988935e-05   7.107689494528866e-06   -4.1439496759564575e-05
-3.736273990988935e-05   7.107689494528866e-06   -4.1439496759564575e-05
-3.736273990988935e-05   7.107689494528866e-06   -4.1439496759564575e-05
-3.736273990988935e-05   7.107689494528866e-06   -4.1439496759564575e-05
-2.658644619380557e-05   7.3197408828524525e-06   -2.48900163665178e-05
-2.658644619380557e-05   7.3197408828524525e-06   -2.48900163665178e-05
-2.658644619380557e-05   7.3197408828524525e-06   -2.48900163665178e-05
-2.658644619380557e-05   7.3197408828524525e-06   -2.48900163665178e-05
-4.7623378546626826e-05   8.026996163721777e-06   -5.952721711936521e-05
-4.7623378546626826e-05   8.026996163721777e-06   -5.952721711936521e-05
-4.7623378546626826e-05   8.026996163721777e-06   -5.952721711936521e-05
-4.7623378546626826e-05   8.026996163721777e-06   -5.952721711936521e-05
-4.6353830036453586e-05   8.672016009146199e-06   -2.5030690423421447e-05
-4.6353830036453586e-05   8.672016009146199e-06   -2.5030690423421447e-05
-4.6353830036453586e-05   8.672016009146199e-06   -2.5030690423421447e-05
-4.6353830036453586e-05   8.672016009146199e-06   -2.5030690423421447e-05
-2.558183542119972e-05   9.186386482274572e-06   -5.99593037327217e-05
-2.558183542119972e-05   9.186386482274572e-06   -5.99593037327217e-05
-2.558183542119972e-05   9.186386482274572e-06   -5.99593037327217e-05
-2.558183542119972e-05   9.186386482274572e-06   -5.99593037327217e-05
-3.6506507482208775e-05   7.979676084909817e-06   -4.102749072595424e-05
-3.6506507482208775e-05   7.979676084909817e-06   -4.102749072595424e-05
-3.6506507482208775e-05   7.979676084909817e-06   -4.102749072595424e-05
-3.6506507482208775e-05   7.979676084909817e-06   -4.102749072595424e-05
-5.048385368287275e-05   8.201338384237079e-06   -1.3530132195940488e-05
-5.048385368287275e-05   8.201338384237079e-06   -1.3530132195940488e-05
-5.048385368287275e-05   8.201338384237079e-06   -1.3530132195940488e-05
-5.048385368287275e-05   8.201338384237079e-06   -1.3530132195940488e-05
-7.331386510975695e-05   1.1336558710985274e-05   -4.96990190446986e-05
-7.331386510975695e-05   1.1336558710985274e-05   -4.96990190446986e-05
-7.331386510975695e-05   1.1336558710985274e-05   -4.96990190446986e-05
-7.331386510975695e-05   1.1336558710985274e-05   -4.96990190446986e-05
-7.020031946673372e-05   9.59288541627426e-06   -4.331373862132221e-06
-7.020031946673372e-05   9.59288541627426e-06   -4.331373862132221e-06
-7.020031946673372e-05   9.59288541627426e-06   -4.331373862132221e-06
-7.020031946673372e-05   9.59288541627426e-06   -4.331373862132221e-06
-4.912552095058084e-05   1.2952321961958498e-05   -4.147169998313109e-05
-4.912552095058084e-05   1.2952321961958498e-05   -4.147169998313109e-05
-4.912552095058084e-05   1.2952321961958498e-05   -4.147169998313109e-05
-4.912552095058084e-05   1.2952321961958498e-05   -4.147169998313109e-05
-5.8267703928016215e-05   1.0800569826243094e-05   -2.494367707264267e-05
-5.8267703928016215e-05   1.0800569826243094e-05   -2.494367707264267e-05
-5.8267703928016215e-05   1.0800569826243094e-05   -2.494367707264267e-05
-5.8267703928016215e-05   1.0800569826243094e-05   -2.494367707264267e-05
-4.912552095058088e-05   9.59288541627426e-06   -6.3470357895426335e-06
-4.912552095058088e-05   9.59288541627426e-06   -6.3470357895426335e-06
-4.912552095058088e-05   9.59288541627426e-06   -6.3470357895426335e-06
-4.912552095058088e-05   9.59288541627426e-06   -6.3470357895426335e-06
-7.020031946673361e-05   1.2952321961958498e-05   -3.945603805572025e-05
-7.020031946673361e-05   1.2952321961958498e-05   -3.945603805572025e-05
-7.020031946673361e-05   1.2952321961958498e-05   -3.945603805572025e-05
-7.020031946673361e-05   1.2952321961958498e-05   -3.945603805572025e-05
-6.763808185185675e-05   1.009132086684508e-05   -4.933965642177265e-07
-6.763808185185675e-05   1.009132086684508e-05   -4.933965642177265e-07
-6.763808185185675e-05   1.009132086684508e-05   -4.933965642177265e-07
-6.763808185185675e-05   1.009132086684508e-05   -4.933965642177265e-07
-4.7623378546626826e-05   1.3376977254694108e-05   -3.58226292389768e-05
-4.7623378546626826e-05   1.3376977254694108e-05   -3.58226292389768e-05
-4.7623378546626826e-05   1.3376977254694108e-05   -3.58226292389768e-05
-4.7623378546626826e-05   1.3376977254694108e-05   -3.58226292389768e-05
-5.720202703064634e-05   1.144298479996246e-05   -1.869781962610486e-05
-5.720202703064634e-05   1.144298479996246e-05   -1.869781962610486e-05
-5.720202703064634e-05   1.144298479996246e-05   -1.869781962610486e-05
-5.720202703064634e-05   1.144298479996246e-05   -1.869781962610486e-05
-4.7623378546626826e-05   1.009132086684508e-05   -2.4647903969269268e-06
-4.7623378546626826e-05   1.009132086684508e-05   -2.4647903969269268e-06
-4.7623378546626826e-05   1.009132086684508e-05   -2.4647903969269268e-06
-4.7623378546626826e-05   1.009132086684508e-05   -2.4647903969269268e-06
-6.763808185185653e-05   1.3376977254693674e-05   -3.385123540626772e-05
-6.763808185185653e-05   1.3376977254693674e-05   -3.385123540626772e-05
-6.763808185185653e-05   1.3376977254693674e-05   -3.385123540626772e-05
-6.763808185185653e-05   1.3376977254693674e-05   -3.385123540626772e-05
-6.487545691767028e-05   1.0724956198698496e-05   4.377075518923216e-06
-6.487545691767028e-05   1.0724956198698496e-05   4.377075518923216e-06
-6.487545691767028e-05   1.0724956198698496e-05   4.377075518923216e-06
-6.487545691767028e-05   1.0724956198698496e-05   4.377075518923216e-06
-4.6353830036453586e-05   1.3744609254061693e-05   -2.8304094449655662e-05
-4.6353830036453586e-05   1.3744609254061693e-05   -2.8304094449655662e-05
-4.6353830036453586e-05   1.3744609254061693e-05   -2.8304094449655662e-05
-4.6353830036453586e-05   1.3744609254061693e-05   -2.8304094449655662e-05
-5.460725670681041e-05   1.1548135058928564e-05   -1.323049881531515e-05
-5.460725670681041e-05   1.1548135058928564e-05   -1.323049881531515e-05
-5.460725670681041e-05   1.1548135058928564e-05   -1.323049881531515e-05
-5.460725670681041e-05   1.1548135058928564e-05   -1.323049881531515e-05
6.290354600696014e-05   -8.774785539537085e-06   1.241260997684188e-05
6.290354600696014e-05   -8.774785539537085e-06   1.241260997684188e-05
6.290354600696014e-05   -8.774785539537085e-06   1.241260997684188e-05
6.290354600696014e-05   -8.774785539537085e-06   1.241260997684188e-05
3.0327247497867872e-05   -1.3001740456483786e-05   -4.441739382181277e-05
3.0327247497867872e-05   -1.3001740456483786e-05   -4.441739382181277e-05
3.0327247497867872e-05   -1.3001740456483786e-05   -4.441739382181277e-05
3.0327247497867872e-05   -1.3001740456483786e-05   -4.441739382181277e-05
3.1574184646030677e-05   -8.159718819865814e-06   5.95511161838487e-06
3.1574184646030677e-05   -8.159718819865814e-06   5.95511161838487e-06
3.1574184646030677e-05   -8.159718819865814e-06   5.95511161838487e-06
3.1574184646030677e-05   -8.159718819865814e-06   5.95511161838487e-06
6.579317157744157e-05   -1.2697058419962326e-05   -4.835412950724262e-05
6.579317157744157e-05   -1.2697058419962326e-05   -4.835412950724262e-05
6.579317157744157e-05   -1.2697058419962326e-05   -4.835412950724262e-05
6.579317157744157e-05   -1.2697058419962326e-05   -4.835412950724262e-05
4.571289259517041e-05   -9.609687669180113e-06   -1.673942032059299e-05
4.571289259517041e-05   -9.609687669180113e-06   -1.673942032059299e-05
4.571289259517041e-05   -9.609687669180113e-06   -1.673942032059299e-05
4.571289259517041e-05   -9.609687669180113e-06   -1.673942032059299e-05
6.579317157744173e-05   -8.159718819865814e-06   8.677515378442517e-06
6.579317157744173e-05   -8.159718819865814e-06   8.677515378442517e-06
6.579317157744173e-05   -8.159718819865814e-06   8.677515378442517e-06
6.579317157744173e-05   -8.159718819865814e-06   8.677515378442517e-06
3.1574184646030595e-05   -1.2697058419962326e-05   -5.1076533267300486e-05
3.1574184646030595e-05   -1.2697058419962326e-05   -5.1076533267300486e-05
3.1574184646030595e-05   -1.2697058419962326e-05   -5.1076533267300486e-05
3.1574184646030595e-05   -1.2697058419962326e-05   -5.1076533267300486e-05
3.281447496592495e-05   -7.63225470366835e-06   2.7982918817249895e-06
3.281447496592495e-05   -7.63225470366835e-06   2.7982918817249895e-06
3.281447496592495e-05   -7.63225470366835e-06   2.7982918817249895e-06
3.281447496592495e-05   -7.63225470366835e-06   2.7982918817249895e-06
6.801198220753773e-05   -1.2256604550642172e-05   -5.308961027944523e-05
6.801198220753773e-05   -1.2256604550642172e-05   -5.308961027944523e-05
6.801198220753773e-05   -1.2256604550642172e-05   -5.308961027944523e-05
6.801198220753773e-05   -1.2256604550642172e-05   -5.308961027944523e-05
4.8145644512461895e-05   -9.578176455638833e-06   -2.1586104311321062e-05
4.8145644512461895e-05   -9.578176455638833e-06   -2.1586104311321062e-05
4.8145644512461895e-05   -9.578176455638833e-06   -2.1586104311321062e-05
4.8145644512461895e-05   -9.578176455638833e-06   -2.1586104311321062e-05
6.801198220753773e-05   -7.63225470366835e-06   5.572901789909369e-06
6.801198220753773e-05   -7.63225470366835e-06   5.572901789909369e-06
6.801198220753773e-05   -7.63225470366835e-06   5.572901789909369e-06
6.801198220753773e-05   -7.63225470366835e-06   5.572901789909369e-06
3.281447496592495e-05   -1.2256604550642172e-05   -5.5864220187629935e-05
3.281447496592495e-05   -1.2256604550642172e-05   -5.5864220187629935e-05
3.281447496592495e-05   -1.2256604550642172e-05   -5.5864220187629935e-05
3.281447496592495e-05   -1.2256604550642172e-05   -5.5864220187629935e-05
3.3657784378402704e-05   -5.962926074014763e-06   -3.5643865453401785e-06
3.3657784378402704e-05   -5.962926074014763e-06   -3.5643865453401785e-06
3.3657784378402704e-05   -5.962926074014763e-06   -3.5643865453401785e-06
3.3657784378402704e-05   -5.962926074014763e-06   -3.5643865453401785e-06
7.035793323256344e-05   -1.0537350013123219e-05   -6.198664693880937e-05
7.035793323256344e-05   -1.0537350013123219e-05   -6.198664693880937e-05
7.035793323256344e-05   -1.0537350013123219e-05   -6.198664693880937e-05
7.035793323256344e-05   -1.0537350013123219e-05   -6.198664693880937e-05
4.8829926989589205e-05   -8.84267426993655e-06   -2.7123441979765386e-05
4.8829926989589205e-05   -8.84267426993655e-06   -2.7123441979765386e-05
4.8829926989589205e-05   -8.84267426993655e-06   -2.7123441979765386e-05
4.8829926989589205e-05   -8.84267426993655e-06   -2.7123441979765386e-05
3.0327247497867926e-05   -4.11517868999017e-06   -1.5403787205623808e-05
3.0327247497867926e-05   -4.11517868999017e-06   -1.5403787205623808e-05
3.0327247497867926e-05   -4.11517868999017e-06   -1.5403787205623808e-05
3.0327247497867926e-05   -4.11517868999017e-06   -1.5403787205623808e-05
-1.8112200426902863e-06   -8.44054765773922e-06   -7.156312115387054e-05
-1.8112200426902863e-06   -8.44054765773922e-06   -7.156312115387054e-05
-1.8112200426902863e-06   -8.44054765773922e-06   -7.156312115387054e-05
-1.8112200426902863e-06   -8.44054765773922e-06   -7.156312115387054e-05
-5.30716117293445e-07   -3.2626653606476243e-06   -1.698095612527725e-05
-5.30716117293445e-07   -3.2626653606476243e-06   -1.698095612527725e-05
-5.30716117293445e-07   -3.2626653606476243e-06   -1.698095612527725e-05
-5.30716117293445e-07   -3.2626653606476243e-06   -1.698095612527725e-05
3.1574184646030677e-05   -8.03853909391158e-06   -6.762359982419216e-05
3.1574184646030677e-05   -8.03853909391158e-06   -6.762359982419216e-05
3.1574184646030677e-05   -8.03853909391158e-06   -6.762359982419216e-05
3.1574184646030677e-05   -8.03853909391158e-06   -6.762359982419216e-05
1.493519717754063e-05   -5.105816922956405e-06   -4.1651587345948866e-05
1.493519717754063e-05   -5.105816922956405e-06   -4.1651587345948866e-05
1.493519717754063e-05   -5.105816922956405e-06   -4.1651587345948866e-05
1.493519717754063e-05   -5.105816922956405e-06   -4.1651587345948866e-05
3.1574184646030595e-05   -3.2626653606476243e-06   -1.4115431885318615e-05
3.1574184646030595e-05   -3.2626653606476243e-06   -1.4115431885318615e-05
3.1574184646030595e-05   -3.2626653606476243e-06   -1.4115431885318615e-05
3.1574184646030595e-05   -3.2626653606476243e-06   -1.4115431885318615e-05
-5.30716117293445e-07   -8.03853909391158e-06   -7.048912406415085e-05
-5.30716117293445e-07   -8.03853909391158e-06   -7.048912406415085e-05
-5.30716117293445e-07   -8.03853909391158e-06   -7.048912406415085e-05
-5.30716117293445e-07   -8.03853909391158e-06   -7.048912406415085e-05
5.976358260648075e-07   -2.220418077486519e-06   -1.737844757196145e-05
5.976358260648075e-07   -2.220418077486519e-06   -1.737844757196145e-05
5.976358260648075e-07   -2.220418077486519e-06   -1.737844757196145e-05
5.976358260648075e-07   -2.220418077486519e-06   -1.737844757196145e-05
3.281447496592495e-05   -7.288563986302364e-06   -6.803229192643858e-05
3.281447496592495e-05   -7.288563986302364e-06   -6.803229192643858e-05
3.281447496592495e-05   -7.288563986302364e-06   -6.803229192643858e-05
3.281447496592495e-05   -7.288563986302364e-06   -6.803229192643858e-05
1.58081389554184e-05   -4.689134567298272e-06   -4.124805622699574e-05
1.58081389554184e-05   -4.689134567298272e-06   -4.124805622699574e-05
1.58081389554184e-05   -4.689134567298272e-06   -4.124805622699574e-05
1.58081389554184e-05   -4.689134567298272e-06   -4.124805622699574e-05
3.281447496592495e-05   -2.220418077486519e-06   -1.4337560026671638e-05
3.281447496592495e-05   -2.220418077486519e-06   -1.4337560026671638e-05
3.281447496592495e-05   -2.220418077486519e-06   -1.4337560026671638e-05
3.281447496592495e-05   -2.220418077486519e-06   -1.4337560026671638e-05
5.976358260648075e-07   -7.288563986302364e-06   -7.107317947172812e-05
5.976358260648075e-07   -7.288563986302364e-06   -7.107317947172812e-05
5.976358260648075e-07   -7.288563986302364e-06   -7.107317947172812e-05
5.976358260648075e-07   -7.288563986302364e-06   -7.107317947172812e-05
1.4014932503031733e-06   -9.094154002214916e-07   -1.806044891947611e-05
1.4014932503031733e-06   -9.094154002214916e-07   -1.806044891947611e-05
1.4014932503031733e-06   -9.094154002214916e-07   -1.806044891947611e-05
1.4014932503031733e-06   -9.094154002214916e-07   -1.806044891947611e-05
3.365778437840273e-05   -6.22163751797444e-06   -6.863360086232405e-05
3.365778437840273e-05   -6.22163751797444e-06   -6.863360086232405e-05
3.365778437840273e-05   -6.22163751797444e-06   -6.863360086232405e-05
3.365778437840273e-05   -6.22163751797444e-06   -6.863360086232405e-05
1.6851164646206654e-05   -3.953936755338346e-06   -4.198318843291282e-05
1.6851164646206654e-05   -3.953936755338346e-06   -4.198318843291282e-05
1.6851164646206654e-05   -3.953936755338346e-06   -4.198318843291282e-05
1.6851164646206654e-05   -3.953936755338346e-06   -4.198318843291282e-05
-1.8112200426902863e-06   7.37399330778734e-07   -2.341263672561364e-05
-1.8112200426902863e-06   7.37399330778734e-07   -2.341263672561364e-05
-1.8112200426902863e-06   7.37399330778734e-07   -2.341263672561364e-05
-1.8112200426902863e-06   7.37399330778734e-07   -2.341263672561364e-05
-3.3474856447768565e-05   -4.455346890962133e-06   -7.93010118004553e-05
-3.3474856447768565e-05   -4.455346890962133e-06   -7.93010118004553e-05
-3.3474856447768565e-05   -4.455346890962133e-06   -7.93010118004553e-05
-3.3474856447768565e-05   -4.455346890962133e-06   -7.93010118004553e-05
-3.193869149390076e-05   1.6944862963820702e-06   -2.5463608957449445e-05
-3.193869149390076e-05   1.6944862963820702e-06   -2.5463608957449445e-05
-3.193869149390076e-05   1.6944862963820702e-06   -2.5463608957449445e-05
-3.193869149390076e-05   1.6944862963820702e-06   -2.5463608957449445e-05
-5.30716117293445e-07   -3.982331454197453e-06   -7.440414393478008e-05
-5.30716117293445e-07   -3.982331454197453e-06   -7.440414393478008e-05
-5.30716117293445e-07   -3.982331454197453e-06   -7.440414393478008e-05
-5.30716117293445e-07   -3.982331454197453e-06   -7.440414393478008e-05
-1.673690449378734e-05   -8.766764754719082e-07   -4.92572229611924e-05
-1.673690449378734e-05   -8.766764754719082e-07   -4.92572229611924e-05
-1.673690449378734e-05   -8.766764754719082e-07   -4.92572229611924e-05
-1.673690449378734e-05   -8.766764754719082e-07   -4.92572229611924e-05
-5.30716117293445e-07   1.6944862963820702e-06   -2.205751830710147e-05
-5.30716117293445e-07   1.6944862963820702e-06   -2.205751830710147e-05
-5.30716117293445e-07   1.6944862963820702e-06   -2.205751830710147e-05
-5.30716117293445e-07   1.6944862963820702e-06   -2.205751830710147e-05
-3.193869149390076e-05   -3.982331454197453e-06   -7.781023458512822e-05
-3.193869149390076e-05   -3.982331454197453e-06   -7.781023458512822e-05
-3.193869149390076e-05   -3.982331454197453e-06   -7.781023458512822e-05
-3.193869149390076e-05   -3.982331454197453e-06   -7.781023458512822e-05
-3.0529314500166e-05   2.803417939874122e-06   -2.5008265609630185e-05
-3.0529314500166e-05   2.803417939874122e-06   -2.5008265609630185e-05
-3.0529314500166e-05   2.803417939874122e-06   -2.5008265609630185e-05
-3.0529314500166e-05   2.803417939874122e-06   -2.5008265609630185e-05
5.976358260648075e-07   -3.2437645343329734e-06   -7.32582066688238e-05
5.976358260648075e-07   -3.2437645343329734e-06   -7.32582066688238e-05
5.976358260648075e-07   -3.2437645343329734e-06   -7.32582066688238e-05
5.976358260648075e-07   -3.2437645343329734e-06   -7.32582066688238e-05
-1.5485270500755223e-05   -3.342951005748905e-07   -4.8199044451045455e-05
-1.5485270500755223e-05   -3.342951005748905e-07   -4.8199044451045455e-05
-1.5485270500755223e-05   -3.342951005748905e-07   -4.8199044451045455e-05
-1.5485270500755223e-05   -3.342951005748905e-07   -4.8199044451045455e-05
5.976358260648075e-07   2.803417939874122e-06   -2.1379956125105928e-05
5.976358260648075e-07   2.803417939874122e-06   -2.1379956125105928e-05
5.976358260648075e-07   2.803417939874122e-06   -2.1379956125105928e-05
5.976358260648075e-07   2.803417939874122e-06   -2.1379956125105928e-05
-3.052931450016604e-05   -3.2437645343329734e-06   -7.688651615334855e-05
-3.052931450016604e-05   -3.2437645343329734e-06   -7.688651615334855e-05
-3.052931450016604e-05   -3.2437645343329734e-06   -7.688651615334855e-05
-3.052931450016604e-05   -3.2437645343329734e-06   -7.688651615334855e-05
-2.957884951180928e-05   3.9495767405932705e-06   -2.5440000157085987e-05
-2.957884951180928e-05   3.9495767405932705e-06   -2.5440000157085987e-05
-2.957884951180928e-05   3.9495767405932705e-06   -2.5440000157085987e-05
-2.957884951180928e-05   3.9495767405932705e-06   -2.5440000157085987e-05
1.4014932503031733e-06   -2.54369809948949e-06   -7.317793985655712e-05
1.4014932503031733e-06   -2.54369809948949e-06   -7.317793985655712e-05
1.4014932503031733e-06   -2.54369809948949e-06   -7.317793985655712e-05
1.4014932503031733e-06   -2.54369809948949e-06   -7.317793985655712e-05
-1.4592049638904253e-05   2.7491285811611504e-07   -4.8213201615775365e-05
-1.4592049638904253e-05   2.7491285811611504e-07   -4.8213201615775365e-05
-1.4592049638904253e-05   2.7491285811611504e-07   -4.8213201615775365e-05
-1.4592049638904253e-05   2.7491285811611504e-07   -4.8213201615775365e-05
-3.34748564477685e-05   5.76337801141448e-06   -1.912106438738538e-05
-3.34748564477685e-05   5.76337801141448e-06   -1.912106438738538e-05
-3.34748564477685e-05   5.76337801141448e-06   -1.912106438738538e-05
-3.34748564477685e-05   5.76337801141448e-06   -1.912106438738538e-05
-6.557690555801852e-05   1.0809966171712593e-06   -7.543390840768129e-05
-6.557690555801852e-05   1.0809966171712593e-06   -7.543390840768129e-05
-6.557690555801852e-05   1.0809966171712593e-06   -7.543390840768129e-05
-6.557690555801852e-05   1.0809966171712593e-06   -7.543390840768129e-05
-6.339024825864955e-05   6.979531177248293e-06   -2.038573204917837e-05
-6.339024825864955e-05   6.979531177248293e-06   -2.038573204917837e-05
-6.339024825864955e-05   6.979531177248293e-06   -2.038573204917837e-05
-6.339024825864955e-05   6.979531177248293e-06   -2.038573204917837e-05
-3.1938691493900705e-05   1.9587665013665392e-06   -6.979253451823062e-05
-3.1938691493900705e-05   1.9587665013665392e-06   -6.979253451823062e-05
-3.1938691493900705e-05   1.9587665013665392e-06   -6.979253451823062e-05
-3.1938691493900705e-05   1.9587665013665392e-06   -6.979253451823062e-05
-4.808956638594266e-05   4.364826078208199e-06   -4.431804544426587e-05
-4.808956638594266e-05   4.364826078208199e-06   -4.431804544426587e-05
-4.808956638594266e-05   4.364826078208199e-06   -4.431804544426587e-05
-4.808956638594266e-05   4.364826078208199e-06   -4.431804544426587e-05
-3.1938691493900705e-05   6.979531177248293e-06   -1.7373273243649276e-05
-3.1938691493900705e-05   6.979531177248293e-06   -1.7373273243649276e-05
-3.1938691493900705e-05   6.979531177248293e-06   -1.7373273243649276e-05
-3.1938691493900705e-05   6.979531177248293e-06   -1.7373273243649276e-05
-6.339024825864966e-05   1.9587665013665392e-06   -7.280499332375972e-05
-6.339024825864966e-05   1.9587665013665392e-06   -7.280499332375972e-05
-6.339024825864966e-05   1.9587665013665392e-06   -7.280499332375972e-05
-6.339024825864966e-05   1.9587665013665392e-06   -7.280499332375972e-05
-6.127745828201005e-05   8.026996163721777e-06   -1.857884991431709e-05
-6.127745828201005e-05   8.026996163721777e-06   -1.857884991431709e-05
-6.127745828201005e-05   8.026996163721777e-06   -1.857884991431709e-05
-6.127745828201005e-05   8.026996163721777e-06   -1.857884991431709e-05
-3.052931450016604e-05   2.767135831080198e-06   -6.666984001780563e-05
-3.052931450016604e-05   2.767135831080198e-06   -6.666984001780563e-05
-3.052931450016604e-05   2.767135831080198e-06   -6.666984001780563e-05
-3.052931450016604e-05   2.767135831080198e-06   -6.666984001780563e-05
-4.6114831225651474e-05   5.128495160750587e-06   -4.2110794406465674e-05
-4.6114831225651474e-05   5.128495160750587e-06   -4.2110794406465674e-05
-4.6114831225651474e-05   5.128495160750587e-06   -4.2110794406465674e-05
-4.6114831225651474e-05   5.128495160750587e-06   -4.2110794406465674e-05
-3.052931450016597e-05   8.026996163721777e-06   -1.5422933714732013e-05
-3.052931450016597e-05   8.026996163721777e-06   -1.5422933714732013e-05
-3.052931450016597e-05   8.026996163721777e-06   -1.5422933714732013e-05
-3.052931450016597e-05   8.026996163721777e-06   -1.5422933714732013e-05
-6.127745828201015e-05   2.767135831080198e-06   -6.982575621739093e-05
-6.127745828201015e-05   2.767135831080198e-06   -6.982575621739093e-05
-6.127745828201015e-05   2.767135831080198e-06   -6.982575621739093e-05
-6.127745828201015e-05   2.767135831080198e-06   -6.982575621739093e-05
-5.9673248963287184e-05   9.186386482274139e-06   -1.863704710855919e-05
-5.9673248963287184e-05   9.186386482274139e-06   -1.863704710855919e-05
-5.9673248963287184e-05   9.186386482274139e-06   -1.863704710855919e-05
-5.9673248963287184e-05   9.186386482274139e-06   -1.863704710855919e-05
-2.9578849511809334e-05   3.451631195341455e-06   -6.535352635552946e-05
-2.9578849511809334e-05   3.451631195341455e-06   -6.535352635552946e-05
-2.9578849511809334e-05   3.451631195341455e-06   -6.535352635552946e-05
-2.9578849511809334e-05   3.451631195341455e-06   -6.535352635552946e-05
-4.500518223002207e-05   5.6613204345175826e-06   -4.096878536868009e-05
-4.500518223002207e-05   5.6613204345175826e-06   -4.096878536868009e-05
-4.500518223002207e-05   5.6613204345175826e-06   -4.096878536868009e-05
-4.500518223002207e-05   5.6613204345175826e-06   -4.096878536868009e-05
-6.557690555801852e-05   1.1336558710985274e-05   -1.097784350559839e-05
-6.557690555801852e-05   1.1336558710985274e-05   -1.097784350559839e-05
-6.557690555801852e-05   1.1336558710985274e-05   -1.097784350559839e-05
-6.557690555801852e-05   1.1336558710985274e-05   -1.097784350559839e-05
-9.910778533241917e-05   1.0692943175890333e-05   -6.724881245065688e-05
-9.910778533241917e-05   1.0692943175890333e-05   -6.724881245065688e-05
-9.910778533241917e-05   1.0692943175890333e-05   -6.724881245065688e-05
-9.910778533241917e-05   1.0692943175890333e-05   -6.724881245065688e-05
-9.480232744819915e-05   1.2952321961958932e-05   -3.7805127604860836e-07
-9.480232744819915e-05   1.2952321961958932e-05   -3.7805127604860836e-07
-9.480232744819915e-05   1.2952321961958932e-05   -3.7805127604860836e-07
-9.480232744819915e-05   1.2952321961958932e-05   -3.7805127604860836e-07
-6.339024825864944e-05   1.3549578526140041e-05   -5.3089870530473546e-05
-6.339024825864944e-05   1.3549578526140041e-05   -5.3089870530473546e-05
-6.339024825864944e-05   1.3549578526140041e-05   -5.3089870530473546e-05
-6.339024825864944e-05   1.3549578526140041e-05   -5.3089870530473546e-05
-7.723762740095613e-05   1.2777630799561731e-05   -2.954773665734883e-05
-7.723762740095613e-05   1.2777630799561731e-05   -2.954773665734883e-05
-7.723762740095613e-05   1.2777630799561731e-05   -2.954773665734883e-05
-7.723762740095613e-05   1.2777630799561731e-05   -2.954773665734883e-05
-6.33902482586496e-05   1.2952321961958498e-05   -7.364052145573171e-07
-6.33902482586496e-05   1.2952321961958498e-05   -7.364052145573171e-07
-6.33902482586496e-05   1.2952321961958498e-05   -7.364052145573171e-07
-6.33902482586496e-05   1.2952321961958498e-05   -7.364052145573171e-07
-9.480232744819915e-05   1.3549578526140041e-05   -5.273151659196461e-05
-9.480232744819915e-05   1.3549578526140041e-05   -5.273151659196461e-05
-9.480232744819915e-05   1.3549578526140041e-05   -5.273151659196461e-05
-9.480232744819915e-05   1.3549578526140041e-05   -5.273151659196461e-05
-9.123016019998633e-05   1.3376977254693674e-05   5.614142917008012e-06
-9.123016019998633e-05   1.3376977254693674e-05   5.614142917008012e-06
-9.123016019998633e-05   1.3376977254693674e-05   5.614142917008012e-06
-9.123016019998633e-05   1.3376977254693674e-05   5.614142917008012e-06
-6.127745828201005e-05   1.4190985506255457e-05   -4.4795431897222766e-05
-6.127745828201005e-05   1.4190985506255457e-05   -4.4795431897222766e-05
-6.127745828201005e-05   1.4190985506255457e-05   -4.4795431897222766e-05
-6.127745828201005e-05   1.4190985506255457e-05   -4.4795431897222766e-05
-7.56003822532839e-05   1.370726756231384e-05   -2.0633661178733986e-05
-7.56003822532839e-05   1.370726756231384e-05   -2.0633661178733986e-05
-7.56003822532839e-05   1.370726756231384e-05   -2.0633661178733986e-05
-7.56003822532839e-05   1.370726756231384e-05   -2.0633661178733986e-05
-6.127745828201015e-05   1.3376977254694108e-05   5.125737966070985e-06
-6.127745828201015e-05   1.3376977254694108e-05   5.125737966070985e-06
-6.127745828201015e-05   1.3376977254694108e-05   5.125737966070985e-06
-6.127745828201015e-05   1.3376977254694108e-05   5.125737966070985e-06
-9.123016019998618e-05   1.4190985506255891e-05   -4.4307026946285855e-05
-9.123016019998618e-05   1.4190985506255891e-05   -4.4307026946285855e-05
-9.123016019998618e-05   1.4190985506255891e-05   -4.4307026946285855e-05
-9.123016019998618e-05   1.4190985506255891e-05   -4.4307026946285855e-05
-8.749551033780678e-05   1.3744609254062127e-05   1.3640659570166372e-05
-8.749551033780678e-05   1.3744609254062127e-05   1.3640659570166372e-05
-8.749551033780678e-05   1.3744609254062127e-05   1.3640659570166372e-05
-8.749551033780678e-05   1.3744609254062127e-05   1.3640659570166372e-05
-5.9673248963287184e-05   1.5296475386623008e-05   -3.3660895733569626e-05
-5.9673248963287184e-05   1.5296475386623008e-05   -3.3660895733569626e-05
-5.9673248963287184e-05   1.5296475386623008e-05   -3.3660895733569626e-05
-5.9673248963287184e-05   1.5296475386623008e-05   -3.3660895733569626e-05
-7.199778507256373e-05   1.4021285598498322e-05   -1.2354888345234949e-05
-7.199778507256373e-05   1.4021285598498322e-05   -1.2354888345234949e-05
-7.199778507256373e-05   1.4021285598498322e-05   -1.2354888345234949e-05
-7.199778507256373e-05   1.4021285598498322e-05   -1.2354888345234949e-05
8.652106461291484e-05   -1.3001740456483786e-05   2.9470322562447646e-05
8.652106461291484e-05   -1.3001740456483786e-05   2.9470322562447646e-05
8.652106461291484e-05   -1.3001740456483786e-05   2.9470322562447646e-05
8.652106461291484e-05   -1.3001740456483786e-05   2.9470322562447646e-05
4.3504910953466694e-05   -1.6449746327582178e-05   -4.429207039262492e-05
4.3504910953466694e-05   -1.6449746327582178e-05   -4.429207039262492e-05
4.3504910953466694e-05   -1.6449746327582178e-05   -4.429207039262492e-05
4.3504910953466694e-05   -1.6449746327582178e-05   -4.429207039262492e-05
4.4572606999581207e-05   -1.2697058419962326e-05   2.112777676424593e-05
4.4572606999581207e-05   -1.2697058419962326e-05   2.112777676424593e-05
4.4572606999581207e-05   -1.2697058419962326e-05   2.112777676424593e-05
4.4572606999581207e-05   -1.2697058419962326e-05   2.112777676424593e-05
8.868321648696206e-05   -1.686120597648756e-05   -4.989141718080714e-05
8.868321648696206e-05   -1.686120597648756e-05   -4.989141718080714e-05
8.868321648696206e-05   -1.686120597648756e-05   -4.989141718080714e-05
8.868321648696206e-05   -1.686120597648756e-05   -4.989141718080714e-05
6.319951886376372e-05   -1.3281196096490144e-05   -9.566593736808114e-06
6.319951886376372e-05   -1.3281196096490144e-05   -9.566593736808114e-06
6.319951886376372e-05   -1.3281196096490144e-05   -9.566593736808114e-06
6.319951886376372e-05   -1.3281196096490144e-05   -9.566593736808114e-06
8.868321648696206e-05   -1.2697058419962326e-05   2.3626265298161376e-05
8.868321648696206e-05   -1.2697058419962326e-05   2.3626265298161376e-05
8.868321648696206e-05   -1.2697058419962326e-05   2.3626265298161376e-05
8.868321648696206e-05   -1.2697058419962326e-05   2.3626265298161376e-05
4.4572606999581207e-05   -1.686120597648756e-05   -5.238990571472231e-05
4.4572606999581207e-05   -1.686120597648756e-05   -5.238990571472231e-05
4.4572606999581207e-05   -1.686120597648756e-05   -5.238990571472231e-05
4.4572606999581207e-05   -1.686120597648756e-05   -5.238990571472231e-05
4.5475184838728397e-05   -1.2256604550642172e-05   1.6664803899352904e-05
4.5475184838728397e-05   -1.2256604550642172e-05   1.6664803899352904e-05
4.5475184838728397e-05   -1.2256604550642172e-05   1.6664803899352904e-05
4.5475184838728397e-05   -1.2256604550642172e-05   1.6664803899352904e-05
9.003117408550813e-05   -1.6709378733577654e-05   -5.492351366885221e-05
9.003117408550813e-05   -1.6709378733577654e-05   -5.492351366885221e-05
9.003117408550813e-05   -1.6709378733577654e-05   -5.492351366885221e-05
9.003117408550813e-05   -1.6709378733577654e-05   -5.492351366885221e-05
6.543176174852292e-05   -1.3701830111191235e-05   -1.5729022280641875e-05
6.543176174852292e-05   -1.3701830111191235e-05   -1.5729022280641875e-05
6.543176174852292e-05   -1.3701830111191235e-05   -1.5729022280641875e-05
6.543176174852292e-05   -1.3701830111191235e-05   -1.5729022280641875e-05
9.003117408550813e-05   -1.2256604550642172e-05   1.9336468409114236e-05
9.003117408550813e-05   -1.2256604550642172e-05   1.9336468409114236e-05
9.003117408550813e-05   -1.2256604550642172e-05   1.9336468409114236e-05
9.003117408550813e-05   -1.2256604550642172e-05   1.9336468409114236e-05
4.5475184838728397e-05   -1.6709378733577654e-05   -5.7595178178613485e-05
4.5475184838728397e-05   -1.6709378733577654e-05   -5.7595178178613485e-05
4.5475184838728397e-05   -1.6709378733577654e-05   -5.7595178178613485e-05
4.5475184838728397e-05   -1.6709378733577654e-05   -5.7595178178613485e-05
4.641886818594734e-05   -1.0537350013123219e-05   7.999636776454336e-06
4.641886818594734e-05   -1.0537350013123219e-05   7.999636776454336e-06
4.641886818594734e-05   -1.0537350013123219e-05   7.999636776454336e-06
4.641886818594734e-05   -1.0537350013123219e-05   7.999636776454336e-06
9.135839153475456e-05   -1.5782510683542972e-05   -6.375247240263929e-05
9.135839153475456e-05   -1.5782510683542972e-05   -6.375247240263929e-05
9.135839153475456e-05   -1.5782510683542972e-05   -6.375247240263929e-05
9.135839153475456e-05   -1.5782510683542972e-05   -6.375247240263929e-05
6.546874402607268e-05   -1.318801167116872e-05   -2.215975929559396e-05
6.546874402607268e-05   -1.318801167116872e-05   -2.215975929559396e-05
6.546874402607268e-05   -1.318801167116872e-05   -2.215975929559396e-05
6.546874402607268e-05   -1.318801167116872e-05   -2.215975929559396e-05
4.3504910953466694e-05   -8.44054765773922e-06   2.8510130883809687e-06
4.3504910953466694e-05   -8.44054765773922e-06   2.8510130883809687e-06
4.3504910953466694e-05   -8.44054765773922e-06   2.8510130883809687e-06
4.3504910953466694e-05   -8.44054765773922e-06   2.8510130883809687e-06
5.200389631984789e-06   -1.6539442310445525e-05   -6.584919257237947e-05
5.200389631984789e-06   -1.6539442310445525e-05   -6.584919257237947e-05
5.200389631984789e-06   -1.6539442310445525e-05   -6.584919257237947e-05
5.200389631984789e-06   -1.6539442310445525e-05   -6.584919257237947e-05
6.445240934701142e-06   -8.03853909391158e-06   -4.699217595388258e-07
6.445240934701142e-06   -8.03853909391158e-06   -4.699217595388258e-07
6.445240934701142e-06   -8.03853909391158e-06   -4.699217595388258e-07
6.445240934701142e-06   -8.03853909391158e-06   -4.699217595388258e-07
4.4572606999581315e-05   -1.64562590387325e-05   -5.896489990077976e-05
4.4572606999581315e-05   -1.64562590387325e-05   -5.896489990077976e-05
4.4572606999581315e-05   -1.64562590387325e-05   -5.896489990077976e-05
4.4572606999581315e-05   -1.64562590387325e-05   -5.896489990077976e-05
2.5028790819954354e-05   -1.1156197070953753e-05   -2.9571910115401925e-05
2.5028790819954354e-05   -1.1156197070953753e-05   -2.9571910115401925e-05
2.5028790819954354e-05   -1.1156197070953753e-05   -2.9571910115401925e-05
2.5028790819954354e-05   -1.1156197070953753e-05   -2.9571910115401925e-05
4.457260699958118e-05   -8.03853909391158e-06   4.5807102073537696e-06
4.457260699958118e-05   -8.03853909391158e-06   4.5807102073537696e-06
4.457260699958118e-05   -8.03853909391158e-06   4.5807102073537696e-06
4.457260699958118e-05   -8.03853909391158e-06   4.5807102073537696e-06
6.445240934701142e-06   -1.64562590387325e-05   -6.401553186767203e-05
6.445240934701142e-06   -1.64562590387325e-05   -6.401553186767203e-05
6.445240934701142e-06   -1.64562590387325e-05   -6.401553186767203e-05
6.445240934701142e-06   -1.64562590387325e-05   -6.401553186767203e-05
7.568981783611257e-06   -7.288563986302364e-06   -8.726937670072363e-07
7.568981783611257e-06   -7.288563986302364e-06   -8.726937670072363e-07
7.568981783611257e-06   -7.288563986302364e-06   -8.726937670072363e-07
7.568981783611257e-06   -7.288563986302364e-06   -8.726937670072363e-07
4.5475184838728397e-05   -1.6237607198888067e-05   -5.868027293131798e-05
4.5475184838728397e-05   -1.6237607198888067e-05   -5.868027293131798e-05
4.5475184838728397e-05   -1.6237607198888067e-05   -5.868027293131798e-05
4.5475184838728397e-05   -1.6237607198888067e-05   -5.868027293131798e-05
2.5737053922698962e-05   -1.1280997994025758e-05   -2.8757353594184988e-05
2.5737053922698962e-05   -1.1280997994025758e-05   -2.8757353594184988e-05
2.5737053922698962e-05   -1.1280997994025758e-05   -2.8757353594184988e-05
2.5737053922698962e-05   -1.1280997994025758e-05   -2.8757353594184988e-05
4.5475184838728397e-05   -7.288563986302364e-06   4.496732160544099e-06
4.5475184838728397e-05   -7.288563986302364e-06   4.496732160544099e-06
4.5475184838728397e-05   -7.288563986302364e-06   4.496732160544099e-06
4.5475184838728397e-05   -7.288563986302364e-06   4.496732160544099e-06
7.5689817836112295e-06   -1.6237607198888067e-05   -6.404969885886926e-05
7.5689817836112295e-06   -1.6237607198888067e-05   -6.404969885886926e-05
7.5689817836112295e-06   -1.6237607198888067e-05   -6.404969885886926e-05
7.5689817836112295e-06   -1.6237607198888067e-05   -6.404969885886926e-05
9.245751573218818e-06   -6.22163751797444e-06   -1.649273257117289e-06
9.245751573218818e-06   -6.22163751797444e-06   -1.649273257117289e-06
9.245751573218818e-06   -6.22163751797444e-06   -1.649273257117289e-06
9.245751573218818e-06   -6.22163751797444e-06   -1.649273257117289e-06
4.6418868185947316e-05   -1.5799321640512336e-05   -5.785785713814201e-05
4.6418868185947316e-05   -1.5799321640512336e-05   -5.785785713814201e-05
4.6418868185947316e-05   -1.5799321640512336e-05   -5.785785713814201e-05
4.6418868185947316e-05   -1.5799321640512336e-05   -5.785785713814201e-05
2.708392274994652e-05   -1.1108590111225634e-05   -2.844738699571295e-05
2.708392274994652e-05   -1.1108590111225634e-05   -2.844738699571295e-05
2.708392274994652e-05   -1.1108590111225634e-05   -2.844738699571295e-05
2.708392274994652e-05   -1.1108590111225634e-05   -2.844738699571295e-05
5.200389631984789e-06   -4.4553468909625665e-06   -6.630566616783098e-06
5.200389631984789e-06   -4.4553468909625665e-06   -6.630566616783098e-06
5.200389631984789e-06   -4.4553468909625665e-06   -6.630566616783098e-06
5.200389631984789e-06   -4.4553468909625665e-06   -6.630566616783098e-06
-3.270967397906818e-05   -1.99913581278386e-05   -7.913561271066403e-05
-3.270967397906818e-05   -1.99913581278386e-05   -7.913561271066403e-05
-3.270967397906818e-05   -1.99913581278386e-05   -7.913561271066403e-05
-3.270967397906818e-05   -1.99913581278386e-05   -7.913561271066403e-05
-3.077099749332471e-05   -3.982331454197453e-06   -1.4257217168680333e-05
-3.077099749332471e-05   -3.982331454197453e-06   -1.4257217168680333e-05
-3.077099749332471e-05   -3.982331454197453e-06   -1.4257217168680333e-05
-3.077099749332471e-05   -3.982331454197453e-06   -1.4257217168680333e-05
6.445240934701142e-06   -2.0436124018384516e-05   -6.641200567687787e-05
6.445240934701142e-06   -2.0436124018384516e-05   -6.641200567687787e-05
6.445240934701142e-06   -2.0436124018384516e-05   -6.641200567687787e-05
6.445240934701142e-06   -2.0436124018384516e-05   -6.641200567687787e-05
-1.2519422141926328e-05   -1.1312941823448525e-05   -4.0278143199460356e-05
-1.2519422141926328e-05   -1.1312941823448525e-05   -4.0278143199460356e-05
-1.2519422141926328e-05   -1.1312941823448525e-05   -4.0278143199460356e-05
-1.2519422141926328e-05   -1.1312941823448525e-05   -4.0278143199460356e-05
6.445240934701142e-06   -3.982331454197453e-06   -4.384941630168225e-06
6.445240934701142e-06   -3.982331454197453e-06   -4.384941630168225e-06
6.445240934701142e-06   -3.982331454197453e-06   -4.384941630168225e-06
6.445240934701142e-06   -3.982331454197453e-06   -4.384941630168225e-06
-3.077099749332476e-05   -2.0436124018384516e-05   -7.62842812153902e-05
-3.077099749332476e-05   -2.0436124018384516e-05   -7.62842812153902e-05
-3.077099749332476e-05   -2.0436124018384516e-05   -7.62842812153902e-05
-3.077099749332476e-05   -2.0436124018384516e-05   -7.62842812153902e-05
-2.9100875466030727e-05   -3.243764534333407e-06   -1.3317693174500107e-05
-2.9100875466030727e-05   -3.243764534333407e-06   -1.3317693174500107e-05
-2.9100875466030727e-05   -3.243764534333407e-06   -1.3317693174500107e-05
-2.9100875466030727e-05   -3.243764534333407e-06   -1.3317693174500107e-05
7.5689817836112295e-06   -2.0343718218327183e-05   -6.417414971350663e-05
7.5689817836112295e-06   -2.0343718218327183e-05   -6.417414971350663e-05
7.5689817836112295e-06   -2.0343718218327183e-05   -6.417414971350663e-05
7.5689817836112295e-06   -2.0343718218327183e-05   -6.417414971350663e-05
-1.114255993250208e-05   -1.1571611317771294e-05   -3.825151099365125e-05
-1.114255993250208e-05   -1.1571611317771294e-05   -3.825151099365125e-05
-1.114255993250208e-05   -1.1571611317771294e-05   -3.825151099365125e-05
-1.114255993250208e-05   -1.1571611317771294e-05   -3.825151099365125e-05
7.5689817836112295e-06   -3.2437645343329734e-06   -3.057720964103408e-06
7.5689817836112295e-06   -3.2437645343329734e-06   -3.057720964103408e-06
7.5689817836112295e-06   -3.2437645343329734e-06   -3.057720964103408e-06
7.5689817836112295e-06   -3.2437645343329734e-06   -3.057720964103408e-06
-2.9100875466030822e-05   -2.0343718218327617e-05   -7.443412192390322e-05
-2.9100875466030822e-05   -2.0343718218327617e-05   -7.443412192390322e-05
-2.9100875466030822e-05   -2.0343718218327617e-05   -7.443412192390322e-05
-2.9100875466030822e-05   -2.0343718218327617e-05   -7.443412192390322e-05
-2.6219601946063443e-05   -2.54369809948949e-06   -1.326052361173835e-05
-2.6219601946063443e-05   -2.54369809948949e-06   -1.326052361173835e-05
-2.6219601946063443e-05   -2.54369809948949e-06   -1.326052361173835e-05
-2.6219601946063443e-05   -2.54369809948949e-06   -1.326052361173835e-05
9.245751573218845e-06   -1.9634105817888884e-05   -6.211520151283621e-05
9.245751573218845e-06   -1.9634105817888884e-05   -6.211520151283621e-05
9.245751573218845e-06   -1.9634105817888884e-05   -6.211520151283621e-05
9.245751573218845e-06   -1.9634105817888884e-05   -6.211520151283621e-05
-9.353449095198966e-06   -1.1317902928905093e-05   -3.610625546553029e-05
-9.353449095198966e-06   -1.1317902928905093e-05   -3.610625546553029e-05
-9.353449095198966e-06   -1.1317902928905093e-05   -3.610625546553029e-05
-9.353449095198966e-06   -1.1317902928905093e-05   -3.610625546553029e-05
-3.270967397906814e-05   1.0809966171712593e-06   -9.275641129589084e-06
-3.270967397906814e-05   1.0809966171712593e-06   -9.275641129589084e-06
-3.270967397906814e-05   1.0809966171712593e-06   -9.275641129589084e-06
-3.270967397906814e-05   1.0809966171712593e-06   -9.275641129589084e-06
-7.502068415371665e-05   -2.4964278744591794e-05   -9.542115663772779e-05
-7.502068415371665e-05   -2.4964278744591794e-05   -9.542115663772779e-05
-7.502068415371665e-05   -2.4964278744591794e-05   -9.542115663772779e-05
-7.502068415371665e-05   -2.4964278744591794e-05   -9.542115663772779e-05
-7.270839581260315e-05   1.9587665013665392e-06   -2.4130521301118403e-05
-7.270839581260315e-05   1.9587665013665392e-06   -2.4130521301118403e-05
-7.270839581260315e-05   1.9587665013665392e-06   -2.4130521301118403e-05
-7.270839581260315e-05   1.9587665013665392e-06   -2.4130521301118403e-05
-3.077099749332471e-05   -2.7859573830859002e-05   -7.613518096724676e-05
-3.077099749332471e-05   -2.7859573830859002e-05   -7.613518096724676e-05
-3.077099749332471e-05   -2.7859573830859002e-05   -7.613518096724676e-05
-3.077099749332471e-05   -2.7859573830859002e-05   -7.613518096724676e-05
-5.20408027558187e-05   -1.2715385639274802e-05   -4.977201844470725e-05
-5.20408027558187e-05   -1.2715385639274802e-05   -4.977201844470725e-05
-5.20408027558187e-05   -1.2715385639274802e-05   -4.977201844470725e-05
-5.20408027558187e-05   -1.2715385639274802e-05   -4.977201844470725e-05
-3.077099749332471e-05   1.9587665013665392e-06   -6.2395171017827315e-06
-3.077099749332471e-05   1.9587665013665392e-06   -6.2395171017827315e-06
-3.077099749332471e-05   1.9587665013665392e-06   -6.2395171017827315e-06
-3.077099749332471e-05   1.9587665013665392e-06   -6.2395171017827315e-06
-7.270839581260315e-05   -2.7859573830858568e-05   -9.402618516658203e-05
-7.270839581260315e-05   -2.7859573830858568e-05   -9.402618516658203e-05
-7.270839581260315e-05   -2.7859573830858568e-05   -9.402618516658203e-05
-7.270839581260315e-05   -2.7859573830858568e-05   -9.402618516658203e-05
-7.049152415573038e-05   2.767135831080198e-06   -2.1572251645315347e-05
-7.049152415573038e-05   2.767135831080198e-06   -2.1572251645315347e-05
-7.049152415573038e-05   2.767135831080198e-06   -2.1572251645315347e-05
-7.049152415573038e-05   2.767135831080198e-06   -2.1572251645315347e-05
-2.9100875466030754e-05   -2.8018255179517153e-05   -7.208543152178957e-05
-2.9100875466030754e-05   -2.8018255179517153e-05   -7.208543152178957e-05
-2.9100875466030754e-05   -2.8018255179517153e-05   -7.208543152178957e-05
-2.9100875466030754e-05   -2.8018255179517153e-05   -7.208543152178957e-05
-4.978631067077124e-05   -1.2761411380487857e-05   -4.676381245997312e-05
-4.978631067077124e-05   -1.2761411380487857e-05   -4.676381245997312e-05
-4.978631067077124e-05   -1.2761411380487857e-05   -4.676381245997312e-05
-4.978631067077124e-05   -1.2761411380487857e-05   -4.676381245997312e-05
-2.910087546603074e-05   2.767135831080198e-06   -3.1010170389567625e-06
-2.910087546603074e-05   2.767135831080198e-06   -3.1010170389567625e-06
-2.910087546603074e-05   2.767135831080198e-06   -3.1010170389567625e-06
-2.910087546603074e-05   2.767135831080198e-06   -3.1010170389567625e-06
-7.049152415573051e-05   -2.801825517951672e-05   -9.055666612814797e-05
-7.049152415573051e-05   -2.801825517951672e-05   -9.055666612814797e-05
-7.049152415573051e-05   -2.801825517951672e-05   -9.055666612814797e-05
-7.049152415573051e-05   -2.801825517951672e-05   -9.055666612814797e-05
-6.686014849965294e-05   3.451631195341455e-06   -1.8964578533193794e-05
-6.686014849965294e-05   3.451631195341455e-06   -1.8964578533193794e-05
-6.686014849965294e-05   3.451631195341455e-06   -1.8964578533193794e-05
-6.686014849965294e-05   3.451631195341455e-06   -1.8964578533193794e-05
-2.6219601946063525e-05   -2.5589091015546135e-05   -6.927438946264383e-05
-2.6219601946063525e-05   -2.5589091015546135e-05   -6.927438946264383e-05
-2.6219601946063525e-05   -2.5589091015546135e-05   -6.927438946264383e-05
-2.6219601946063525e-05   -2.5589091015546135e-05   -6.927438946264383e-05
-4.755754031595422e-05   -1.1285172362230159e-05   -4.229351003814778e-05
-4.755754031595422e-05   -1.1285172362230159e-05   -4.229351003814778e-05
-4.755754031595422e-05   -1.1285172362230159e-05   -4.229351003814778e-05
-4.755754031595422e-05   -1.1285172362230159e-05   -4.229351003814778e-05
-7.502068415371665e-05   1.0692943175890333e-05   -1.6331541068565674e-05
-7.502068415371665e-05   1.0692943175890333e-05   -1.6331541068565674e-05
-7.502068415371665e-05   1.0692943175890333e-05   -1.6331541068565674e-05
-7.502068415371665e-05   1.0692943175890333e-05   -1.6331541068565674e-05
-0.00012924587631122687   0.0   -0.00011312262723661703
-0.00012924587631122687   0.0   -0.00011312262723661703
-0.00012924587631122687   0.0   -0.00011312262723661703
-0.00012924587631122687   0.0   -0.00011312262723661703
-0.000125859952451038   1.3549578526140041e-05   -1.2545145623516158e-05
-0.000125859952451038   1.3549578526140041e-05   -1.2545145623516158e-05
-0.000125859952451038   1.3549578526140041e-05   -1.2545145623516158e-05
-0.000125859952451038   1.3549578526140041e-05   -1.2545145623516158e-05
-7.270839581260303e-05   0.0   -9.300132623855687e-05
-7.270839581260303e-05   0.0   -9.300132623855687e-05
-7.270839581260303e-05   0.0   -9.300132623855687e-05
-7.270839581260303e-05   0.0   -9.300132623855687e-05
-9.642892890779895e-05   4.1338420702832085e-06   -5.594740965540041e-05
-9.642892890779895e-05   4.1338420702832085e-06   -5.594740965540041e-05
-9.642892890779895e-05   4.1338420702832085e-06   -5.594740965540041e-05
-9.642892890779895e-05   4.1338420702832085e-06   -5.594740965540041e-05
-7.270839581260308e-05   1.3549578526140041e-05   -4.415398507831786e-06
-7.270839581260308e-05   1.3549578526140041e-05   -4.415398507831786e-06
-7.270839581260308e-05   1.3549578526140041e-05   -4.415398507831786e-06
-7.270839581260308e-05   1.3549578526140041e-05   -4.415398507831786e-06
-0.00012585995245103777   0.0   -0.00010113107335424105
-0.00012585995245103777   0.0   -0.00010113107335424105
-0.00012585995245103777   0.0   -0.00010113107335424105
-0.00012585995245103777   0.0   -0.00010113107335424105
-0.00012299728677121475   1.4190985506255457e-05   -5.05651862890092e-06
-0.00012299728677121475   1.4190985506255457e-05   -5.05651862890092e-06
-0.00012299728677121475   1.4190985506255457e-05   -5.05651862890092e-06
-0.00012299728677121475   1.4190985506255457e-05   -5.05651862890092e-06
-7.049152415573051e-05   0.0   -8.405153168428807e-05
-7.049152415573051e-05   0.0   -8.405153168428807e-05
-7.049152415573051e-05   0.0   -8.405153168428807e-05
-7.049152415573051e-05   0.0   -8.405153168428807e-05
-9.541333068008805e-05   6.5595968824715654e-06   -4.645094560650745e-05
-9.541333068008805e-05   6.5595968824715654e-06   -4.645094560650745e-05
-9.541333068008805e-05   6.5595968824715654e-06   -4.645094560650745e-05
-9.541333068008805e-05   6.5595968824715654e-06   -4.645094560650745e-05
-7.049152415573051e-05   1.4190985506255891e-05   3.4580726748522674e-06
-7.049152415573051e-05   1.4190985506255891e-05   3.4580726748522674e-06
-7.049152415573051e-05   1.4190985506255891e-05   3.4580726748522674e-06
-7.049152415573051e-05   1.4190985506255891e-05   3.4580726748522674e-06
-0.00012299728677121454   0.0   -9.256612298804128e-05
-0.00012299728677121454   0.0   -9.256612298804128e-05
-0.00012299728677121454   0.0   -9.256612298804128e-05
-0.00012299728677121454   0.0   -9.256612298804128e-05
-0.00011728737762779866   1.5296475386623008e-05   6.991020028951616e-06
-0.00011728737762779866   1.5296475386623008e-05   6.991020028951616e-06
-0.00011728737762779866   1.5296475386623008e-05   6.991020028951616e-06
-0.00011728737762779866   1.5296475386623008e-05   6.991020028951616e-06
-6.686014849965307e-05   0.0   -6.787647661931755e-05
-6.686014849965307e-05   0.0   -6.787647661931755e-05
-6.686014849965307e-05   0.0   -6.787647661931755e-05
-6.686014849965307e-05   0.0   -6.787647661931755e-05
-9.04355313826915e-05   8.093632382985636e-06   -3.344035124404484e-05
-9.04355313826915e-05   8.093632382985636e-06   -3.344035124404484e-05
-9.04355313826915e-05   8.093632382985636e-06   -3.344035124404484e-05
-9.04355313826915e-05   8.093632382985636e-06   -3.344035124404484e-05
9.572282351626415e-05   -1.6449746327582178e-05   5.7162468720700415e-05
9.572282351626415e-05   -1.6449746327582178e-05   5.7162468720700415e-05
9.572282351626415e-05   -1.6449746327582178e-05   5.7162468720700415e-05
9.572282351626415e-05   -1.6449746327582178e-05   5.7162468720700415e-05
4.9680109496486936e-05   -1.2663705813476672e-05   -1.730376367046517e-05
4.9680109496486936e-05   -1.2663705813476672e-05   -1.730376367046517e-05
4.9680109496486936e-05   -1.2663705813476672e-05   -1.730376367046517e-05
4.9680109496486936e-05   -1.2663705813476672e-05   -1.730376367046517e-05
4.842704728736169e-05   -1.686120597648756e-05   5.049920684670759e-05
4.842704728736169e-05   -1.686120597648756e-05   5.049920684670759e-05
4.842704728736169e-05   -1.686120597648756e-05   5.049920684670759e-05
4.842704728736169e-05   -1.686120597648756e-05   5.049920684670759e-05
9.469455947090988e-05   -1.3925545888243164e-05   -2.8374709512152843e-05
9.469455947090988e-05   -1.3925545888243164e-05   -2.8374709512152843e-05
9.469455947090988e-05   -1.3925545888243164e-05   -2.8374709512152843e-05
9.469455947090988e-05   -1.3925545888243164e-05   -2.8374709512152843e-05
6.918039054536227e-05   -1.4167792001332398e-05   1.4294253031613656e-05
6.918039054536227e-05   -1.4167792001332398e-05   1.4294253031613656e-05
6.918039054536227e-05   -1.4167792001332398e-05   1.4294253031613656e-05
6.918039054536227e-05   -1.4167792001332398e-05   1.4294253031613656e-05
9.469455947090988e-05   -1.686120597648756e-05   4.873781079376099e-05
9.469455947090988e-05   -1.686120597648756e-05   4.873781079376099e-05
9.469455947090988e-05   -1.686120597648756e-05   4.873781079376099e-05
9.469455947090988e-05   -1.686120597648756e-05   4.873781079376099e-05
4.842704728736169e-05   -1.3925545888243164e-05   -2.661331345920584e-05
4.842704728736169e-05   -1.3925545888243164e-05   -2.661331345920584e-05
4.842704728736169e-05   -1.3925545888243164e-05   -2.661331345920584e-05
4.842704728736169e-05   -1.3925545888243164e-05   -2.661331345920584e-05
4.729379711215461e-05   -1.6709378733577654e-05   4.534691535323411e-05
4.729379711215461e-05   -1.6709378733577654e-05   4.534691535323411e-05
4.729379711215461e-05   -1.6709378733577654e-05   4.534691535323411e-05
4.729379711215461e-05   -1.6709378733577654e-05   4.534691535323411e-05
9.35064960624307e-05   -1.4042546712494854e-05   -3.327434877654242e-05
9.35064960624307e-05   -1.4042546712494854e-05   -3.327434877654242e-05
9.35064960624307e-05   -1.4042546712494854e-05   -3.327434877654242e-05
9.35064960624307e-05   -1.4042546712494854e-05   -3.327434877654242e-05
6.91240494975105e-05   -1.4416236349855654e-05   7.587275947407808e-06
6.91240494975105e-05   -1.4416236349855654e-05   7.587275947407808e-06
6.91240494975105e-05   -1.4416236349855654e-05   7.587275947407808e-06
6.91240494975105e-05   -1.4416236349855654e-05   7.587275947407808e-06
9.350649606243086e-05   -1.6709378733578088e-05   4.3746816140584474e-05
9.350649606243086e-05   -1.6709378733578088e-05   4.3746816140584474e-05
9.350649606243086e-05   -1.6709378733578088e-05   4.3746816140584474e-05
9.350649606243086e-05   -1.6709378733578088e-05   4.3746816140584474e-05
4.729379711215461e-05   -1.4042546712494854e-05   -3.167424956389254e-05
4.729379711215461e-05   -1.4042546712494854e-05   -3.167424956389254e-05
4.729379711215461e-05   -1.4042546712494854e-05   -3.167424956389254e-05
4.729379711215461e-05   -1.4042546712494854e-05   -3.167424956389254e-05
4.591136349394573e-05   -1.5782510683542972e-05   3.696463409568005e-05
4.591136349394573e-05   -1.5782510683542972e-05   3.696463409568005e-05
4.591136349394573e-05   -1.5782510683542972e-05   3.696463409568005e-05
4.591136349394573e-05   -1.5782510683542972e-05   3.696463409568005e-05
9.164511643814884e-05   -1.375256528904573e-05   -4.047625471469005e-05
9.164511643814884e-05   -1.375256528904573e-05   -4.047625471469005e-05
9.164511643814884e-05   -1.375256528904573e-05   -4.047625471469005e-05
9.164511643814884e-05   -1.375256528904573e-05   -4.047625471469005e-05
6.676088561751944e-05   -1.3708751521900996e-05   9.711750594051244e-07
6.676088561751944e-05   -1.3708751521900996e-05   9.711750594051244e-07
6.676088561751944e-05   -1.3708751521900996e-05   9.711750594051244e-07
6.676088561751944e-05   -1.3708751521900996e-05   9.711750594051244e-07
4.9680109496486936e-05   -1.6539442310445525e-05   4.273630764103291e-05
4.9680109496486936e-05   -1.6539442310445525e-05   4.273630764103291e-05
4.9680109496486936e-05   -1.6539442310445525e-05   4.273630764103291e-05
4.9680109496486936e-05   -1.6539442310445525e-05   4.273630764103291e-05
1.0626754732395927e-05   -7.844135294556714e-06   -1.7135432756251994e-05
1.0626754732395927e-05   -7.844135294556714e-06   -1.7135432756251994e-05
1.0626754732395927e-05   -7.844135294556714e-06   -1.7135432756251994e-05
1.0626754732395927e-05   -7.844135294556714e-06   -1.7135432756251994e-05
8.643541800805411e-06   -1.64562590387325e-05   4.880550452876801e-05
8.643541800805411e-06   -1.64562590387325e-05   4.880550452876801e-05
8.643541800805411e-06   -1.64562590387325e-05   4.880550452876801e-05
8.643541800805411e-06   -1.64562590387325e-05   4.880550452876801e-05
4.842704728736169e-05   -8.320772591870283e-06   -2.23816298169435e-05
4.842704728736169e-05   -8.320772591870283e-06   -2.23816298169435e-05
4.842704728736169e-05   -8.320772591870283e-06   -2.23816298169435e-05
4.842704728736169e-05   -8.320772591870283e-06   -2.23816298169435e-05
2.930411815281753e-05   -1.1835443557508402e-05   1.1598721320012868e-05
2.930411815281753e-05   -1.1835443557508402e-05   1.1598721320012868e-05
2.930411815281753e-05   -1.1835443557508402e-05   1.1598721320012868e-05
2.930411815281753e-05   -1.1835443557508402e-05   1.1598721320012868e-05
4.842704728736172e-05   -1.64562590387325e-05   4.3924212660650464e-05
4.842704728736172e-05   -1.64562590387325e-05   4.3924212660650464e-05
4.842704728736172e-05   -1.64562590387325e-05   4.3924212660650464e-05
4.842704728736172e-05   -1.64562590387325e-05   4.3924212660650464e-05
8.643541800805411e-06   -8.320772591870283e-06   -1.750033794882598e-05
8.643541800805411e-06   -8.320772591870283e-06   -1.750033794882598e-05
8.643541800805411e-06   -8.320772591870283e-06   -1.750033794882598e-05
8.643541800805411e-06   -8.320772591870283e-06   -1.750033794882598e-05
7.229779726479328e-06   -1.6237607198888067e-05   4.8884056166671915e-05
7.229779726479328e-06   -1.6237607198888067e-05   4.8884056166671915e-05
7.229779726479328e-06   -1.6237607198888067e-05   4.8884056166671915e-05
7.229779726479328e-06   -1.6237607198888067e-05   4.8884056166671915e-05
4.729379711215461e-05   -8.533881255317656e-06   -2.251154170892914e-05
4.729379711215461e-05   -8.533881255317656e-06   -2.251154170892914e-05
4.729379711215461e-05   -8.533881255317656e-06   -2.251154170892914e-05
4.729379711215461e-05   -8.533881255317656e-06   -2.251154170892914e-05
2.760525454290465e-05   -1.159384418597054e-05   1.2138673664880252e-05
2.760525454290465e-05   -1.159384418597054e-05   1.2138673664880252e-05
2.760525454290465e-05   -1.159384418597054e-05   1.2138673664880252e-05
2.760525454290465e-05   -1.159384418597054e-05   1.2138673664880252e-05
4.7293797112154694e-05   -1.6237607198887633e-05   4.426182060052967e-05
4.7293797112154694e-05   -1.6237607198887633e-05   4.426182060052967e-05
4.7293797112154694e-05   -1.6237607198887633e-05   4.426182060052967e-05
4.7293797112154694e-05   -1.6237607198887633e-05   4.426182060052967e-05
7.229779726479328e-06   -8.533881255317656e-06   -1.7889306142787e-05
7.229779726479328e-06   -8.533881255317656e-06   -1.7889306142787e-05
7.229779726479328e-06   -8.533881255317656e-06   -1.7889306142787e-05
7.229779726479328e-06   -8.533881255317656e-06   -1.7889306142787e-05
5.656904245273509e-06   -1.5799321640512336e-05   5.047982325568929e-05
5.656904245273509e-06   -1.5799321640512336e-05   5.047982325568929e-05
5.656904245273509e-06   -1.5799321640512336e-05   5.047982325568929e-05
5.656904245273509e-06   -1.5799321640512336e-05   5.047982325568929e-05
4.591136349394568e-05   -8.343525818411014e-06   -2.108441965202563e-05
4.591136349394568e-05   -8.343525818411014e-06   -2.108441965202563e-05
4.591136349394568e-05   -8.343525818411014e-06   -2.108441965202563e-05
4.591136349394568e-05   -8.343525818411014e-06   -2.108441965202563e-05
2.6565348443881307e-05   -1.1086789332531623e-05   1.2804896873220921e-05
2.6565348443881307e-05   -1.1086789332531623e-05   1.2804896873220921e-05
2.6565348443881307e-05   -1.1086789332531623e-05   1.2804896873220921e-05
2.6565348443881307e-05   -1.1086789332531623e-05   1.2804896873220921e-05
1.0626754732395954e-05   -1.99913581278386e-05   4.398867845440812e-05
1.0626754732395954e-05   -1.99913581278386e-05   4.398867845440812e-05
1.0626754732395954e-05   -1.99913581278386e-05   4.398867845440812e-05
1.0626754732395954e-05   -1.99913581278386e-05   4.398867845440812e-05
-2.6885723305295362e-05   -3.319898532096275e-06   -8.529242517632454e-06
-2.6885723305295362e-05   -3.319898532096275e-06   -8.529242517632454e-06
-2.6885723305295362e-05   -3.319898532096275e-06   -8.529242517632454e-06
-2.6885723305295362e-05   -3.319898532096275e-06   -8.529242517632454e-06
-2.9971209301891358e-05   -2.0436124018384516e-05   5.656691775139146e-05
-2.9971209301891358e-05   -2.0436124018384516e-05   5.656691775139146e-05
-2.9971209301891358e-05   -2.0436124018384516e-05   5.656691775139146e-05
-2.9971209301891358e-05   -2.0436124018384516e-05   5.656691775139146e-05
8.643541800805438e-06   -3.5063122986690384e-06   -1.7948887784932372e-05
8.643541800805438e-06   -3.5063122986690384e-06   -1.7948887784932372e-05
8.643541800805438e-06   -3.5063122986690384e-06   -1.7948887784932372e-05
8.643541800805438e-06   -3.5063122986690384e-06   -1.7948887784932372e-05
-9.059432904490517e-06   -1.1434081604116964e-05   1.6312731640496657e-05
-9.059432904490517e-06   -1.1434081604116964e-05   1.6312731640496657e-05
-9.059432904490517e-06   -1.1434081604116964e-05   1.6312731640496657e-05
-9.059432904490517e-06   -1.1434081604116964e-05   1.6312731640496657e-05
8.643541800805411e-06   -2.0436124018384516e-05   4.6409030719561954e-05
8.643541800805411e-06   -2.0436124018384516e-05   4.6409030719561954e-05
8.643541800805411e-06   -2.0436124018384516e-05   4.6409030719561954e-05
8.643541800805411e-06   -2.0436124018384516e-05   4.6409030719561954e-05
-2.9971209301891304e-05   -3.5063122986686047e-06   -7.79100075310314e-06
-2.9971209301891304e-05   -3.5063122986686047e-06   -7.79100075310314e-06
-2.9971209301891304e-05   -3.5063122986686047e-06   -7.79100075310314e-06
-2.9971209301891304e-05   -3.5063122986686047e-06   -7.79100075310314e-06
-3.185627339401866e-05   -2.0343718218327617e-05   5.872524396631452e-05
-3.185627339401866e-05   -2.0343718218327617e-05   5.872524396631452e-05
-3.185627339401866e-05   -2.0343718218327617e-05   5.872524396631452e-05
-3.185627339401866e-05   -2.0343718218327617e-05   5.872524396631452e-05
7.229779726479328e-06   -3.7343204611940684e-06   -1.6383816555461833e-05
7.229779726479328e-06   -3.7343204611940684e-06   -1.6383816555461833e-05
7.229779726479328e-06   -3.7343204611940684e-06   -1.6383816555461833e-05
7.229779726479328e-06   -3.7343204611940684e-06   -1.6383816555461833e-05
-1.114791787425194e-05   -1.1399876530380874e-05   1.8845013087268655e-05
-1.114791787425194e-05   -1.1399876530380874e-05   1.8845013087268655e-05
-1.114791787425194e-05   -1.1399876530380874e-05   1.8845013087268655e-05
-1.114791787425194e-05   -1.1399876530380874e-05   1.8845013087268655e-05
7.229779726479328e-06   -2.0343718218327183e-05   4.875960531203465e-05
7.229779726479328e-06   -2.0343718218327183e-05   4.875960531203465e-05
7.229779726479328e-06   -2.0343718218327183e-05   4.875960531203465e-05
7.229779726479328e-06   -2.0343718218327183e-05   4.875960531203465e-05
-3.185627339401861e-05   -3.7343204611940684e-06   -6.418177901182072e-06
-3.185627339401861e-05   -3.7343204611940684e-06   -6.418177901182072e-06
-3.185627339401861e-05   -3.7343204611940684e-06   -6.418177901182072e-06
-3.185627339401861e-05   -3.7343204611940684e-06   -6.418177901182072e-06
-3.4074328803378716e-05   -1.9634105817888884e-05   6.15211693168259e-05
-3.4074328803378716e-05   -1.9634105817888884e-05   6.15211693168259e-05
-3.4074328803378716e-05   -1.9634105817888884e-05   6.15211693168259e-05
-3.4074328803378716e-05   -1.9634105817888884e-05   6.15211693168259e-05
5.656904245273509e-06   -3.7139725473757726e-06   -1.4249632393235684e-05
5.656904245273509e-06   -3.7139725473757726e-06   -1.4249632393235684e-05
5.656904245273509e-06   -3.7139725473757726e-06   -1.4249632393235684e-05
5.656904245273509e-06   -3.7139725473757726e-06   -1.4249632393235684e-05
-1.2848161687242652e-05   -1.0949033267467888e-05   2.0933180593013414e-05
-1.2848161687242652e-05   -1.0949033267467888e-05   2.0933180593013414e-05
-1.2848161687242652e-05   -1.0949033267467888e-05   2.0933180593013414e-05
-1.2848161687242652e-05   -1.0949033267467888e-05   2.0933180593013414e-05
-2.6885723305295416e-05   -2.4964278744591794e-05   5.333317550184724e-05
-2.6885723305295416e-05   -2.4964278744591794e-05   5.333317550184724e-05
-2.6885723305295416e-05   -2.4964278744591794e-05   5.333317550184724e-05
-2.6885723305295416e-05   -2.4964278744591794e-05   5.333317550184724e-05
-6.962632696296185e-05   3.508914851073526e-06   -8.172477701977668e-07
-6.962632696296185e-05   3.508914851073526e-06   -8.172477701977668e-07
-6.962632696296185e-05   3.508914851073526e-06   -8.172477701977668e-07
-6.962632696296185e-05   3.508914851073526e-06   -8.172477701977668e-07
-7.333112910524808e-05   -2.7859573830858568e-05   7.540807394457866e-05
-7.333112910524808e-05   -2.7859573830858568e-05   7.540807394457866e-05
-7.333112910524808e-05   -2.7859573830858568e-05   7.540807394457866e-05
-7.333112910524808e-05   -2.7859573830858568e-05   7.540807394457866e-05
-2.9971209301891304e-05   3.2938527442134824e-06   -1.5550515006059254e-05
-2.9971209301891304e-05   3.2938527442134824e-06   -1.5550515006059254e-05
-2.9971209301891304e-05   3.2938527442134824e-06   -1.5550515006059254e-05
-2.9971209301891304e-05   3.2938527442134824e-06   -1.5550515006059254e-05
-4.925338813756981e-05   -1.0391283329065724e-05   2.4797531364039046e-05
-4.925338813756981e-05   -1.0391283329065724e-05   2.4797531364039046e-05
-4.925338813756981e-05   -1.0391283329065724e-05   2.4797531364039046e-05
-4.925338813756981e-05   -1.0391283329065724e-05   2.4797531364039046e-05
-2.9971209301891358e-05   -2.7859573830858568e-05   5.671601799953508e-05
-2.9971209301891358e-05   -2.7859573830858568e-05   5.671601799953508e-05
-2.9971209301891358e-05   -2.7859573830858568e-05   5.671601799953508e-05
-2.9971209301891358e-05   -2.7859573830858568e-05   5.671601799953508e-05
-7.333112910524808e-05   3.293852744213916e-06   3.141540938984052e-06
-7.333112910524808e-05   3.293852744213916e-06   3.141540938984052e-06
-7.333112910524808e-05   3.293852744213916e-06   3.141540938984052e-06
-7.333112910524808e-05   3.293852744213916e-06   3.141540938984052e-06
-7.558983981557664e-05   -2.801825517951672e-05   7.9625654418586e-05
-7.558983981557664e-05   -2.801825517951672e-05   7.9625654418586e-05
-7.558983981557664e-05   -2.801825517951672e-05   7.9625654418586e-05
-7.558983981557664e-05   -2.801825517951672e-05   7.9625654418586e-05
-3.185627339401861e-05   2.9012782374123088e-06   -1.181534300083529e-05
-3.185627339401861e-05   2.9012782374123088e-06   -1.181534300083529e-05
-3.185627339401861e-05   2.9012782374123088e-06   -1.181534300083529e-05
-3.185627339401861e-05   2.9012782374123088e-06   -1.181534300083529e-05
-5.166219959018826e-05   -1.1954009068605893e-05   3.0107706376391653e-05
-5.166219959018826e-05   -1.1954009068605893e-05   3.0107706376391653e-05
-5.166219959018826e-05   -1.1954009068605893e-05   3.0107706376391653e-05
-5.166219959018826e-05   -1.1954009068605893e-05   3.0107706376391653e-05
-3.185627339401858e-05   -2.8018255179517153e-05   6.107393436842793e-05
-3.185627339401858e-05   -2.8018255179517153e-05   6.107393436842793e-05
-3.185627339401858e-05   -2.8018255179517153e-05   6.107393436842793e-05
-3.185627339401858e-05   -2.8018255179517153e-05   6.107393436842793e-05
-7.558983981557651e-05   2.9012782374123088e-06   6.736377049322345e-06
-7.558983981557651e-05   2.9012782374123088e-06   6.736377049322345e-06
-7.558983981557651e-05   2.9012782374123088e-06   6.736377049322345e-06
-7.558983981557651e-05   2.9012782374123088e-06   6.736377049322345e-06
-7.802281406014807e-05   -2.5589091015546135e-05   8.144405958520349e-05
-7.802281406014807e-05   -2.5589091015546135e-05   8.144405958520349e-05
-7.802281406014807e-05   -2.5589091015546135e-05   8.144405958520349e-05
-7.802281406014807e-05   -2.5589091015546135e-05   8.144405958520349e-05
-3.407432880337858e-05   2.457298296362851e-06   -8.631249429890851e-06
-3.407432880337858e-05   2.457298296362851e-06   -8.631249429890851e-06
-3.407432880337858e-05   2.457298296362851e-06   -8.631249429890851e-06
-3.407432880337858e-05   2.457298296362851e-06   -8.631249429890851e-06
-5.414152099214053e-05   -1.204529856950378e-05   3.351562900423316e-05
-5.414152099214053e-05   -1.204529856950378e-05   3.351562900423316e-05
-5.414152099214053e-05   -1.204529856950378e-05   3.351562900423316e-05
-5.414152099214053e-05   -1.204529856950378e-05   3.351562900423316e-05
-6.962632696296163e-05   0.0   5.913138696589078e-05
-6.962632696296163e-05   0.0   5.913138696589078e-05
-6.962632696296163e-05   0.0   5.913138696589078e-05
-6.962632696296163e-05   0.0   5.913138696589078e-05
-0.0001226982928444907   1.6080030360109306e-05   -1.9673871287259137e-05
-0.0001226982928444907   1.6080030360109306e-05   -1.9673871287259137e-05
-0.0001226982928444907   1.6080030360109306e-05   -1.9673871287259137e-05
-0.0001226982928444907   1.6080030360109306e-05   -1.9673871287259137e-05
-0.00012781324146948574   0.0   8.574081358664895e-05
-0.00012781324146948574   0.0   8.574081358664895e-05
-0.00012781324146948574   0.0   8.574081358664895e-05
-0.00012781324146948574   0.0   8.574081358664895e-05
-7.333112910524794e-05   1.551313452341019e-05   -1.4370587734460099e-05
-7.333112910524794e-05   1.551313452341019e-05   -1.4370587734460099e-05
-7.333112910524794e-05   1.551313452341019e-05   -1.4370587734460099e-05
-7.333112910524794e-05   1.551313452341019e-05   -1.4370587734460099e-05
-9.417157706210775e-05   9.540613422531676e-06   2.3947004854166405e-05
-9.417157706210775e-05   9.540613422531676e-06   2.3947004854166405e-05
-9.417157706210775e-05   9.540613422531676e-06   2.3947004854166405e-05
-9.417157706210775e-05   9.540613422531676e-06   2.3947004854166405e-05
-7.333112910524789e-05   0.0   7.643293287260336e-05
-7.333112910524789e-05   0.0   7.643293287260336e-05
-7.333112910524789e-05   0.0   7.643293287260336e-05
-7.333112910524789e-05   0.0   7.643293287260336e-05
-0.00012781324146948599   1.551313452341019e-05   -5.062707020414125e-06
-0.00012781324146948599   1.551313452341019e-05   -5.062707020414125e-06
-0.00012781324146948599   1.551313452341019e-05   -5.062707020414125e-06
-0.00012781324146948599   1.551313452341019e-05   -5.062707020414125e-06
-0.00013038998629265742   0.0   9.519848439152072e-05
-0.00013038998629265742   0.0   9.519848439152072e-05
-0.00013038998629265742   0.0   9.519848439152072e-05
-0.00013038998629265742   0.0   9.519848439152072e-05
-7.558983981557651e-05   1.5112825881792493e-05   -5.202788599356222e-06
-7.558983981557651e-05   1.5112825881792493e-05   -5.202788599356222e-06
-7.558983981557651e-05   1.5112825881792493e-05   -5.202788599356222e-06
-7.558983981557651e-05   1.5112825881792493e-05   -5.202788599356222e-06
-9.909815007565662e-05   7.964605089942189e-06   3.8266660975888405e-05
-9.909815007565662e-05   7.964605089942189e-06   3.8266660975888405e-05
-9.909815007565662e-05   7.964605089942189e-06   3.8266660975888405e-05
-9.909815007565662e-05   7.964605089942189e-06   3.8266660975888405e-05
-7.558983981557651e-05   0.0   8.613078886244544e-05
-7.558983981557651e-05   0.0   8.613078886244544e-05
-7.558983981557651e-05   0.0   8.613078886244544e-05
-7.558983981557651e-05   0.0   8.613078886244544e-05
-0.00013038998629265788   1.5112825881792927e-05   3.864906929718949e-06
-0.00013038998629265788   1.5112825881792927e-05   3.864906929718949e-06
-0.00013038998629265788   1.5112825881792927e-05   3.864906929718949e-06
-0.00013038998629265788   1.5112825881792927e-05   3.864906929718949e-06
-0.00013326200579436072   0.0   0.00010781151397948417
-0.00013326200579436072   0.0   0.00010781151397948417
-0.00013326200579436072   0.0   0.00010781151397948417
-0.00013326200579436072   0.0   0.00010781151397948417
-7.802281406014807e-05   1.25751803740368e-05   8.201086198040511e-06
-7.802281406014807e-05   1.25751803740368e-05   8.201086198040511e-06
-7.802281406014807e-05   1.25751803740368e-05   8.201086198040511e-06
-7.802281406014807e-05   1.25751803740368e-05   8.201086198040511e-06
-9.99327365522264e-05   5.586198006581316e-06   4.8911013105311114e-05
-9.99327365522264e-05   5.586198006581316e-06   4.8911013105311114e-05
-9.99327365522264e-05   5.586198006581316e-06   4.8911013105311114e-05
-9.99327365522264e-05   5.586198006581316e-06   4.8911013105311114e-05
8.414042011758424e-05   -1.2663705813476672e-05   5.978249497623814e-05
8.414042011758424e-05   -1.2663705813476672e-05   5.978249497623814e-05
8.414042011758424e-05   -1.2663705813476672e-05   5.978249497623814e-05
8.414042011758424e-05   -1.2663705813476672e-05   5.978249497623814e-05
4.256580403046654e-05   -9.541044749456374e-06   -7.634935197212058e-06
4.256580403046654e-05   -9.541044749456374e-06   -7.634935197212058e-06
4.256580403046654e-05   -9.541044749456374e-06   -7.634935197212058e-06
4.256580403046654e-05   -9.541044749456374e-06   -7.634935197212058e-06
4.143941113279809e-05   -1.3925545888243164e-05   5.219278593256507e-05
4.143941113279809e-05   -1.3925545888243164e-05   5.219278593256507e-05
4.143941113279809e-05   -1.3925545888243164e-05   5.219278593256507e-05
4.143941113279809e-05   -1.3925545888243164e-05   5.219278593256507e-05
8.212805047267603e-05   -1.0816335868657403e-05   -1.7487138978983138e-05
8.212805047267603e-05   -1.0816335868657403e-05   -1.7487138978983138e-05
8.212805047267603e-05   -1.0816335868657403e-05   -1.7487138978983138e-05
8.212805047267603e-05   -1.0816335868657403e-05   -1.7487138978983138e-05
5.9782971686855054e-05   -1.1266761336320603e-05   2.0024914277983288e-05
5.9782971686855054e-05   -1.1266761336320603e-05   2.0024914277983288e-05
5.9782971686855054e-05   -1.1266761336320603e-05   2.0024914277983288e-05
5.9782971686855054e-05   -1.1266761336320603e-05   2.0024914277983288e-05
8.212805047267587e-05   -1.3925545888243164e-05   5.032725992081357e-05
8.212805047267587e-05   -1.3925545888243164e-05   5.032725992081357e-05
8.212805047267587e-05   -1.3925545888243164e-05   5.032725992081357e-05
8.212805047267587e-05   -1.3925545888243164e-05   5.032725992081357e-05
4.143941113279814e-05   -1.0816335868657403e-05   -1.5621612967231394e-05
4.143941113279814e-05   -1.0816335868657403e-05   -1.5621612967231394e-05
4.143941113279814e-05   -1.0816335868657403e-05   -1.5621612967231394e-05
4.143941113279814e-05   -1.0816335868657403e-05   -1.5621612967231394e-05
3.998792525685e-05   -1.4042546712494854e-05   4.6854472318617196e-05
3.998792525685e-05   -1.4042546712494854e-05   4.6854472318617196e-05
3.998792525685e-05   -1.4042546712494854e-05   4.6854472318617196e-05
3.998792525685e-05   -1.4042546712494854e-05   4.6854472318617196e-05
8.009343881299685e-05   -1.10065483609487e-05   -2.1809649285888666e-05
8.009343881299685e-05   -1.10065483609487e-05   -2.1809649285888666e-05
8.009343881299685e-05   -1.10065483609487e-05   -2.1809649285888666e-05
8.009343881299685e-05   -1.10065483609487e-05   -2.1809649285888666e-05
5.921526568737722e-05   -1.1759363253905763e-05   1.3438994859251352e-05
5.921526568737722e-05   -1.1759363253905763e-05   1.3438994859251352e-05
5.921526568737722e-05   -1.1759363253905763e-05   1.3438994859251352e-05
5.921526568737722e-05   -1.1759363253905763e-05   1.3438994859251352e-05
8.009343881299685e-05   -1.4042546712494854e-05   4.503287330768959e-05
8.009343881299685e-05   -1.4042546712494854e-05   4.503287330768959e-05
8.009343881299685e-05   -1.4042546712494854e-05   4.503287330768959e-05
8.009343881299685e-05   -1.4042546712494854e-05   4.503287330768959e-05
3.998792525685e-05   -1.10065483609487e-05   -1.9988050274960707e-05
3.998792525685e-05   -1.10065483609487e-05   -1.9988050274960707e-05
3.998792525685e-05   -1.10065483609487e-05   -1.9988050274960707e-05
3.998792525685e-05   -1.10065483609487e-05   -1.9988050274960707e-05
3.846529303658739e-05   -1.3752565289046163e-05   3.8938367539779074e-05
3.846529303658739e-05   -1.3752565289046163e-05   3.8938367539779074e-05
3.846529303658739e-05   -1.3752565289046163e-05   3.8938367539779074e-05
3.846529303658739e-05   -1.3752565289046163e-05   3.8938367539779074e-05
7.754673477037278e-05   -1.0939831205402425e-05   -2.7885009133382237e-05
7.754673477037278e-05   -1.0939831205402425e-05   -2.7885009133382237e-05
7.754673477037278e-05   -1.0939831205402425e-05   -2.7885009133382237e-05
7.754673477037278e-05   -1.0939831205402425e-05   -2.7885009133382237e-05
5.657079476715995e-05   -1.1452502036160377e-05   7.38249337042785e-06
5.657079476715995e-05   -1.1452502036160377e-05   7.38249337042785e-06
5.657079476715995e-05   -1.1452502036160377e-05   7.38249337042785e-06
5.657079476715995e-05   -1.1452502036160377e-05   7.38249337042785e-06
4.256580403046659e-05   -7.84413529455628e-06   5.6607238319330384e-05
4.256580403046659e-05   -7.84413529455628e-06   5.6607238319330384e-05
4.256580403046659e-05   -7.84413529455628e-06   5.6607238319330384e-05
4.256580403046659e-05   -7.84413529455628e-06   5.6607238319330384e-05
4.693434580127395e-06   -3.3699562004304955e-06   -3.828869974759107e-06
4.693434580127395e-06   -3.3699562004304955e-06   -3.828869974759107e-06
4.693434580127395e-06   -3.3699562004304955e-06   -3.828869974759107e-06
4.693434580127395e-06   -3.3699562004304955e-06   -3.828869974759107e-06
3.5748055786735417e-06   -8.320772591870283e-06   5.898340329528462e-05
3.5748055786735417e-06   -8.320772591870283e-06   5.898340329528462e-05
3.5748055786735417e-06   -8.320772591870283e-06   5.898340329528462e-05
3.5748055786735417e-06   -8.320772591870283e-06   5.898340329528462e-05
4.143941113279814e-05   -4.0558830577755445e-06   -6.6832063487129955e-06
4.143941113279814e-05   -4.0558830577755445e-06   -6.6832063487129955e-06
4.143941113279814e-05   -4.0558830577755445e-06   -6.6832063487129955e-06
4.143941113279814e-05   -4.0558830577755445e-06   -6.6832063487129955e-06
2.2847521947508733e-05   -5.483475193636747e-06   2.5159830908285828e-05
2.2847521947508733e-05   -5.483475193636747e-06   2.5159830908285828e-05
2.2847521947508733e-05   -5.483475193636747e-06   2.5159830908285828e-05
2.2847521947508733e-05   -5.483475193636747e-06   2.5159830908285828e-05
4.14394111327981e-05   -8.320772591870283e-06   5.642446957482782e-05
4.14394111327981e-05   -8.320772591870283e-06   5.642446957482782e-05
4.14394111327981e-05   -8.320772591870283e-06   5.642446957482782e-05
4.14394111327981e-05   -8.320772591870283e-06   5.642446957482782e-05
3.5748055786735417e-06   -4.0558830577755445e-06   -4.124272628256657e-06
3.5748055786735417e-06   -4.0558830577755445e-06   -4.124272628256657e-06
3.5748055786735417e-06   -4.0558830577755445e-06   -4.124272628256657e-06
3.5748055786735417e-06   -4.0558830577755445e-06   -4.124272628256657e-06
2.1465034369772895e-06   -8.533881255317222e-06   5.843359496874104e-05
2.1465034369772895e-06   -8.533881255317222e-06   5.843359496874104e-05
2.1465034369772895e-06   -8.533881255317222e-06   5.843359496874104e-05
2.1465034369772895e-06   -8.533881255317222e-06   5.843359496874104e-05
3.998792525685e-05   -4.5065232633840525e-06   -7.051856192874056e-06
3.998792525685e-05   -4.5065232633840525e-06   -7.051856192874056e-06
3.998792525685e-05   -4.5065232633840525e-06   -7.051856192874056e-06
3.998792525685e-05   -4.5065232633840525e-06   -7.051856192874056e-06
2.1429542371312353e-05   -5.743569890956368e-06   2.4621009926233616e-05
2.1429542371312353e-05   -5.743569890956368e-06   2.4621009926233616e-05
2.1429542371312353e-05   -5.743569890956368e-06   2.4621009926233616e-05
2.1429542371312353e-05   -5.743569890956368e-06   2.4621009926233616e-05
3.998792525684993e-05   -8.533881255317222e-06   5.60171801735807e-05
3.998792525684993e-05   -8.533881255317222e-06   5.60171801735807e-05
3.998792525684993e-05   -8.533881255317222e-06   5.60171801735807e-05
3.998792525684993e-05   -8.533881255317222e-06   5.60171801735807e-05
2.1465034369772895e-06   -4.5065232633840525e-06   -4.635441397713748e-06
2.1465034369772895e-06   -4.5065232633840525e-06   -4.635441397713748e-06
2.1465034369772895e-06   -4.5065232633840525e-06   -4.635441397713748e-06
2.1465034369772895e-06   -4.5065232633840525e-06   -4.635441397713748e-06
5.686385189243917e-07   -8.343525818411014e-06   5.9297858532725636e-05
5.686385189243917e-07   -8.343525818411014e-06   5.9297858532725636e-05
5.686385189243917e-07   -8.343525818411014e-06   5.9297858532725636e-05
5.686385189243917e-07   -8.343525818411014e-06   5.9297858532725636e-05
3.846529303658738e-05   -4.700820540110961e-06   -6.048855497025658e-06
3.846529303658738e-05   -4.700820540110961e-06   -6.048855497025658e-06
3.846529303658738e-05   -4.700820540110961e-06   -6.048855497025658e-06
3.846529303658738e-05   -4.700820540110961e-06   -6.048855497025658e-06
2.027305872155596e-05   -5.690296108877037e-06   2.486522036928738e-05
2.027305872155596e-05   -5.690296108877037e-06   2.486522036928738e-05
2.027305872155596e-05   -5.690296108877037e-06   2.486522036928738e-05
2.027305872155596e-05   -5.690296108877037e-06   2.486522036928738e-05
4.693434580127395e-06   -3.3198985320967087e-06   5.7895060256980694e-05
4.693434580127395e-06   -3.3198985320967087e-06   5.7895060256980694e-05
4.693434580127395e-06   -3.3198985320967087e-06   5.7895060256980694e-05
4.693434580127395e-06   -3.3198985320967087e-06   5.7895060256980694e-05
-3.1994034743112635e-05   2.987577847477635e-06   5.337638793248556e-07
-3.1994034743112635e-05   2.987577847477635e-06   5.337638793248556e-07
-3.1994034743112635e-05   2.987577847477635e-06   5.337638793248556e-07
-3.1994034743112635e-05   2.987577847477635e-06   5.337638793248556e-07
-3.3254286627048624e-05   -3.5063122986686047e-06   6.211555865954631e-05
-3.3254286627048624e-05   -3.5063122986686047e-06   6.211555865954631e-05
-3.3254286627048624e-05   -3.5063122986686047e-06   6.211555865954631e-05
-3.3254286627048624e-05   -3.5063122986686047e-06   6.211555865954631e-05
3.5748055786735417e-06   2.461529701945544e-06   -2.8469668836925014e-06
3.5748055786735417e-06   2.461529701945544e-06   -2.8469668836925014e-06
3.5748055786735417e-06   2.461529701945544e-06   -2.8469668836925014e-06
3.5748055786735417e-06   2.461529701945544e-06   -2.8469668836925014e-06
-1.4218768175706129e-05   -6.729521256215731e-08   2.832628432231164e-05
-1.4218768175706129e-05   -6.729521256215731e-08   2.832628432231164e-05
-1.4218768175706129e-05   -6.729521256215731e-08   2.832628432231164e-05
-1.4218768175706129e-05   -6.729521256215731e-08   2.832628432231164e-05
3.5748055786735417e-06   -3.5063122986686047e-06   5.853485345917817e-05
3.5748055786735417e-06   -3.5063122986686047e-06   5.853485345917817e-05
3.5748055786735417e-06   -3.5063122986686047e-06   5.853485345917817e-05
3.5748055786735417e-06   -3.5063122986686047e-06   5.853485345917817e-05
-3.3254286627048624e-05   2.461529701945544e-06   7.337383166759661e-07
-3.3254286627048624e-05   2.461529701945544e-06   7.337383166759661e-07
-3.3254286627048624e-05   2.461529701945544e-06   7.337383166759661e-07
-3.3254286627048624e-05   2.461529701945544e-06   7.337383166759661e-07
-3.4944586092655985e-05   -3.734320461194502e-06   6.336277514837384e-05
-3.4944586092655985e-05   -3.734320461194502e-06   6.336277514837384e-05
-3.4944586092655985e-05   -3.734320461194502e-06   6.336277514837384e-05
-3.4944586092655985e-05   -3.734320461194502e-06   6.336277514837384e-05
2.1465034369772895e-06   1.971830525986009e-06   -1.879397993322855e-06
2.1465034369772895e-06   1.971830525986009e-06   -1.879397993322855e-06
2.1465034369772895e-06   1.971830525986009e-06   -1.879397993322855e-06
2.1465034369772895e-06   1.971830525986009e-06   -1.879397993322855e-06
-1.5462093343537146e-05   -2.1592862075193314e-07   2.8780918795577115e-05
-1.5462093343537146e-05   -2.1592862075193314e-07   2.8780918795577115e-05
-1.5462093343537146e-05   -2.1592862075193314e-07   2.8780918795577115e-05
-1.5462093343537146e-05   -2.1592862075193314e-07   2.8780918795577115e-05
2.1465034369772895e-06   -3.7343204611940684e-06   5.993908455606588e-05
2.1465034369772895e-06   -3.7343204611940684e-06   5.993908455606588e-05
2.1465034369772895e-06   -3.7343204611940684e-06   5.993908455606588e-05
2.1465034369772895e-06   -3.7343204611940684e-06   5.993908455606588e-05
-3.494458609265593e-05   1.971830525986009e-06   1.5442925989854299e-06
-3.494458609265593e-05   1.971830525986009e-06   1.5442925989854299e-06
-3.494458609265593e-05   1.971830525986009e-06   1.5442925989854299e-06
-3.494458609265593e-05   1.971830525986009e-06   1.5442925989854299e-06
-3.67454970527409e-05   -3.7139725473757726e-06   6.485885714097679e-05
-3.67454970527409e-05   -3.7139725473757726e-06   6.485885714097679e-05
-3.67454970527409e-05   -3.7139725473757726e-06   6.485885714097679e-05
-3.67454970527409e-05   -3.7139725473757726e-06   6.485885714097679e-05
5.686385189244188e-07   1.6188421904940985e-06   -5.310576545206557e-07
5.686385189244188e-07   1.6188421904940985e-06   -5.310576545206557e-07
5.686385189244188e-07   1.6188421904940985e-06   -5.310576545206557e-07
5.686385189244188e-07   1.6188421904940985e-06   -5.310576545206557e-07
-1.7047973920751867e-05   -3.2301070333013923e-07   2.9995074814568494e-05
-1.7047973920751867e-05   -3.2301070333013923e-07   2.9995074814568494e-05
-1.7047973920751867e-05   -3.2301070333013923e-07   2.9995074814568494e-05
-1.7047973920751867e-05   -3.2301070333013923e-07   2.9995074814568494e-05
-3.1994034743112554e-05   3.508914851073526e-06   5.230762467476019e-05
-3.1994034743112554e-05   3.508914851073526e-06   5.230762467476019e-05
-3.1994034743112554e-05   3.508914851073526e-06   5.230762467476019e-05
-3.1994034743112554e-05   3.508914851073526e-06   5.230762467476019e-05
-6.792716957107402e-05   9.74226956430499e-06   -3.8409205439032205e-06
-6.792716957107402e-05   9.74226956430499e-06   -3.8409205439032205e-06
-6.792716957107402e-05   9.74226956430499e-06   -3.8409205439032205e-06
-6.792716957107402e-05   9.74226956430499e-06   -3.8409205439032205e-06
-6.976419828922195e-05   3.2938527442134824e-06   5.790832096322276e-05
-6.976419828922195e-05   3.2938527442134824e-06   5.790832096322276e-05
-6.976419828922195e-05   3.2938527442134824e-06   5.790832096322276e-05
-6.976419828922195e-05   3.2938527442134824e-06   5.790832096322276e-05
-3.3254286627048516e-05   9.21431367193479e-06   -6.493808363698943e-06
-3.3254286627048516e-05   9.21431367193479e-06   -6.493808363698943e-06
-3.3254286627048516e-05   9.21431367193479e-06   -6.493808363698943e-06
-3.3254286627048516e-05   9.21431367193479e-06   -6.493808363698943e-06
-5.033373652131042e-05   6.553686274537052e-06   2.356831789850902e-05
-5.033373652131042e-05   6.553686274537052e-06   2.356831789850902e-05
-5.033373652131042e-05   6.553686274537052e-06   2.356831789850902e-05
-5.033373652131042e-05   6.553686274537052e-06   2.356831789850902e-05
-3.325428662704857e-05   3.293852744213916e-06   5.435604440658971e-05
-3.325428662704857e-05   3.293852744213916e-06   5.435604440658971e-05
-3.325428662704857e-05   3.293852744213916e-06   5.435604440658971e-05
-3.325428662704857e-05   3.293852744213916e-06   5.435604440658971e-05
-6.976419828922184e-05   9.214313671934357e-06   -2.941531807066494e-06
-6.976419828922184e-05   9.214313671934357e-06   -2.941531807066494e-06
-6.976419828922184e-05   9.214313671934357e-06   -2.941531807066494e-06
-6.976419828922184e-05   9.214313671934357e-06   -2.941531807066494e-06
-7.201495104134647e-05   2.9012782374123088e-06   6.146078661734087e-05
-7.201495104134647e-05   2.9012782374123088e-06   6.146078661734087e-05
-7.201495104134647e-05   2.9012782374123088e-06   6.146078661734087e-05
-7.201495104134647e-05   2.9012782374123088e-06   6.146078661734087e-05
-3.494458609265593e-05   8.726572518445545e-06   -3.818331532429923e-06
-3.494458609265593e-05   8.726572518445545e-06   -3.818331532429923e-06
-3.494458609265593e-05   8.726572518445545e-06   -3.818331532429923e-06
-3.494458609265593e-05   8.726572518445545e-06   -3.818331532429923e-06
-5.170311717475253e-05   6.430679390202927e-06   2.5490089481343425e-05
-5.170311717475253e-05   6.430679390202927e-06   2.5490089481343425e-05
-5.170311717475253e-05   6.430679390202927e-06   2.5490089481343425e-05
-5.170311717475253e-05   6.430679390202927e-06   2.5490089481343425e-05
-3.49445860926559e-05   2.9012782374123088e-06   5.796561004872084e-05
-3.49445860926559e-05   2.9012782374123088e-06   5.796561004872084e-05
-3.49445860926559e-05   2.9012782374123088e-06   5.796561004872084e-05
-3.49445860926559e-05   2.9012782374123088e-06   5.796561004872084e-05
-7.201495104134647e-05   8.726572518445545e-06   -3.2315496381000314e-07
-7.201495104134647e-05   8.726572518445545e-06   -3.2315496381000314e-07
-7.201495104134647e-05   8.726572518445545e-06   -3.2315496381000314e-07
-7.201495104134647e-05   8.726572518445545e-06   -3.2315496381000314e-07
-7.439703649375539e-05   2.457298296362851e-06   6.429368839438489e-05
-7.439703649375539e-05   2.457298296362851e-06   6.429368839438489e-05
-7.439703649375539e-05   2.457298296362851e-06   6.429368839438489e-05
-7.439703649375539e-05   2.457298296362851e-06   6.429368839438489e-05
-3.6745497052740765e-05   8.07151205031503e-06   -1.8274055930107098e-06
-3.6745497052740765e-05   8.07151205031503e-06   -1.8274055930107098e-06
-3.6745497052740765e-05   8.07151205031503e-06   -1.8274055930107098e-06
-3.6745497052740765e-05   8.07151205031503e-06   -1.8274055930107098e-06
-5.398024797586861e-05   6.034455451228195e-06   2.811941323832296e-05
-5.398024797586861e-05   6.034455451228195e-06   2.811941323832296e-05
-5.398024797586861e-05   6.034455451228195e-06   2.811941323832296e-05
-5.398024797586861e-05   6.034455451228195e-06   2.811941323832296e-05
-6.792716957107402e-05   1.6080030360109306e-05   2.754299576957224e-05
-6.792716957107402e-05   1.6080030360109306e-05   2.754299576957224e-05
-6.792716957107402e-05   1.6080030360109306e-05   2.754299576957224e-05
-6.792716957107402e-05   1.6080030360109306e-05   2.754299576957224e-05
-0.00010233009586671152   1.5844063361475022e-05   -2.9936794922337095e-05
-0.00010233009586671152   1.5844063361475022e-05   -2.9936794922337095e-05
-0.00010233009586671152   1.5844063361475022e-05   -2.9936794922337095e-05
-0.00010233009586671152   1.5844063361475022e-05   -2.9936794922337095e-05
-0.0001056268762697093   1.5513134523409758e-05   4.077548186297341e-05
-0.0001056268762697093   1.5513134523409758e-05   4.077548186297341e-05
-0.0001056268762697093   1.5513134523409758e-05   4.077548186297341e-05
-0.0001056268762697093   1.5513134523409758e-05   4.077548186297341e-05
-6.976419828922184e-05   1.614528381206886e-05   -1.9374937677701335e-05
-6.976419828922184e-05   1.614528381206886e-05   -1.9374937677701335e-05
-6.976419828922184e-05   1.614528381206886e-05   -1.9374937677701335e-05
-6.976419828922184e-05   1.614528381206886e-05   -1.9374937677701335e-05
-8.293388900763014e-05   1.61482822063669e-05   2.5727478164003312e-06
-8.293388900763014e-05   1.61482822063669e-05   2.5727478164003312e-06
-8.293388900763014e-05   1.61482822063669e-05   2.5727478164003312e-06
-8.293388900763014e-05   1.61482822063669e-05   2.5727478164003312e-06
-6.976419828922178e-05   1.5513134523409758e-05   4.0396192289778336e-05
-6.976419828922178e-05   1.5513134523409758e-05   4.0396192289778336e-05
-6.976419828922178e-05   1.5513134523409758e-05   4.0396192289778336e-05
-6.976419828922178e-05   1.5513134523409758e-05   4.0396192289778336e-05
-0.0001056268762697093   1.6145283812068426e-05   -1.8995648104505776e-05
-0.0001056268762697093   1.6145283812068426e-05   -1.8995648104505776e-05
-0.0001056268762697093   1.6145283812068426e-05   -1.8995648104505776e-05
-0.0001056268762697093   1.6145283812068426e-05   -1.8995648104505776e-05
-0.00010885992732830697   1.5112825881792493e-05   5.007077115192372e-05
-0.00010885992732830697   1.5112825881792493e-05   5.007077115192372e-05
-0.00010885992732830697   1.5112825881792493e-05   5.007077115192372e-05
-0.00010885992732830697   1.5112825881792493e-05   5.007077115192372e-05
-7.201495104134636e-05   1.602807618722923e-05   -1.1886672842939961e-05
-7.201495104134636e-05   1.602807618722923e-05   -1.1886672842939961e-05
-7.201495104134636e-05   1.602807618722923e-05   -1.1886672842939961e-05
-7.201495104134636e-05   1.602807618722923e-05   -1.1886672842939961e-05
-8.670867224188981e-05   1.6143488790848655e-05   1.253361492912857e-05
-8.670867224188981e-05   1.6143488790848655e-05   1.253361492912857e-05
-8.670867224188981e-05   1.6143488790848655e-05   1.253361492912857e-05
-8.670867224188981e-05   1.6143488790848655e-05   1.253361492912857e-05
-7.201495104134636e-05   1.5112825881792493e-05   4.952162096866176e-05
-7.201495104134636e-05   1.5112825881792493e-05   4.952162096866176e-05
-7.201495104134636e-05   1.5112825881792493e-05   4.952162096866176e-05
-7.201495104134636e-05   1.5112825881792493e-05   4.952162096866176e-05
-0.00010885992732830697   1.602807618722923e-05   -1.1337522659677626e-05
-0.00010885992732830697   1.602807618722923e-05   -1.1337522659677626e-05
-0.00010885992732830697   1.602807618722923e-05   -1.1337522659677626e-05
-0.00010885992732830697   1.602807618722923e-05   -1.1337522659677626e-05
-0.00011267237781987827   1.25751803740368e-05   6.560441370627532e-05
-0.00011267237781987827   1.25751803740368e-05   6.560441370627532e-05
-0.00011267237781987827   1.25751803740368e-05   6.560441370627532e-05
-0.00011267237781987827   1.25751803740368e-05   6.560441370627532e-05
-7.439703649375515e-05   1.4752219159210999e-05   5.059548916322735e-07
-7.439703649375515e-05   1.4752219159210999e-05   5.059548916322735e-07
-7.439703649375515e-05   1.4752219159210999e-05   5.059548916322735e-07
-7.439703649375515e-05   1.4752219159210999e-05   5.059548916322735e-07
-8.807000080643602e-05   1.537504256432596e-05   2.2920534703032127e-05
-8.807000080643602e-05   1.537504256432596e-05   2.2920534703032127e-05
-8.807000080643602e-05   1.537504256432596e-05   2.2920534703032127e-05
-8.807000080643602e-05   1.537504256432596e-05   2.2920534703032127e-05
6.81813491589164e-05   -9.541044749456808e-06   5.266045297725201e-05
6.81813491589164e-05   -9.541044749456808e-06   5.266045297725201e-05
6.81813491589164e-05   -9.541044749456808e-06   5.266045297725201e-05
6.81813491589164e-05   -9.541044749456808e-06   5.266045297725201e-05
3.3765202641241473e-05   -6.987455165021524e-06   -3.167637468211998e-06
3.3765202641241473e-05   -6.987455165021524e-06   -3.167637468211998e-06
3.3765202641241473e-05   -6.987455165021524e-06   -3.167637468211998e-06
3.3765202641241473e-05   -6.987455165021524e-06   -3.167637468211998e-06
3.2467860832766614e-05   -1.0816335868656969e-05   4.5800598770331415e-05
3.2467860832766614e-05   -1.0816335868656969e-05   4.5800598770331415e-05
3.2467860832766614e-05   -1.0816335868656969e-05   4.5800598770331415e-05
3.2467860832766614e-05   -1.0816335868656969e-05   4.5800598770331415e-05
6.579495651006022e-05   -8.109821974572242e-06   -1.1368469028275085e-05
6.579495651006022e-05   -8.109821974572242e-06   -1.1368469028275085e-05
6.579495651006022e-05   -8.109821974572242e-06   -1.1368469028275085e-05
6.579495651006022e-05   -8.109821974572242e-06   -1.1368469028275085e-05
4.7760649431125254e-05   -8.773136690611635e-06   1.908669826624005e-05
4.7760649431125254e-05   -8.773136690611635e-06   1.908669826624005e-05
4.7760649431125254e-05   -8.773136690611635e-06   1.908669826624005e-05
4.7760649431125254e-05   -8.773136690611635e-06   1.908669826624005e-05
6.579495651006011e-05   -1.0816335868656969e-05   4.4176690433880795e-05
6.579495651006011e-05   -1.0816335868656969e-05   4.4176690433880795e-05
6.579495651006011e-05   -1.0816335868656969e-05   4.4176690433880795e-05
6.579495651006011e-05   -1.0816335868656969e-05   4.4176690433880795e-05
3.2467860832766736e-05   -8.109821974572242e-06   -9.744560691824248e-06
3.2467860832766736e-05   -8.109821974572242e-06   -9.744560691824248e-06
3.2467860832766736e-05   -8.109821974572242e-06   -9.744560691824248e-06
3.2467860832766736e-05   -8.109821974572242e-06   -9.744560691824248e-06
3.102653703595612e-05   -1.10065483609487e-05   4.105041457913724e-05
3.102653703595612e-05   -1.10065483609487e-05   4.105041457913724e-05
3.102653703595612e-05   -1.10065483609487e-05   4.105041457913724e-05
3.102653703595612e-05   -1.10065483609487e-05   4.105041457913724e-05
6.363456747310515e-05   -8.335757976675288e-06   -1.4898777046674854e-05
6.363456747310515e-05   -8.335757976675288e-06   -1.4898777046674854e-05
6.363456747310515e-05   -8.335757976675288e-06   -1.4898777046674854e-05
6.363456747310515e-05   -8.335757976675288e-06   -1.4898777046674854e-05
4.685958748748793e-05   -9.20789620064387e-06   1.3582805863734948e-05
4.685958748748793e-05   -9.20789620064387e-06   1.3582805863734948e-05
4.685958748748793e-05   -9.20789620064387e-06   1.3582805863734948e-05
4.685958748748793e-05   -9.20789620064387e-06   1.3582805863734948e-05
6.363456747310493e-05   -1.10065483609487e-05   3.9447940348573494e-05
6.363456747310493e-05   -1.10065483609487e-05   3.9447940348573494e-05
6.363456747310493e-05   -1.10065483609487e-05   3.9447940348573494e-05
6.363456747310493e-05   -1.10065483609487e-05   3.9447940348573494e-05
3.102653703595619e-05   -8.335757976675288e-06   -1.3296302816110826e-05
3.102653703595619e-05   -8.335757976675288e-06   -1.3296302816110826e-05
3.102653703595619e-05   -8.335757976675288e-06   -1.3296302816110826e-05
3.102653703595619e-05   -8.335757976675288e-06   -1.3296302816110826e-05
2.964052426388802e-05   -1.0939831205402425e-05   3.443010052718771e-05
2.964052426388802e-05   -1.0939831205402425e-05   3.443010052718771e-05
2.964052426388802e-05   -1.0939831205402425e-05   3.443010052718771e-05
2.964052426388802e-05   -1.0939831205402425e-05   3.443010052718771e-05
6.11882795960619e-05   -8.429415933469426e-06   -1.9655740856262095e-05
6.11882795960619e-05   -8.429415933469426e-06   -1.9655740856262095e-05
6.11882795960619e-05   -8.429415933469426e-06   -1.9655740856262095e-05
6.11882795960619e-05   -8.429415933469426e-06   -1.9655740856262095e-05
4.444101062204505e-05   -9.053236171963248e-06   8.630666243530103e-06
4.444101062204505e-05   -9.053236171963248e-06   8.630666243530103e-06
4.444101062204505e-05   -9.053236171963248e-06   8.630666243530103e-06
4.444101062204505e-05   -9.053236171963248e-06   8.630666243530103e-06
3.3765202641241473e-05   -3.3699562004300618e-06   5.531416449389018e-05
3.3765202641241473e-05   -3.3699562004300618e-06   5.531416449389018e-05
3.3765202641241473e-05   -3.3699562004300618e-06   5.531416449389018e-05
3.3765202641241473e-05   -3.3699562004300618e-06   5.531416449389018e-05
1.4609000819862416e-06   -1.3355629506907156e-06   2.694296178308358e-06
1.4609000819862416e-06   -1.3355629506907156e-06   2.694296178308358e-06
1.4609000819862416e-06   -1.3355629506907156e-06   2.694296178308358e-06
1.4609000819862416e-06   -1.3355629506907156e-06   2.694296178308358e-06
2.1577539748081245e-07   -4.0558830577755445e-06   5.58933320005295e-05
2.1577539748081245e-07   -4.0558830577755445e-06   5.58933320005295e-05
2.1577539748081245e-07   -4.0558830577755445e-06   5.58933320005295e-05
2.1577539748081245e-07   -4.0558830577755445e-06   5.58933320005295e-05
3.2467860832766736e-05   -2.1320053716421088e-06   9.855296633731162e-07
3.2467860832766736e-05   -2.1320053716421088e-06   9.855296633731162e-07
3.2467860832766736e-05   -2.1320053716421088e-06   9.855296633731162e-07
3.2467860832766736e-05   -2.1320053716421088e-06   9.855296633731162e-07
1.6771588110407107e-05   -2.622221959808907e-06   2.7440114153539047e-05
1.6771588110407107e-05   -2.622221959808907e-06   2.7440114153539047e-05
1.6771588110407107e-05   -2.622221959808907e-06   2.7440114153539047e-05
1.6771588110407107e-05   -2.622221959808907e-06   2.7440114153539047e-05
3.246786083276671e-05   -4.0558830577755445e-06   5.473900538884957e-05
3.246786083276671e-05   -4.0558830577755445e-06   5.473900538884957e-05
3.246786083276671e-05   -4.0558830577755445e-06   5.473900538884957e-05
3.246786083276671e-05   -4.0558830577755445e-06   5.473900538884957e-05
2.1577539748081245e-07   -2.1320053716421088e-06   2.13985627505321e-06
2.1577539748081245e-07   -2.1320053716421088e-06   2.13985627505321e-06
2.1577539748081245e-07   -2.1320053716421088e-06   2.13985627505321e-06
2.1577539748081245e-07   -2.1320053716421088e-06   2.13985627505321e-06
-1.0784313053688397e-06   -4.5065232633840525e-06   5.50558969359188e-05
-1.0784313053688397e-06   -4.5065232633840525e-06   5.50558969359188e-05
-1.0784313053688397e-06   -4.5065232633840525e-06   5.50558969359188e-05
-1.0784313053688397e-06   -4.5065232633840525e-06   5.50558969359188e-05
3.102653703595619e-05   -2.724376138893425e-06   4.783280923491783e-07
3.102653703595619e-05   -2.724376138893425e-06   4.783280923491783e-07
3.102653703595619e-05   -2.724376138893425e-06   4.783280923491783e-07
3.102653703595619e-05   -2.724376138893425e-06   4.783280923491783e-07
1.5342891717249502e-05   -3.0398406312181006e-06   2.680701565225597e-05
1.5342891717249502e-05   -3.0398406312181006e-06   2.680701565225597e-05
1.5342891717249502e-05   -3.0398406312181006e-06   2.680701565225597e-05
1.5342891717249502e-05   -3.0398406312181006e-06   2.680701565225597e-05
3.102653703595612e-05   -4.5065232633840525e-06   5.398660866122451e-05
3.102653703595612e-05   -4.5065232633840525e-06   5.398660866122451e-05
3.102653703595612e-05   -4.5065232633840525e-06   5.398660866122451e-05
3.102653703595612e-05   -4.5065232633840525e-06   5.398660866122451e-05
-1.0784313053688397e-06   -2.724376138893425e-06   1.547616367043739e-06
-1.0784313053688397e-06   -2.724376138893425e-06   1.547616367043739e-06
-1.0784313053688397e-06   -2.724376138893425e-06   1.547616367043739e-06
-1.0784313053688397e-06   -2.724376138893425e-06   1.547616367043739e-06
-2.425783065056013e-06   -4.700820540110961e-06   5.5483574172740004e-05
-2.425783065056013e-06   -4.700820540110961e-06   5.5483574172740004e-05
-2.425783065056013e-06   -4.700820540110961e-06   5.5483574172740004e-05
-2.425783065056013e-06   -4.700820540110961e-06   5.5483574172740004e-05
2.9640524263888088e-05   -3.192553107808204e-06   1.1347681651181096e-06
2.9640524263888088e-05   -3.192553107808204e-06   1.1347681651181096e-06
2.9640524263888088e-05   -3.192553107808204e-06   1.1347681651181096e-06
2.9640524263888088e-05   -3.192553107808204e-06   1.1347681651181096e-06
1.4267537470223625e-05   -3.264979766520737e-06   2.6799868816454095e-05
1.4267537470223625e-05   -3.264979766520737e-06   2.6799868816454095e-05
1.4267537470223625e-05   -3.264979766520737e-06   2.6799868816454095e-05
1.4267537470223625e-05   -3.264979766520737e-06   2.6799868816454095e-05
1.4609000819862416e-06   2.987577847477201e-06   5.711294847007332e-05
1.4609000819862416e-06   2.987577847477201e-06   5.711294847007332e-05
1.4609000819862416e-06   2.987577847477201e-06   5.711294847007332e-05
1.4609000819862416e-06   2.987577847477201e-06   5.711294847007332e-05
-2.989787355471633e-05   4.342447513125142e-06   5.661247541624255e-06
-2.989787355471633e-05   4.342447513125142e-06   5.661247541624255e-06
-2.989787355471633e-05   4.342447513125142e-06   5.661247541624255e-06
-2.989787355471633e-05   4.342447513125142e-06   5.661247541624255e-06
-3.119866873969629e-05   2.46152970194511e-06   5.7901037260991994e-05
-3.119866873969629e-05   2.46152970194511e-06   5.7901037260991994e-05
-3.119866873969629e-05   2.46152970194511e-06   5.7901037260991994e-05
-3.119866873969629e-05   2.46152970194511e-06   5.7901037260991994e-05
2.1577539748081245e-07   3.678862228441871e-06   4.813230849798637e-06
2.1577539748081245e-07   3.678862228441871e-06   4.813230849798637e-06
2.1577539748081245e-07   3.678862228441871e-06   4.813230849798637e-06
2.1577539748081245e-07   3.678862228441871e-06   4.813230849798637e-06
-1.4878037922341634e-05   3.406721082383976e-06   3.0132871070470842e-05
-1.4878037922341634e-05   3.406721082383976e-06   3.0132871070470842e-05
-1.4878037922341634e-05   3.406721082383976e-06   3.0132871070470842e-05
-1.4878037922341634e-05   3.406721082383976e-06   3.0132871070470842e-05
2.1577539748081245e-07   2.46152970194511e-06   5.717063774509398e-05
2.1577539748081245e-07   2.46152970194511e-06   5.717063774509398e-05
2.1577539748081245e-07   2.46152970194511e-06   5.717063774509398e-05
2.1577539748081245e-07   2.46152970194511e-06   5.717063774509398e-05
-3.119866873969629e-05   3.678862228441871e-06   5.5436303656969214e-06
-3.119866873969629e-05   3.678862228441871e-06   5.5436303656969214e-06
-3.119866873969629e-05   3.678862228441871e-06   5.5436303656969214e-06
-3.119866873969629e-05   3.678862228441871e-06   5.5436303656969214e-06
-3.257249598496184e-05   1.971830525986009e-06   5.844953194924195e-05
-3.257249598496184e-05   1.971830525986009e-06   5.844953194924195e-05
-3.257249598496184e-05   1.971830525986009e-06   5.844953194924195e-05
-3.257249598496184e-05   1.971830525986009e-06   5.844953194924195e-05
-1.0784313053688397e-06   3.034483207540236e-06   5.3218325409875645e-06
-1.0784313053688397e-06   3.034483207540236e-06   5.3218325409875645e-06
-1.0784313053688397e-06   3.034483207540236e-06   5.3218325409875645e-06
-1.0784313053688397e-06   3.034483207540236e-06   5.3218325409875645e-06
-1.608656204224202e-05   3.0274301410374363e-06   3.0339615609011462e-05
-1.608656204224202e-05   3.0274301410374363e-06   3.0339615609011462e-05
-1.608656204224202e-05   3.0274301410374363e-06   3.0339615609011462e-05
-1.608656204224202e-05   3.0274301410374363e-06   3.0339615609011462e-05
-1.0784313053688397e-06   1.9718305259864427e-06   5.7811940340309585e-05
-1.0784313053688397e-06   1.9718305259864427e-06   5.7811940340309585e-05
-1.0784313053688397e-06   1.9718305259864427e-06   5.7811940340309585e-05
-1.0784313053688397e-06   1.9718305259864427e-06   5.7811940340309585e-05
-3.2572495984961895e-05   3.034483207540236e-06   5.9594241499205235e-06
-3.2572495984961895e-05   3.034483207540236e-06   5.9594241499205235e-06
-3.2572495984961895e-05   3.034483207540236e-06   5.9594241499205235e-06
-3.2572495984961895e-05   3.034483207540236e-06   5.9594241499205235e-06
-3.3990296447830495e-05   1.6188421904940985e-06   5.9320956992480346e-05
-3.3990296447830495e-05   1.6188421904940985e-06   5.9320956992480346e-05
-3.3990296447830495e-05   1.6188421904940985e-06   5.9320956992480346e-05
-3.3990296447830495e-05   1.6188421904940985e-06   5.9320956992480346e-05
-2.425783065055986e-06   2.460855764186646e-06   6.208226543641003e-06
-2.425783065055986e-06   2.460855764186646e-06   6.208226543641003e-06
-2.425783065055986e-06   2.460855764186646e-06   6.208226543641003e-06
-2.425783065055986e-06   2.460855764186646e-06   6.208226543641003e-06
-1.7394364010485806e-05   2.6639617180680003e-06   3.103399788036273e-05
-1.7394364010485806e-05   2.6639617180680003e-06   3.103399788036273e-05
-1.7394364010485806e-05   2.6639617180680003e-06   3.103399788036273e-05
-1.7394364010485806e-05   2.6639617180680003e-06   3.103399788036273e-05
-2.989787355471644e-05   9.742269564304556e-06   4.981117301829487e-05
-2.989787355471644e-05   9.742269564304556e-06   4.981117301829487e-05
-2.989787355471644e-05   9.742269564304556e-06   4.981117301829487e-05
-2.989787355471644e-05   9.742269564304556e-06   4.981117301829487e-05
-6.026033538058135e-05   9.865372813231636e-06   -7.190680754571004e-07
-6.026033538058135e-05   9.865372813231636e-06   -7.190680754571004e-07
-6.026033538058135e-05   9.865372813231636e-06   -7.190680754571004e-07
-6.026033538058135e-05   9.865372813231636e-06   -7.190680754571004e-07
-6.177058126121391e-05   9.214313671934357e-06   5.068346315795702e-05
-6.177058126121391e-05   9.214313671934357e-06   5.068346315795702e-05
-6.177058126121391e-05   9.214313671934357e-06   5.068346315795702e-05
-6.177058126121391e-05   9.214313671934357e-06   5.068346315795702e-05
-3.1198668739696345e-05   9.230934634167631e-06   -2.796969552457964e-07
-3.1198668739696345e-05   9.230934634167631e-06   -2.796969552457964e-07
-3.1198668739696345e-05   9.230934634167631e-06   -2.796969552457964e-07
-3.1198668739696345e-05   9.230934634167631e-06   -2.796969552457964e-07
-4.5577235830214136e-05   9.491334574084943e-06   2.3528341565000224e-05
-4.5577235830214136e-05   9.491334574084943e-06   2.3528341565000224e-05
-4.5577235830214136e-05   9.491334574084943e-06   2.3528341565000224e-05
-4.5577235830214136e-05   9.491334574084943e-06   2.3528341565000224e-05
-3.1198668739696345e-05   9.214313671934357e-06   5.067349058061714e-05
-3.1198668739696345e-05   9.214313671934357e-06   5.067349058061714e-05
-3.1198668739696345e-05   9.214313671934357e-06   5.067349058061714e-05
-3.1198668739696345e-05   9.214313671934357e-06   5.067349058061714e-05
-6.17705812612138e-05   9.230934634167631e-06   -2.69724377905756e-07
-6.17705812612138e-05   9.230934634167631e-06   -2.69724377905756e-07
-6.17705812612138e-05   9.230934634167631e-06   -2.69724377905756e-07
-6.17705812612138e-05   9.230934634167631e-06   -2.69724377905756e-07
-6.344482625078108e-05   8.726572518445545e-06   5.303899126675275e-05
-6.344482625078108e-05   8.726572518445545e-06   5.303899126675275e-05
-6.344482625078108e-05   8.726572518445545e-06   5.303899126675275e-05
-6.344482625078108e-05   8.726572518445545e-06   5.303899126675275e-05
-3.2572495984961895e-05   8.646711599989178e-06   1.6330240414615463e-06
-3.2572495984961895e-05   8.646711599989178e-06   1.6330240414615463e-06
-3.2572495984961895e-05   8.646711599989178e-06   1.6330240414615463e-06
-3.2572495984961895e-05   8.646711599989178e-06   1.6330240414615463e-06
-4.6670472479052273e-05   9.132596399785697e-06   2.483812065173438e-05
-4.6670472479052273e-05   9.132596399785697e-06   2.483812065173438e-05
-4.6670472479052273e-05   9.132596399785697e-06   2.483812065173438e-05
-4.6670472479052273e-05   9.132596399785697e-06   2.483812065173438e-05
-3.257249598496184e-05   8.726572518445545e-06   5.308690781782692e-05
-3.257249598496184e-05   8.726572518445545e-06   5.308690781782692e-05
-3.257249598496184e-05   8.726572518445545e-06   5.308690781782692e-05
-3.257249598496184e-05   8.726572518445545e-06   5.308690781782692e-05
-6.344482625078097e-05   8.646711599989611e-06   1.5851074903878125e-06
-6.344482625078097e-05   8.646711599989611e-06   1.5851074903878125e-06
-6.344482625078097e-05   8.646711599989611e-06   1.5851074903878125e-06
-6.344482625078097e-05   8.646711599989611e-06   1.5851074903878125e-06
-6.504070271990808e-05   8.07151205031503e-06   5.4742314724465224e-05
-6.504070271990808e-05   8.07151205031503e-06   5.4742314724465224e-05
-6.504070271990808e-05   8.07151205031503e-06   5.4742314724465224e-05
-6.504070271990808e-05   8.07151205031503e-06   5.4742314724465224e-05
-3.3990296447830576e-05   7.9338362389751e-06   3.074243091139711e-06
-3.3990296447830576e-05   7.9338362389751e-06   3.074243091139711e-06
-3.3990296447830576e-05   7.9338362389751e-06   3.074243091139711e-06
-3.3990296447830576e-05   7.9338362389751e-06   3.074243091139711e-06
-4.840662328125988e-05   8.667503397760505e-06   2.6661254184919187e-05
-4.840662328125988e-05   8.667503397760505e-06   2.6661254184919187e-05
-4.840662328125988e-05   8.667503397760505e-06   2.6661254184919187e-05
-4.840662328125988e-05   8.667503397760505e-06   2.6661254184919187e-05
-6.026033538058124e-05   1.5844063361475456e-05   2.3930740788397336e-05
-6.026033538058124e-05   1.5844063361475456e-05   2.3930740788397336e-05
-6.026033538058124e-05   1.5844063361475456e-05   2.3930740788397336e-05
-6.026033538058124e-05   1.5844063361475456e-05   2.3930740788397336e-05
-8.909544045653233e-05   1.41961124954142e-05   -2.5116538191157813e-05
-8.909544045653233e-05   1.41961124954142e-05   -2.5116538191157813e-05
-8.909544045653233e-05   1.41961124954142e-05   -2.5116538191157813e-05
-8.909544045653233e-05   1.41961124954142e-05   -2.5116538191157813e-05
-9.147355330080378e-05   1.6145283812068426e-05   3.31694049281097e-05
-9.147355330080378e-05   1.6145283812068426e-05   3.31694049281097e-05
-9.147355330080378e-05   1.6145283812068426e-05   3.31694049281097e-05
-9.147355330080378e-05   1.6145283812068426e-05   3.31694049281097e-05
-6.177058126121391e-05   1.4344196546715437e-05   -1.5254896111994857e-05
-6.177058126121391e-05   1.4344196546715437e-05   -1.5254896111994857e-05
-6.177058126121391e-05   1.4344196546715437e-05   -1.5254896111994857e-05
-6.177058126121391e-05   1.4344196546715437e-05   -1.5254896111994857e-05
-7.275368627035597e-05   1.504562128559761e-05   2.6294240599128134e-06
-7.275368627035597e-05   1.504562128559761e-05   2.6294240599128134e-06
-7.275368627035597e-05   1.504562128559761e-05   2.6294240599128134e-06
-7.275368627035597e-05   1.504562128559761e-05   2.6294240599128134e-06
-6.177058126121375e-05   1.614528381206886e-05   3.4250057287322014e-05
-6.177058126121375e-05   1.614528381206886e-05   3.4250057287322014e-05
-6.177058126121375e-05   1.614528381206886e-05   3.4250057287322014e-05
-6.177058126121375e-05   1.614528381206886e-05   3.4250057287322014e-05
-9.147355330080411e-05   1.4344196546715437e-05   -1.6335548471206737e-05
-9.147355330080411e-05   1.4344196546715437e-05   -1.6335548471206737e-05
-9.147355330080411e-05   1.4344196546715437e-05   -1.6335548471206737e-05
-9.147355330080411e-05   1.4344196546715437e-05   -1.6335548471206737e-05
-9.379627553802642e-05   1.602807618722923e-05   4.037000189378078e-05
-9.379627553802642e-05   1.602807618722923e-05   4.037000189378078e-05
-9.379627553802642e-05   1.602807618722923e-05   4.037000189378078e-05
-9.379627553802642e-05   1.602807618722923e-05   4.037000189378078e-05
-6.344482625078108e-05   1.4185623697492416e-05   -9.11027542445245e-06
-6.344482625078108e-05   1.4185623697492416e-05   -9.11027542445245e-06
-6.344482625078108e-05   1.4185623697492416e-05   -9.11027542445245e-06
-6.344482625078108e-05   1.4185623697492416e-05   -9.11027542445245e-06
-7.567118698598204e-05   1.5319296578259964e-05   1.058678873908992e-05
-7.567118698598204e-05   1.5319296578259964e-05   1.058678873908992e-05
-7.567118698598204e-05   1.5319296578259964e-05   1.058678873908992e-05
-7.567118698598204e-05   1.5319296578259964e-05   1.058678873908992e-05
-6.344482625078108e-05   1.602807618722923e-05   4.147547338762361e-05
-6.344482625078108e-05   1.602807618722923e-05   4.147547338762361e-05
-6.344482625078108e-05   1.602807618722923e-05   4.147547338762361e-05
-6.344482625078108e-05   1.602807618722923e-05   4.147547338762361e-05
-9.379627553802674e-05   1.4185623697492416e-05   -1.0215746918294842e-05
-9.379627553802674e-05   1.4185623697492416e-05   -1.0215746918294842e-05
-9.379627553802674e-05   1.4185623697492416e-05   -1.0215746918294842e-05
-9.379627553802674e-05   1.4185623697492416e-05   -1.0215746918294842e-05
-9.650955680966602e-05   1.4752219159210999e-05   5.2709830982452296e-05
-9.650955680966602e-05   1.4752219159210999e-05   5.2709830982452296e-05
-9.650955680966602e-05   1.4752219159210999e-05   5.2709830982452296e-05
-9.650955680966602e-05   1.4752219159210999e-05   5.2709830982452296e-05
-6.504070271990808e-05   1.3090025868738031e-05   1.2590568071390532e-06
-6.504070271990808e-05   1.3090025868738031e-05   1.2590568071390532e-06
-6.504070271990808e-05   1.3090025868738031e-05   1.2590568071390532e-06
-6.504070271990808e-05   1.3090025868738031e-05   1.2590568071390532e-06
-7.641871042562824e-05   1.4867442600592033e-05   1.9155952944228277e-05
-7.641871042562824e-05   1.4867442600592033e-05   1.9155952944228277e-05
-7.641871042562824e-05   1.4867442600592033e-05   1.9155952944228277e-05
-7.641871042562824e-05   1.4867442600592033e-05   1.9155952944228277e-05
5.1700408022575494e-05   -6.987455165021524e-06   4.3925020624900656e-05
5.1700408022575494e-05   -6.987455165021524e-06   4.3925020624900656e-05
5.1700408022575494e-05   -6.987455165021524e-06   4.3925020624900656e-05
5.1700408022575494e-05   -6.987455165021524e-06   4.3925020624900656e-05
2.4344592712868223e-05   -4.610560420567969e-06   -2.418680446058131e-07
2.4344592712868223e-05   -4.610560420567969e-06   -2.418680446058131e-07
2.4344592712868223e-05   -4.610560420567969e-06   -2.418680446058131e-07
2.4344592712868223e-05   -4.610560420567969e-06   -2.418680446058131e-07
2.3186401386655634e-05   -8.109821974572242e-06   3.8601528097103027e-05
2.3186401386655634e-05   -8.109821974572242e-06   3.8601528097103027e-05
2.3186401386655634e-05   -8.109821974572242e-06   3.8601528097103027e-05
2.3186401386655634e-05   -8.109821974572242e-06   3.8601528097103027e-05
4.945997847875227e-05   -5.598690310741183e-06   -6.694446054690201e-06
4.945997847875227e-05   -5.598690310741183e-06   -6.694446054690201e-06
4.945997847875227e-05   -5.598690310741183e-06   -6.694446054690201e-06
4.945997847875227e-05   -5.598690310741183e-06   -6.694446054690201e-06
3.542397456009007e-05   -6.375354163723826e-06   1.716489212153665e-05
3.542397456009007e-05   -6.375354163723826e-06   1.716489212153665e-05
3.542397456009007e-05   -6.375354163723826e-06   1.716489212153665e-05
3.542397456009007e-05   -6.375354163723826e-06   1.716489212153665e-05
4.945997847875227e-05   -8.109821974572242e-06   3.709484909880439e-05
4.945997847875227e-05   -8.109821974572242e-06   3.709484909880439e-05
4.945997847875227e-05   -8.109821974572242e-06   3.709484909880439e-05
4.945997847875227e-05   -8.109821974572242e-06   3.709484909880439e-05
2.3186401386655668e-05   -5.598690310741183e-06   -5.187767056391308e-06
2.3186401386655668e-05   -5.598690310741183e-06   -5.187767056391308e-06
2.3186401386655668e-05   -5.598690310741183e-06   -5.187767056391308e-06
2.3186401386655668e-05   -5.598690310741183e-06   -5.187767056391308e-06
2.1908471710905574e-05   -8.335757976675288e-06   3.4858867025100394e-05
2.1908471710905574e-05   -8.335757976675288e-06   3.4858867025100394e-05
2.1908471710905574e-05   -8.335757976675288e-06   3.4858867025100394e-05
2.1908471710905574e-05   -8.335757976675288e-06   3.4858867025100394e-05
4.749702633571669e-05   -5.86307611723973e-06   -9.272333131912615e-06
4.749702633571669e-05   -5.86307611723973e-06   -9.272333131912615e-06
4.749702633571669e-05   -5.86307611723973e-06   -9.272333131912615e-06
4.749702633571669e-05   -5.86307611723973e-06   -9.272333131912615e-06
3.449259842938095e-05   -6.776034299686793e-06   1.2949488288115942e-05
3.449259842938095e-05   -6.776034299686793e-06   1.2949488288115942e-05
3.449259842938095e-05   -6.776034299686793e-06   1.2949488288115942e-05
3.449259842938095e-05   -6.776034299686793e-06   1.2949488288115942e-05
4.74970263357166e-05   -8.335757976675288e-06   3.337525790943923e-05
4.74970263357166e-05   -8.335757976675288e-06   3.337525790943923e-05
4.74970263357166e-05   -8.335757976675288e-06   3.337525790943923e-05
4.74970263357166e-05   -8.335757976675288e-06   3.337525790943923e-05
2.1908471710905614e-05   -5.86307611723973e-06   -7.788724016251358e-06
2.1908471710905614e-05   -5.86307611723973e-06   -7.788724016251358e-06
2.1908471710905614e-05   -5.86307611723973e-06   -7.788724016251358e-06
2.1908471710905614e-05   -5.86307611723973e-06   -7.788724016251358e-06
2.0728718877923676e-05   -8.429415933469426e-06   2.9793832530255202e-05
2.0728718877923676e-05   -8.429415933469426e-06   2.9793832530255202e-05
2.0728718877923676e-05   -8.429415933469426e-06   2.9793832530255202e-05
2.0728718877923676e-05   -8.429415933469426e-06   2.9793832530255202e-05
4.530462948392481e-05   -6.112052422507265e-06   -1.2556436586323727e-05
4.530462948392481e-05   -6.112052422507265e-06   -1.2556436586323727e-05
4.530462948392481e-05   -6.112052422507265e-06   -1.2556436586323727e-05
4.530462948392481e-05   -6.112052422507265e-06   -1.2556436586323727e-05
3.244647491285623e-05   -6.738225621158098e-06   9.249524951314859e-06
3.244647491285623e-05   -6.738225621158098e-06   9.249524951314859e-06
3.244647491285623e-05   -6.738225621158098e-06   9.249524951314859e-06
3.244647491285623e-05   -6.738225621158098e-06   9.249524951314859e-06
2.4344592712868135e-05   -1.3355629506907156e-06   4.999245516824945e-05
2.4344592712868135e-05   -1.3355629506907156e-06   4.999245516824945e-05
2.4344592712868135e-05   -1.3355629506907156e-06   4.999245516824945e-05
2.4344592712868135e-05   -1.3355629506907156e-06   4.999245516824945e-05
-1.5512229978897657e-06   -1.976823285707724e-08   7.62223914768656e-06
-1.5512229978897657e-06   -1.976823285707724e-08   7.62223914768656e-06
-1.5512229978897657e-06   -1.976823285707724e-08   7.62223914768656e-06
-1.5512229978897657e-06   -1.976823285707724e-08   7.62223914768656e-06
-2.639843050730842e-06   -2.1320053716421088e-06   5.008282682248495e-05
-2.639843050730842e-06   -2.1320053716421088e-06   5.008282682248495e-05
-2.639843050730842e-06   -2.1320053716421088e-06   5.008282682248495e-05
-2.639843050730842e-06   -2.1320053716421088e-06   5.008282682248495e-05
2.3186401386655668e-05   -8.799914213339886e-07   6.287877723322845e-06
2.3186401386655668e-05   -8.799914213339886e-07   6.287877723322845e-06
2.3186401386655668e-05   -8.799914213339886e-07   6.287877723322845e-06
2.3186401386655668e-05   -8.799914213339886e-07   6.287877723322845e-06
1.0659582484099312e-05   -1.1229401521662893e-06   2.731167846608271e-05
1.0659582484099312e-05   -1.1229401521662893e-06   2.731167846608271e-05
1.0659582484099312e-05   -1.1229401521662893e-06   2.731167846608271e-05
1.0659582484099312e-05   -1.1229401521662893e-06   2.731167846608271e-05
2.3186401386655607e-05   -2.1320053716421088e-06   4.933161845230034e-05
2.3186401386655607e-05   -2.1320053716421088e-06   4.933161845230034e-05
2.3186401386655607e-05   -2.1320053716421088e-06   4.933161845230034e-05
2.3186401386655607e-05   -2.1320053716421088e-06   4.933161845230034e-05
-2.639843050730842e-06   -8.799914213339886e-07   7.039086093507674e-06
-2.639843050730842e-06   -8.799914213339886e-07   7.039086093507674e-06
-2.639843050730842e-06   -8.799914213339886e-07   7.039086093507674e-06
-2.639843050730842e-06   -8.799914213339886e-07   7.039086093507674e-06
-3.7515259558242747e-06   -2.724376138893425e-06   4.933286107976979e-05
-3.7515259558242747e-06   -2.724376138893425e-06   4.933286107976979e-05
-3.7515259558242747e-06   -2.724376138893425e-06   4.933286107976979e-05
-3.7515259558242747e-06   -2.724376138893425e-06   4.933286107976979e-05
2.1908471710905614e-05   -1.5587708952118431e-06   5.8668351556776476e-06
2.1908471710905614e-05   -1.5587708952118431e-06   5.8668351556776476e-06
2.1908471710905614e-05   -1.5587708952118431e-06   5.8668351556776476e-06
2.1908471710905614e-05   -1.5587708952118431e-06   5.8668351556776476e-06
9.439173215946715e-06   -1.654198289405967e-06   2.6706255750460345e-05
9.439173215946715e-06   -1.654198289405967e-06   2.6706255750460345e-05
9.439173215946715e-06   -1.654198289405967e-06   2.6706255750460345e-05
9.439173215946715e-06   -1.654198289405967e-06   2.6706255750460345e-05
2.1908471710905574e-05   -2.724376138893425e-06   4.8633497933560886e-05
2.1908471710905574e-05   -2.724376138893425e-06   4.8633497933560886e-05
2.1908471710905574e-05   -2.724376138893425e-06   4.8633497933560886e-05
2.1908471710905574e-05   -2.724376138893425e-06   4.8633497933560886e-05
-3.7515259558242747e-06   -1.5587708952118431e-06   6.5661983018865805e-06
-3.7515259558242747e-06   -1.5587708952118431e-06   6.5661983018865805e-06
-3.7515259558242747e-06   -1.5587708952118431e-06   6.5661983018865805e-06
-3.7515259558242747e-06   -1.5587708952118431e-06   6.5661983018865805e-06
-4.8691794275857825e-06   -3.192553107808204e-06   4.968064587829125e-05
-4.8691794275857825e-06   -3.192553107808204e-06   4.968064587829125e-05
-4.8691794275857825e-06   -3.192553107808204e-06   4.968064587829125e-05
-4.8691794275857825e-06   -3.192553107808204e-06   4.968064587829125e-05
2.0728718877923703e-05   -2.1882972914481595e-06   6.414928545959384e-06
2.0728718877923703e-05   -2.1882972914481595e-06   6.414928545959384e-06
2.0728718877923703e-05   -2.1882972914481595e-06   6.414928545959384e-06
2.0728718877923703e-05   -2.1882972914481595e-06   6.414928545959384e-06
8.506137132623917e-06   -2.048316310974095e-06   2.6701909533175514e-05
8.506137132623917e-06   -2.048316310974095e-06   2.6701909533175514e-05
8.506137132623917e-06   -2.048316310974095e-06   2.6701909533175514e-05
8.506137132623917e-06   -2.048316310974095e-06   2.6701909533175514e-05
-1.5512229978897657e-06   4.342447513125142e-06   5.293596156287711e-05
-1.5512229978897657e-06   4.342447513125142e-06   5.293596156287711e-05
-1.5512229978897657e-06   4.342447513125142e-06   5.293596156287711e-05
-1.5512229978897657e-06   4.342447513125142e-06   5.293596156287711e-05
-2.690383248258075e-05   4.468091050778122e-06   1.0756998544317331e-05
-2.690383248258075e-05   4.468091050778122e-06   1.0756998544317331e-05
-2.690383248258075e-05   4.468091050778122e-06   1.0756998544317331e-05
-2.690383248258075e-05   4.468091050778122e-06   1.0756998544317331e-05
-2.799807145492894e-05   3.678862228441871e-06   5.277574227755032e-05
-2.799807145492894e-05   3.678862228441871e-06   5.277574227755032e-05
-2.799807145492894e-05   3.678862228441871e-06   5.277574227755032e-05
-2.799807145492894e-05   3.678862228441871e-06   5.277574227755032e-05
-2.639843050730842e-06   3.7114303623078486e-06   1.049248739023377e-05
-2.639843050730842e-06   3.7114303623078486e-06   1.049248739023377e-05
-2.639843050730842e-06   3.7114303623078486e-06   1.049248739023377e-05
-2.639843050730842e-06   3.7114303623078486e-06   1.049248739023377e-05
-1.48116360701332e-05   3.979885587799582e-06   3.061773595394268e-05
-1.48116360701332e-05   3.979885587799582e-06   3.061773595394268e-05
-1.48116360701332e-05   3.979885587799582e-06   3.061773595394268e-05
-1.48116360701332e-05   3.979885587799582e-06   3.061773595394268e-05
-2.639843050730842e-06   3.678862228441871e-06   5.2756201397230864e-05
-2.639843050730842e-06   3.678862228441871e-06   5.2756201397230864e-05
-2.639843050730842e-06   3.678862228441871e-06   5.2756201397230864e-05
-2.639843050730842e-06   3.678862228441871e-06   5.2756201397230864e-05
-2.799807145492894e-05   3.7114303623078486e-06   1.0512028270553498e-05
-2.799807145492894e-05   3.7114303623078486e-06   1.0512028270553498e-05
-2.799807145492894e-05   3.7114303623078486e-06   1.0512028270553498e-05
-2.799807145492894e-05   3.7114303623078486e-06   1.0512028270553498e-05
-2.9119766911784027e-05   3.034483207540236e-06   5.3066432270347606e-05
-2.9119766911784027e-05   3.034483207540236e-06   5.3066432270347606e-05
-2.9119766911784027e-05   3.034483207540236e-06   5.3066432270347606e-05
-2.9119766911784027e-05   3.034483207540236e-06   5.3066432270347606e-05
-3.7515259558242747e-06   2.9667415685969735e-06   1.0826675660447534e-05
-3.7515259558242747e-06   2.9667415685969735e-06   1.0826675660447534e-05
-3.7515259558242747e-06   2.9667415685969735e-06   1.0826675660447534e-05
-3.7515259558242747e-06   2.9667415685969735e-06   1.0826675660447534e-05
-1.582781700096689e-05   3.4707873892278127e-06   3.065139990997452e-05
-1.582781700096689e-05   3.4707873892278127e-06   3.065139990997452e-05
-1.582781700096689e-05   3.4707873892278127e-06   3.065139990997452e-05
-1.582781700096689e-05   3.4707873892278127e-06   3.065139990997452e-05
-3.7515259558242747e-06   3.034483207540236e-06   5.3107077253714e-05
-3.7515259558242747e-06   3.034483207540236e-06   5.3107077253714e-05
-3.7515259558242747e-06   3.034483207540236e-06   5.3107077253714e-05
-3.7515259558242747e-06   3.034483207540236e-06   5.3107077253714e-05
-2.9119766911784027e-05   2.9667415685969735e-06   1.078603067708136e-05
-2.9119766911784027e-05   2.9667415685969735e-06   1.078603067708136e-05
-2.9119766911784027e-05   2.9667415685969735e-06   1.078603067708136e-05
-2.9119766911784027e-05   2.9667415685969735e-06   1.078603067708136e-05
-3.024113594719962e-05   2.4608557641862122e-06   5.3728649839057414e-05
-3.024113594719962e-05   2.4608557641862122e-06   5.3728649839057414e-05
-3.024113594719962e-05   2.4608557641862122e-06   5.3728649839057414e-05
-3.024113594719962e-05   2.4608557641862122e-06   5.3728649839057414e-05
-4.86917942758581e-06   2.2600325002282255e-06   1.1562549598075718e-05
-4.86917942758581e-06   2.2600325002282255e-06   1.1562549598075718e-05
-4.86917942758581e-06   2.2600325002282255e-06   1.1562549598075718e-05
-4.86917942758581e-06   2.2600325002282255e-06   1.1562549598075718e-05
-1.6891555436988854e-05   2.974603544420376e-06   3.1171100320566826e-05
-1.6891555436988854e-05   2.974603544420376e-06   3.1171100320566826e-05
-1.6891555436988854e-05   2.974603544420376e-06   3.1171100320566826e-05
-1.6891555436988854e-05   2.974603544420376e-06   3.1171100320566826e-05
-2.6903832482580724e-05   9.865372813231636e-06   4.6557170119031514e-05
-2.6903832482580724e-05   9.865372813231636e-06   4.6557170119031514e-05
-2.6903832482580724e-05   9.865372813231636e-06   4.6557170119031514e-05
-2.6903832482580724e-05   9.865372813231636e-06   4.6557170119031514e-05
-5.168962236239946e-05   8.785759847664259e-06   4.599752539992874e-06
-5.168962236239946e-05   8.785759847664259e-06   4.599752539992874e-06
-5.168962236239946e-05   8.785759847664259e-06   4.599752539992874e-06
-5.168962236239946e-05   8.785759847664259e-06   4.599752539992874e-06
-5.286684129710966e-05   9.230934634167631e-06   4.625009847348182e-05
-5.286684129710966e-05   9.230934634167631e-06   4.625009847348182e-05
-5.286684129710966e-05   9.230934634167631e-06   4.625009847348182e-05
-5.286684129710966e-05   9.230934634167631e-06   4.625009847348182e-05
-2.7998071454929022e-05   8.060407162291134e-06   5.504465219640026e-06
-2.7998071454929022e-05   8.060407162291134e-06   5.504465219640026e-06
-2.7998071454929022e-05   8.060407162291134e-06   5.504465219640026e-06
-2.7998071454929022e-05   8.060407162291134e-06   5.504465219640026e-06
-3.973307065992051e-05   8.86929893595097e-06   2.457746216376355e-05
-3.973307065992051e-05   8.86929893595097e-06   2.457746216376355e-05
-3.973307065992051e-05   8.86929893595097e-06   2.457746216376355e-05
-3.973307065992051e-05   8.86929893595097e-06   2.457746216376355e-05
-2.799807145492894e-05   9.230934634167631e-06   4.6952414956607765e-05
-2.799807145492894e-05   9.230934634167631e-06   4.6952414956607765e-05
-2.799807145492894e-05   9.230934634167631e-06   4.6952414956607765e-05
-2.799807145492894e-05   9.230934634167631e-06   4.6952414956607765e-05
-5.286684129710966e-05   8.060407162291134e-06   4.802148736514356e-06
-5.286684129710966e-05   8.060407162291134e-06   4.802148736514356e-06
-5.286684129710966e-05   8.060407162291134e-06   4.802148736514356e-06
-5.286684129710966e-05   8.060407162291134e-06   4.802148736514356e-06
-5.416311271069888e-05   8.646711599989178e-06   4.7983136764705604e-05
-5.416311271069888e-05   8.646711599989178e-06   4.7983136764705604e-05
-5.416311271069888e-05   8.646711599989178e-06   4.7983136764705604e-05
-5.416311271069888e-05   8.646711599989178e-06   4.7983136764705604e-05
-2.911976691178411e-05   7.3852192713501526e-06   7.001122497031205e-06
-2.911976691178411e-05   7.3852192713501526e-06   7.001122497031205e-06
-2.911976691178411e-05   7.3852192713501526e-06   7.001122497031205e-06
-2.911976691178411e-05   7.3852192713501526e-06   7.001122497031205e-06
-4.0579525938778225e-05   8.405907557062012e-06   2.5488307903928534e-05
-4.0579525938778225e-05   8.405907557062012e-06   2.5488307903928534e-05
-4.0579525938778225e-05   8.405907557062012e-06   2.5488307903928534e-05
-4.0579525938778225e-05   8.405907557062012e-06   2.5488307903928534e-05
-2.911976691178411e-05   8.646711599989178e-06   4.8740032161888845e-05
-2.911976691178411e-05   8.646711599989178e-06   4.8740032161888845e-05
-2.911976691178411e-05   8.646711599989178e-06   4.8740032161888845e-05
-2.911976691178411e-05   8.646711599989178e-06   4.8740032161888845e-05
-5.416311271069888e-05   7.3852192713501526e-06   6.244227099847692e-06
-5.416311271069888e-05   7.3852192713501526e-06   6.244227099847692e-06
-5.416311271069888e-05   7.3852192713501526e-06   6.244227099847692e-06
-5.416311271069888e-05   7.3852192713501526e-06   6.244227099847692e-06
-5.53487651585512e-05   7.9338362389751e-06   4.928889566666213e-05
-5.53487651585512e-05   7.9338362389751e-06   4.928889566666213e-05
-5.53487651585512e-05   7.9338362389751e-06   4.928889566666213e-05
-5.53487651585512e-05   7.9338362389751e-06   4.928889566666213e-05
-3.0241135947199675e-05   6.599565279510628e-06   8.243409556755272e-06
-3.0241135947199675e-05   6.599565279510628e-06   8.243409556755272e-06
-3.0241135947199675e-05   6.599565279510628e-06   8.243409556755272e-06
-3.0241135947199675e-05   6.599565279510628e-06   8.243409556755272e-06
-4.192332796712157e-05   7.883943317778686e-06   2.6943102766999638e-05
-4.192332796712157e-05   7.883943317778686e-06   2.6943102766999638e-05
-4.192332796712157e-05   7.883943317778686e-06   2.6943102766999638e-05
-4.192332796712157e-05   7.883943317778686e-06   2.6943102766999638e-05
-5.168962236239946e-05   1.41961124954142e-05   2.2500702743626913e-05
-5.168962236239946e-05   1.41961124954142e-05   2.2500702743626913e-05
-5.168962236239946e-05   1.41961124954142e-05   2.2500702743626913e-05
-5.168962236239946e-05   1.41961124954142e-05   2.2500702743626913e-05
-7.521031969334529e-05   1.2099408545049144e-05   -1.795848184483486e-05
-7.521031969334529e-05   1.2099408545049144e-05   -1.795848184483486e-05
-7.521031969334529e-05   1.2099408545049144e-05   -1.795848184483486e-05
-7.521031969334529e-05   1.2099408545049144e-05   -1.795848184483486e-05
-7.732519457540136e-05   1.4344196546715003e-05   2.988019552281878e-05
-7.732519457540136e-05   1.4344196546715003e-05   2.988019552281878e-05
-7.732519457540136e-05   1.4344196546715003e-05   2.988019552281878e-05
-7.732519457540136e-05   1.4344196546715003e-05   2.988019552281878e-05
-5.286684129710966e-05   1.203631118575901e-05   -9.498995391094022e-06
-5.286684129710966e-05   1.203631118575901e-05   -9.498995391094022e-06
-5.286684129710966e-05   1.203631118575901e-05   -9.498995391094022e-06
-5.286684129710966e-05   1.203631118575901e-05   -9.498995391094022e-06
-6.18280838803834e-05   1.297716353562163e-05   4.871897504445046e-06
-6.18280838803834e-05   1.297716353562163e-05   4.871897504445046e-06
-6.18280838803834e-05   1.297716353562163e-05   4.871897504445046e-06
-6.18280838803834e-05   1.297716353562163e-05   4.871897504445046e-06
-5.2866841297109606e-05   1.4344196546715437e-05   3.126492673939294e-05
-5.2866841297109606e-05   1.4344196546715437e-05   3.126492673939294e-05
-5.2866841297109606e-05   1.4344196546715437e-05   3.126492673939294e-05
-5.2866841297109606e-05   1.4344196546715437e-05   3.126492673939294e-05
-7.732519457540152e-05   1.203631118575901e-05   -1.0883726607667532e-05
-7.732519457540152e-05   1.203631118575901e-05   -1.0883726607667532e-05
-7.732519457540152e-05   1.203631118575901e-05   -1.0883726607667532e-05
-7.732519457540152e-05   1.203631118575901e-05   -1.0883726607667532e-05
-7.921949992447042e-05   1.4185623697491982e-05   3.5850481644864214e-05
-7.921949992447042e-05   1.4185623697491982e-05   3.5850481644864214e-05
-7.921949992447042e-05   1.4185623697491982e-05   3.5850481644864214e-05
-7.921949992447042e-05   1.4185623697491982e-05   3.5850481644864214e-05
-5.416311271069888e-05   1.179017002249155e-05   -4.472891506421468e-06
-5.416311271069888e-05   1.179017002249155e-05   -4.472891506421468e-06
-5.416311271069888e-05   1.179017002249155e-05   -4.472891506421468e-06
-5.416311271069888e-05   1.179017002249155e-05   -4.472891506421468e-06
-6.425516782097962e-05   1.3119531460525132e-05   1.1549583481228524e-05
-6.425516782097962e-05   1.3119531460525132e-05   1.1549583481228524e-05
-6.425516782097962e-05   1.3119531460525132e-05   1.1549583481228524e-05
-6.425516782097962e-05   1.3119531460525132e-05   1.1549583481228524e-05
-5.416311271069888e-05   1.4185623697492416e-05   3.728775384986534e-05
-5.416311271069888e-05   1.4185623697492416e-05   3.728775384986534e-05
-5.416311271069888e-05   1.4185623697492416e-05   3.728775384986534e-05
-5.416311271069888e-05   1.4185623697492416e-05   3.728775384986534e-05
-7.921949992447058e-05   1.179017002249155e-05   -5.910163711421619e-06
-7.921949992447058e-05   1.179017002249155e-05   -5.910163711421619e-06
-7.921949992447058e-05   1.179017002249155e-05   -5.910163711421619e-06
-7.921949992447058e-05   1.179017002249155e-05   -5.910163711421619e-06
-8.139686760255807e-05   1.3090025868738031e-05   4.612618301814281e-05
-8.139686760255807e-05   1.3090025868738031e-05   4.612618301814281e-05
-8.139686760255807e-05   1.3090025868738031e-05   4.612618301814281e-05
-8.139686760255807e-05   1.3090025868738031e-05   4.612618301814281e-05
-5.53487651585512e-05   1.070647278320026e-05   4.142810796120512e-06
-5.53487651585512e-05   1.070647278320026e-05   4.142810796120512e-06
-5.53487651585512e-05   1.070647278320026e-05   4.142810796120512e-06
-5.53487651585512e-05   1.070647278320026e-05   4.142810796120512e-06
-6.478021145328957e-05   1.2670463802961964e-05   1.8683493342162177e-05
-6.478021145328957e-05   1.2670463802961964e-05   1.8683493342162177e-05
-6.478021145328957e-05   1.2670463802961964e-05   1.8683493342162177e-05
-6.478021145328957e-05   1.2670463802961964e-05   1.8683493342162177e-05
3.5563624213565654e-05   -4.610560420567535e-06   3.571966366923765e-05
3.5563624213565654e-05   -4.610560420567535e-06   3.571966366923765e-05
3.5563624213565654e-05   -4.610560420567535e-06   3.571966366923765e-05
3.5563624213565654e-05   -4.610560420567535e-06   3.571966366923765e-05
1.4753191303128774e-05   -2.258306951949309e-06   2.446960899680486e-06
1.4753191303128774e-05   -2.258306951949309e-06   2.446960899680486e-06
1.4753191303128774e-05   -2.258306951949309e-06   2.446960899680486e-06
1.4753191303128774e-05   -2.258306951949309e-06   2.446960899680486e-06
1.3822407446441045e-05   -5.598690310741183e-06   3.2121715117117405e-05
1.3822407446441045e-05   -5.598690310741183e-06   3.2121715117117405e-05
1.3822407446441045e-05   -5.598690310741183e-06   3.2121715117117405e-05
1.3822407446441045e-05   -5.598690310741183e-06   3.2121715117117405e-05
3.358330204364531e-05   -3.1411881673995383e-06   -2.2876104975611824e-06
3.358330204364531e-05   -3.1411881673995383e-06   -2.2876104975611824e-06
3.358330204364531e-05   -3.1411881673995383e-06   -2.2876104975611824e-06
3.358330204364531e-05   -3.1411881673995383e-06   -2.2876104975611824e-06
2.32147047942832e-05   -3.996496282086641e-06   1.5506569786854943e-05
2.32147047942832e-05   -3.996496282086641e-06   1.5506569786854943e-05
2.32147047942832e-05   -3.996496282086641e-06   1.5506569786854943e-05
2.32147047942832e-05   -3.996496282086641e-06   1.5506569786854943e-05
3.358330204364538e-05   -5.598690310741183e-06   3.064721383111272e-05
3.358330204364538e-05   -5.598690310741183e-06   3.064721383111272e-05
3.358330204364538e-05   -5.598690310741183e-06   3.064721383111272e-05
3.358330204364538e-05   -5.598690310741183e-06   3.064721383111272e-05
1.3822407446441004e-05   -3.1411881673995383e-06   -8.131092115563638e-07
1.3822407446441004e-05   -3.1411881673995383e-06   -8.131092115563638e-07
1.3822407446441004e-05   -3.1411881673995383e-06   -8.131092115563638e-07
1.3822407446441004e-05   -3.1411881673995383e-06   -8.131092115563638e-07
1.2777494595773391e-05   -5.86307611723973e-06   2.9448938197598447e-05
1.2777494595773391e-05   -5.86307611723973e-06   2.9448938197598447e-05
1.2777494595773391e-05   -5.86307611723973e-06   2.9448938197598447e-05
1.2777494595773391e-05   -5.86307611723973e-06   2.9448938197598447e-05
3.188383660234211e-05   -3.4456538318809217e-06   -3.84541851789787e-06
3.188383660234211e-05   -3.4456538318809217e-06   -3.84541851789787e-06
3.188383660234211e-05   -3.4456538318809217e-06   -3.84541851789787e-06
3.188383660234211e-05   -3.4456538318809217e-06   -3.84541851789787e-06
2.2331282887904213e-05   -4.3707922646810116e-06   1.2630587399179447e-05
2.2331282887904213e-05   -4.3707922646810116e-06   1.2630587399179447e-05
2.2331282887904213e-05   -4.3707922646810116e-06   1.2630587399179447e-05
2.2331282887904213e-05   -4.3707922646810116e-06   1.2630587399179447e-05
3.1883836602342164e-05   -5.86307611723973e-06   2.799848482638325e-05
3.1883836602342164e-05   -5.86307611723973e-06   2.799848482638325e-05
3.1883836602342164e-05   -5.86307611723973e-06   2.799848482638325e-05
3.1883836602342164e-05   -5.86307611723973e-06   2.799848482638325e-05
1.277749459577337e-05   -3.4456538318809217e-06   -2.3949651466825903e-06
1.277749459577337e-05   -3.4456538318809217e-06   -2.3949651466825903e-06
1.277749459577337e-05   -3.4456538318809217e-06   -2.3949651466825903e-06
1.277749459577337e-05   -3.4456538318809217e-06   -2.3949651466825903e-06
1.184104694485049e-05   -6.112052422507265e-06   2.5982260636554138e-05
1.184104694485049e-05   -6.112052422507265e-06   2.5982260636554138e-05
1.184104694485049e-05   -6.112052422507265e-06   2.5982260636554138e-05
1.184104694485049e-05   -6.112052422507265e-06   2.5982260636554138e-05
2.995714373391798e-05   -3.849851882509192e-06   -5.568554335890407e-06
2.995714373391798e-05   -3.849851882509192e-06   -5.568554335890407e-06
2.995714373391798e-05   -3.849851882509192e-06   -5.568554335890407e-06
2.995714373391798e-05   -3.849851882509192e-06   -5.568554335890407e-06
2.0702366089037393e-05   -4.445318637622854e-06   1.0213355125312097e-05
2.0702366089037393e-05   -4.445318637622854e-06   1.0213355125312097e-05
2.0702366089037393e-05   -4.445318637622854e-06   1.0213355125312097e-05
2.0702366089037393e-05   -4.445318637622854e-06   1.0213355125312097e-05
1.4753191303128828e-05   -1.976823285707724e-08   4.420564611200099e-05
1.4753191303128828e-05   -1.976823285707724e-08   4.420564611200099e-05
1.4753191303128828e-05   -1.976823285707724e-08   4.420564611200099e-05
1.4753191303128828e-05   -1.976823285707724e-08   4.420564611200099e-05
-4.779644160890782e-06   1.1729517384916413e-06   1.2366552321444423e-05
-4.779644160890782e-06   1.1729517384916413e-06   1.2366552321444423e-05
-4.779644160890782e-06   1.1729517384916413e-06   1.2366552321444423e-05
-4.779644160890782e-06   1.1729517384916413e-06   1.2366552321444423e-05
-5.634689327537888e-06   -8.799914213339886e-07   4.4292281129283293e-05
-5.634689327537888e-06   -8.799914213339886e-07   4.4292281129283293e-05
-5.634689327537888e-06   -8.799914213339886e-07   4.4292281129283293e-05
-5.634689327537888e-06   -8.799914213339886e-07   4.4292281129283293e-05
1.3822407446441004e-05   2.782106327528164e-07   1.1168865273533547e-05
1.3822407446441004e-05   2.782106327528164e-07   1.1168865273533547e-05
1.3822407446441004e-05   2.782106327528164e-07   1.1168865273533547e-05
1.3822407446441004e-05   2.782106327528164e-07   1.1168865273533547e-05
4.401244277511834e-06   6.122354920647458e-08   2.7000996138543728e-05
4.401244277511834e-06   6.122354920647458e-08   2.7000996138543728e-05
4.401244277511834e-06   6.122354920647458e-08   2.7000996138543728e-05
4.401244277511834e-06   6.122354920647458e-08   2.7000996138543728e-05
1.3822407446441038e-05   -8.799914213339886e-07   4.359735989683134e-05
1.3822407446441038e-05   -8.799914213339886e-07   4.359735989683134e-05
1.3822407446441038e-05   -8.799914213339886e-07   4.359735989683134e-05
1.3822407446441038e-05   -8.799914213339886e-07   4.359735989683134e-05
-5.634689327537888e-06   2.782106327528164e-07   1.1863786505985534e-05
-5.634689327537888e-06   2.782106327528164e-07   1.1863786505985534e-05
-5.634689327537888e-06   2.782106327528164e-07   1.1863786505985534e-05
-5.634689327537888e-06   2.782106327528164e-07   1.1863786505985534e-05
-6.508798500316743e-06   -1.5587708952118431e-06   4.376698599263128e-05
-6.508798500316743e-06   -1.5587708952118431e-06   4.376698599263128e-05
-6.508798500316743e-06   -1.5587708952118431e-06   4.376698599263128e-05
-6.508798500316743e-06   -1.5587708952118431e-06   4.376698599263128e-05
1.277749459577337e-05   -4.5462319003819474e-07   1.0960675542710648e-05
1.277749459577337e-05   -4.5462319003819474e-07   1.0960675542710648e-05
1.277749459577337e-05   -4.5462319003819474e-07   1.0960675542710648e-05
1.277749459577337e-05   -4.5462319003819474e-07   1.0960675542710648e-05
3.4616633589215004e-06   -5.359674280472522e-07   2.6535867480270833e-05
3.4616633589215004e-06   -5.359674280472522e-07   2.6535867480270833e-05
3.4616633589215004e-06   -5.359674280472522e-07   2.6535867480270833e-05
3.4616633589215004e-06   -5.359674280472522e-07   2.6535867480270833e-05
1.2777494595773411e-05   -1.5587708952118431e-06   4.310449736952748e-05
1.2777494595773411e-05   -1.5587708952118431e-06   4.310449736952748e-05
1.2777494595773411e-05   -1.5587708952118431e-06   4.310449736952748e-05
1.2777494595773411e-05   -1.5587708952118431e-06   4.310449736952748e-05
-6.508798500316743e-06   -4.5462319003819474e-07   1.1623164165814725e-05
-6.508798500316743e-06   -4.5462319003819474e-07   1.1623164165814725e-05
-6.508798500316743e-06   -4.5462319003819474e-07   1.1623164165814725e-05
-6.508798500316743e-06   -4.5462319003819474e-07   1.1623164165814725e-05
-7.375478286973398e-06   -2.1882972914481595e-06   4.416957732728227e-05
-7.375478286973398e-06   -2.1882972914481595e-06   4.416957732728227e-05
-7.375478286973398e-06   -2.1882972914481595e-06   4.416957732728227e-05
-7.375478286973398e-06   -2.1882972914481595e-06   4.416957732728227e-05
1.184104694485043e-05   -1.1776811830776016e-06   1.1535665609220495e-05
1.184104694485043e-05   -1.1776811830776016e-06   1.1535665609220495e-05
1.184104694485043e-05   -1.1776811830776016e-06   1.1535665609220495e-05
1.184104694485043e-05   -1.1776811830776016e-06   1.1535665609220495e-05
2.7185488259741894e-06   -1.0346915495732661e-06   2.665403536057816e-05
2.7185488259741894e-06   -1.0346915495732661e-06   2.665403536057816e-05
2.7185488259741894e-06   -1.0346915495732661e-06   2.665403536057816e-05
2.7185488259741894e-06   -1.0346915495732661e-06   2.665403536057816e-05
-4.779644160890755e-06   4.468091050778122e-06   4.798065136884925e-05
-4.779644160890755e-06   4.468091050778122e-06   4.798065136884925e-05
-4.779644160890755e-06   4.468091050778122e-06   4.798065136884925e-05
-4.779644160890755e-06   4.468091050778122e-06   4.798065136884925e-05
-2.399246044684837e-05   4.394613407612043e-06   1.5915204306353762e-05
-2.399246044684837e-05   4.394613407612043e-06   1.5915204306353762e-05
-2.399246044684837e-05   4.394613407612043e-06   1.5915204306353762e-05
-2.399246044684837e-05   4.394613407612043e-06   1.5915204306353762e-05
-2.4835786279640804e-05   3.7114303623078486e-06   4.76672982126457e-05
-2.4835786279640804e-05   3.7114303623078486e-06   4.76672982126457e-05
-2.4835786279640804e-05   3.7114303623078486e-06   4.76672982126457e-05
-2.4835786279640804e-05   3.7114303623078486e-06   4.76672982126457e-05
-5.634689327537861e-06   3.5807900067019727e-06   1.5743854172504674e-05
-5.634689327537861e-06   3.5807900067019727e-06   1.5743854172504674e-05
-5.634689327537861e-06   3.5807900067019727e-06   1.5743854172504674e-05
-5.634689327537861e-06   3.5807900067019727e-06   1.5743854172504674e-05
-1.484751352374317e-05   3.939183919368129e-06   3.088352481858171e-05
-1.484751352374317e-05   3.939183919368129e-06   3.088352481858171e-05
-1.484751352374317e-05   3.939183919368129e-06   3.088352481858171e-05
-1.484751352374317e-05   3.939183919368129e-06   3.088352481858171e-05
-5.634689327537888e-06   3.7114303623082823e-06   4.774568242600966e-05
-5.634689327537888e-06   3.7114303623082823e-06   4.774568242600966e-05
-5.634689327537888e-06   3.7114303623082823e-06   4.774568242600966e-05
-5.634689327537888e-06   3.7114303623082823e-06   4.774568242600966e-05
-2.4835786279640804e-05   3.5807900067019727e-06   1.5665469959141257e-05
-2.4835786279640804e-05   3.5807900067019727e-06   1.5665469959141257e-05
-2.4835786279640804e-05   3.5807900067019727e-06   1.5665469959141257e-05
-2.4835786279640804e-05   3.5807900067019727e-06   1.5665469959141257e-05
-2.569949688269326e-05   2.9667415685969735e-06   4.7913184831255024e-05
-2.569949688269326e-05   2.9667415685969735e-06   4.7913184831255024e-05
-2.569949688269326e-05   2.9667415685969735e-06   4.7913184831255024e-05
-2.569949688269326e-05   2.9667415685969735e-06   4.7913184831255024e-05
-6.508798500316716e-06   2.7762773687012646e-06   1.6042966047231813e-05
-6.508798500316716e-06   2.7762773687012646e-06   1.6042966047231813e-05
-6.508798500316716e-06   2.7762773687012646e-06   1.6042966047231813e-05
-6.508798500316716e-06   2.7762773687012646e-06   1.6042966047231813e-05
-1.5620111400705856e-05   3.3481665686870346e-06   3.088535402788982e-05
-1.5620111400705856e-05   3.3481665686870346e-06   3.088535402788982e-05
-1.5620111400705856e-05   3.3481665686870346e-06   3.088535402788982e-05
-1.5620111400705856e-05   3.3481665686870346e-06   3.088535402788982e-05
-6.508798500316743e-06   2.9667415685969735e-06   4.8027463351192666e-05
-6.508798500316743e-06   2.9667415685969735e-06   4.8027463351192666e-05
-6.508798500316743e-06   2.9667415685969735e-06   4.8027463351192666e-05
-6.508798500316743e-06   2.9667415685969735e-06   4.8027463351192666e-05
-2.569949688269326e-05   2.7762773687012646e-06   1.592868752729455e-05
-2.569949688269326e-05   2.7762773687012646e-06   1.592868752729455e-05
-2.569949688269326e-05   2.7762773687012646e-06   1.592868752729455e-05
-2.569949688269326e-05   2.7762773687012646e-06   1.592868752729455e-05
-2.6553254660120317e-05   2.2600325002282255e-06   4.8559606619915426e-05
-2.6553254660120317e-05   2.2600325002282255e-06   4.8559606619915426e-05
-2.6553254660120317e-05   2.2600325002282255e-06   4.8559606619915426e-05
-2.6553254660120317e-05   2.2600325002282255e-06   4.8559606619915426e-05
-7.375478286973398e-06   2.00163538411572e-06   1.6751684267671567e-05
-7.375478286973398e-06   2.00163538411572e-06   1.6751684267671567e-05
-7.375478286973398e-06   2.00163538411572e-06   1.6751684267671567e-05
-7.375478286973398e-06   2.00163538411572e-06   1.6751684267671567e-05
-1.642810884752244e-05   2.770957167525824e-06   3.137780879854048e-05
-1.642810884752244e-05   2.770957167525824e-06   3.137780879854048e-05
-1.642810884752244e-05   2.770957167525824e-06   3.137780879854048e-05
-1.642810884752244e-05   2.770957167525824e-06   3.137780879854048e-05
-2.399246044684837e-05   8.785759847663825e-06   4.242708655796592e-05
-2.399246044684837e-05   8.785759847663825e-06   4.242708655796592e-05
-2.399246044684837e-05   8.785759847663825e-06   4.242708655796592e-05
-2.399246044684837e-05   8.785759847663825e-06   4.242708655796592e-05
-4.287704557244575e-05   7.528164520969466e-06   1.0198220819287009e-05
-4.287704557244575e-05   7.528164520969466e-06   1.0198220819287009e-05
-4.287704557244575e-05   7.528164520969466e-06   1.0198220819287009e-05
-4.287704557244575e-05   7.528164520969466e-06   1.0198220819287009e-05
-4.378136085321461e-05   8.060407162291134e-06   4.18630427181483e-05
-4.378136085321461e-05   8.060407162291134e-06   4.18630427181483e-05
-4.378136085321461e-05   8.060407162291134e-06   4.18630427181483e-05
-4.378136085321461e-05   8.060407162291134e-06   4.18630427181483e-05
-2.4835786279640696e-05   6.732586422983702e-06   1.1083777539109977e-05
-2.4835786279640696e-05   6.732586422983702e-06   1.1083777539109977e-05
-2.4835786279640696e-05   6.732586422983702e-06   1.1083777539109977e-05
-2.4835786279640696e-05   6.732586422983702e-06   1.1083777539109977e-05
-3.377613440128777e-05   7.645335169731513e-06   2.5436708493807017e-05
-3.377613440128777e-05   7.645335169731513e-06   2.5436708493807017e-05
-3.377613440128777e-05   7.645335169731513e-06   2.5436708493807017e-05
-3.377613440128777e-05   7.645335169731513e-06   2.5436708493807017e-05
-2.4835786279640804e-05   8.0604071622907e-06   4.2659735161732935e-05
-2.4835786279640804e-05   8.0604071622907e-06   4.2659735161732935e-05
-2.4835786279640804e-05   8.0604071622907e-06   4.2659735161732935e-05
-2.4835786279640804e-05   8.0604071622907e-06   4.2659735161732935e-05
-4.378136085321456e-05   6.732586422983702e-06   1.0287085095525453e-05
-4.378136085321456e-05   6.732586422983702e-06   1.0287085095525453e-05
-4.378136085321456e-05   6.732586422983702e-06   1.0287085095525453e-05
-4.378136085321456e-05   6.732586422983702e-06   1.0287085095525453e-05
-4.479938348526713e-05   7.3852192713501526e-06   4.3295372440601415e-05
-4.479938348526713e-05   7.3852192713501526e-06   4.3295372440601415e-05
-4.479938348526713e-05   7.3852192713501526e-06   4.3295372440601415e-05
-4.479938348526713e-05   7.3852192713501526e-06   4.3295372440601415e-05
-2.5699496882693206e-05   5.997045587011803e-06   1.2295132313581861e-05
-2.5699496882693206e-05   5.997045587011803e-06   1.2295132313581861e-05
-2.5699496882693206e-05   5.997045587011803e-06   1.2295132313581861e-05
-2.5699496882693206e-05   5.997045587011803e-06   1.2295132313581861e-05
-3.440380671678532e-05   7.103127155688813e-06   2.613866642919686e-05
-3.440380671678532e-05   7.103127155688813e-06   2.613866642919686e-05
-3.440380671678532e-05   7.103127155688813e-06   2.613866642919686e-05
-3.440380671678532e-05   7.103127155688813e-06   2.613866642919686e-05
-2.569949688269326e-05   7.3852192713501526e-06   4.412827665120438e-05
-2.569949688269326e-05   7.3852192713501526e-06   4.412827665120438e-05
-2.569949688269326e-05   7.3852192713501526e-06   4.412827665120438e-05
-2.569949688269326e-05   7.3852192713501526e-06   4.412827665120438e-05
-4.479938348526702e-05   5.9970455870113695e-06   1.1462228102978732e-05
-4.479938348526702e-05   5.9970455870113695e-06   1.1462228102978732e-05
-4.479938348526702e-05   5.9970455870113695e-06   1.1462228102978732e-05
-4.479938348526702e-05   5.9970455870113695e-06   1.1462228102978732e-05
-4.5704946869516206e-05   6.599565279510628e-06   4.450646331068922e-05
-4.5704946869516206e-05   6.599565279510628e-06   4.450646331068922e-05
-4.5704946869516206e-05   6.599565279510628e-06   4.450646331068922e-05
-4.5704946869516206e-05   6.599565279510628e-06   4.450646331068922e-05
-2.6553254660120263e-05   5.175403235709638e-06   1.3441473521309778e-05
-2.6553254660120263e-05   5.175403235709638e-06   1.3441473521309778e-05
-2.6553254660120263e-05   5.175403235709638e-06   1.3441473521309778e-05
-2.6553254660120263e-05   5.175403235709638e-06   1.3441473521309778e-05
-3.5423425514277056e-05   6.533113486591191e-06   2.7410465461043363e-05
-3.5423425514277056e-05   6.533113486591191e-06   2.7410465461043363e-05
-3.5423425514277056e-05   6.533113486591191e-06   2.7410465461043363e-05
-3.5423425514277056e-05   6.533113486591191e-06   2.7410465461043363e-05
-4.287704557244575e-05   1.2099408545049144e-05   2.037231734734052e-05
-4.287704557244575e-05   1.2099408545049144e-05   2.037231734734052e-05
-4.287704557244575e-05   1.2099408545049144e-05   2.037231734734052e-05
-4.287704557244575e-05   1.2099408545049144e-05   2.037231734734052e-05
-6.0567861861822664e-05   9.865779215789943e-06   -1.0452554065843865e-05
-6.0567861861822664e-05   9.865779215789943e-06   -1.0452554065843865e-05
-6.0567861861822664e-05   9.865779215789943e-06   -1.0452554065843865e-05
-6.0567861861822664e-05   9.865779215789943e-06   -1.0452554065843865e-05
-6.245746865764614e-05   1.203631118575901e-05   2.6105495409648426e-05
-6.245746865764614e-05   1.203631118575901e-05   2.6105495409648426e-05
-6.245746865764614e-05   1.203631118575901e-05   2.6105495409648426e-05
-6.245746865764614e-05   1.203631118575901e-05   2.6105495409648426e-05
-4.3781360853214503e-05   9.608972550939014e-06   -3.5649477501788554e-06
-4.3781360853214503e-05   9.608972550939014e-06   -3.5649477501788554e-06
-4.3781360853214503e-05   9.608972550939014e-06   -3.5649477501788554e-06
-4.3781360853214503e-05   9.608972550939014e-06   -3.5649477501788554e-06
-5.0456760500201976e-05   1.0705239876095726e-05   6.902957933040653e-06
-5.0456760500201976e-05   1.0705239876095726e-05   6.902957933040653e-06
-5.0456760500201976e-05   1.0705239876095726e-05   6.902957933040653e-06
-5.0456760500201976e-05   1.0705239876095726e-05   6.902957933040653e-06
-4.378136085321461e-05   1.203631118575901e-05   2.7561898590540467e-05
-4.378136085321461e-05   1.203631118575901e-05   2.7561898590540467e-05
-4.378136085321461e-05   1.203631118575901e-05   2.7561898590540467e-05
-4.378136085321461e-05   1.203631118575901e-05   2.7561898590540467e-05
-6.245746865764625e-05   9.608972550939447e-06   -5.021350931070788e-06
-6.245746865764625e-05   9.608972550939447e-06   -5.021350931070788e-06
-6.245746865764625e-05   9.608972550939447e-06   -5.021350931070788e-06
-6.245746865764625e-05   9.608972550939447e-06   -5.021350931070788e-06
-6.410691082747282e-05   1.179017002249155e-05   3.108252486995911e-05
-6.410691082747282e-05   1.179017002249155e-05   3.108252486995911e-05
-6.410691082747282e-05   1.179017002249155e-05   3.108252486995911e-05
-6.410691082747282e-05   1.179017002249155e-05   3.108252486995911e-05
-4.479938348526697e-05   9.297288415201568e-06   3.9904159732323616e-07
-4.479938348526697e-05   9.297288415201568e-06   3.9904159732323616e-07
-4.479938348526697e-05   9.297288415201568e-06   3.9904159732323616e-07
-4.479938348526697e-05   9.297288415201568e-06   3.9904159732323616e-07
-5.2455150018273166e-05   1.0711024109002175e-05   1.2310411069388675e-05
-5.2455150018273166e-05   1.0711024109002175e-05   1.2310411069388675e-05
-5.2455150018273166e-05   1.0711024109002175e-05   1.2310411069388675e-05
-5.2455150018273166e-05   1.0711024109002175e-05   1.2310411069388675e-05
-4.479938348526713e-05   1.179017002249155e-05   3.2578253834333014e-05
-4.479938348526713e-05   1.179017002249155e-05   3.2578253834333014e-05
-4.479938348526713e-05   1.179017002249155e-05   3.2578253834333014e-05
-4.479938348526713e-05   1.179017002249155e-05   3.2578253834333014e-05
-6.410691082747282e-05   9.297288415201568e-06   -1.0966873670505573e-06
-6.410691082747282e-05   9.297288415201568e-06   -1.0966873670505573e-06
-6.410691082747282e-05   9.297288415201568e-06   -1.0966873670505573e-06
-6.410691082747282e-05   9.297288415201568e-06   -1.0966873670505573e-06
-6.602095240015074e-05   1.070647278320026e-05   3.973439284964695e-05
-6.602095240015074e-05   1.070647278320026e-05   3.973439284964695e-05
-6.602095240015074e-05   1.070647278320026e-05   3.973439284964695e-05
-6.602095240015074e-05   1.070647278320026e-05   3.973439284964695e-05
-4.5704946869516044e-05   8.253082323056958e-06   7.346417908008851e-06
-4.5704946869516044e-05   8.253082323056958e-06   7.346417908008851e-06
-4.5704946869516044e-05   8.253082323056958e-06   7.346417908008851e-06
-4.5704946869516044e-05   8.253082323056958e-06   7.346417908008851e-06
-5.2906246854487695e-05   1.0256434226104012e-05   1.8146573407799567e-05
-5.2906246854487695e-05   1.0256434226104012e-05   1.8146573407799567e-05
-5.2906246854487695e-05   1.0256434226104012e-05   1.8146573407799567e-05
-5.2906246854487695e-05   1.0256434226104012e-05   1.8146573407799567e-05
1.968625347412014e-05   -2.258306951949309e-06   2.806869908271426e-05
1.968625347412014e-05   -2.258306951949309e-06   2.806869908271426e-05
1.968625347412014e-05   -2.258306951949309e-06   2.806869908271426e-05
1.968625347412014e-05   -2.258306951949309e-06   2.806869908271426e-05
5.122786237906889e-06   6.685239476193414e-08   5.191349297052096e-06
5.122786237906889e-06   6.685239476193414e-08   5.191349297052096e-06
5.122786237906889e-06   6.685239476193414e-08   5.191349297052096e-06
5.122786237906889e-06   6.685239476193414e-08   5.191349297052096e-06
4.427603681926588e-06   -3.1411881673995383e-06   2.6178733985509055e-05
4.427603681926588e-06   -3.1411881673995383e-06   2.6178733985509055e-05
4.427603681926588e-06   -3.1411881673995383e-06   2.6178733985509055e-05
4.427603681926588e-06   -3.1411881673995383e-06   2.6178733985509055e-05
1.796863411824148e-05   -7.236541889651515e-07   2.1598295379237622e-06
1.796863411824148e-05   -7.236541889651515e-07   2.1598295379237622e-06
1.796863411824148e-05   -7.236541889651515e-07   2.1598295379237622e-06
1.796863411824148e-05   -7.236541889651515e-07   2.1598295379237622e-06
1.1103386698919487e-05   -1.6259910320549215e-06   1.4143310675982e-05
1.1103386698919487e-05   -1.6259910320549215e-06   1.4143310675982e-05
1.1103386698919487e-05   -1.6259910320549215e-06   1.4143310675982e-05
1.1103386698919487e-05   -1.6259910320549215e-06   1.4143310675982e-05
1.7968634118241506e-05   -3.1411881673995383e-06   2.4728213598448293e-05
1.7968634118241506e-05   -3.1411881673995383e-06   2.4728213598448293e-05
1.7968634118241506e-05   -3.1411881673995383e-06   2.4728213598448293e-05
1.7968634118241506e-05   -3.1411881673995383e-06   2.4728213598448293e-05
4.427603681926574e-06   -7.236541889651515e-07   3.610349924984633e-06
4.427603681926574e-06   -7.236541889651515e-07   3.610349924984633e-06
4.427603681926574e-06   -7.236541889651515e-07   3.610349924984633e-06
4.427603681926574e-06   -7.236541889651515e-07   3.610349924984633e-06
3.6179355729464826e-06   -3.445653831880488e-06   2.4575686011250398e-05
3.6179355729464826e-06   -3.445653831880488e-06   2.4575686011250398e-05
3.6179355729464826e-06   -3.445653831880488e-06   2.4575686011250398e-05
3.6179355729464826e-06   -3.445653831880488e-06   2.4575686011250398e-05
1.6514937052907787e-05   -1.0652628061442147e-06   1.6524489292064893e-06
1.6514937052907787e-05   -1.0652628061442147e-06   1.6524489292064893e-06
1.6514937052907787e-05   -1.0652628061442147e-06   1.6524489292064893e-06
1.6514937052907787e-05   -1.0652628061442147e-06   1.6524489292064893e-06
1.0271445709106616e-05   -1.97097416539593e-06   1.260169465109272e-05
1.0271445709106616e-05   -1.97097416539593e-06   1.260169465109272e-05
1.0271445709106616e-05   -1.97097416539593e-06   1.260169465109272e-05
1.0271445709106616e-05   -1.97097416539593e-06   1.260169465109272e-05
1.6514937052907827e-05   -3.4456538318809217e-06   2.314745139580859e-05
1.6514937052907827e-05   -3.4456538318809217e-06   2.314745139580859e-05
1.6514937052907827e-05   -3.4456538318809217e-06   2.314745139580859e-05
1.6514937052907827e-05   -3.4456538318809217e-06   2.314745139580859e-05
3.617935572946469e-06   -1.0652628061442147e-06   3.0806835446483237e-06
3.617935572946469e-06   -1.0652628061442147e-06   3.0806835446483237e-06
3.617935572946469e-06   -1.0652628061442147e-06   3.0806835446483237e-06
3.617935572946469e-06   -1.0652628061442147e-06   3.0806835446483237e-06
2.9166940086407616e-06   -3.849851882509192e-06   2.2727813871755743e-05
2.9166940086407616e-06   -3.849851882509192e-06   2.2727813871755743e-05
2.9166940086407616e-06   -3.849851882509192e-06   2.2727813871755743e-05
2.9166940086407616e-06   -3.849851882509192e-06   2.2727813871755743e-05
1.481350848832921e-05   -1.6357513886796227e-06   1.5713294426442418e-06
1.481350848832921e-05   -1.6357513886796227e-06   1.5713294426442418e-06
1.481350848832921e-05   -1.6357513886796227e-06   1.5713294426442418e-06
1.481350848832921e-05   -1.6357513886796227e-06   1.5713294426442418e-06
9.050862454965968e-06   -2.150358916659656e-06   1.1484504015037795e-05
9.050862454965968e-06   -2.150358916659656e-06   1.1484504015037795e-05
9.050862454965968e-06   -2.150358916659656e-06   1.1484504015037795e-05
9.050862454965968e-06   -2.150358916659656e-06   1.1484504015037795e-05
5.122786237906892e-06   1.172951738492075e-06   3.8667754129695364e-05
5.122786237906892e-06   1.172951738492075e-06   3.8667754129695364e-05
5.122786237906892e-06   1.172951738492075e-06   3.8667754129695364e-05
5.122786237906892e-06   1.172951738492075e-06   3.8667754129695364e-05
-8.149357883951443e-06   2.224197302711818e-06   1.7178261265130045e-05
-8.149357883951443e-06   2.224197302711818e-06   1.7178261265130045e-05
-8.149357883951443e-06   2.224197302711818e-06   1.7178261265130045e-05
-8.149357883951443e-06   2.224197302711818e-06   1.7178261265130045e-05
-8.759774297754632e-06   2.782106327528164e-07   3.879171621455884e-05
-8.759774297754632e-06   2.782106327528164e-07   3.879171621455884e-05
-8.759774297754632e-06   2.782106327528164e-07   3.879171621455884e-05
-8.759774297754632e-06   2.782106327528164e-07   3.879171621455884e-05
4.427603681926574e-06   1.3298902060195766e-06   1.618174517113059e-05
4.427603681926574e-06   1.3298902060195766e-06   1.618174517113059e-05
4.427603681926574e-06   1.3298902060195766e-06   1.618174517113059e-05
4.427603681926574e-06   1.3298902060195766e-06   1.618174517113059e-05
-1.9386313951871536e-06   1.1625978265199233e-06   2.6892512394021025e-05
-1.9386313951871536e-06   1.1625978265199233e-06   2.6892512394021025e-05
-1.9386313951871536e-06   1.1625978265199233e-06   2.6892512394021025e-05
-1.9386313951871536e-06   1.1625978265199233e-06   2.6892512394021025e-05
4.427603681926581e-06   2.782106327528164e-07   3.8160708470598784e-05
4.427603681926581e-06   2.782106327528164e-07   3.8160708470598784e-05
4.427603681926581e-06   2.782106327528164e-07   3.8160708470598784e-05
4.427603681926581e-06   2.782106327528164e-07   3.8160708470598784e-05
-8.759774297754632e-06   1.3298902060193598e-06   1.681275291509068e-05
-8.759774297754632e-06   1.3298902060193598e-06   1.681275291509068e-05
-8.759774297754632e-06   1.3298902060193598e-06   1.681275291509068e-05
-8.759774297754632e-06   1.3298902060193598e-06   1.681275291509068e-05
-9.387896037821167e-06   -4.5462319003819474e-07   3.8546825358988165e-05
-9.387896037821167e-06   -4.5462319003819474e-07   3.8546825358988165e-05
-9.387896037821167e-06   -4.5462319003819474e-07   3.8546825358988165e-05
-9.387896037821167e-06   -4.5462319003819474e-07   3.8546825358988165e-05
3.617935572946469e-06   5.712079072027303e-07   1.6254940682697925e-05
3.617935572946469e-06   5.712079072027303e-07   1.6254940682697925e-05
3.617935572946469e-06   5.712079072027303e-07   1.6254940682697925e-05
3.617935572946469e-06   5.712079072027303e-07   1.6254940682697925e-05
-2.5898854531435408e-06   5.383891150045547e-07   2.6621000334833725e-05
-2.5898854531435408e-06   5.383891150045547e-07   2.6621000334833725e-05
-2.5898854531435408e-06   5.383891150045547e-07   2.6621000334833725e-05
-2.5898854531435408e-06   5.383891150045547e-07   2.6621000334833725e-05
3.6179355729464826e-06   -4.5462319003819474e-07   3.79313267006437e-05
3.6179355729464826e-06   -4.5462319003819474e-07   3.79313267006437e-05
3.6179355729464826e-06   -4.5462319003819474e-07   3.79313267006437e-05
3.6179355729464826e-06   -4.5462319003819474e-07   3.79313267006437e-05
-9.387896037821194e-06   5.712079072027303e-07   1.687043934104249e-05
-9.387896037821194e-06   5.712079072027303e-07   1.687043934104249e-05
-9.387896037821194e-06   5.712079072027303e-07   1.687043934104249e-05
-9.387896037821194e-06   5.712079072027303e-07   1.687043934104249e-05
-1.0006510151855288e-05   -1.1776811830780352e-06   3.905830154337015e-05
-1.0006510151855288e-05   -1.1776811830780352e-06   3.905830154337015e-05
-1.0006510151855288e-05   -1.1776811830780352e-06   3.905830154337015e-05
-1.0006510151855288e-05   -1.1776811830780352e-06   3.905830154337015e-05
2.916694008640755e-06   -2.0503443224012888e-07   1.6936039892041447e-05
2.916694008640755e-06   -2.0503443224012888e-07   1.6936039892041447e-05
2.916694008640755e-06   -2.0503443224012888e-07   1.6936039892041447e-05
2.916694008640755e-06   -2.0503443224012888e-07   1.6936039892041447e-05
-3.141862685747104e-06   -2.263038347168067e-08   2.692419195342733e-05
-3.141862685747104e-06   -2.263038347168067e-08   2.692419195342733e-05
-3.141862685747104e-06   -2.263038347168067e-08   2.692419195342733e-05
-3.141862685747104e-06   -2.263038347168067e-08   2.692419195342733e-05
-8.149357883951443e-06   4.394613407612043e-06   4.2891240039036153e-05
-8.149357883951443e-06   4.394613407612043e-06   4.2891240039036153e-05
-8.149357883951443e-06   4.394613407612043e-06   4.2891240039036153e-05
-8.149357883951443e-06   4.394613407612043e-06   4.2891240039036153e-05
-2.1199599770632314e-05   4.140265782250725e-06   2.0988228319351052e-05
-2.1199599770632314e-05   4.140265782250725e-06   2.0988228319351052e-05
-2.1199599770632314e-05   4.140265782250725e-06   2.0988228319351052e-05
-2.1199599770632314e-05   4.140265782250725e-06   2.0988228319351052e-05
-2.1785031848631665e-05   3.5807900067019727e-06   4.2512311351582946e-05
-2.1785031848631665e-05   3.5807900067019727e-06   4.2512311351582946e-05
-2.1785031848631665e-05   3.5807900067019727e-06   4.2512311351582946e-05
-2.1785031848631665e-05   3.5807900067019727e-06   4.2512311351582946e-05
-8.759774297754605e-06   3.3150024575426783e-06   2.0963021296283783e-05
-8.759774297754605e-06   3.3150024575426783e-06   2.0963021296283783e-05
-8.759774297754605e-06   3.3150024575426783e-06   2.0963021296283783e-05
-8.759774297754605e-06   3.3150024575426783e-06   2.0963021296283783e-05
-1.5001133502841595e-05   3.766201791364967e-06   3.109456703780339e-05
-1.5001133502841595e-05   3.766201791364967e-06   3.109456703780339e-05
-1.5001133502841595e-05   3.766201791364967e-06   3.109456703780339e-05
-1.5001133502841595e-05   3.766201791364967e-06   3.109456703780339e-05
-8.759774297754632e-06   3.5807900067019727e-06   4.267178388107874e-05
-8.759774297754632e-06   3.5807900067019727e-06   4.267178388107874e-05
-8.759774297754632e-06   3.5807900067019727e-06   4.267178388107874e-05
-8.759774297754632e-06   3.5807900067019727e-06   4.267178388107874e-05
-2.1785031848631665e-05   3.3150024575426783e-06   2.0803548766788207e-05
-2.1785031848631665e-05   3.3150024575426783e-06   2.0803548766788207e-05
-2.1785031848631665e-05   3.3150024575426783e-06   2.0803548766788207e-05
-2.1785031848631665e-05   3.3150024575426783e-06   2.0803548766788207e-05
-2.2389757821015025e-05   2.7762773687012646e-06   4.2797225954689004e-05
-2.2389757821015025e-05   2.7762773687012646e-06   4.2797225954689004e-05
-2.2389757821015025e-05   2.7762773687012646e-06   4.2797225954689004e-05
-2.2389757821015025e-05   2.7762773687012646e-06   4.2797225954689004e-05
-9.38789603782114e-06   2.4939418925076784e-06   2.1296857601748914e-05
-9.38789603782114e-06   2.4939418925076784e-06   2.1296857601748914e-05
-9.38789603782114e-06   2.4939418925076784e-06   2.1296857601748914e-05
-9.38789603782114e-06   2.4939418925076784e-06   2.1296857601748914e-05
-1.5522585070111897e-05   3.1381215566186893e-06   3.1134831523766716e-05
-1.5522585070111897e-05   3.1381215566186893e-06   3.1134831523766716e-05
-1.5522585070111897e-05   3.1381215566186893e-06   3.1134831523766716e-05
-1.5522585070111897e-05   3.1381215566186893e-06   3.1134831523766716e-05
-9.387896037821194e-06   2.7762773687012646e-06   4.29666272404052e-05
-9.387896037821194e-06   2.7762773687012646e-06   4.29666272404052e-05
-9.387896037821194e-06   2.7762773687012646e-06   4.29666272404052e-05
-9.387896037821194e-06   2.7762773687012646e-06   4.29666272404052e-05
-2.238975782101497e-05   2.4939418925076784e-06   2.1127456316032828e-05
-2.238975782101497e-05   2.4939418925076784e-06   2.1127456316032828e-05
-2.238975782101497e-05   2.4939418925076784e-06   2.1127456316032828e-05
-2.238975782101497e-05   2.4939418925076784e-06   2.1127456316032828e-05
-2.2985106638485258e-05   2.00163538411572e-06   4.349149806569144e-05
-2.2985106638485258e-05   2.00163538411572e-06   4.349149806569144e-05
-2.2985106638485258e-05   2.00163538411572e-06   4.349149806569144e-05
-2.2985106638485258e-05   2.00163538411572e-06   4.349149806569144e-05
-1.0006510151855315e-05   1.7075479322695326e-06   2.203695639241645e-05
-1.0006510151855315e-05   1.7075479322695326e-06   2.203695639241645e-05
-1.0006510151855315e-05   1.7075479322695326e-06   2.203695639241645e-05
-1.0006510151855315e-05   1.7075479322695326e-06   2.203695639241645e-05
-1.607712260084228e-05   2.5225189049511536e-06   3.1665661223786285e-05
-1.607712260084228e-05   2.5225189049511536e-06   3.1665661223786285e-05
-1.607712260084228e-05   2.5225189049511536e-06   3.1665661223786285e-05
-1.607712260084228e-05   2.5225189049511536e-06   3.1665661223786285e-05
-2.1199599770632314e-05   7.528164520969466e-06   3.777620517276918e-05
-2.1199599770632314e-05   7.528164520969466e-06   3.777620517276918e-05
-2.1199599770632314e-05   7.528164520969466e-06   3.777620517276918e-05
-2.1199599770632314e-05   7.528164520969466e-06   3.777620517276918e-05
-3.4008146090035336e-05   6.144607668129168e-06   1.5598493862060102e-05
-3.4008146090035336e-05   6.144607668129168e-06   1.5598493862060102e-05
-3.4008146090035336e-05   6.144607668129168e-06   1.5598493862060102e-05
-3.4008146090035336e-05   6.144607668129168e-06   1.5598493862060102e-05
-3.464596647722879e-05   6.732586422983702e-06   3.7078251435799115e-05
-3.464596647722879e-05   6.732586422983702e-06   3.7078251435799115e-05
-3.464596647722879e-05   6.732586422983702e-06   3.7078251435799115e-05
-3.464596647722879e-05   6.732586422983702e-06   3.7078251435799115e-05
-2.178503184863161e-05   5.311973930063147e-06   1.6495727883889823e-05
-2.178503184863161e-05   5.311973930063147e-06   1.6495727883889823e-05
-2.178503184863161e-05   5.311973930063147e-06   1.6495727883889823e-05
-2.178503184863161e-05   5.311973930063147e-06   1.6495727883889823e-05
-2.7842501599175046e-05   6.325743122404925e-06   2.598324928605885e-05
-2.7842501599175046e-05   6.325743122404925e-06   2.598324928605885e-05
-2.7842501599175046e-05   6.325743122404925e-06   2.598324928605885e-05
-2.7842501599175046e-05   6.325743122404925e-06   2.598324928605885e-05
-2.1785031848631665e-05   6.732586422983702e-06   3.793061893155188e-05
-2.1785031848631665e-05   6.732586422983702e-06   3.793061893155188e-05
-2.1785031848631665e-05   6.732586422983702e-06   3.793061893155188e-05
-2.1785031848631665e-05   6.732586422983702e-06   3.793061893155188e-05
-3.464596647722874e-05   5.311973930063147e-06   1.5643360388137707e-05
-3.464596647722874e-05   5.311973930063147e-06   1.5643360388137707e-05
-3.464596647722874e-05   5.311973930063147e-06   1.5643360388137707e-05
-3.464596647722874e-05   5.311973930063147e-06   1.5643360388137707e-05
-3.540167271781717e-05   5.9970455870113695e-06   3.8298756170378895e-05
-3.540167271781717e-05   5.9970455870113695e-06   3.8298756170378895e-05
-3.540167271781717e-05   5.9970455870113695e-06   3.8298756170378895e-05
-3.540167271781717e-05   5.9970455870113695e-06   3.8298756170378895e-05
-2.2389757821014917e-05   4.555521302682499e-06   1.747714591297312e-05
-2.2389757821014917e-05   4.555521302682499e-06   1.747714591297312e-05
-2.2389757821014917e-05   4.555521302682499e-06   1.747714591297312e-05
-2.2389757821014917e-05   4.555521302682499e-06   1.747714591297312e-05
-2.8256730132055803e-05   5.736535506329927e-06   2.65468245758526e-05
-2.8256730132055803e-05   5.736535506329927e-06   2.65468245758526e-05
-2.8256730132055803e-05   5.736535506329927e-06   2.65468245758526e-05
-2.8256730132055803e-05   5.736535506329927e-06   2.65468245758526e-05
-2.238975782101497e-05   5.9970455870113695e-06   3.916367074097626e-05
-2.238975782101497e-05   5.9970455870113695e-06   3.916367074097626e-05
-2.238975782101497e-05   5.9970455870113695e-06   3.916367074097626e-05
-2.238975782101497e-05   5.9970455870113695e-06   3.916367074097626e-05
-3.540167271781706e-05   4.555521302682499e-06   1.6612231342375645e-05
-3.540167271781706e-05   4.555521302682499e-06   1.6612231342375645e-05
-3.540167271781706e-05   4.555521302682499e-06   1.6612231342375645e-05
-3.540167271781706e-05   4.555521302682499e-06   1.6612231342375645e-05
-3.6050600529654794e-05   5.1754032357100715e-06   3.947971092458833e-05
-3.6050600529654794e-05   5.1754032357100715e-06   3.947971092458833e-05
-3.6050600529654794e-05   5.1754032357100715e-06   3.947971092458833e-05
-3.6050600529654794e-05   5.1754032357100715e-06   3.947971092458833e-05
-2.298510663848515e-05   3.7477121283616133e-06   1.8560502437048386e-05
-2.298510663848515e-05   3.7477121283616133e-06   1.8560502437048386e-05
-2.298510663848515e-05   3.7477121283616133e-06   1.8560502437048386e-05
-2.298510663848515e-05   3.7477121283616133e-06   1.8560502437048386e-05
-2.896728561691824e-05   5.147109124325946e-06   2.7691162536859666e-05
-2.896728561691824e-05   5.147109124325946e-06   2.7691162536859666e-05
-2.896728561691824e-05   5.147109124325946e-06   2.7691162536859666e-05
-2.896728561691824e-05   5.147109124325946e-06   2.7691162536859666e-05
-3.400814609003539e-05   9.865779215789943e-06   1.763547377349006e-05
-3.400814609003539e-05   9.865779215789943e-06   1.763547377349006e-05
-3.400814609003539e-05   9.865779215789943e-06   1.763547377349006e-05
-3.400814609003539e-05   9.865779215789943e-06   1.763547377349006e-05
-4.554175935186748e-05   7.550680853634587e-06   -2.976274013523209e-06
-4.554175935186748e-05   7.550680853634587e-06   -2.976274013523209e-06
-4.554175935186748e-05   7.550680853634587e-06   -2.976274013523209e-06
-4.554175935186748e-05   7.550680853634587e-06   -2.976274013523209e-06
-4.717609366492782e-05   9.608972550939447e-06   2.1734590060580074e-05
-4.717609366492782e-05   9.608972550939447e-06   2.1734590060580074e-05
-4.717609366492782e-05   9.608972550939447e-06   2.1734590060580074e-05
-4.717609366492782e-05   9.608972550939447e-06   2.1734590060580074e-05
-3.464596647722868e-05   7.122925001747755e-06   2.342673277263164e-06
-3.464596647722868e-05   7.122925001747755e-06   2.342673277263164e-06
-3.464596647722868e-05   7.122925001747755e-06   2.342673277263164e-06
-3.464596647722868e-05   7.122925001747755e-06   2.342673277263164e-06
-3.8874269020164944e-05   8.381498185617339e-06   8.634700271836922e-06
-3.8874269020164944e-05   8.381498185617339e-06   8.634700271836922e-06
-3.8874269020164944e-05   8.381498185617339e-06   8.634700271836922e-06
-3.8874269020164944e-05   8.381498185617339e-06   8.634700271836922e-06
-3.464596647722874e-05   9.608972550939014e-06   2.32262185900947e-05
-3.464596647722874e-05   9.608972550939014e-06   2.32262185900947e-05
-3.464596647722874e-05   9.608972550939014e-06   2.32262185900947e-05
-3.464596647722874e-05   9.608972550939014e-06   2.32262185900947e-05
-4.717609366492793e-05   7.122925001747755e-06   8.51044747748322e-07
-4.717609366492793e-05   7.122925001747755e-06   8.51044747748322e-07
-4.717609366492793e-05   7.122925001747755e-06   8.51044747748322e-07
-4.717609366492793e-05   7.122925001747755e-06   8.51044747748322e-07
-4.8584010630645514e-05   9.297288415201568e-06   2.5717197432329354e-05
-4.8584010630645514e-05   9.297288415201568e-06   2.5717197432329354e-05
-4.8584010630645514e-05   9.297288415201568e-06   2.5717197432329354e-05
-4.8584010630645514e-05   9.297288415201568e-06   2.5717197432329354e-05
-3.540167271781706e-05   6.76666802787787e-06   5.265006476675815e-06
-3.540167271781706e-05   6.76666802787787e-06   5.265006476675815e-06
-3.540167271781706e-05   6.76666802787787e-06   5.265006476675815e-06
-3.540167271781706e-05   6.76666802787787e-06   5.265006476675815e-06
-4.044171250075371e-05   8.269846037201219e-06   1.2763165975977482e-05
-4.044171250075371e-05   8.269846037201219e-06   1.2763165975977482e-05
-4.044171250075371e-05   8.269846037201219e-06   1.2763165975977482e-05
-4.044171250075371e-05   8.269846037201219e-06   1.2763165975977482e-05
-3.5401672717817116e-05   9.297288415201568e-06   2.72355696647234e-05
-3.5401672717817116e-05   9.297288415201568e-06   2.72355696647234e-05
-3.5401672717817116e-05   9.297288415201568e-06   2.72355696647234e-05
-3.5401672717817116e-05   9.297288415201568e-06   2.72355696647234e-05
-4.858401063064573e-05   6.76666802787787e-06   3.746634244281878e-06
-4.858401063064573e-05   6.76666802787787e-06   3.746634244281878e-06
-4.858401063064573e-05   6.76666802787787e-06   3.746634244281878e-06
-4.858401063064573e-05   6.76666802787787e-06   3.746634244281878e-06
-5.026992587204779e-05   8.253082323056958e-06   3.276703061213951e-05
-5.026992587204779e-05   8.253082323056958e-06   3.276703061213951e-05
-5.026992587204779e-05   8.253082323056958e-06   3.276703061213951e-05
-5.026992587204779e-05   8.253082323056958e-06   3.276703061213951e-05
-3.6050600529654686e-05   5.799545780677722e-06   1.0540276966912367e-05
-3.6050600529654686e-05   5.799545780677722e-06   1.0540276966912367e-05
-3.6050600529654686e-05   5.799545780677722e-06   1.0540276966912367e-05
-3.6050600529654686e-05   5.799545780677722e-06   1.0540276966912367e-05
-4.0836117300925714e-05   7.83006395306974e-06   1.7297827348929594e-05
-4.0836117300925714e-05   7.83006395306974e-06   1.7297827348929594e-05
-4.0836117300925714e-05   7.83006395306974e-06   1.7297827348929594e-05
-4.0836117300925714e-05   7.83006395306974e-06   1.7297827348929594e-05
3.836350683247071e-06   6.685239476193414e-08   2.0908993072684236e-05
3.836350683247071e-06   6.685239476193414e-08   2.0908993072684236e-05
3.836350683247071e-06   6.685239476193414e-08   2.0908993072684236e-05
3.836350683247071e-06   6.685239476193414e-08   2.0908993072684236e-05
-4.4646421519449945e-06   2.29651328097929e-06   8.41180154576124e-06
-4.4646421519449945e-06   2.29651328097929e-06   8.41180154576124e-06
-4.4646421519449945e-06   2.29651328097929e-06   8.41180154576124e-06
-4.4646421519449945e-06   2.29651328097929e-06   8.41180154576124e-06
-4.955325619280511e-06   -7.236541889649346e-07   2.0637345973506787e-05
-4.955325619280511e-06   -7.236541889649346e-07   2.0637345973506787e-05
-4.955325619280511e-06   -7.236541889649346e-07   2.0637345973506787e-05
-4.955325619280511e-06   -7.236541889649346e-07   2.0637345973506787e-05
2.341640325241679e-06   1.5591845686272442e-06   7.106032811414497e-06
2.341640325241679e-06   1.5591845686272442e-06   7.106032811414497e-06
2.341640325241679e-06   1.5591845686272442e-06   7.106032811414497e-06
2.341640325241679e-06   1.5591845686272442e-06   7.106032811414497e-06
-1.0018109471714322e-06   6.739028512359104e-07   1.3209620629204524e-05
-1.0018109471714322e-06   6.739028512359104e-07   1.3209620629204524e-05
-1.0018109471714322e-06   6.739028512359104e-07   1.3209620629204524e-05
-1.0018109471714322e-06   6.739028512359104e-07   1.3209620629204524e-05
2.341640325241679e-06   -7.236541889649346e-07   1.9267642718951306e-05
2.341640325241679e-06   -7.236541889649346e-07   1.9267642718951306e-05
2.341640325241679e-06   -7.236541889649346e-07   1.9267642718951306e-05
2.341640325241679e-06   -7.236541889649346e-07   1.9267642718951306e-05
-4.955325619280511e-06   1.5591845686272442e-06   8.47573606596987e-06
-4.955325619280511e-06   1.5591845686272442e-06   8.47573606596987e-06
-4.955325619280511e-06   1.5591845686272442e-06   8.47573606596987e-06
-4.955325619280511e-06   1.5591845686272442e-06   8.47573606596987e-06
-5.5611969804038745e-06   -1.0652628061442147e-06   2.01064788608623e-05
-5.5611969804038745e-06   -1.0652628061442147e-06   2.01064788608623e-05
-5.5611969804038745e-06   -1.0652628061442147e-06   2.01064788608623e-05
-5.5611969804038745e-06   -1.0652628061442147e-06   2.01064788608623e-05
1.0453442069457703e-06   1.1522003932962818e-06   7.765098962281747e-06
1.0453442069457703e-06   1.1522003932962818e-06   7.765098962281747e-06
1.0453442069457703e-06   1.1522003932962818e-06   7.765098962281747e-06
1.0453442069457703e-06   1.1522003932962818e-06   7.765098962281747e-06
-1.8096029858916857e-06   3.5964011601153506e-07   1.2998880450048494e-05
-1.8096029858916857e-06   3.5964011601153506e-07   1.2998880450048494e-05
-1.8096029858916857e-06   3.5964011601153506e-07   1.2998880450048494e-05
-1.8096029858916857e-06   3.5964011601153506e-07   1.2998880450048494e-05
1.0453442069457703e-06   -1.0652628061442147e-06   1.877600094119772e-05
1.0453442069457703e-06   -1.0652628061442147e-06   1.877600094119772e-05
1.0453442069457703e-06   -1.0652628061442147e-06   1.877600094119772e-05
1.0453442069457703e-06   -1.0652628061442147e-06   1.877600094119772e-05
-5.561196980403868e-06   1.1522003932962818e-06   9.095576881946272e-06
-5.561196980403868e-06   1.1522003932962818e-06   9.095576881946272e-06
-5.561196980403868e-06   1.1522003932962818e-06   9.095576881946272e-06
-5.561196980403868e-06   1.1522003932962818e-06   9.095576881946272e-06
-6.067087145247691e-06   -1.6357513886796227e-06   1.993100675300272e-05
-6.067087145247691e-06   -1.6357513886796227e-06   1.993100675300272e-05
-6.067087145247691e-06   -1.6357513886796227e-06   1.993100675300272e-05
-6.067087145247691e-06   -1.6357513886796227e-06   1.993100675300272e-05
-5.803678344689094e-07   2.87927765794168e-07   9.6322670756872e-06
-5.803678344689094e-07   2.87927765794168e-07   9.6322670756872e-06
-5.803678344689094e-07   2.87927765794168e-07   9.6322670756872e-06
-5.803678344689094e-07   2.87927765794168e-07   9.6322670756872e-06
-2.6757310448228527e-06   6.994101151426395e-08   1.3255331145511885e-05
-2.6757310448228527e-06   6.994101151426395e-08   1.3255331145511885e-05
-2.6757310448228527e-06   6.994101151426395e-08   1.3255331145511885e-05
-2.6757310448228527e-06   6.994101151426395e-08   1.3255331145511885e-05
-4.4646421519449945e-06   2.224197302711818e-06   3.360295423396071e-05
-4.4646421519449945e-06   2.224197302711818e-06   3.360295423396071e-05
-4.4646421519449945e-06   2.224197302711818e-06   3.360295423396071e-05
-4.4646421519449945e-06   2.224197302711818e-06   3.360295423396071e-05
-1.1414879050995145e-05   2.661985200079226e-06   2.228189880729755e-05
-1.1414879050995145e-05   2.661985200079226e-06   2.228189880729755e-05
-1.1414879050995145e-05   2.661985200079226e-06   2.228189880729755e-05
-1.1414879050995145e-05   2.661985200079226e-06   2.228189880729755e-05
-1.1784342621768882e-05   1.3298902060193598e-06   3.3513594001615896e-05
-1.1784342621768882e-05   1.3298902060193598e-06   3.3513594001615896e-05
-1.1784342621768882e-05   1.3298902060193598e-06   3.3513594001615896e-05
-1.1784342621768882e-05   1.3298902060193598e-06   3.3513594001615896e-05
-4.955325619280511e-06   1.8379781759577437e-06   2.182704621550542e-05
-4.955325619280511e-06   1.8379781759577437e-06   2.182704621550542e-05
-4.955325619280511e-06   1.8379781759577437e-06   2.182704621550542e-05
-4.955325619280511e-06   1.8379781759577437e-06   2.182704621550542e-05
-8.202246681031664e-06   1.9185610445632967e-06   2.7190231597260645e-05
-8.202246681031664e-06   1.9185610445632967e-06   2.7190231597260645e-05
-8.202246681031664e-06   1.9185610445632967e-06   2.7190231597260645e-05
-8.202246681031664e-06   1.9185610445632967e-06   2.7190231597260645e-05
-4.9553256192805175e-06   1.3298902060193598e-06   3.320874121965256e-05
-4.9553256192805175e-06   1.3298902060193598e-06   3.320874121965256e-05
-4.9553256192805175e-06   1.3298902060193598e-06   3.320874121965256e-05
-4.9553256192805175e-06   1.3298902060193598e-06   3.320874121965256e-05
-1.1784342621768882e-05   1.8379781759577437e-06   2.213189899746837e-05
-1.1784342621768882e-05   1.8379781759577437e-06   2.213189899746837e-05
-1.1784342621768882e-05   1.8379781759577437e-06   2.213189899746837e-05
-1.1784342621768882e-05   1.8379781759577437e-06   2.213189899746837e-05
-1.216533906052376e-05   5.712079072027303e-07   3.358380586222765e-05
-1.216533906052376e-05   5.712079072027303e-07   3.358380586222765e-05
-1.216533906052376e-05   5.712079072027303e-07   3.358380586222765e-05
-1.216533906052376e-05   5.712079072027303e-07   3.358380586222765e-05
-5.561196980403868e-06   1.076324346062623e-06   2.2273832532045237e-05
-5.561196980403868e-06   1.076324346062623e-06   2.2273832532045237e-05
-5.561196980403868e-06   1.076324346062623e-06   2.2273832532045237e-05
-5.561196980403868e-06   1.076324346062623e-06   2.2273832532045237e-05
-8.579298430641615e-06   1.3157865108109033e-06   2.7160324316926156e-05
-8.579298430641615e-06   1.3157865108109033e-06   2.7160324316926156e-05
-8.579298430641615e-06   1.3157865108109033e-06   2.7160324316926156e-05
-8.579298430641615e-06   1.3157865108109033e-06   2.7160324316926156e-05
-5.5611969804038745e-06   5.712079072025134e-07   3.328073599891167e-05
-5.5611969804038745e-06   5.712079072025134e-07   3.328073599891167e-05
-5.5611969804038745e-06   5.712079072025134e-07   3.328073599891167e-05
-5.5611969804038745e-06   5.712079072025134e-07   3.328073599891167e-05
-1.216533906052376e-05   1.076324346062623e-06   2.257690239536119e-05
-1.216533906052376e-05   1.076324346062623e-06   2.257690239536119e-05
-1.216533906052376e-05   1.076324346062623e-06   2.257690239536119e-05
-1.216533906052376e-05   1.076324346062623e-06   2.257690239536119e-05
-1.253885316005509e-05   -2.0503443224034572e-07   3.42403252349664e-05
-1.253885316005509e-05   -2.0503443224034572e-07   3.42403252349664e-05
-1.253885316005509e-05   -2.0503443224034572e-07   3.42403252349664e-05
-1.253885316005509e-05   -2.0503443224034572e-07   3.42403252349664e-05
-6.0670871452476845e-06   2.500794492002901e-07   2.3180980214756604e-05
-6.0670871452476845e-06   2.500794492002901e-07   2.3180980214756604e-05
-6.0670871452476845e-06   2.500794492002901e-07   2.3180980214756604e-05
-6.0670871452476845e-06   2.500794492002901e-07   2.3180980214756604e-05
-8.956286741386393e-06   7.223601874071194e-07   2.771294443206342e-05
-8.956286741386393e-06   7.223601874071194e-07   2.771294443206342e-05
-8.956286741386393e-06   7.223601874071194e-07   2.771294443206342e-05
-8.956286741386393e-06   7.223601874071194e-07   2.771294443206342e-05
-1.1414879050995145e-05   4.140265782250725e-06   3.782820260181895e-05
-1.1414879050995145e-05   4.140265782250725e-06   3.782820260181895e-05
-1.1414879050995145e-05   4.140265782250725e-06   3.782820260181895e-05
-1.1414879050995145e-05   4.140265782250725e-06   3.782820260181895e-05
-1.8346988643619313e-05   3.1855126648532277e-06   2.5701834743673316e-05
-1.8346988643619313e-05   3.1855126648532277e-06   2.5701834743673316e-05
-1.8346988643619313e-05   3.1855126648532277e-06   2.5701834743673316e-05
-1.8346988643619313e-05   3.1855126648532277e-06   2.5701834743673316e-05
-1.8659294658823625e-05   3.315002457542895e-06   3.712752075485902e-05
-1.8659294658823625e-05   3.315002457542895e-06   3.712752075485902e-05
-1.8659294658823625e-05   3.315002457542895e-06   3.712752075485902e-05
-1.8659294658823625e-05   3.315002457542895e-06   3.712752075485902e-05
-1.1784342621768882e-05   2.42109974429275e-06   2.620560898771758e-05
-1.1784342621768882e-05   2.42109974429275e-06   2.620560898771758e-05
-1.1784342621768882e-05   2.42109974429275e-06   2.620560898771758e-05
-1.1784342621768882e-05   2.42109974429275e-06   2.620560898771758e-05
-1.5058533323557521e-05   3.2033061047860665e-06   3.119326967440287e-05
-1.5058533323557521e-05   3.2033061047860665e-06   3.119326967440287e-05
-1.5058533323557521e-05   3.2033061047860665e-06   3.119326967440287e-05
-1.5058533323557521e-05   3.2033061047860665e-06   3.119326967440287e-05
-1.1784342621768882e-05   3.315002457542895e-06   3.766386238280889e-05
-1.1784342621768882e-05   3.315002457542895e-06   3.766386238280889e-05
-1.1784342621768882e-05   3.315002457542895e-06   3.766386238280889e-05
-1.1784342621768882e-05   3.315002457542895e-06   3.766386238280889e-05
-1.8659294658823625e-05   2.42109974429275e-06   2.5669267359767654e-05
-1.8659294658823625e-05   2.42109974429275e-06   2.5669267359767654e-05
-1.8659294658823625e-05   2.42109974429275e-06   2.5669267359767654e-05
-1.8659294658823625e-05   2.42109974429275e-06   2.5669267359767654e-05
-1.899410189700547e-05   2.4939418925076784e-06   3.750032280544729e-05
-1.899410189700547e-05   2.4939418925076784e-06   3.750032280544729e-05
-1.899410189700547e-05   2.4939418925076784e-06   3.750032280544729e-05
-1.899410189700547e-05   2.4939418925076784e-06   3.750032280544729e-05
-1.216533906052376e-05   1.6441063633624263e-06   2.6628952728798146e-05
-1.216533906052376e-05   1.6441063633624263e-06   2.6628952728798146e-05
-1.216533906052376e-05   1.6441063633624263e-06   2.6628952728798146e-05
-1.216533906052376e-05   1.6441063633624263e-06   2.6628952728798146e-05
-1.5325343386272657e-05   2.590747879683544e-06   3.132764169525373e-05
-1.5325343386272657e-05   2.590747879683544e-06   3.132764169525373e-05
-1.5325343386272657e-05   2.590747879683544e-06   3.132764169525373e-05
-1.5325343386272657e-05   2.590747879683544e-06   3.132764169525373e-05
-1.216533906052376e-05   2.4939418925076784e-06   3.801022412293397e-05
-1.216533906052376e-05   2.4939418925076784e-06   3.801022412293397e-05
-1.216533906052376e-05   2.4939418925076784e-06   3.801022412293397e-05
-1.216533906052376e-05   2.4939418925076784e-06   3.801022412293397e-05
-1.899410189700547e-05   1.6441063633626431e-06   2.6119051411310984e-05
-1.899410189700547e-05   1.6441063633626431e-06   2.6119051411310984e-05
-1.899410189700547e-05   1.6441063633626431e-06   2.6119051411310984e-05
-1.899410189700547e-05   1.6441063633626431e-06   2.6119051411310984e-05
-1.932198675551268e-05   1.7075479322697495e-06   3.827739337382177e-05
-1.932198675551268e-05   1.7075479322697495e-06   3.827739337382177e-05
-1.932198675551268e-05   1.7075479322697495e-06   3.827739337382177e-05
-1.932198675551268e-05   1.7075479322697495e-06   3.827739337382177e-05
-1.253885316005509e-05   9.071140805742752e-07   2.745243102574333e-05
-1.253885316005509e-05   9.071140805742752e-07   2.745243102574333e-05
-1.253885316005509e-05   9.071140805742752e-07   2.745243102574333e-05
-1.253885316005509e-05   9.071140805742752e-07   2.745243102574333e-05
-1.5622651522425332e-05   1.9872432170369575e-06   3.194401748114924e-05
-1.5622651522425332e-05   1.9872432170369575e-06   3.194401748114924e-05
-1.5622651522425332e-05   1.9872432170369575e-06   3.194401748114924e-05
-1.5622651522425332e-05   1.9872432170369575e-06   3.194401748114924e-05
-1.834698864361942e-05   6.144607668128951e-06   3.269575038579377e-05
-1.834698864361942e-05   6.144607668128951e-06   3.269575038579377e-05
-1.834698864361942e-05   6.144607668128951e-06   3.269575038579377e-05
-1.834698864361942e-05   6.144607668128951e-06   3.269575038579377e-05
-2.5162288368362244e-05   4.302137243369095e-06   2.0231435256366163e-05
-2.5162288368362244e-05   4.302137243369095e-06   2.0231435256366163e-05
-2.5162288368362244e-05   4.302137243369095e-06   2.0231435256366163e-05
-2.5162288368362244e-05   4.302137243369095e-06   2.0231435256366163e-05
-2.5505310539744358e-05   5.311973930063147e-06   3.173120276247772e-05
-2.5505310539744358e-05   5.311973930063147e-06   3.173120276247772e-05
-2.5505310539744358e-05   5.311973930063147e-06   3.173120276247772e-05
-2.5505310539744358e-05   5.311973930063147e-06   3.173120276247772e-05
-1.8659294658823625e-05   3.4978120809249502e-06   2.1409673403759524e-05
-1.8659294658823625e-05   3.4978120809249502e-06   2.1409673403759524e-05
-1.8659294658823625e-05   3.4978120809249502e-06   2.1409673403759524e-05
-1.8659294658823625e-05   3.4978120809249502e-06   2.1409673403759524e-05
-2.187206222152338e-05   4.774258418114956e-06   2.5998418205945193e-05
-2.187206222152338e-05   4.774258418114956e-06   2.5998418205945193e-05
-2.187206222152338e-05   4.774258418114956e-06   2.5998418205945193e-05
-2.187206222152338e-05   4.774258418114956e-06   2.5998418205945193e-05
-1.8659294658823625e-05   5.311973930063147e-06   3.281969987196085e-05
-1.8659294658823625e-05   5.311973930063147e-06   3.281969987196085e-05
-1.8659294658823625e-05   5.311973930063147e-06   3.281969987196085e-05
-1.8659294658823625e-05   5.311973930063147e-06   3.281969987196085e-05
-2.550531053974425e-05   3.4978120809249502e-06   2.032117629427666e-05
-2.550531053974425e-05   3.4978120809249502e-06   2.032117629427666e-05
-2.550531053974425e-05   3.4978120809249502e-06   2.032117629427666e-05
-2.550531053974425e-05   3.4978120809249502e-06   2.032117629427666e-05
-2.5980134966480204e-05   4.5555213026827156e-06   3.2786309302726586e-05
-2.5980134966480204e-05   4.5555213026827156e-06   3.2786309302726586e-05
-2.5980134966480204e-05   4.5555213026827156e-06   3.2786309302726586e-05
-2.5980134966480204e-05   4.5555213026827156e-06   3.2786309302726586e-05
-1.899410189700547e-05   2.7826828032477546e-06   2.2206623953262847e-05
-1.899410189700547e-05   2.7826828032477546e-06   2.2206623953262847e-05
-1.899410189700547e-05   2.7826828032477546e-06   2.2206623953262847e-05
-1.899410189700547e-05   2.7826828032477546e-06   2.2206623953262847e-05
-2.205858279558589e-05   4.180555427938781e-06   2.647536854274914e-05
-2.205858279558589e-05   4.180555427938781e-06   2.647536854274914e-05
-2.205858279558589e-05   4.180555427938781e-06   2.647536854274914e-05
-2.205858279558589e-05   4.180555427938781e-06   2.647536854274914e-05
-1.899410189700547e-05   4.5555213026827156e-06   3.385001240238726e-05
-1.899410189700547e-05   4.5555213026827156e-06   3.385001240238726e-05
-1.899410189700547e-05   4.5555213026827156e-06   3.385001240238726e-05
-1.899410189700547e-05   4.5555213026827156e-06   3.385001240238726e-05
-2.5980134966480095e-05   2.7826828032477546e-06   2.114292085360212e-05
-2.5980134966480095e-05   2.7826828032477546e-06   2.114292085360212e-05
-2.5980134966480095e-05   2.7826828032477546e-06   2.114292085360212e-05
-2.5980134966480095e-05   2.7826828032477546e-06   2.114292085360212e-05
-2.6360970651255835e-05   3.7477121283616133e-06   3.396154367994752e-05
-2.6360970651255835e-05   3.7477121283616133e-06   3.396154367994752e-05
-2.6360970651255835e-05   3.7477121283616133e-06   3.396154367994752e-05
-2.6360970651255835e-05   3.7477121283616133e-06   3.396154367994752e-05
-1.9321986755512627e-05   2.054631779004794e-06   2.324575206332294e-05
-1.9321986755512627e-05   2.054631779004794e-06   2.324575206332294e-05
-1.9321986755512627e-05   2.054631779004794e-06   2.324575206332294e-05
-1.9321986755512627e-05   2.054631779004794e-06   2.324575206332294e-05
-2.245143221289776e-05   3.6164926100648413e-06   2.752437799366297e-05
-2.245143221289776e-05   3.6164926100648413e-06   2.752437799366297e-05
-2.245143221289776e-05   3.6164926100648413e-06   2.752437799366297e-05
-2.245143221289776e-05   3.6164926100648413e-06   2.752437799366297e-05
-2.5162288368362244e-05   7.550680853634587e-06   1.4404559272647487e-05
-2.5162288368362244e-05   7.550680853634587e-06   1.4404559272647487e-05
-2.5162288368362244e-05   7.550680853634587e-06   1.4404559272647487e-05
-2.5162288368362244e-05   7.550680853634587e-06   1.4404559272647487e-05
-3.0491927382186672e-05   5.075270102505901e-06   4.03658113226291e-06
-3.0491927382186672e-05   5.075270102505901e-06   4.03658113226291e-06
-3.0491927382186672e-05   5.075270102505901e-06   4.03658113226291e-06
-3.0491927382186672e-05   5.075270102505901e-06   4.03658113226291e-06
-3.179620417828675e-05   7.122925001747972e-06   1.68807216703714e-05
-3.179620417828675e-05   7.122925001747972e-06   1.68807216703714e-05
-3.179620417828675e-05   7.122925001747972e-06   1.68807216703714e-05
-3.179620417828675e-05   7.122925001747972e-06   1.68807216703714e-05
-2.5505310539744304e-05   4.539935033027803e-06   7.945692920699314e-06
-2.5505310539744304e-05   4.539935033027803e-06   7.945692920699314e-06
-2.5505310539744304e-05   4.539935033027803e-06   7.945692920699314e-06
-2.5505310539744304e-05   4.539935033027803e-06   7.945692920699314e-06
-2.7259652378941332e-05   6.012510774730138e-06   9.986050541006299e-06
-2.7259652378941332e-05   6.012510774730138e-06   9.986050541006299e-06
-2.7259652378941332e-05   6.012510774730138e-06   9.986050541006299e-06
-2.7259652378941332e-05   6.012510774730138e-06   9.986050541006299e-06
-2.550531053974425e-05   7.122925001747755e-06   1.843051565160285e-05
-2.550531053974425e-05   7.122925001747755e-06   1.843051565160285e-05
-2.550531053974425e-05   7.122925001747755e-06   1.843051565160285e-05
-2.550531053974425e-05   7.122925001747755e-06   1.843051565160285e-05
-3.179620417828686e-05   4.539935033027803e-06   6.395898939467195e-06
-3.179620417828686e-05   4.539935033027803e-06   6.395898939467195e-06
-3.179620417828686e-05   4.539935033027803e-06   6.395898939467195e-06
-3.179620417828686e-05   4.539935033027803e-06   6.395898939467195e-06
-3.2916574210252176e-05   6.76666802787787e-06   1.988271245568921e-05
-3.2916574210252176e-05   6.76666802787787e-06   1.988271245568921e-05
-3.2916574210252176e-05   6.76666802787787e-06   1.988271245568921e-05
-3.2916574210252176e-05   6.76666802787787e-06   1.988271245568921e-05
-2.598013496648015e-05   4.172714725647793e-06   9.878352364073631e-06
-2.598013496648015e-05   4.172714725647793e-06   9.878352364073631e-06
-2.598013496648015e-05   4.172714725647793e-06   9.878352364073631e-06
-2.598013496648015e-05   4.172714725647793e-06   9.878352364073631e-06
-2.8363771684379428e-05   5.801708599832613e-06   1.2873683902728987e-05
-2.8363771684379428e-05   5.801708599832613e-06   1.2873683902728987e-05
-2.8363771684379428e-05   5.801708599832613e-06   1.2873683902728987e-05
-2.8363771684379428e-05   5.801708599832613e-06   1.2873683902728987e-05
-2.598013496648015e-05   6.76666802787787e-06   2.1439084437026865e-05
-2.598013496648015e-05   6.76666802787787e-06   2.1439084437026865e-05
-2.598013496648015e-05   6.76666802787787e-06   2.1439084437026865e-05
-2.598013496648015e-05   6.76666802787787e-06   2.1439084437026865e-05
-3.2916574210252285e-05   4.172714725647793e-06   8.321980382735647e-06
-3.2916574210252285e-05   4.172714725647793e-06   8.321980382735647e-06
-3.2916574210252285e-05   4.172714725647793e-06   8.321980382735647e-06
-3.2916574210252285e-05   4.172714725647793e-06   8.321980382735647e-06
-3.434449094174977e-05   5.799545780677722e-06   2.531716834921517e-05
-3.434449094174977e-05   5.799545780677722e-06   2.531716834921517e-05
-3.434449094174977e-05   5.799545780677722e-06   2.531716834921517e-05
-3.434449094174977e-05   5.799545780677722e-06   2.531716834921517e-05
-2.6360970651255835e-05   3.3316049056686045e-06   1.3492065723397467e-05
-2.6360970651255835e-05   3.3316049056686045e-06   1.3492065723397467e-05
-2.6360970651255835e-05   3.3316049056686045e-06   1.3492065723397467e-05
-2.6360970651255835e-05   3.3316049056686045e-06   1.3492065723397467e-05
-2.8681124674890548e-05   5.400431611033395e-06   1.6117693072902842e-05
-2.8681124674890548e-05   5.400431611033395e-06   1.6117693072902842e-05
-2.8681124674890548e-05   5.400431611033395e-06   1.6117693072902842e-05
-2.8681124674890548e-05   5.400431611033395e-06   1.6117693072902842e-05
-1.268148188495308e-05   2.29651328097929e-06   1.4881041418572248e-05
-1.268148188495308e-05   2.29651328097929e-06   1.4881041418572248e-05
-1.268148188495308e-05   2.29651328097929e-06   1.4881041418572248e-05
-1.268148188495308e-05   2.29651328097929e-06   1.4881041418572248e-05
-1.3781593263346688e-05   4.321814382741529e-06   1.4262703115640275e-05
-1.3781593263346688e-05   4.321814382741529e-06   1.4262703115640275e-05
-1.3781593263346688e-05   4.321814382741529e-06   1.4262703115640275e-05
-1.3781593263346688e-05   4.321814382741529e-06   1.4262703115640275e-05
-1.4131668501432878e-05   1.5591845686272442e-06   1.6009267901022318e-05
-1.4131668501432878e-05   1.5591845686272442e-06   1.6009267901022318e-05
-1.4131668501432878e-05   1.5591845686272442e-06   1.6009267901022318e-05
-1.4131668501432878e-05   1.5591845686272442e-06   1.6009267901022318e-05
-1.4163323693461554e-05   3.379640762097213e-06   1.496975283832129e-05
-1.4163323693461554e-05   3.379640762097213e-06   1.496975283832129e-05
-1.4163323693461554e-05   3.379640762097213e-06   1.496975283832129e-05
-1.4163323693461554e-05   3.379640762097213e-06   1.496975283832129e-05
-1.3346885227012753e-05   2.702232198566624e-06   1.4015467199025107e-05
-1.3346885227012753e-05   2.702232198566624e-06   1.4015467199025107e-05
-1.3346885227012753e-05   2.702232198566624e-06   1.4015467199025107e-05
-1.3346885227012753e-05   2.702232198566624e-06   1.4015467199025107e-05
-1.4163323693461568e-05   1.5591845686270273e-06   1.4916994184940011e-05
-1.4163323693461568e-05   1.5591845686270273e-06   1.4916994184940011e-05
-1.4163323693461568e-05   1.5591845686270273e-06   1.4916994184940011e-05
-1.4163323693461568e-05   1.5591845686270273e-06   1.4916994184940011e-05
-1.4131668501432878e-05   3.379640762097213e-06   1.606202655440338e-05
-1.4131668501432878e-05   3.379640762097213e-06   1.606202655440338e-05
-1.4131668501432878e-05   3.379640762097213e-06   1.606202655440338e-05
-1.4131668501432878e-05   3.379640762097213e-06   1.606202655440338e-05
-1.4586199035230089e-05   1.1522003932962818e-06   1.652936563878546e-05
-1.4586199035230089e-05   1.1522003932962818e-06   1.652936563878546e-05
-1.4586199035230089e-05   1.1522003932962818e-06   1.652936563878546e-05
-1.4586199035230089e-05   1.1522003932962818e-06   1.652936563878546e-05
-1.560354499070059e-05   2.7270772210882506e-06   1.7280016134560807e-05
-1.560354499070059e-05   2.7270772210882506e-06   1.7280016134560807e-05
-1.560354499070059e-05   2.7270772210882506e-06   1.7280016134560807e-05
-1.560354499070059e-05   2.7270772210882506e-06   1.7280016134560807e-05
-1.4229373644070157e-05   2.2954805806215534e-06   1.5248688541123138e-05
-1.4229373644070157e-05   2.2954805806215534e-06   1.5248688541123138e-05
-1.4229373644070157e-05   2.2954805806215534e-06   1.5248688541123138e-05
-1.4229373644070157e-05   2.2954805806215534e-06   1.5248688541123138e-05
-1.560354499070062e-05   1.1522003932962818e-06   1.558443954210976e-05
-1.560354499070062e-05   1.1522003932962818e-06   1.558443954210976e-05
-1.560354499070062e-05   1.1522003932962818e-06   1.558443954210976e-05
-1.560354499070062e-05   1.1522003932962818e-06   1.558443954210976e-05
-1.4586199035230089e-05   2.7270772210882506e-06   1.822494223123613e-05
-1.4586199035230089e-05   2.7270772210882506e-06   1.822494223123613e-05
-1.4586199035230089e-05   2.7270772210882506e-06   1.822494223123613e-05
-1.4586199035230089e-05   2.7270772210882506e-06   1.822494223123613e-05
-1.4873909196529463e-05   2.87927765794168e-07   1.8190862473285675e-05
-1.4873909196529463e-05   2.87927765794168e-07   1.8190862473285675e-05
-1.4873909196529463e-05   2.87927765794168e-07   1.8190862473285675e-05
-1.4873909196529463e-05   2.87927765794168e-07   1.8190862473285675e-05
-1.7136347669759132e-05   1.1213511860929878e-06   2.1461539209822453e-05
-1.7136347669759132e-05   1.1213511860929878e-06   2.1461539209822453e-05
-1.7136347669759132e-05   1.1213511860929878e-06   2.1461539209822453e-05
-1.7136347669759132e-05   1.1213511860929878e-06   2.1461539209822453e-05
-1.4843675731001485e-05   1.7947182927085734e-06   1.7236399047923132e-05
-1.4843675731001485e-05   1.7947182927085734e-06   1.7236399047923132e-05
-1.4843675731001485e-05   1.7947182927085734e-06   1.7236399047923132e-05
-1.4843675731001485e-05   1.7947182927085734e-06   1.7236399047923132e-05
-1.3781593263346654e-05   2.661985200079226e-06   2.9703646602745478e-05
-1.3781593263346654e-05   2.661985200079226e-06   2.9703646602745478e-05
-1.3781593263346654e-05   2.661985200079226e-06   2.9703646602745478e-05
-1.3781593263346654e-05   2.661985200079226e-06   2.9703646602745478e-05
-1.391646635441214e-05   1.1178549587774088e-06   2.8552379972855203e-05
-1.391646635441214e-05   1.1178549587774088e-06   2.8552379972855203e-05
-1.391646635441214e-05   1.1178549587774088e-06   2.8552379972855203e-05
-1.391646635441214e-05   1.1178549587774088e-06   2.8552379972855203e-05
-1.4022335828881179e-05   1.8379781759577437e-06   2.8580667488731768e-05
-1.4022335828881179e-05   1.8379781759577437e-06   2.8580667488731768e-05
-1.4022335828881179e-05   1.8379781759577437e-06   2.8580667488731768e-05
-1.4022335828881179e-05   1.8379781759577437e-06   2.8580667488731768e-05
-1.4131668501432878e-05   5.381272395805397e-07   2.9542799171477485e-05
-1.4131668501432878e-05   5.381272395805397e-07   2.9542799171477485e-05
-1.4131668501432878e-05   5.381272395805397e-07   2.9542799171477485e-05
-1.4131668501432878e-05   5.381272395805397e-07   2.9542799171477485e-05
-1.3919108892007766e-05   1.3617889427120118e-06   2.8694336133890124e-05
-1.3919108892007766e-05   1.3617889427120118e-06   2.8694336133890124e-05
-1.3919108892007766e-05   1.3617889427120118e-06   2.8694336133890124e-05
-1.3919108892007766e-05   1.3617889427120118e-06   2.8694336133890124e-05
-1.4131668501432864e-05   1.8379781759577437e-06   2.9360578050557484e-05
-1.4131668501432864e-05   1.8379781759577437e-06   2.9360578050557484e-05
-1.4131668501432864e-05   1.8379781759577437e-06   2.9360578050557484e-05
-1.4131668501432864e-05   1.8379781759577437e-06   2.9360578050557484e-05
-1.4022335828881125e-05   5.381272395805397e-07   2.876288860965124e-05
-1.4022335828881125e-05   5.381272395805397e-07   2.876288860965124e-05
-1.4022335828881125e-05   5.381272395805397e-07   2.876288860965124e-05
-1.4022335828881125e-05   5.381272395805397e-07   2.876288860965124e-05
-1.4153969695423986e-05   1.076324346062623e-06   2.8980192692063976e-05
-1.4153969695423986e-05   1.076324346062623e-06   2.8980192692063976e-05
-1.4153969695423986e-05   1.076324346062623e-06   2.8980192692063976e-05
-1.4153969695423986e-05   1.076324346062623e-06   2.8980192692063976e-05
-1.4586199035230089e-05   -1.3605664863822718e-07   3.042800352189431e-05
-1.4586199035230089e-05   -1.3605664863822718e-07   3.042800352189431e-05
-1.4586199035230089e-05   -1.3605664863822718e-07   3.042800352189431e-05
-1.4586199035230089e-05   -1.3605664863822718e-07   3.042800352189431e-05
-1.4049347727983659e-05   8.805207665845641e-07   2.8923304894016427e-05
-1.4049347727983659e-05   8.805207665845641e-07   2.8923304894016427e-05
-1.4049347727983659e-05   8.805207665845641e-07   2.8923304894016427e-05
-1.4049347727983659e-05   8.805207665845641e-07   2.8923304894016427e-05
-1.4586199035230089e-05   1.0763243460624062e-06   2.9707621288883965e-05
-1.4586199035230089e-05   1.0763243460624062e-06   2.9707621288883965e-05
-1.4586199035230089e-05   1.0763243460624062e-06   2.9707621288883965e-05
-1.4586199035230089e-05   1.0763243460624062e-06   2.9707621288883965e-05
-1.4153969695423959e-05   -1.3605664863822718e-07   2.9700574925073874e-05
-1.4153969695423959e-05   -1.3605664863822718e-07   2.9700574925073874e-05
-1.4153969695423959e-05   -1.3605664863822718e-07   2.9700574925073874e-05
-1.4153969695423959e-05   -1.3605664863822718e-07   2.9700574925073874e-05
-1.4248399013615324e-05   2.5007944920007324e-07   2.9821406642164356e-05
-1.4248399013615324e-05   2.5007944920007324e-07   2.9821406642164356e-05
-1.4248399013615324e-05   2.5007944920007324e-07   2.9821406642164356e-05
-1.4248399013615324e-05   2.5007944920007324e-07   2.9821406642164356e-05
-1.487390919652945e-05   -1.0231896799771899e-06   3.16278850911941e-05
-1.487390919652945e-05   -1.0231896799771899e-06   3.16278850911941e-05
-1.487390919652945e-05   -1.0231896799771899e-06   3.16278850911941e-05
-1.487390919652945e-05   -1.0231896799771899e-06   3.16278850911941e-05
-1.425737266292336e-05   3.1378313231013484e-07   2.979814051447759e-05
-1.425737266292336e-05   3.1378313231013484e-07   2.979814051447759e-05
-1.425737266292336e-05   3.1378313231013484e-07   2.979814051447759e-05
-1.425737266292336e-05   3.1378313231013484e-07   2.979814051447759e-05
-1.3916466354412194e-05   3.185512664853011e-06   3.2769956264778826e-05
-1.3916466354412194e-05   3.185512664853011e-06   3.2769956264778826e-05
-1.3916466354412194e-05   3.185512664853011e-06   3.2769956264778826e-05
-1.3916466354412194e-05   3.185512664853011e-06   3.2769956264778826e-05
-1.494406380517444e-05   3.0986951860608337e-07   2.9331907959093443e-05
-1.494406380517444e-05   3.0986951860608337e-07   2.9331907959093443e-05
-1.494406380517444e-05   3.0986951860608337e-07   2.9331907959093443e-05
-1.494406380517444e-05   3.0986951860608337e-07   2.9331907959093443e-05
-1.4977233485949761e-05   2.42109974429275e-06   3.1093095872003094e-05
-1.4977233485949761e-05   2.42109974429275e-06   3.1093095872003094e-05
-1.4977233485949761e-05   2.42109974429275e-06   3.1093095872003094e-05
-1.4977233485949761e-05   2.42109974429275e-06   3.1093095872003094e-05
-1.4022335828881125e-05   -1.8103626733660411e-07   3.106288138386628e-05
-1.4022335828881125e-05   -1.8103626733660411e-07   3.106288138386628e-05
-1.4022335828881125e-05   -1.8103626733660411e-07   3.106288138386628e-05
-1.4022335828881125e-05   -1.8103626733660411e-07   3.106288138386628e-05
-1.443971761104436e-05   1.3861105741027474e-06   3.081822958260819e-05
-1.443971761104436e-05   1.3861105741027474e-06   3.081822958260819e-05
-1.443971761104436e-05   1.3861105741027474e-06   3.081822958260819e-05
-1.443971761104436e-05   1.3861105741027474e-06   3.081822958260819e-05
-1.4022335828881125e-05   2.421099744292967e-06   3.26543774789806e-05
-1.4022335828881125e-05   2.421099744292967e-06   3.26543774789806e-05
-1.4022335828881125e-05   2.421099744292967e-06   3.26543774789806e-05
-1.4022335828881125e-05   2.421099744292967e-06   3.26543774789806e-05
-1.4977233485949761e-05   -1.8103626733660411e-07   2.9501599776888746e-05
-1.4977233485949761e-05   -1.8103626733660411e-07   2.9501599776888746e-05
-1.4977233485949761e-05   -1.8103626733660411e-07   2.9501599776888746e-05
-1.4977233485949761e-05   -1.8103626733660411e-07   2.9501599776888746e-05
-1.504029914032478e-05   1.6441063633624263e-06   3.158439616279623e-05
-1.504029914032478e-05   1.6441063633624263e-06   3.158439616279623e-05
-1.504029914032478e-05   1.6441063633624263e-06   3.158439616279623e-05
-1.504029914032478e-05   1.6441063633624263e-06   3.158439616279623e-05
-1.4153969695423959e-05   -7.689717411452903e-07   3.155502728399934e-05
-1.4153969695423959e-05   -7.689717411452903e-07   3.155502728399934e-05
-1.4153969695423959e-05   -7.689717411452903e-07   3.155502728399934e-05
-1.4153969695423959e-05   -7.689717411452903e-07   3.155502728399934e-05
-1.4444344011201916e-05   8.993589753363875e-07   3.1037986047072425e-05
-1.4444344011201916e-05   8.993589753363875e-07   3.1037986047072425e-05
-1.4444344011201916e-05   8.993589753363875e-07   3.1037986047072425e-05
-1.4444344011201916e-05   8.993589753363875e-07   3.1037986047072425e-05
-1.4153969695423986e-05   1.6441063633624263e-06   3.303224302550055e-05
-1.4153969695423986e-05   1.6441063633624263e-06   3.303224302550055e-05
-1.4153969695423986e-05   1.6441063633624263e-06   3.303224302550055e-05
-1.4153969695423986e-05   1.6441063633624263e-06   3.303224302550055e-05
-1.5040299140324726e-05   -7.689717411453988e-07   3.010718042129455e-05
-1.5040299140324726e-05   -7.689717411453988e-07   3.010718042129455e-05
-1.5040299140324726e-05   -7.689717411453988e-07   3.010718042129455e-05
-1.5040299140324726e-05   -7.689717411453988e-07   3.010718042129455e-05
-1.5079270093366274e-05   9.071140805742752e-07   3.2459456484601945e-05
-1.5079270093366274e-05   9.071140805742752e-07   3.2459456484601945e-05
-1.5079270093366274e-05   9.071140805742752e-07   3.2459456484601945e-05
-1.5079270093366274e-05   9.071140805742752e-07   3.2459456484601945e-05
-1.4248399013615297e-05   -1.3601069855671616e-06   3.243500399136804e-05
-1.4248399013615297e-05   -1.3601069855671616e-06   3.243500399136804e-05
-1.4248399013615297e-05   -1.3601069855671616e-06   3.243500399136804e-05
-1.4248399013615297e-05   -1.3601069855671616e-06   3.243500399136804e-05
-1.447279388829017e-05   3.9877142092668155e-07   3.1753668405262215e-05
-1.447279388829017e-05   3.9877142092668155e-07   3.1753668405262215e-05
-1.447279388829017e-05   3.9877142092668155e-07   3.1753668405262215e-05
-1.447279388829017e-05   3.9877142092668155e-07   3.1753668405262215e-05
-1.494406380517444e-05   4.302137243369095e-06   2.6679653144579267e-05
-1.494406380517444e-05   4.302137243369095e-06   2.6679653144579267e-05
-1.494406380517444e-05   4.302137243369095e-06   2.6679653144579267e-05
-1.494406380517444e-05   4.302137243369095e-06   2.6679653144579267e-05
-1.6447563118444127e-05   1.410661834436405e-06   2.2438935710436764e-05
-1.6447563118444127e-05   1.410661834436405e-06   2.2438935710436764e-05
-1.6447563118444127e-05   1.410661834436405e-06   2.2438935710436764e-05
-1.6447563118444127e-05   1.410661834436405e-06   2.2438935710436764e-05
-1.6470983977023054e-05   3.4978120809249502e-06   2.519340524146968e-05
-1.6470983977023054e-05   3.4978120809249502e-06   2.519340524146968e-05
-1.6470983977023054e-05   3.4978120809249502e-06   2.519340524146968e-05
-1.6470983977023054e-05   3.4978120809249502e-06   2.519340524146968e-05
-1.4977233485949761e-05   7.643176233824512e-07   2.434391776420645e-05
-1.4977233485949761e-05   7.643176233824512e-07   2.434391776420645e-05
-1.4977233485949761e-05   7.643176233824512e-07   2.434391776420645e-05
-1.4977233485949761e-05   7.643176233824512e-07   2.434391776420645e-05
-1.5668794599029166e-05   2.5538533760291037e-06   2.4422798167750498e-05
-1.5668794599029166e-05   2.5538533760291037e-06   2.4422798167750498e-05
-1.5668794599029166e-05   2.5538533760291037e-06   2.4422798167750498e-05
-1.5668794599029166e-05   2.5538533760291037e-06   2.4422798167750498e-05
-1.4977233485949761e-05   3.4978120809249502e-06   2.6833501915994856e-05
-1.4977233485949761e-05   3.4978120809249502e-06   2.6833501915994856e-05
-1.4977233485949761e-05   3.4978120809249502e-06   2.6833501915994856e-05
-1.4977233485949761e-05   3.4978120809249502e-06   2.6833501915994856e-05
-1.6470983977023054e-05   7.643176233824512e-07   2.270382108968082e-05
-1.6470983977023054e-05   7.643176233824512e-07   2.270382108968082e-05
-1.6470983977023054e-05   7.643176233824512e-07   2.270382108968082e-05
-1.6470983977023054e-05   7.643176233824512e-07   2.270382108968082e-05
-1.6646671938213013e-05   2.7826828032477546e-06   2.6129021636040568e-05
-1.6646671938213013e-05   2.7826828032477546e-06   2.6129021636040568e-05
-1.6646671938213013e-05   2.7826828032477546e-06   2.6129021636040568e-05
-1.6646671938213013e-05   2.7826828032477546e-06   2.6129021636040568e-05
-1.504029914032478e-05   2.111043554015599e-07   2.499468070826761e-05
-1.504029914032478e-05   2.111043554015599e-07   2.499468070826761e-05
-1.504029914032478e-05   2.111043554015599e-07   2.499468070826761e-05
-1.504029914032478e-05   2.111043554015599e-07   2.499468070826761e-05
-1.5620829289292337e-05   2.0222821454870567e-06   2.487552428249442e-05
-1.5620829289292337e-05   2.0222821454870567e-06   2.487552428249442e-05
-1.5620829289292337e-05   2.0222821454870567e-06   2.487552428249442e-05
-1.5620829289292337e-05   2.0222821454870567e-06   2.487552428249442e-05
-1.504029914032478e-05   2.7826828032477546e-06   2.7671968704747548e-05
-1.504029914032478e-05   2.7826828032477546e-06   2.7671968704747548e-05
-1.504029914032478e-05   2.7826828032477546e-06   2.7671968704747548e-05
-1.504029914032478e-05   2.7826828032477546e-06   2.7671968704747548e-05
-1.6646671938213013e-05   2.111043554015599e-07   2.3451733639559946e-05
-1.6646671938213013e-05   2.111043554015599e-07   2.3451733639559946e-05
-1.6646671938213013e-05   2.111043554015599e-07   2.3451733639559946e-05
-1.6646671938213013e-05   2.111043554015599e-07   2.3451733639559946e-05
-1.675042772098233e-05   2.054631779005011e-06   2.7292410677951656e-05
-1.675042772098233e-05   2.054631779005011e-06   2.7292410677951656e-05
-1.675042772098233e-05   2.054631779005011e-06   2.7292410677951656e-05
-1.675042772098233e-05   2.054631779005011e-06   2.7292410677951656e-05
-1.5079270093366274e-05   -3.464134797405991e-07   2.594777512050512e-05
-1.5079270093366274e-05   -3.464134797405991e-07   2.594777512050512e-05
-1.5079270093366274e-05   -3.464134797405991e-07   2.594777512050512e-05
-1.5079270093366274e-05   -3.464134797405991e-07   2.594777512050512e-05
-1.5695734782554847e-05   1.5478349129659837e-06   2.5838667233528444e-05
-1.5695734782554847e-05   1.5478349129659837e-06   2.5838667233528444e-05
-1.5695734782554847e-05   1.5478349129659837e-06   2.5838667233528444e-05
-1.5695734782554847e-05   1.5478349129659837e-06   2.5838667233528444e-05
-1.6447563118444127e-05   5.075270102505901e-06   1.0235160225793502e-05
-1.6447563118444127e-05   5.075270102505901e-06   1.0235160225793502e-05
-1.6447563118444127e-05   5.075270102505901e-06   1.0235160225793502e-05
-1.6447563118444127e-05   5.075270102505901e-06   1.0235160225793502e-05
-1.6193667207194183e-05   2.3190958698548906e-06   9.004615538286151e-06
-1.6193667207194183e-05   2.3190958698548906e-06   9.004615538286151e-06
-1.6193667207194183e-05   2.3190958698548906e-06   9.004615538286151e-06
-1.6193667207194183e-05   2.3190958698548906e-06   9.004615538286151e-06
-1.7026130611650574e-05   4.539935033027803e-06   1.1211419044364216e-05
-1.7026130611650574e-05   4.539935033027803e-06   1.1211419044364216e-05
-1.7026130611650574e-05   4.539935033027803e-06   1.1211419044364216e-05
-1.7026130611650574e-05   4.539935033027803e-06   1.1211419044364216e-05
-1.6470983977023e-05   1.8624303271480916e-06   1.1892677476846108e-05
-1.6470983977023e-05   1.8624303271480916e-06   1.1892677476846108e-05
-1.6470983977023e-05   1.8624303271480916e-06   1.1892677476846108e-05
-1.6470983977023e-05   1.8624303271480916e-06   1.1892677476846108e-05
-1.599788028302325e-05   3.56846663317526e-06   1.0080549536563483e-05
-1.599788028302325e-05   3.56846663317526e-06   1.0080549536563483e-05
-1.599788028302325e-05   3.56846663317526e-06   1.0080549536563483e-05
-1.599788028302325e-05   3.56846663317526e-06   1.0080549536563483e-05
-1.6470983977022945e-05   4.539935033027803e-06   1.281792186789163e-05
-1.6470983977022945e-05   4.539935033027803e-06   1.281792186789163e-05
-1.6470983977022945e-05   4.539935033027803e-06   1.281792186789163e-05
-1.6470983977022945e-05   4.539935033027803e-06   1.281792186789163e-05
-1.7026130611650682e-05   1.8624303271480916e-06   1.0286174653318368e-05
-1.7026130611650682e-05   1.8624303271480916e-06   1.0286174653318368e-05
-1.7026130611650682e-05   1.8624303271480916e-06   1.0286174653318368e-05
-1.7026130611650682e-05   1.8624303271480916e-06   1.0286174653318368e-05
-1.7757489858214294e-05   4.172714725647793e-06   1.3299007541877532e-05
-1.7757489858214294e-05   4.172714725647793e-06   1.3299007541877532e-05
-1.7757489858214294e-05   4.172714725647793e-06   1.3299007541877532e-05
-1.7757489858214294e-05   4.172714725647793e-06   1.3299007541877532e-05
-1.6646671938213013e-05   1.5636387179238185e-06   1.301308994650942e-05
-1.6646671938213013e-05   1.5636387179238185e-06   1.301308994650942e-05
-1.6646671938213013e-05   1.5636387179238185e-06   1.301308994650942e-05
-1.6646671938213013e-05   1.5636387179238185e-06   1.301308994650942e-05
-1.6589839029614625e-05   3.300568807647602e-06   1.1876210378343834e-05
-1.6589839029614625e-05   3.300568807647602e-06   1.1876210378343834e-05
-1.6589839029614625e-05   3.300568807647602e-06   1.1876210378343834e-05
-1.6589839029614625e-05   3.300568807647602e-06   1.1876210378343834e-05
-1.664667193821296e-05   4.172714725647793e-06   1.4864453146511483e-05
-1.664667193821296e-05   4.172714725647793e-06   1.4864453146511483e-05
-1.664667193821296e-05   4.172714725647793e-06   1.4864453146511483e-05
-1.664667193821296e-05   4.172714725647793e-06   1.4864453146511483e-05
-1.7757489858214403e-05   1.5636387179238185e-06   1.1447644341875199e-05
-1.7757489858214403e-05   1.5636387179238185e-06   1.1447644341875199e-05
-1.7757489858214403e-05   1.5636387179238185e-06   1.1447644341875199e-05
-1.7757489858214403e-05   1.5636387179238185e-06   1.1447644341875199e-05
-1.8847971721841993e-05   3.3316049056686045e-06   1.713453516185388e-05
-1.8847971721841993e-05   3.3316049056686045e-06   1.713453516185388e-05
-1.8847971721841993e-05   3.3316049056686045e-06   1.713453516185388e-05
-1.8847971721841993e-05   3.3316049056686045e-06   1.713453516185388e-05
-1.6750427720982385e-05   9.648759293585593e-07   1.5058665879540069e-05
-1.6750427720982385e-05   9.648759293585593e-07   1.5058665879540069e-05
-1.6750427720982385e-05   9.648759293585593e-07   1.5058665879540069e-05
-1.6750427720982385e-05   9.648759293585593e-07   1.5058665879540069e-05
-1.6789674074163964e-05   2.9837621732659286e-06   1.3912744721830466e-05
-1.6789674074163964e-05   2.9837621732659286e-06   1.3912744721830466e-05
-1.6789674074163964e-05   2.9837621732659286e-06   1.3912744721830466e-05
-1.6789674074163964e-05   2.9837621732659286e-06   1.3912744721830466e-05
-3.264625115345471e-05   4.321814382741529e-06   1.2415059827766326e-05
-3.264625115345471e-05   4.321814382741529e-06   1.2415059827766326e-05
-3.264625115345471e-05   4.321814382741529e-06   1.2415059827766326e-05
-3.264625115345471e-05   4.321814382741529e-06   1.2415059827766326e-05
-2.19955904510183e-05   5.989796916998618e-06   3.116695051904797e-05
-2.19955904510183e-05   5.989796916998618e-06   3.116695051904797e-05
-2.19955904510183e-05   5.989796916998618e-06   3.116695051904797e-05
-2.19955904510183e-05   5.989796916998618e-06   3.116695051904797e-05
-2.1981948228989914e-05   3.379640762097213e-06   1.414513754217705e-05
-2.1981948228989914e-05   3.379640762097213e-06   1.414513754217705e-05
-2.1981948228989914e-05   3.379640762097213e-06   1.414513754217705e-05
-2.1981948228989914e-05   3.379640762097213e-06   1.414513754217705e-05
-3.5934876867328285e-05   2.4493135095165954e-06   3.795821495762298e-05
-3.5934876867328285e-05   2.4493135095165954e-06   3.795821495762298e-05
-3.5934876867328285e-05   2.4493135095165954e-06   3.795821495762298e-05
-3.5934876867328285e-05   2.4493135095165954e-06   3.795821495762298e-05
-2.6688526439830987e-05   3.554755525008238e-06   2.188436570249919e-05
-2.6688526439830987e-05   3.554755525008238e-06   2.188436570249919e-05
-2.6688526439830987e-05   3.554755525008238e-06   2.188436570249919e-05
-2.6688526439830987e-05   3.554755525008238e-06   2.188436570249919e-05
-3.593487686732834e-05   3.379640762097213e-06   1.470333389372541e-05
-3.593487686732834e-05   3.379640762097213e-06   1.470333389372541e-05
-3.593487686732834e-05   3.379640762097213e-06   1.470333389372541e-05
-3.593487686732834e-05   3.379640762097213e-06   1.470333389372541e-05
-2.1981948228989914e-05   2.4493135095165954e-06   3.740001860607462e-05
-2.1981948228989914e-05   2.4493135095165954e-06   3.740001860607462e-05
-2.1981948228989914e-05   2.4493135095165954e-06   3.740001860607462e-05
-2.1981948228989914e-05   2.4493135095165954e-06   3.740001860607462e-05
-2.2273866585213834e-05   2.7270772210882506e-06   1.5841790957041616e-05
-2.2273866585213834e-05   2.7270772210882506e-06   1.5841790957041616e-05
-2.2273866585213834e-05   2.7270772210882506e-06   1.5841790957041616e-05
-2.2273866585213834e-05   2.7270772210882506e-06   1.5841790957041616e-05
-3.605414537358057e-05   1.7656735328055182e-06   3.9385764483955717e-05
-3.605414537358057e-05   1.7656735328055182e-06   3.9385764483955717e-05
-3.605414537358057e-05   1.7656735328055182e-06   3.9385764483955717e-05
-3.605414537358057e-05   1.7656735328055182e-06   3.9385764483955717e-05
-2.846613862427449e-05   2.229203483253869e-06   2.6460968598176262e-05
-2.846613862427449e-05   2.229203483253869e-06   2.6460968598176262e-05
-2.846613862427449e-05   2.229203483253869e-06   2.6460968598176262e-05
-2.846613862427449e-05   2.229203483253869e-06   2.6460968598176262e-05
-3.6054145373580636e-05   2.7270772210882506e-06   1.6418633170011245e-05
-3.6054145373580636e-05   2.7270772210882506e-06   1.6418633170011245e-05
-3.6054145373580636e-05   2.7270772210882506e-06   1.6418633170011245e-05
-3.6054145373580636e-05   2.7270772210882506e-06   1.6418633170011245e-05
-2.2273866585213793e-05   1.7656735328055182e-06   3.8808922270986074e-05
-2.2273866585213793e-05   1.7656735328055182e-06   3.8808922270986074e-05
-2.2273866585213793e-05   1.7656735328055182e-06   3.8808922270986074e-05
-2.2273866585213793e-05   1.7656735328055182e-06   3.8808922270986074e-05
-2.2028272134587434e-05   1.1213511860929878e-06   1.8810941533183685e-05
-2.2028272134587434e-05   1.1213511860929878e-06   1.8810941533183685e-05
-2.2028272134587434e-05   1.1213511860929878e-06   1.8810941533183685e-05
-2.2028272134587434e-05   1.1213511860929878e-06   1.8810941533183685e-05
-3.6431923286836244e-05   -1.1368060341703954e-06   4.417192111908954e-05
-3.6431923286836244e-05   -1.1368060341703954e-06   4.417192111908954e-05
-3.6431923286836244e-05   -1.1368060341703954e-06   4.417192111908954e-05
-3.6431923286836244e-05   -1.1368060341703954e-06   4.417192111908954e-05
-2.802361113259091e-05   1.0911444465311728e-06   2.8821297240259777e-05
-2.802361113259091e-05   1.0911444465311728e-06   2.8821297240259777e-05
-2.802361113259091e-05   1.0911444465311728e-06   2.8821297240259777e-05
-2.802361113259091e-05   1.0911444465311728e-06   2.8821297240259777e-05
-2.1995590451018335e-05   1.1178549587774088e-06   2.8632004350316663e-05
-2.1995590451018335e-05   1.1178549587774088e-06   2.8632004350316663e-05
-2.1995590451018335e-05   1.1178549587774088e-06   2.8632004350316663e-05
-2.1995590451018335e-05   1.1178549587774088e-06   2.8632004350316663e-05
-1.3474945707660295e-05   -6.690439499401613e-06   3.814810224767268e-05
-1.3474945707660295e-05   -6.690439499401613e-06   3.814810224767268e-05
-1.3474945707660295e-05   -6.690439499401613e-06   3.814810224767268e-05
-1.3474945707660295e-05   -6.690439499401613e-06   3.814810224767268e-05
-1.3497242287682874e-05   5.381272395805397e-07   2.401964904155229e-05
-1.3497242287682874e-05   5.381272395805397e-07   2.401964904155229e-05
-1.3497242287682874e-05   5.381272395805397e-07   2.401964904155229e-05
-1.3497242287682874e-05   5.381272395805397e-07   2.401964904155229e-05
-2.1981948228989914e-05   -5.472307956584242e-06   4.176708672809653e-05
-2.1981948228989914e-05   -5.472307956584242e-06   4.176708672809653e-05
-2.1981948228989914e-05   -5.472307956584242e-06   4.176708672809653e-05
-2.1981948228989914e-05   -5.472307956584242e-06   4.176708672809653e-05
-1.7641457833435825e-05   -3.3071898134430944e-06   3.323386518295517e-05
-1.7641457833435825e-05   -3.3071898134430944e-06   3.323386518295517e-05
-1.7641457833435825e-05   -3.3071898134430944e-06   3.323386518295517e-05
-1.7641457833435825e-05   -3.3071898134430944e-06   3.323386518295517e-05
-2.198194822898992e-05   5.381272395805397e-07   2.7625910159250898e-05
-2.198194822898992e-05   5.381272395805397e-07   2.7625910159250898e-05
-2.198194822898992e-05   5.381272395805397e-07   2.7625910159250898e-05
-2.198194822898992e-05   5.381272395805397e-07   2.7625910159250898e-05
-1.349724228768282e-05   -5.472307956584242e-06   3.8160825610397675e-05
-1.349724228768282e-05   -5.472307956584242e-06   3.8160825610397675e-05
-1.349724228768282e-05   -5.472307956584242e-06   3.8160825610397675e-05
-1.349724228768282e-05   -5.472307956584242e-06   3.8160825610397675e-05
-1.3543161079363636e-05   -1.3605664863822718e-07   2.4767436674650732e-05
-1.3543161079363636e-05   -1.3605664863822718e-07   2.4767436674650732e-05
-1.3543161079363636e-05   -1.3605664863822718e-07   2.4767436674650732e-05
-1.3543161079363636e-05   -1.3605664863822718e-07   2.4767436674650732e-05
-2.2273866585213793e-05   -5.598415937053459e-06   4.259602809078328e-05
-2.2273866585213793e-05   -5.598415937053459e-06   4.259602809078328e-05
-2.2273866585213793e-05   -5.598415937053459e-06   4.259602809078328e-05
-2.2273866585213793e-05   -5.598415937053459e-06   4.259602809078328e-05
-1.750763495010483e-05   -2.8891362307850678e-06   3.302674087517392e-05
-1.750763495010483e-05   -2.8891362307850678e-06   3.302674087517392e-05
-1.750763495010483e-05   -2.8891362307850678e-06   3.302674087517392e-05
-1.750763495010483e-05   -2.8891362307850678e-06   3.302674087517392e-05
-2.2273866585213834e-05   -1.3605664863822718e-07   2.8044852247699893e-05
-2.2273866585213834e-05   -1.3605664863822718e-07   2.8044852247699893e-05
-2.2273866585213834e-05   -1.3605664863822718e-07   2.8044852247699893e-05
-2.2273866585213834e-05   -1.3605664863822718e-07   2.8044852247699893e-05
-1.3543161079363581e-05   -5.598415937053459e-06   3.9318612517734225e-05
-1.3543161079363581e-05   -5.598415937053459e-06   3.9318612517734225e-05
-1.3543161079363581e-05   -5.598415937053459e-06   3.9318612517734225e-05
-1.3543161079363581e-05   -5.598415937053459e-06   3.9318612517734225e-05
-1.3402447674807738e-05   -1.0231896799771899e-06   2.5698232824276023e-05
-1.3402447674807738e-05   -1.0231896799771899e-06   2.5698232824276023e-05
-1.3402447674807738e-05   -1.0231896799771899e-06   2.5698232824276023e-05
-1.3402447674807738e-05   -1.0231896799771899e-06   2.5698232824276023e-05
-2.2028272134587386e-05   -5.654857243477386e-06   4.2853607462008814e-05
-2.2028272134587386e-05   -5.654857243477386e-06   4.2853607462008814e-05
-2.2028272134587386e-05   -5.654857243477386e-06   4.2853607462008814e-05
-2.2028272134587386e-05   -5.654857243477386e-06   4.2853607462008814e-05
-1.75815903469574e-05   -3.247824858975887e-06   3.399825171859132e-05
-1.75815903469574e-05   -3.247824858975887e-06   3.399825171859132e-05
-1.75815903469574e-05   -3.247824858975887e-06   3.399825171859132e-05
-1.75815903469574e-05   -3.247824858975887e-06   3.399825171859132e-05
-1.3474945707660295e-05   3.0986951860608337e-07   2.645194154939556e-05
-1.3474945707660295e-05   3.0986951860608337e-07   2.645194154939556e-05
-1.3474945707660295e-05   3.0986951860608337e-07   2.645194154939556e-05
-1.3474945707660295e-05   3.0986951860608337e-07   2.645194154939556e-05
-9.891684684522882e-06   -5.225882392797913e-06   2.910259210778236e-05
-9.891684684522882e-06   -5.225882392797913e-06   2.910259210778236e-05
-9.891684684522882e-06   -5.225882392797913e-06   2.910259210778236e-05
-9.891684684522882e-06   -5.225882392797913e-06   2.910259210778236e-05
-9.797918017645545e-06   -1.8103626733660411e-07   2.334882440340933e-05
-9.797918017645545e-06   -1.8103626733660411e-07   2.334882440340933e-05
-9.797918017645545e-06   -1.8103626733660411e-07   2.334882440340933e-05
-9.797918017645545e-06   -1.8103626733660411e-07   2.334882440340933e-05
-1.349724228768282e-05   -5.132398621266669e-06   3.2485182265829665e-05
-1.349724228768282e-05   -5.132398621266669e-06   3.2485182265829665e-05
-1.349724228768282e-05   -5.132398621266669e-06   3.2485182265829665e-05
-1.349724228768282e-05   -5.132398621266669e-06   3.2485182265829665e-05
-1.1592949656669525e-05   -2.6422982348627694e-06   2.781730098229884e-05
-1.1592949656669525e-05   -2.6422982348627694e-06   2.781730098229884e-05
-1.1592949656669525e-05   -2.6422982348627694e-06   2.781730098229884e-05
-1.1592949656669525e-05   -2.6422982348627694e-06   2.781730098229884e-05
-1.349724228768282e-05   -1.8103626733660411e-07   2.6319641815767325e-05
-1.349724228768282e-05   -1.8103626733660411e-07   2.6319641815767325e-05
-1.349724228768282e-05   -1.8103626733660411e-07   2.6319641815767325e-05
-1.349724228768282e-05   -1.8103626733660411e-07   2.6319641815767325e-05
-9.7979180176456e-06   -5.132398621266723e-06   2.9514364853471764e-05
-9.7979180176456e-06   -5.132398621266723e-06   2.9514364853471764e-05
-9.7979180176456e-06   -5.132398621266723e-06   2.9514364853471764e-05
-9.7979180176456e-06   -5.132398621266723e-06   2.9514364853471764e-05
-9.715671579178212e-06   -7.689717411452903e-07   2.390911129219195e-05
-9.715671579178212e-06   -7.689717411452903e-07   2.390911129219195e-05
-9.715671579178212e-06   -7.689717411452903e-07   2.390911129219195e-05
-9.715671579178212e-06   -7.689717411452903e-07   2.390911129219195e-05
-1.3543161079363581e-05   -5.290267976785915e-06   3.300103820055167e-05
-1.3543161079363581e-05   -5.290267976785915e-06   3.300103820055167e-05
-1.3543161079363581e-05   -5.290267976785915e-06   3.300103820055167e-05
-1.3543161079363581e-05   -5.290267976785915e-06   3.300103820055167e-05
-1.1485199353945599e-05   -2.8206060502351197e-06   2.8089304835590603e-05
-1.1485199353945599e-05   -2.8206060502351197e-06   2.8089304835590603e-05
-1.1485199353945599e-05   -2.8206060502351197e-06   2.8089304835590603e-05
-1.1485199353945599e-05   -2.8206060502351197e-06   2.8089304835590603e-05
-1.3543161079363581e-05   -7.689717411453988e-07   2.6621889033576142e-05
-1.3543161079363581e-05   -7.689717411453988e-07   2.6621889033576142e-05
-1.3543161079363581e-05   -7.689717411453988e-07   2.6621889033576142e-05
-1.3543161079363581e-05   -7.689717411453988e-07   2.6621889033576142e-05
-9.715671579178212e-06   -5.290267976785969e-06   3.028826045916749e-05
-9.715671579178212e-06   -5.290267976785969e-06   3.028826045916749e-05
-9.715671579178212e-06   -5.290267976785969e-06   3.028826045916749e-05
-9.715671579178212e-06   -5.290267976785969e-06   3.028826045916749e-05
-9.517608234641429e-06   -1.3601069855671616e-06   2.4775896584406753e-05
-9.517608234641429e-06   -1.3601069855671616e-06   2.4775896584406753e-05
-9.517608234641429e-06   -1.3601069855671616e-06   2.4775896584406753e-05
-9.517608234641429e-06   -1.3601069855671616e-06   2.4775896584406753e-05
-1.3402447674807711e-05   -5.515801348150045e-06   3.3744045602233355e-05
-1.3402447674807711e-05   -5.515801348150045e-06   3.3744045602233355e-05
-1.3402447674807711e-05   -5.515801348150045e-06   3.3744045602233355e-05
-1.3402447674807711e-05   -5.515801348150045e-06   3.3744045602233355e-05
-1.135882946832269e-05   -3.0794085951082843e-06   2.88761796062666e-05
-1.135882946832269e-05   -3.0794085951082843e-06   2.88761796062666e-05
-1.135882946832269e-05   -3.0794085951082843e-06   2.88761796062666e-05
-1.135882946832269e-05   -3.0794085951082843e-06   2.88761796062666e-05
-9.891684684522827e-06   1.410661834436405e-06   1.797240339925616e-05
-9.891684684522827e-06   1.410661834436405e-06   1.797240339925616e-05
-9.891684684522827e-06   1.410661834436405e-06   1.797240339925616e-05
-9.891684684522827e-06   1.410661834436405e-06   1.797240339925616e-05
-8.221538818667731e-06   -2.142159469156041e-06   1.8624287060192474e-05
-8.221538818667731e-06   -2.142159469156041e-06   1.8624287060192474e-05
-8.221538818667731e-06   -2.142159469156041e-06   1.8624287060192474e-05
-8.221538818667731e-06   -2.142159469156041e-06   1.8624287060192474e-05
-8.03874823618485e-06   7.643176233824512e-07   1.6226756877007727e-05
-8.03874823618485e-06   7.643176233824512e-07   1.6226756877007727e-05
-8.03874823618485e-06   7.643176233824512e-07   1.6226756877007727e-05
-8.03874823618485e-06   7.643176233824512e-07   1.6226756877007727e-05
-9.797918017645545e-06   -2.509658232816383e-06   2.112309202649521e-05
-9.797918017645545e-06   -2.509658232816383e-06   2.112309202649521e-05
-9.797918017645545e-06   -2.509658232816383e-06   2.112309202649521e-05
-9.797918017645545e-06   -2.509658232816383e-06   2.112309202649521e-05
-8.92161275718606e-06   -4.883371039855538e-07   1.8449790581764468e-05
-8.92161275718606e-06   -4.883371039855538e-07   1.8449790581764468e-05
-8.92161275718606e-06   -4.883371039855538e-07   1.8449790581764468e-05
-8.92161275718606e-06   -4.883371039855538e-07   1.8449790581764468e-05
-9.797918017645545e-06   7.643176233824512e-07   1.8191142390727114e-05
-9.797918017645545e-06   7.643176233824512e-07   1.8191142390727114e-05
-9.797918017645545e-06   7.643176233824512e-07   1.8191142390727114e-05
-9.797918017645545e-06   7.643176233824512e-07   1.8191142390727114e-05
-8.03874823618485e-06   -2.509658232816383e-06   1.9158706512775985e-05
-8.03874823618485e-06   -2.509658232816383e-06   1.9158706512775985e-05
-8.03874823618485e-06   -2.509658232816383e-06   1.9158706512775985e-05
-8.03874823618485e-06   -2.509658232816383e-06   1.9158706512775985e-05
-7.952821996986951e-06   2.1110435540166832e-07   1.6995662872047517e-05
-7.952821996986951e-06   2.1110435540166832e-07   1.6995662872047517e-05
-7.952821996986951e-06   2.1110435540166832e-07   1.6995662872047517e-05
-7.952821996986951e-06   2.1110435540166832e-07   1.6995662872047517e-05
-9.715671579178158e-06   -2.790476823127388e-06   2.1734694216150093e-05
-9.715671579178158e-06   -2.790476823127388e-06   2.1734694216150093e-05
-9.715671579178158e-06   -2.790476823127388e-06   2.1734694216150093e-05
-9.715671579178158e-06   -2.790476823127388e-06   2.1734694216150093e-05
-8.740557737934722e-06   -8.830004689015271e-07   1.8965018668208058e-05
-8.740557737934722e-06   -8.830004689015271e-07   1.8965018668208058e-05
-8.740557737934722e-06   -8.830004689015271e-07   1.8965018668208058e-05
-8.740557737934722e-06   -8.830004689015271e-07   1.8965018668208058e-05
-9.715671579178103e-06   2.1110435540166832e-07   1.8796611579164767e-05
-9.715671579178103e-06   2.1110435540166832e-07   1.8796611579164767e-05
-9.715671579178103e-06   2.1110435540166832e-07   1.8796611579164767e-05
-9.715671579178103e-06   2.1110435540166832e-07   1.8796611579164767e-05
-7.952821996986951e-06   -2.7904768231273337e-06   1.9933745509032735e-05
-7.952821996986951e-06   -2.7904768231273337e-06   1.9933745509032735e-05
-7.952821996986951e-06   -2.7904768231273337e-06   1.9933745509032735e-05
-7.952821996986951e-06   -2.7904768231273337e-06   1.9933745509032735e-05
-7.814823329588402e-06   -3.4641347974049067e-07   1.7961274183578985e-05
-7.814823329588402e-06   -3.4641347974049067e-07   1.7961274183578985e-05
-7.814823329588402e-06   -3.4641347974049067e-07   1.7961274183578985e-05
-7.814823329588402e-06   -3.4641347974049067e-07   1.7961274183578985e-05
-9.517608234641429e-06   -3.1592904291565557e-06   2.2486975194983415e-05
-9.517608234641429e-06   -3.1592904291565557e-06   2.2486975194983415e-05
-9.517608234641429e-06   -3.1592904291565557e-06   2.2486975194983415e-05
-9.517608234641429e-06   -3.1592904291565557e-06   2.2486975194983415e-05
-8.598011221148564e-06   -1.2283141508092439e-06   1.979572773882067e-05
-8.598011221148564e-06   -1.2283141508092439e-06   1.979572773882067e-05
-8.598011221148564e-06   -1.2283141508092439e-06   1.979572773882067e-05
-8.598011221148564e-06   -1.2283141508092439e-06   1.979572773882067e-05
-8.221538818667731e-06   2.319095869854782e-06   4.060094984540915e-06
-8.221538818667731e-06   2.319095869854782e-06   4.060094984540915e-06
-8.221538818667731e-06   2.319095869854782e-06   4.060094984540915e-06
-8.221538818667731e-06   2.319095869854782e-06   4.060094984540915e-06
-4.715205096841499e-06   -2.4331248663403936e-07   8.366539507024878e-06
-4.715205096841499e-06   -2.4331248663403936e-07   8.366539507024878e-06
-4.715205096841499e-06   -2.4331248663403936e-07   8.366539507024878e-06
-4.715205096841499e-06   -2.4331248663403936e-07   8.366539507024878e-06
-4.978156191255342e-06   1.8624303271480916e-06   4.095516950405626e-06
-4.978156191255342e-06   1.8624303271480916e-06   4.095516950405626e-06
-4.978156191255342e-06   1.8624303271480916e-06   4.095516950405626e-06
-4.978156191255342e-06   1.8624303271480916e-06   4.095516950405626e-06
-8.03874823618485e-06   -3.377301957976464e-07   1.0516600005722318e-05
-8.03874823618485e-06   -3.377301957976464e-07   1.0516600005722318e-05
-8.03874823618485e-06   -3.377301957976464e-07   1.0516600005722318e-05
-8.03874823618485e-06   -3.377301957976464e-07   1.0516600005722318e-05
-6.265402195876249e-06   1.1912666559297548e-06   6.643625160838648e-06
-6.265402195876249e-06   1.1912666559297548e-06   6.643625160838648e-06
-6.265402195876249e-06   1.1912666559297548e-06   6.643625160838648e-06
-6.265402195876249e-06   1.1912666559297548e-06   6.643625160838648e-06
-8.03874823618485e-06   1.8624303271480916e-06   5.415613264172668e-06
-8.03874823618485e-06   1.8624303271480916e-06   5.415613264172668e-06
-8.03874823618485e-06   1.8624303271480916e-06   5.415613264172668e-06
-8.03874823618485e-06   1.8624303271480916e-06   5.415613264172668e-06
-4.978156191255234e-06   -3.377301957977006e-07   9.19650369195495e-06
-4.978156191255234e-06   -3.377301957977006e-07   9.19650369195495e-06
-4.978156191255234e-06   -3.377301957977006e-07   9.19650369195495e-06
-4.978156191255234e-06   -3.377301957977006e-07   9.19650369195495e-06
-5.193181332947589e-06   1.5636387179238185e-06   5.33920726026281e-06
-5.193181332947589e-06   1.5636387179238185e-06   5.33920726026281e-06
-5.193181332947589e-06   1.5636387179238185e-06   5.33920726026281e-06
-5.193181332947589e-06   1.5636387179238185e-06   5.33920726026281e-06
-7.952821996986951e-06   -4.660478132997251e-07   1.1156420285729192e-05
-7.952821996986951e-06   -4.660478132997251e-07   1.1156420285729192e-05
-7.952821996986951e-06   -4.660478132997251e-07   1.1156420285729192e-05
-7.952821996986951e-06   -4.660478132997251e-07   1.1156420285729192e-05
-6.369402539249051e-06   9.644677267299593e-07   7.65907853214772e-06
-6.369402539249051e-06   9.644677267299593e-07   7.65907853214772e-06
-6.369402539249051e-06   9.644677267299593e-07   7.65907853214772e-06
-6.369402539249051e-06   9.644677267299593e-07   7.65907853214772e-06
-7.952821996986951e-06   1.5636387179238185e-06   6.557019178997066e-06
-7.952821996986951e-06   1.5636387179238185e-06   6.557019178997066e-06
-7.952821996986951e-06   1.5636387179238185e-06   6.557019178997066e-06
-7.952821996986951e-06   1.5636387179238185e-06   6.557019178997066e-06
-5.19318133294748e-06   -4.660478132997251e-07   9.938608366995153e-06
-5.19318133294748e-06   -4.660478132997251e-07   9.938608366995153e-06
-5.19318133294748e-06   -4.660478132997251e-07   9.938608366995153e-06
-5.19318133294748e-06   -4.660478132997251e-07   9.938608366995153e-06
-5.732934900231929e-06   9.648759293585593e-07   7.5618303480335e-06
-5.732934900231929e-06   9.648759293585593e-07   7.5618303480335e-06
-5.732934900231929e-06   9.648759293585593e-07   7.5618303480335e-06
-5.732934900231929e-06   9.648759293585593e-07   7.5618303480335e-06
-7.814823329588402e-06   -6.200603203546182e-07   1.1982606146788586e-05
-7.814823329588402e-06   -6.200603203546182e-07   1.1982606146788586e-05
-7.814823329588402e-06   -6.200603203546182e-07   1.1982606146788586e-05
-7.814823329588402e-06   -6.200603203546182e-07   1.1982606146788586e-05
-6.378593733175064e-06   8.119201994093769e-07   8.729701840908054e-06
-6.378593733175064e-06   8.119201994093769e-07   8.729701840908054e-06
-6.378593733175064e-06   8.119201994093769e-07   8.729701840908054e-06
-6.378593733175064e-06   8.119201994093769e-07   8.729701840908054e-06
-7.62224042544911e-05   5.989796916998672e-06   3.235896580788014e-05
-7.62224042544911e-05   5.989796916998672e-06   3.235896580788014e-05
-7.62224042544911e-05   5.989796916998672e-06   3.235896580788014e-05
-7.62224042544911e-05   5.989796916998672e-06   3.235896580788014e-05
-1.795414248436858e-05   -3.687292303256212e-05   0.0001037551034550146
-1.795414248436858e-05   -3.687292303256212e-05   0.0001037551034550146
-1.795414248436858e-05   -3.687292303256212e-05   0.0001037551034550146
-1.795414248436858e-05   -3.687292303256212e-05   0.0001037551034550146
-2.1049585189883348e-05   2.4493135095166496e-06   1.7793491528753677e-05
-2.1049585189883348e-05   2.4493135095166496e-06   1.7793491528753677e-05
-2.1049585189883348e-05   2.4493135095166496e-06   1.7793491528753677e-05
-2.1049585189883348e-05   2.4493135095166496e-06   1.7793491528753677e-05
-6.951679165300014e-05   -2.8603057977216842e-05   0.00011720359185932159
-6.951679165300014e-05   -2.8603057977216842e-05   0.00011720359185932159
-6.951679165300014e-05   -2.8603057977216842e-05   0.00011720359185932159
-6.951679165300014e-05   -2.8603057977216842e-05   0.00011720359185932159
-4.6359287502844815e-05   -1.424252673974327e-05   6.999143286657852e-05
-4.6359287502844815e-05   -1.424252673974327e-05   6.999143286657852e-05
-4.6359287502844815e-05   -1.424252673974327e-05   6.999143286657852e-05
-4.6359287502844815e-05   -1.424252673974327e-05   6.999143286657852e-05
-6.951679165300002e-05   2.4493135095166496e-06   3.642491442079371e-05
-6.951679165300002e-05   2.4493135095166496e-06   3.642491442079371e-05
-6.951679165300002e-05   2.4493135095166496e-06   3.642491442079371e-05
-6.951679165300002e-05   2.4493135095166496e-06   3.642491442079371e-05
-2.104958518988339e-05   -2.8603057977216842e-05   9.857216896728152e-05
-2.104958518988339e-05   -2.8603057977216842e-05   9.857216896728152e-05
-2.104958518988339e-05   -2.8603057977216842e-05   9.857216896728152e-05
-2.104958518988339e-05   -2.8603057977216842e-05   9.857216896728152e-05
-2.151356483341685e-05   1.7656735328055182e-06   1.955079241869204e-05
-2.151356483341685e-05   1.7656735328055182e-06   1.955079241869204e-05
-2.151356483341685e-05   1.7656735328055182e-06   1.955079241869204e-05
-2.151356483341685e-05   1.7656735328055182e-06   1.955079241869204e-05
-6.558837394789238e-05   -2.461065621649868e-05   0.00010883460545906692
-6.558837394789238e-05   -2.461065621649868e-05   0.00010883460545906692
-6.558837394789238e-05   -2.461065621649868e-05   0.00010883460545906692
-6.558837394789238e-05   -2.461065621649868e-05   0.00010883460545906692
-4.496327006619763e-05   -1.3487353083398119e-05   6.778545044304875e-05
-4.496327006619763e-05   -1.3487353083398119e-05   6.778545044304875e-05
-4.496327006619763e-05   -1.3487353083398119e-05   6.778545044304875e-05
-4.496327006619763e-05   -1.3487353083398119e-05   6.778545044304875e-05
-6.558837394789226e-05   1.7656735328055182e-06   3.537659026827452e-05
-6.558837394789226e-05   1.7656735328055182e-06   3.537659026827452e-05
-6.558837394789226e-05   1.7656735328055182e-06   3.537659026827452e-05
-6.558837394789226e-05   1.7656735328055182e-06   3.537659026827452e-05
-2.151356483341689e-05   -2.461065621649868e-05   9.300880760948442e-05
-2.151356483341689e-05   -2.461065621649868e-05   9.300880760948442e-05
-2.151356483341689e-05   -2.461065621649868e-05   9.300880760948442e-05
-2.151356483341689e-05   -2.461065621649868e-05   9.300880760948442e-05
-2.3541244147797516e-05   -1.1368060341703954e-06   2.4493361046114905e-05
-2.3541244147797516e-05   -1.1368060341703954e-06   2.4493361046114905e-05
-2.3541244147797516e-05   -1.1368060341703954e-06   2.4493361046114905e-05
-2.3541244147797516e-05   -1.1368060341703954e-06   2.4493361046114905e-05
-6.055678871942564e-05   -1.931359777729194e-05   9.709201037803457e-05
-6.055678871942564e-05   -1.931359777729194e-05   9.709201037803457e-05
-6.055678871942564e-05   -1.931359777729194e-05   9.709201037803457e-05
-6.055678871942564e-05   -1.931359777729194e-05   9.709201037803457e-05
-4.3235525244410725e-05   -1.2447378945354762e-05   6.410350662051414e-05
-4.3235525244410725e-05   -1.2447378945354762e-05   6.410350662051414e-05
-4.3235525244410725e-05   -1.2447378945354762e-05   6.410350662051414e-05
-4.3235525244410725e-05   -1.2447378945354762e-05   6.410350662051414e-05
-1.795414248436854e-05   -6.690439499401613e-06   1.830746224167572e-05
-1.795414248436854e-05   -6.690439499401613e-06   1.830746224167572e-05
-1.795414248436854e-05   -6.690439499401613e-06   1.830746224167572e-05
-1.795414248436854e-05   -6.690439499401613e-06   1.830746224167572e-05
-6.264428852319778e-06   -1.1327389614070561e-05   3.500814822628903e-05
-6.264428852319778e-06   -1.1327389614070561e-05   3.500814822628903e-05
-6.264428852319778e-06   -1.1327389614070561e-05   3.500814822628903e-05
-6.264428852319778e-06   -1.1327389614070561e-05   3.500814822628903e-05
-6.983904119748345e-06   -5.472307956584242e-06   1.6407179799984655e-05
-6.983904119748345e-06   -5.472307956584242e-06   1.6407179799984655e-05
-6.983904119748345e-06   -5.472307956584242e-06   1.6407179799984655e-05
-6.983904119748345e-06   -5.472307956584242e-06   1.6407179799984655e-05
-2.104958518988339e-05   -1.506127437456917e-05   4.560336143433379e-05
-2.104958518988339e-05   -1.506127437456917e-05   4.560336143433379e-05
-2.104958518988339e-05   -1.506127437456917e-05   4.560336143433379e-05
-2.104958518988339e-05   -1.506127437456917e-05   4.560336143433379e-05
-1.2382034167169146e-05   -7.906578915205936e-06   2.686462578752543e-05
-1.2382034167169146e-05   -7.906578915205936e-06   2.686462578752543e-05
-1.2382034167169146e-05   -7.906578915205936e-06   2.686462578752543e-05
-1.2382034167169146e-05   -7.906578915205936e-06   2.686462578752543e-05
-2.1049585189883335e-05   -5.472307956584242e-06   2.216055965077534e-05
-2.1049585189883335e-05   -5.472307956584242e-06   2.216055965077534e-05
-2.1049585189883335e-05   -5.472307956584242e-06   2.216055965077534e-05
-2.1049585189883335e-05   -5.472307956584242e-06   2.216055965077534e-05
-6.983904119748372e-06   -1.506127437456917e-05   3.984998158354286e-05
-6.983904119748372e-06   -1.506127437456917e-05   3.984998158354286e-05
-6.983904119748372e-06   -1.506127437456917e-05   3.984998158354286e-05
-6.983904119748372e-06   -1.506127437456917e-05   3.984998158354286e-05
-7.5992320801163615e-06   -5.598415937053405e-06   1.8446507002161424e-05
-7.5992320801163615e-06   -5.598415937053405e-06   1.8446507002161424e-05
-7.5992320801163615e-06   -5.598415937053405e-06   1.8446507002161424e-05
-7.5992320801163615e-06   -5.598415937053405e-06   1.8446507002161424e-05
-2.151356483341689e-05   -1.3750734664266703e-05   4.652845282732338e-05
-2.151356483341689e-05   -1.3750734664266703e-05   4.652845282732338e-05
-2.151356483341689e-05   -1.3750734664266703e-05   4.652845282732338e-05
-2.151356483341689e-05   -1.3750734664266703e-05   4.652845282732338e-05
-1.3946489148656331e-05   -9.680182171617908e-06   3.1474328523800154e-05
-1.3946489148656331e-05   -9.680182171617908e-06   3.1474328523800154e-05
-1.3946489148656331e-05   -9.680182171617908e-06   3.1474328523800154e-05
-1.3946489148656331e-05   -9.680182171617908e-06   3.1474328523800154e-05
-2.151356483341685e-05   -5.598415937053405e-06   2.3337898238489404e-05
-2.151356483341685e-05   -5.598415937053405e-06   2.3337898238489404e-05
-2.151356483341685e-05   -5.598415937053405e-06   2.3337898238489404e-05
-2.151356483341685e-05   -5.598415937053405e-06   2.3337898238489404e-05
-7.599232080116416e-06   -1.3750734664266703e-05   4.1637061590995455e-05
-7.599232080116416e-06   -1.3750734664266703e-05   4.1637061590995455e-05
-7.599232080116416e-06   -1.3750734664266703e-05   4.1637061590995455e-05
-7.599232080116416e-06   -1.3750734664266703e-05   4.1637061590995455e-05
-8.597808681099948e-06   -5.654857243477386e-06   2.0166853886073187e-05
-8.597808681099948e-06   -5.654857243477386e-06   2.0166853886073187e-05
-8.597808681099948e-06   -5.654857243477386e-06   2.0166853886073187e-05
-8.597808681099948e-06   -5.654857243477386e-06   2.0166853886073187e-05
-2.3541244147797544e-05   -1.2926670302009056e-05   4.943566749902127e-05
-2.3541244147797544e-05   -1.2926670302009056e-05   4.943566749902127e-05
-2.3541244147797544e-05   -1.2926670302009056e-05   4.943566749902127e-05
-2.3541244147797544e-05   -1.2926670302009056e-05   4.943566749902127e-05
-1.4851560497240272e-05   -8.836190939551491e-06   3.249857379728475e-05
-1.4851560497240272e-05   -8.836190939551491e-06   3.249857379728475e-05
-1.4851560497240272e-05   -8.836190939551491e-06   3.249857379728475e-05
-1.4851560497240272e-05   -8.836190939551491e-06   3.249857379728475e-05
-6.2644288523198055e-06   -5.225882392797913e-06   9.801233179826396e-06
-6.2644288523198055e-06   -5.225882392797913e-06   9.801233179826396e-06
-6.2644288523198055e-06   -5.225882392797913e-06   9.801233179826396e-06
-6.2644288523198055e-06   -5.225882392797913e-06   9.801233179826396e-06
-3.4887347729253425e-06   -3.1063396755878487e-06   1.5699115609143176e-05
-3.4887347729253425e-06   -3.1063396755878487e-06   1.5699115609143176e-05
-3.4887347729253425e-06   -3.1063396755878487e-06   1.5699115609143176e-05
-3.4887347729253425e-06   -3.1063396755878487e-06   1.5699115609143176e-05
-3.3460975995492563e-06   -5.132398621266723e-06   1.135984022233253e-05
-3.3460975995492563e-06   -5.132398621266723e-06   1.135984022233253e-05
-3.3460975995492563e-06   -5.132398621266723e-06   1.135984022233253e-05
-3.3460975995492563e-06   -5.132398621266723e-06   1.135984022233253e-05
-6.983904119748372e-06   -4.08522567640737e-06   1.679454732241519e-05
-6.983904119748372e-06   -4.08522567640737e-06   1.679454732241519e-05
-6.983904119748372e-06   -4.08522567640737e-06   1.679454732241519e-05
-6.983904119748372e-06   -4.08522567640737e-06   1.679454732241519e-05
-4.703749396501206e-06   -4.162284164481217e-06   1.3040524543180671e-05
-4.703749396501206e-06   -4.162284164481217e-06   1.3040524543180671e-05
-4.703749396501206e-06   -4.162284164481217e-06   1.3040524543180671e-05
-4.703749396501206e-06   -4.162284164481217e-06   1.3040524543180671e-05
-6.983904119748345e-06   -5.132398621266669e-06   1.0731536455416807e-05
-6.983904119748345e-06   -5.132398621266669e-06   1.0731536455416807e-05
-6.983904119748345e-06   -5.132398621266669e-06   1.0731536455416807e-05
-6.983904119748345e-06   -5.132398621266669e-06   1.0731536455416807e-05
-3.3460975995492563e-06   -4.08522567640737e-06   1.7422851089330803e-05
-3.3460975995492563e-06   -4.08522567640737e-06   1.7422851089330803e-05
-3.3460975995492563e-06   -4.08522567640737e-06   1.7422851089330803e-05
-3.3460975995492563e-06   -4.08522567640737e-06   1.7422851089330803e-05
-3.344798600298806e-06   -5.290267976785969e-06   1.2141341397493193e-05
-3.344798600298806e-06   -5.290267976785969e-06   1.2141341397493193e-05
-3.344798600298806e-06   -5.290267976785969e-06   1.2141341397493193e-05
-3.344798600298806e-06   -5.290267976785969e-06   1.2141341397493193e-05
-7.599232080116416e-06   -5.269586789262349e-06   1.921965515134155e-05
-7.599232080116416e-06   -5.269586789262349e-06   1.921965515134155e-05
-7.599232080116416e-06   -5.269586789262349e-06   1.921965515134155e-05
-7.599232080116416e-06   -5.269586789262349e-06   1.921965515134155e-05
-4.97901116546453e-06   -4.5513297210711835e-06   1.4421666052673711e-05
-4.97901116546453e-06   -4.5513297210711835e-06   1.4421666052673711e-05
-4.97901116546453e-06   -4.5513297210711835e-06   1.4421666052673711e-05
-4.97901116546453e-06   -4.5513297210711835e-06   1.4421666052673711e-05
-7.5992320801163615e-06   -5.290267976785915e-06   1.2128932684978921e-05
-7.5992320801163615e-06   -5.290267976785915e-06   1.2128932684978921e-05
-7.5992320801163615e-06   -5.290267976785915e-06   1.2128932684978921e-05
-7.5992320801163615e-06   -5.290267976785915e-06   1.2128932684978921e-05
-3.344798600298806e-06   -5.269586789262349e-06   1.923206386385566e-05
-3.344798600298806e-06   -5.269586789262349e-06   1.923206386385566e-05
-3.344798600298806e-06   -5.269586789262349e-06   1.923206386385566e-05
-3.344798600298806e-06   -5.269586789262349e-06   1.923206386385566e-05
-3.3831209051151073e-06   -5.515801348150099e-06   1.3308045686516163e-05
-3.3831209051151073e-06   -5.515801348150099e-06   1.3308045686516163e-05
-3.3831209051151073e-06   -5.515801348150099e-06   1.3308045686516163e-05
-3.3831209051151073e-06   -5.515801348150099e-06   1.3308045686516163e-05
-8.597808681099975e-06   -6.396212811286379e-06   2.252743885770587e-05
-8.597808681099975e-06   -6.396212811286379e-06   2.252743885770587e-05
-8.597808681099975e-06   -6.396212811286379e-06   2.252743885770587e-05
-8.597808681099975e-06   -6.396212811286379e-06   2.252743885770587e-05
-5.2909463339454225e-06   -4.976635379715653e-06   1.6164255153505898e-05
-5.2909463339454225e-06   -4.976635379715653e-06   1.6164255153505898e-05
-5.2909463339454225e-06   -4.976635379715653e-06   1.6164255153505898e-05
-5.2909463339454225e-06   -4.976635379715653e-06   1.6164255153505898e-05
-3.4887347729253425e-06   -2.142159469156041e-06   2.7263465447181475e-06
-3.4887347729253425e-06   -2.142159469156041e-06   2.7263465447181475e-06
-3.4887347729253425e-06   -2.142159469156041e-06   2.7263465447181475e-06
-3.4887347729253425e-06   -2.142159469156041e-06   2.7263465447181475e-06
-2.577432417801462e-06   6.011249000015655e-07   5.891154424752772e-06
-2.577432417801462e-06   6.011249000015655e-07   5.891154424752772e-06
-2.577432417801462e-06   6.011249000015655e-07   5.891154424752772e-06
-2.577432417801462e-06   6.011249000015655e-07   5.891154424752772e-06
-2.080025849021715e-06   -2.509658232816329e-06   4.62760264914651e-06
-2.080025849021715e-06   -2.509658232816329e-06   4.62760264914651e-06
-2.080025849021715e-06   -2.509658232816329e-06   4.62760264914651e-06
-2.080025849021715e-06   -2.509658232816329e-06   4.62760264914651e-06
-3.3460975995492563e-06   2.5540052350146004e-07   5.078686979568224e-06
-3.3460975995492563e-06   2.5540052350146004e-07   5.078686979568224e-06
-3.3460975995492563e-06   2.5540052350146004e-07   5.078686979568224e-06
-3.3460975995492563e-06   2.5540052350146004e-07   5.078686979568224e-06
-2.696264650002924e-06   -9.86294488881218e-07   4.740649071086956e-06
-2.696264650002924e-06   -9.86294488881218e-07   4.740649071086956e-06
-2.696264650002924e-06   -9.86294488881218e-07   4.740649071086956e-06
-2.696264650002924e-06   -9.86294488881218e-07   4.740649071086956e-06
-3.3460975995492563e-06   -2.509658232816329e-06   2.9685673953558e-06
-3.3460975995492563e-06   -2.509658232816329e-06   2.9685673953558e-06
-3.3460975995492563e-06   -2.509658232816329e-06   2.9685673953558e-06
-3.3460975995492563e-06   -2.509658232816329e-06   2.9685673953558e-06
-2.080025849021715e-06   2.5540052350146004e-07   6.73772223335888e-06
-2.080025849021715e-06   2.5540052350146004e-07   6.73772223335888e-06
-2.080025849021715e-06   2.5540052350146004e-07   6.73772223335888e-06
-2.080025849021715e-06   2.5540052350146004e-07   6.73772223335888e-06
-1.804750000683952e-06   -2.790476823127388e-06   5.08304774440708e-06
-1.804750000683952e-06   -2.790476823127388e-06   5.08304774440708e-06
-1.804750000683952e-06   -2.790476823127388e-06   5.08304774440708e-06
-1.804750000683952e-06   -2.790476823127388e-06   5.08304774440708e-06
-3.344798600298806e-06   -2.9835583990847923e-07   6.154522820500294e-06
-3.344798600298806e-06   -2.9835583990847923e-07   6.154522820500294e-06
-3.344798600298806e-06   -2.9835583990847923e-07   6.154522820500294e-06
-3.344798600298806e-06   -2.9835583990847923e-07   6.154522820500294e-06
-2.438771630369795e-06   -1.267589930836982e-06   5.226018325175897e-06
-2.438771630369795e-06   -1.267589930836982e-06   5.226018325175897e-06
-2.438771630369795e-06   -1.267589930836982e-06   5.226018325175897e-06
-2.438771630369795e-06   -1.267589930836982e-06   5.226018325175897e-06
-3.344798600298806e-06   -2.790476823127388e-06   3.587775154475592e-06
-3.344798600298806e-06   -2.790476823127388e-06   3.587775154475592e-06
-3.344798600298806e-06   -2.790476823127388e-06   3.587775154475592e-06
-3.344798600298806e-06   -2.790476823127388e-06   3.587775154475592e-06
-1.804750000683952e-06   -2.9835583990847923e-07   7.649795410431511e-06
-1.804750000683952e-06   -2.9835583990847923e-07   7.649795410431511e-06
-1.804750000683952e-06   -2.9835583990847923e-07   7.649795410431511e-06
-1.804750000683952e-06   -2.9835583990847923e-07   7.649795410431511e-06
-1.3821727769986218e-06   -3.1592904291565557e-06   5.574267353198334e-06
-1.3821727769986218e-06   -3.1592904291565557e-06   5.574267353198334e-06
-1.3821727769986218e-06   -3.1592904291565557e-06   5.574267353198334e-06
-1.3821727769986218e-06   -3.1592904291565557e-06   5.574267353198334e-06
-3.3831209051151073e-06   -1.4428313351859574e-06   7.87930544367656e-06
-3.3831209051151073e-06   -1.4428313351859574e-06   7.87930544367656e-06
-3.3831209051151073e-06   -1.4428313351859574e-06   7.87930544367656e-06
-3.3831209051151073e-06   -1.4428313351859574e-06   7.87930544367656e-06
-2.226281793983034e-06   -1.7005953901660844e-06   6.105898691445002e-06
-2.226281793983034e-06   -1.7005953901660844e-06   6.105898691445002e-06
-2.226281793983034e-06   -1.7005953901660844e-06   6.105898691445002e-06
-2.226281793983034e-06   -1.7005953901660844e-06   6.105898691445002e-06
-2.577432417801462e-06   -2.4331248663403936e-07   -4.3479853730616605e-06
-2.577432417801462e-06   -2.4331248663403936e-07   -4.3479853730616605e-06
-2.577432417801462e-06   -2.4331248663403936e-07   -4.3479853730616605e-06
-2.577432417801462e-06   -2.4331248663403936e-07   -4.3479853730616605e-06
-4.653734241216517e-07   3.7470917153760875e-07   -4.570740553591071e-07
-4.653734241216517e-07   3.7470917153760875e-07   -4.570740553591071e-07
-4.653734241216517e-07   3.7470917153760875e-07   -4.570740553591071e-07
-4.653734241216517e-07   3.7470917153760875e-07   -4.570740553591071e-07
2.3585510126747714e-08   -3.377301957976464e-07   -3.421569842324999e-06
2.3585510126747714e-08   -3.377301957976464e-07   -3.421569842324999e-06
2.3585510126747714e-08   -3.377301957976464e-07   -3.421569842324999e-06
2.3585510126747714e-08   -3.377301957976464e-07   -3.421569842324999e-06
-2.080025849021715e-06   6.504931635052474e-07   -5.084849259929993e-07
-2.080025849021715e-06   6.504931635052474e-07   -5.084849259929993e-07
-2.080025849021715e-06   6.504931635052474e-07   -5.084849259929993e-07
-2.080025849021715e-06   6.504931635052474e-07   -5.084849259929993e-07
-1.165348983200485e-06   1.7156251596179813e-07   -1.7455879805029816e-06
-1.165348983200485e-06   1.7156251596179813e-07   -1.7455879805029816e-06
-1.165348983200485e-06   1.7156251596179813e-07   -1.7455879805029816e-06
-1.165348983200485e-06   1.7156251596179813e-07   -1.7455879805029816e-06
-2.080025849021715e-06   -3.377301957976464e-07   -4.014503857907212e-06
-2.080025849021715e-06   -3.377301957976464e-07   -4.014503857907212e-06
-2.080025849021715e-06   -3.377301957976464e-07   -4.014503857907212e-06
-2.080025849021715e-06   -3.377301957976464e-07   -4.014503857907212e-06
2.3585510126747714e-08   6.504931635052474e-07   8.444908958867188e-08
2.3585510126747714e-08   6.504931635052474e-07   8.444908958867188e-08
2.3585510126747714e-08   6.504931635052474e-07   8.444908958867188e-08
2.3585510126747714e-08   6.504931635052474e-07   8.444908958867188e-08
2.821515496330808e-07   -4.6604781329977934e-07   -3.076912088299062e-06
2.821515496330808e-07   -4.6604781329977934e-07   -3.076912088299062e-06
2.821515496330808e-07   -4.6604781329977934e-07   -3.076912088299062e-06
2.821515496330808e-07   -4.6604781329977934e-07   -3.076912088299062e-06
-1.804750000683952e-06   5.628945043622833e-07   -2.161082283683646e-07
-1.804750000683952e-06   5.628945043622833e-07   -2.161082283683646e-07
-1.804750000683952e-06   5.628945043622833e-07   -2.161082283683646e-07
-1.804750000683952e-06   5.628945043622833e-07   -2.161082283683646e-07
-8.028505948222213e-07   1.1253037325830708e-07   -1.6157220928081318e-06
-8.028505948222213e-07   1.1253037325830708e-07   -1.6157220928081318e-06
-8.028505948222213e-07   1.1253037325830708e-07   -1.6157220928081318e-06
-8.028505948222213e-07   1.1253037325830708e-07   -1.6157220928081318e-06
-1.804750000683952e-06   -4.660478132997251e-07   -3.6942774788965176e-06
-1.804750000683952e-06   -4.660478132997251e-07   -3.6942774788965176e-06
-1.804750000683952e-06   -4.660478132997251e-07   -3.6942774788965176e-06
-1.804750000683952e-06   -4.660478132997251e-07   -3.6942774788965176e-06
2.821515496329724e-07   5.628945043622833e-07   4.0125716222892856e-07
2.821515496329724e-07   5.628945043622833e-07   4.0125716222892856e-07
2.821515496329724e-07   5.628945043622833e-07   4.0125716222892856e-07
2.821515496329724e-07   5.628945043622833e-07   4.0125716222892856e-07
6.055125315892031e-07   -6.200603203546182e-07   -2.5739068534931953e-06
6.055125315892031e-07   -6.200603203546182e-07   -2.5739068534931953e-06
6.055125315892031e-07   -6.200603203546182e-07   -2.5739068534931953e-06
6.055125315892031e-07   -6.200603203546182e-07   -2.5739068534931953e-06
-1.3821727769986218e-06   4.940541327352332e-07   7.043332229917602e-08
-1.3821727769986218e-06   4.940541327352332e-07   7.043332229917602e-08
-1.3821727769986218e-06   4.940541327352332e-07   7.043332229917602e-08
-1.3821727769986218e-06   4.940541327352332e-07   7.043332229917602e-08
-4.742101364544975e-07   4.223090408422099e-08   -1.1717438080838163e-06
-4.742101364544975e-07   4.223090408422099e-08   -1.1717438080838163e-06
-4.742101364544975e-07   4.223090408422099e-08   -1.1717438080838163e-06
-4.742101364544975e-07   4.223090408422099e-08   -1.1717438080838163e-06
              </DataArray>   
             <DataArray type="Float64" NumberOfComponents="3" Name="Stress" format="ascii">   
-3.951506273633919   -0.9878765684084797   -0.9878765684084797
-3.951506273633919   -0.9878765684084797   -0.9878765684084797
-3.951506273633919   -0.9878765684084797   -0.9878765684084797
-3.951506273633919   -0.9878765684084797   -0.9878765684084797
-2.2868135569839136   -0.07221399656852523   -0.0457562422110766
-2.2868135569839136   -0.07221399656852523   -0.0457562422110766
-2.2868135569839136   -0.07221399656852523   -0.0457562422110766
-2.2868135569839136   -0.07221399656852523   -0.0457562422110766
-2.465148803784533   -0.6162872009461332   -0.6162872009461332
-2.465148803784533   -0.6162872009461332   -0.6162872009461332
-2.465148803784533   -0.6162872009461332   -0.6162872009461332
-2.465148803784533   -0.6162872009461332   -0.6162872009461332
-3.8085198077228792   -0.3125743011695242   -0.11947907127348528
-3.8085198077228792   -0.3125743011695242   -0.11947907127348528
-3.8085198077228792   -0.3125743011695242   -0.11947907127348528
-3.8085198077228792   -0.3125743011695242   -0.11947907127348528
-2.98706184718983   -0.4896000930226741   -0.008235218734985995
-2.98706184718983   -0.4896000930226741   -0.008235218734985995
-2.98706184718983   -0.4896000930226741   -0.008235218734985995
-2.98706184718983   -0.4896000930226741   -0.008235218734985995
-4.13567681470476   -1.03391920367619   -1.03391920367619
-4.13567681470476   -1.03391920367619   -1.03391920367619
-4.13567681470476   -1.03391920367619   -1.03391920367619
-4.13567681470476   -1.03391920367619   -1.03391920367619
-2.21555846471892   0.027491033644270857   -0.012113740208473112
-2.21555846471892   0.027491033644270857   -0.012113740208473112
-2.21555846471892   0.027491033644270857   -0.012113740208473112
-2.21555846471892   0.027491033644270857   -0.012113740208473112
-2.4723095021176884   -0.6180773755294221   -0.6180773755294221
-2.4723095021176884   -0.6180773755294221   -0.6180773755294221
-2.4723095021176884   -0.6180773755294221   -0.6180773755294221
-2.4723095021176884   -0.6180773755294221   -0.6180773755294221
-3.936751087592337   -0.31563797907483027   -0.17510572403193136
-3.936751087592337   -0.31563797907483027   -0.17510572403193136
-3.936751087592337   -0.31563797907483027   -0.17510572403193136
-3.936751087592337   -0.31563797907483027   -0.17510572403193136
-3.0986961720988546   -0.461041316901886   -0.16447033074190348
-3.0986961720988546   -0.461041316901886   -0.16447033074190348
-3.0986961720988546   -0.461041316901886   -0.16447033074190348
-3.0986961720988546   -0.461041316901886   -0.16447033074190348
-4.265113718856657   -1.0662784297141643   -1.0662784297141643
-4.265113718856657   -1.0662784297141643   -1.0662784297141643
-4.265113718856657   -1.0662784297141643   -1.0662784297141643
-4.265113718856657   -1.0662784297141643   -1.0662784297141643
-2.2093134473559806   0.06719649860730587   0.011629024142389366
-2.2093134473559806   0.06719649860730587   0.011629024142389366
-2.2093134473559806   0.06719649860730587   0.011629024142389366
-2.2093134473559806   0.06719649860730587   0.011629024142389366
-2.4712450872650633   -0.6178112718162658   -0.6178112718162658
-2.4712450872650633   -0.6178112718162658   -0.6178112718162658
-2.4712450872650633   -0.6178112718162658   -0.6178112718162658
-2.4712450872650633   -0.6178112718162658   -0.6178112718162658
-4.1657637848563045   -0.2770002717777804   -0.10494584091726203
-4.1657637848563045   -0.2770002717777804   -0.10494584091726203
-4.1657637848563045   -0.2770002717777804   -0.10494584091726203
-4.1657637848563045   -0.2770002717777804   -0.10494584091726203
-3.181605557901446   -0.4539305779222127   -0.2972898978111766
-3.181605557901446   -0.4539305779222127   -0.2972898978111766
-3.181605557901446   -0.4539305779222127   -0.2972898978111766
-3.181605557901446   -0.4539305779222127   -0.2972898978111766
-2.5146883435866636   -0.6286720858966659   -0.6286720858966659
-2.5146883435866636   -0.6286720858966659   -0.6286720858966659
-2.5146883435866636   -0.6286720858966659   -0.6286720858966659
-2.5146883435866636   -0.6286720858966659   -0.6286720858966659
-1.0489220313703567   -0.06963737933499156   -0.0226460010663767
-1.0489220313703567   -0.06963737933499156   -0.0226460010663767
-1.0489220313703567   -0.06963737933499156   -0.0226460010663767
-1.0489220313703567   -0.06963737933499156   -0.0226460010663767
-1.1014110317995767   -0.27535275794989417   -0.27535275794989417
-1.1014110317995767   -0.27535275794989417   -0.27535275794989417
-1.1014110317995767   -0.27535275794989417   -0.27535275794989417
-1.1014110317995767   -0.27535275794989417   -0.27535275794989417
-2.2896163925206374   -0.2691986129733952   -0.08571373259939458
-2.2896163925206374   -0.2691986129733952   -0.08571373259939458
-2.2896163925206374   -0.2691986129733952   -0.08571373259939458
-2.2896163925206374   -0.2691986129733952   -0.08571373259939458
-1.6885636026229858   -0.31982379972618263   0.013229381230280734
-1.6885636026229858   -0.31982379972618263   0.013229381230280734
-1.6885636026229858   -0.31982379972618263   0.013229381230280734
-1.6885636026229858   -0.31982379972618263   0.013229381230280734
-2.4651488037845306   -0.6162872009461327   -0.6162872009461327
-2.4651488037845306   -0.6162872009461327   -0.6162872009461327
-2.4651488037845306   -0.6162872009461327   -0.6162872009461327
-2.4651488037845306   -0.6162872009461327   -0.6162872009461327
-0.9898149761713981   0.007799474387127109   -0.000524712146022184
-0.9898149761713981   0.007799474387127109   -0.000524712146022184
-0.9898149761713981   0.007799474387127109   -0.000524712146022184
-0.9898149761713981   0.007799474387127109   -0.000524712146022184
-1.0770369915768776   -0.2692592478942194   -0.2692592478942194
-1.0770369915768776   -0.2692592478942194   -0.2692592478942194
-1.0770369915768776   -0.2692592478942194   -0.2692592478942194
-1.0770369915768776   -0.2692592478942194   -0.2692592478942194
-2.284060507665395   -0.2196645193922951   -0.07524525940508127
-2.284060507665395   -0.2196645193922951   -0.07524525940508127
-2.284060507665395   -0.2196645193922951   -0.07524525940508127
-2.284060507665395   -0.2196645193922951   -0.07524525940508127
-1.6652598463145585   -0.2692922035854559   -0.08708898842417809
-1.6652598463145585   -0.2692922035854559   -0.08708898842417809
-1.6652598463145585   -0.2692922035854559   -0.08708898842417809
-1.6652598463145585   -0.2692922035854559   -0.08708898842417809
-2.4723095021176884   -0.6180773755294221   -0.6180773755294221
-2.4723095021176884   -0.6180773755294221   -0.6180773755294221
-2.4723095021176884   -0.6180773755294221   -0.6180773755294221
-2.4723095021176884   -0.6180773755294221   -0.6180773755294221
-0.9507132982520289   0.06722830711546268   0.025871663720341817
-0.9507132982520289   0.06722830711546268   0.025871663720341817
-0.9507132982520289   0.06722830711546268   0.025871663720341817
-0.9507132982520289   0.06722830711546268   0.025871663720341817
-1.0548769688253081   -0.26371924220632703   -0.26371924220632703
-1.0548769688253081   -0.26371924220632703   -0.26371924220632703
-1.0548769688253081   -0.26371924220632703   -0.26371924220632703
-1.0548769688253081   -0.26371924220632703   -0.26371924220632703
-2.267503945006746   -0.1695570476931219   -0.047359784647849776
-2.267503945006746   -0.1695570476931219   -0.047359784647849776
-2.267503945006746   -0.1695570476931219   -0.047359784647849776
-2.267503945006746   -0.1695570476931219   -0.047359784647849776
-1.6737194715157688   -0.23836648598364657   -0.19406131197345805
-1.6737194715157688   -0.23836648598364657   -0.19406131197345805
-1.6737194715157688   -0.23836648598364657   -0.19406131197345805
-1.6737194715157688   -0.23836648598364657   -0.19406131197345805
-1.144961505877872   -0.286240376469468   -0.286240376469468
-1.144961505877872   -0.286240376469468   -0.286240376469468
-1.144961505877872   -0.286240376469468   -0.286240376469468
-1.144961505877872   -0.286240376469468   -0.286240376469468
0.13644242056770753   0.009022211417242645   0.0011091667793101676
0.13644242056770753   0.009022211417242645   0.0011091667793101676
0.13644242056770753   0.009022211417242645   0.0011091667793101676
0.13644242056770753   0.009022211417242645   0.0011091667793101676
0.1770527968230016   0.0442631992057504   0.0442631992057504
0.1770527968230016   0.0442631992057504   0.0442631992057504
0.1770527968230016   0.0442631992057504   0.0442631992057504
0.1770527968230016   0.0442631992057504   0.0442631992057504
-1.035426979648309   -0.1789714502404089   -0.04181380490304987
-1.035426979648309   -0.1789714502404089   -0.04181380490304987
-1.035426979648309   -0.1789714502404089   -0.04181380490304987
-1.035426979648309   -0.1789714502404089   -0.04181380490304987
-0.4429684802090389   -0.11238331072087018   0.07533550504912473
-0.4429684802090389   -0.11238331072087018   0.07533550504912473
-0.4429684802090389   -0.11238331072087018   0.07533550504912473
-0.4429684802090389   -0.11238331072087018   0.07533550504912473
-1.1014110317995767   -0.27535275794989417   -0.27535275794989417
-1.1014110317995767   -0.27535275794989417   -0.27535275794989417
-1.1014110317995767   -0.27535275794989417   -0.27535275794989417
-1.1014110317995767   -0.27535275794989417   -0.27535275794989417
0.1801788239002601   0.07778648184122772   0.02637005195656407
0.1801788239002601   0.07778648184122772   0.02637005195656407
0.1801788239002601   0.07778648184122772   0.02637005195656407
0.1801788239002601   0.07778648184122772   0.02637005195656407
0.19888903207552946   0.049722258018882366   0.049722258018882366
0.19888903207552946   0.049722258018882366   0.049722258018882366
0.19888903207552946   0.049722258018882366   0.049722258018882366
0.19888903207552946   0.049722258018882366   0.049722258018882366
-0.9990528349380619   -0.12055461151466389   -0.028043101079713546
-0.9990528349380619   -0.12055461151466389   -0.028043101079713546
-0.9990528349380619   -0.12055461151466389   -0.028043101079713546
-0.9990528349380619   -0.12055461151466389   -0.028043101079713546
-0.4251672322833212   -0.0694913614022781   -0.025670300635226136
-0.4251672322833212   -0.0694913614022781   -0.025670300635226136
-0.4251672322833212   -0.0694913614022781   -0.025670300635226136
-0.4251672322833212   -0.0694913614022781   -0.025670300635226136
-1.0770369915768776   -0.2692592478942194   -0.2692592478942194
-1.0770369915768776   -0.2692592478942194   -0.2692592478942194
-1.0770369915768776   -0.2692592478942194   -0.2692592478942194
-1.0770369915768776   -0.2692592478942194   -0.2692592478942194
0.21527984617371132   0.13683355185780693   0.04456503467086548
0.21527984617371132   0.13683355185780693   0.04456503467086548
0.21527984617371132   0.13683355185780693   0.04456503467086548
0.21527984617371132   0.13683355185780693   0.04456503467086548
0.22833901788730618   0.057084754471826545   0.057084754471826545
0.22833901788730618   0.057084754471826545   0.057084754471826545
0.22833901788730618   0.057084754471826545   0.057084754471826545
0.22833901788730618   0.057084754471826545   0.057084754471826545
-0.9594631128800502   -0.05087103671501769   0.0005018320286412914
-0.9594631128800502   -0.05087103671501769   0.0005018320286412914
-0.9594631128800502   -0.05087103671501769   0.0005018320286412914
-0.9594631128800502   -0.05087103671501769   0.0005018320286412914
-0.4126974965782045   -0.028142453585507154   -0.1257745885039836
-0.4126974965782045   -0.028142453585507154   -0.1257745885039836
-0.4126974965782045   -0.028142453585507154   -0.1257745885039836
-0.4126974965782045   -0.028142453585507154   -0.1257745885039836
0.14935127214266355   0.03733781803566589   0.03733781803566589
0.14935127214266355   0.03733781803566589   0.03733781803566589
0.14935127214266355   0.03733781803566589   0.03733781803566589
0.14935127214266355   0.03733781803566589   0.03733781803566589
1.433840658369885   0.13153064264405498   0.04408411248340207
1.433840658369885   0.13153064264405498   0.04408411248340207
1.433840658369885   0.13153064264405498   0.04408411248340207
1.433840658369885   0.13153064264405498   0.04408411248340207
1.5566085718299985   0.3891521429574996   0.3891521429574996
1.5566085718299985   0.3891521429574996   0.3891521429574996
1.5566085718299985   0.3891521429574996   0.3891521429574996
1.5566085718299985   0.3891521429574996   0.3891521429574996
0.13491060107218691   -0.10098578411611077   -0.021198796226464638
0.13491060107218691   -0.10098578411611077   -0.021198796226464638
0.13491060107218691   -0.10098578411611077   -0.021198796226464638
0.13491060107218691   -0.10098578411611077   -0.021198796226464638
0.8177635405272514   0.10179798636630749   0.14861006733145965
0.8177635405272514   0.10179798636630749   0.14861006733145965
0.8177635405272514   0.10179798636630749   0.14861006733145965
0.8177635405272514   0.10179798636630749   0.14861006733145965
0.1770527968230022   0.04426319920575055   0.04426319920575055
0.1770527968230022   0.04426319920575055   0.04426319920575055
0.1770527968230022   0.04426319920575055   0.04426319920575055
0.1770527968230022   0.04426319920575055   0.04426319920575055
1.4505786002268457   0.1800153837833009   0.0681390441159348
1.4505786002268457   0.1800153837833009   0.0681390441159348
1.4505786002268457   0.1800153837833009   0.0681390441159348
1.4505786002268457   0.1800153837833009   0.0681390441159348
1.54969561489753   0.3874239037243825   0.3874239037243825
1.54969561489753   0.3874239037243825   0.3874239037243825
1.54969561489753   0.3874239037243825   0.3874239037243825
1.54969561489753   0.3874239037243825   0.3874239037243825
0.17023544970686472   -0.043872897129333496   4.950132377274513e-05
0.17023544970686472   -0.043872897129333496   4.950132377274513e-05
0.17023544970686472   -0.043872897129333496   4.950132377274513e-05
0.17023544970686472   -0.043872897129333496   4.950132377274513e-05
0.8114777096372967   0.133507762057738   0.03869685975754719
0.8114777096372967   0.133507762057738   0.03869685975754719
0.8114777096372967   0.133507762057738   0.03869685975754719
0.8114777096372967   0.133507762057738   0.03869685975754719
0.19888903207552966   0.049722258018882415   0.049722258018882415
0.19888903207552966   0.049722258018882415   0.049722258018882415
0.19888903207552966   0.049722258018882415   0.049722258018882415
0.19888903207552966   0.049722258018882415   0.049722258018882415
1.4577668425916714   0.23055355863897325   0.08465038728049958
1.4577668425916714   0.23055355863897325   0.08465038728049958
1.4577668425916714   0.23055355863897325   0.08465038728049958
1.4577668425916714   0.23055355863897325   0.08465038728049958
1.5794719632863392   0.3948679908215848   0.3948679908215848
1.5794719632863392   0.3948679908215848   0.3948679908215848
1.5794719632863392   0.3948679908215848   0.3948679908215848
1.5794719632863392   0.3948679908215848   0.3948679908215848
0.21660807470201326   0.03170901917685191   0.02380577384033486
0.21660807470201326   0.03170901917685191   0.02380577384033486
0.21660807470201326   0.03170901917685191   0.02380577384033486
0.21660807470201326   0.03170901917685191   0.02380577384033486
0.8238297265287862   0.1810550202019826   -0.06321862712225414
0.8238297265287862   0.1810550202019826   -0.06321862712225414
0.8238297265287862   0.1810550202019826   -0.06321862712225414
0.8238297265287862   0.1810550202019826   -0.06321862712225414
1.5541307859382152   0.3885326964845538   0.3885326964845538
1.5541307859382152   0.3885326964845538   0.3885326964845538
1.5541307859382152   0.3885326964845538   0.3885326964845538
1.5541307859382152   0.3885326964845538   0.3885326964845538
3.222339121189864   0.24554808361857444   0.08392094219235512
3.222339121189864   0.24554808361857444   0.08392094219235512
3.222339121189864   0.24554808361857444   0.08392094219235512
3.222339121189864   0.24554808361857444   0.08392094219235512
3.293419464024531   0.8233548660061327   0.8233548660061327
3.293419464024531   0.8233548660061327   0.8233548660061327
3.293419464024531   0.8233548660061327   0.8233548660061327
3.293419464024531   0.8233548660061327   0.8233548660061327
1.3836019438831089   -0.0787159123972373   -0.008012941422212053
1.3836019438831089   -0.0787159123972373   -0.008012941422212053
1.3836019438831089   -0.0787159123972373   -0.008012941422212053
1.3836019438831089   -0.0787159123972373   -0.008012941422212053
2.2983482462265563   0.3252115392514916   0.25954162946511067
2.2983482462265563   0.3252115392514916   0.25954162946511067
2.2983482462265563   0.3252115392514916   0.25954162946511067
2.2983482462265563   0.3252115392514916   0.25954162946511067
1.5566085718299971   0.3891521429574993   0.3891521429574993
1.5566085718299971   0.3891521429574993   0.3891521429574993
1.5566085718299971   0.3891521429574993   0.3891521429574993
1.5566085718299971   0.3891521429574993   0.3891521429574993
3.0519408233256207   0.28701479789938567   0.15230173061838256
3.0519408233256207   0.28701479789938567   0.15230173061838256
3.0519408233256207   0.28701479789938567   0.15230173061838256
3.0519408233256207   0.28701479789938567   0.15230173061838256
3.194743263491381   0.7986858158728453   0.7986858158728453
3.194743263491381   0.7986858158728453   0.7986858158728453
3.194743263491381   0.7986858158728453   0.7986858158728453
3.194743263491381   0.7986858158728453   0.7986858158728453
1.3882088682599876   -0.04353995558737506   0.010954029848427568
1.3882088682599876   -0.04353995558737506   0.010954029848427568
1.3882088682599876   -0.04353995558737506   0.010954029848427568
1.3882088682599876   -0.04353995558737506   0.010954029848427568
2.229906668364231   0.3345252743827708   0.1244664379652844
2.229906668364231   0.3345252743827708   0.1244664379652844
2.229906668364231   0.3345252743827708   0.1244664379652844
2.229906668364231   0.3345252743827708   0.1244664379652844
1.54969561489753   0.3874239037243825   0.3874239037243825
1.54969561489753   0.3874239037243825   0.3874239037243825
1.54969561489753   0.3874239037243825   0.3874239037243825
1.54969561489753   0.3874239037243825   0.3874239037243825
2.9534224864666467   0.28788792617390546   0.1028798204481631
2.9534224864666467   0.28788792617390546   0.1028798204481631
2.9534224864666467   0.28788792617390546   0.1028798204481631
2.9534224864666467   0.28788792617390546   0.1028798204481631
3.048014256154642   0.7620035640386605   0.7620035640386605
3.048014256154642   0.7620035640386605   0.7620035640386605
3.048014256154642   0.7620035640386605   0.7620035640386605
3.048014256154642   0.7620035640386605   0.7620035640386605
1.439331335000446   0.04515022181603662   0.043882618397667134
1.439331335000446   0.04515022181603662   0.043882618397667134
1.439331335000446   0.04515022181603662   0.043882618397667134
1.439331335000446   0.04515022181603662   0.043882618397667134
2.1349744506026362   0.3626261319219142   -0.03260108877613299
2.1349744506026362   0.3626261319219142   -0.03260108877613299
2.1349744506026362   0.3626261319219142   -0.03260108877613299
2.1349744506026362   0.3626261319219142   -0.03260108877613299
-3.1252127200464734   -0.2237532702496695   0.03494655244576578
-3.1252127200464734   -0.2237532702496695   0.03494655244576578
-3.1252127200464734   -0.2237532702496695   0.03494655244576578
-3.1252127200464734   -0.2237532702496695   0.03494655244576578
-1.9890134777285073   -0.04566221640071949   -0.012780718532770366
-1.9890134777285073   -0.04566221640071949   -0.012780718532770366
-1.9890134777285073   -0.04566221640071949   -0.012780718532770366
-1.9890134777285073   -0.04566221640071949   -0.012780718532770366
-2.0026835476748217   0.0808242467579926   0.04167740831604533
-2.0026835476748217   0.0808242467579926   0.04167740831604533
-2.0026835476748217   0.0808242467579926   0.04167740831604533
-2.0026835476748217   0.0808242467579926   0.04167740831604533
-3.1718401239772454   -0.2162418542837229   -0.03745415878449884
-3.1718401239772454   -0.2162418542837229   -0.03745415878449884
-3.1718401239772454   -0.2162418542837229   -0.03745415878449884
-3.1718401239772454   -0.2162418542837229   -0.03745415878449884
-2.4709456551090883   -0.08431372013937088   -0.009674099431927152
-2.4709456551090883   -0.08431372013937088   -0.009674099431927152
-2.4709456551090883   -0.08431372013937088   -0.009674099431927152
-2.4709456551090883   -0.08431372013937088   -0.009674099431927152
-3.1488905893119874   -0.15378525931753018   0.01483691957559724
-3.1488905893119874   -0.15378525931753018   0.01483691957559724
-3.1488905893119874   -0.15378525931753018   0.01483691957559724
-3.1488905893119874   -0.15378525931753018   0.01483691957559724
-2.0289725270709886   0.015028207060896304   -0.023971448967659376
-2.0289725270709886   0.015028207060896304   -0.023971448967659376
-2.0289725270709886   0.015028207060896304   -0.023971448967659376
-2.0289725270709886   0.015028207060896304   -0.023971448967659376
-2.0052065551442118   0.11519141585073278   0.04749671814775941
-2.0052065551442118   0.11519141585073278   0.04749671814775941
-2.0052065551442118   0.11519141585073278   0.04749671814775941
-2.0052065551442118   0.11519141585073278   0.04749671814775941
-3.191258338271793   -0.19052163489487595   -0.04945715383440338
-3.191258338271793   -0.19052163489487595   -0.04945715383440338
-3.191258338271793   -0.19052163489487595   -0.04945715383440338
-3.191258338271793   -0.19052163489487595   -0.04945715383440338
-2.5405048759722617   -0.056499070493638226   -0.024034014191038344
-2.5405048759722617   -0.056499070493638226   -0.024034014191038344
-2.5405048759722617   -0.056499070493638226   -0.024034014191038344
-2.5405048759722617   -0.056499070493638226   -0.024034014191038344
-3.1340861023455977   -0.09242279919896812   0.13830519010064035
-3.1340861023455977   -0.09242279919896812   0.13830519010064035
-3.1340861023455977   -0.09242279919896812   0.13830519010064035
-3.1340861023455977   -0.09242279919896812   0.13830519010064035
-2.038532823228799   0.04093854799643171   -0.044881754420859205
-2.038532823228799   0.04093854799643171   -0.044881754420859205
-2.038532823228799   0.04093854799643171   -0.044881754420859205
-2.038532823228799   0.04093854799643171   -0.044881754420859205
-1.9688858755862626   0.20064533959859765   0.0864043066945904
-1.9688858755862626   0.20064533959859765   0.0864043066945904
-1.9688858755862626   0.20064533959859765   0.0864043066945904
-1.9688858755862626   0.20064533959859765   0.0864043066945904
-3.103348909464752   -0.15384555273478429   -0.0809641030905563
-3.103348909464752   -0.15384555273478429   -0.0809641030905563
-3.103348909464752   -0.15384555273478429   -0.0809641030905563
-3.103348909464752   -0.15384555273478429   -0.0809641030905563
-2.443559207165263   0.022663983360516338   0.05411047245608397
-2.443559207165263   0.022663983360516338   0.05411047245608397
-2.443559207165263   0.022663983360516338   0.05411047245608397
-2.443559207165263   0.022663983360516338   0.05411047245608397
-2.0384927964765196   -0.27015853156471603   -0.03568099710883598
-2.0384927964765196   -0.27015853156471603   -0.03568099710883598
-2.0384927964765196   -0.27015853156471603   -0.03568099710883598
-2.0384927964765196   -0.27015853156471603   -0.03568099710883598
-0.9388230081262948   -0.020722197381614182   0.010000182813520365
-0.9388230081262948   -0.020722197381614182   0.010000182813520365
-0.9388230081262948   -0.020722197381614182   0.010000182813520365
-0.9388230081262948   -0.020722197381614182   0.010000182813520365
-0.9527111823887633   0.018156150512756097   0.014154874699491865
-0.9527111823887633   0.018156150512756097   0.014154874699491865
-0.9527111823887633   0.018156150512756097   0.014154874699491865
-0.9527111823887633   0.018156150512756097   0.014154874699491865
-2.078977913781006   -0.19777417749479703   -0.061195997962085594
-2.078977913781006   -0.19777417749479703   -0.061195997962085594
-2.078977913781006   -0.19777417749479703   -0.061195997962085594
-2.078977913781006   -0.19777417749479703   -0.061195997962085594
-1.5021985460521794   -0.12189703214091333   -0.03437460480878455
-1.5021985460521794   -0.12189703214091333   -0.03437460480878455
-1.5021985460521794   -0.12189703214091333   -0.03437460480878455
-1.5021985460521794   -0.12189703214091333   -0.03437460480878455
-2.077046765750401   -0.2161706901335363   -0.03314374517033225
-2.077046765750401   -0.2161706901335363   -0.03314374517033225
-2.077046765750401   -0.2161706901335363   -0.03314374517033225
-2.077046765750401   -0.2161706901335363   -0.03314374517033225
-0.9509345480242369   0.04026044554662772   0.000933751488261414
-0.9509345480242369   0.04026044554662772   0.000933751488261414
-0.9509345480242369   0.04026044554662772   0.000933751488261414
-0.9509345480242369   0.04026044554662772   0.000933751488261414
-0.9492469748682933   0.0662010809328901   0.01926920942375096
-0.9492469748682933   0.0662010809328901   0.01926920942375096
-0.9492469748682933   0.0662010809328901   0.01926920942375096
-0.9492469748682933   0.0662010809328901   0.01926920942375096
-2.0799799941053396   -0.1450003975170306   -0.06617866329011607
-2.0799799941053396   -0.1450003975170306   -0.06617866329011607
-2.0799799941053396   -0.1450003975170306   -0.06617866329011607
-2.0799799941053396   -0.1450003975170306   -0.06617866329011607
-1.4994127463696854   -0.06786715366091306   -0.016337460865050432
-1.4994127463696854   -0.06786715366091306   -0.016337460865050432
-1.4994127463696854   -0.06786715366091306   -0.016337460865050432
-1.4994127463696854   -0.06786715366091306   -0.016337460865050432
-2.071868799961589   -0.1635847866568313   -0.007038303431560644
-2.071868799961589   -0.1635847866568313   -0.007038303431560644
-2.071868799961589   -0.1635847866568313   -0.007038303431560644
-2.071868799961589   -0.1635847866568313   -0.007038303431560644
-0.9504749619125894   0.09166867717214963   -0.01233832203697266
-0.9504749619125894   0.09166867717214963   -0.01233832203697266
-0.9504749619125894   0.09166867717214963   -0.01233832203697266
-0.9504749619125894   0.09166867717214963   -0.01233832203697266
-0.9334699882664415   0.11447565983685642   0.038769796261737835
-0.9334699882664415   0.11447565983685642   0.038769796261737835
-0.9334699882664415   0.11447565983685642   0.038769796261737835
-0.9334699882664415   0.11447565983685642   0.038769796261737835
-2.057848639440104   -0.08402628809468499   -0.0737378848813439
-2.057848639440104   -0.08402628809468499   -0.0737378848813439
-2.057848639440104   -0.08402628809468499   -0.0737378848813439
-2.057848639440104   -0.08402628809468499   -0.0737378848813439
-1.4932861498543195   -0.01674064618188653   0.0075029327128522255
-1.4932861498543195   -0.01674064618188653   0.0075029327128522255
-1.4932861498543195   -0.01674064618188653   0.0075029327128522255
-1.4932861498543195   -0.01674064618188653   0.0075029327128522255
-0.9900379571744905   -0.22487920787406254   -0.04191755193501768
-0.9900379571744905   -0.22487920787406254   -0.04191755193501768
-0.9900379571744905   -0.22487920787406254   -0.04191755193501768
-0.9900379571744905   -0.22487920787406254   -0.04191755193501768
0.10327062977800994   0.023481148796446027   0.03856956041507775
0.10327062977800994   0.023481148796446027   0.03856956041507775
0.10327062977800994   0.023481148796446027   0.03856956041507775
0.10327062977800994   0.023481148796446027   0.03856956041507775
0.09847427110574007   0.056785187303859286   0.003068132064240007
0.09847427110574007   0.056785187303859286   0.003068132064240007
0.09847427110574007   0.056785187303859286   0.003068132064240007
0.09847427110574007   0.056785187303859286   0.003068132064240007
-0.9943299098206825   -0.149021544915261   -0.026761067032086513
-0.9943299098206825   -0.149021544915261   -0.026761067032086513
-0.9943299098206825   -0.149021544915261   -0.026761067032086513
-0.9943299098206825   -0.149021544915261   -0.026761067032086513
-0.44996355456185394   -0.0745164657398325   -0.014203675972649125
-0.44996355456185394   -0.0745164657398325   -0.014203675972649125
-0.44996355456185394   -0.0745164657398325   -0.014203675972649125
-0.44996355456185394   -0.0745164657398325   -0.014203675972649125
-1.001205126345599   -0.17149671459470184   -0.03866197997722854
-1.001205126345599   -0.17149671459470184   -0.03866197997722854
-1.001205126345599   -0.17149671459470184   -0.03866197997722854
-1.001205126345599   -0.17149671459470184   -0.03866197997722854
0.10917870979502972   0.08308957914767225   0.030285933666875285
0.10917870979502972   0.08308957914767225   0.030285933666875285
0.10917870979502972   0.08308957914767225   0.030285933666875285
0.10917870979502972   0.08308957914767225   0.030285933666875285
0.10613232529975813   0.10967888741925713   0.01793923335206956
0.10613232529975813   0.10967888741925713   0.01793923335206956
0.10613232529975813   0.10967888741925713   0.01793923335206956
0.10613232529975813   0.10967888741925713   0.01793923335206956
-0.991221315782626   -0.09102143586856626   -0.03337997834645519
-0.991221315782626   -0.09102143586856626   -0.03337997834645519
-0.991221315782626   -0.09102143586856626   -0.03337997834645519
-0.991221315782626   -0.09102143586856626   -0.03337997834645519
-0.4430195723256697   -0.018297581874657173   0.005321497143494898
-0.4430195723256697   -0.018297581874657173   0.005321497143494898
-0.4430195723256697   -0.018297581874657173   0.005321497143494898
-0.4430195723256697   -0.018297581874657173   0.005321497143494898
-0.99386969281165   -0.11786501895455573   -0.019778280405586483
-0.99386969281165   -0.11786501895455573   -0.019778280405586483
-0.99386969281165   -0.11786501895455573   -0.019778280405586483
-0.99386969281165   -0.11786501895455573   -0.019778280405586483
0.11289993816828958   0.14064170634475376   0.020814478769229473
0.11289993816828958   0.14064170634475376   0.020814478769229473
0.11289993816828958   0.14064170634475376   0.020814478769229473
0.11289993816828958   0.14064170634475376   0.020814478769229473
0.10849971077631981   0.16853085526509676   0.029548468272845324
0.10849971077631981   0.16853085526509676   0.029548468272845324
0.10849971077631981   0.16853085526509676   0.029548468272845324
0.10849971077631981   0.16853085526509676   0.029548468272845324
-0.9783299976819567   -0.029009605294751384   -0.04204498568422634
-0.9783299976819567   -0.029009605294751384   -0.04204498568422634
-0.9783299976819567   -0.029009605294751384   -0.04204498568422634
-0.9783299976819567   -0.029009605294751384   -0.04204498568422634
-0.4320098397384907   0.04049480587694025   0.026696545722363324
-0.4320098397384907   0.04049480587694025   0.026696545722363324
-0.4320098397384907   0.04049480587694025   0.026696545722363324
-0.4320098397384907   0.04049480587694025   0.026696545722363324
0.04761218905514982   -0.16481681049677224   -0.051424683906004534
0.04761218905514982   -0.16481681049677224   -0.051424683906004534
0.04761218905514982   -0.16481681049677224   -0.051424683906004534
0.04761218905514982   -0.16481681049677224   -0.051424683906004534
1.1802150547807828   0.08151971901245561   0.07075159315082377
1.1802150547807828   0.08151971901245561   0.07075159315082377
1.1802150547807828   0.08151971901245561   0.07075159315082377
1.1802150547807828   0.08151971901245561   0.07075159315082377
1.1787219334940373   0.10975738480149685   -0.011294284060278888
1.1787219334940373   0.10975738480149685   -0.011294284060278888
1.1787219334940373   0.10975738480149685   -0.011294284060278888
1.1787219334940373   0.10975738480149685   -0.011294284060278888
0.06809241479800604   -0.09907804152529888   0.0070220793547279906
0.06809241479800604   -0.09907804152529888   0.0070220793547279906
0.06809241479800604   -0.09907804152529888   0.0070220793547279906
0.06809241479800604   -0.09907804152529888   0.0070220793547279906
0.6110429002711575   -0.014081910123761782   0.0013253205500456666
0.6110429002711575   -0.014081910123761782   0.0013253205500456666
0.6110429002711575   -0.014081910123761782   0.0013253205500456666
0.6110429002711575   -0.014081910123761782   0.0013253205500456666
0.0547397985143032   -0.12045332841684286   -0.038365715172241424
0.0547397985143032   -0.12045332841684286   -0.038365715172241424
0.0547397985143032   -0.12045332841684286   -0.038365715172241424
0.0547397985143032   -0.12045332841684286   -0.038365715172241424
1.1989509232859195   0.13800904520121682   0.061599004499400936
1.1989509232859195   0.13800904520121682   0.061599004499400936
1.1989509232859195   0.13800904520121682   0.061599004499400936
1.1989509232859195   0.13800904520121682   0.061599004499400936
1.1879539724695887   0.1620657453333565   0.012024190874494533
1.1879539724695887   0.1620657453333565   0.012024190874494533
1.1879539724695887   0.1620657453333565   0.012024190874494533
1.1879539724695887   0.1620657453333565   0.012024190874494533
0.07045409710558656   -0.04724676291581922   -0.003526257283712024
0.07045409710558656   -0.04724676291581922   -0.003526257283712024
0.07045409710558656   -0.04724676291581922   -0.003526257283712024
0.07045409710558656   -0.04724676291581922   -0.003526257283712024
0.6191312266470941   0.03592166194721133   0.025321172554147488
0.6191312266470941   0.03592166194721133   0.025321172554147488
0.6191312266470941   0.03592166194721133   0.025321172554147488
0.6191312266470941   0.03592166194721133   0.025321172554147488
0.06073535341974219   -0.07138013698105256   -0.02798660164770006
0.06073535341974219   -0.07138013698105256   -0.02798660164770006
0.06073535341974219   -0.07138013698105256   -0.02798660164770006
0.06073535341974219   -0.07138013698105256   -0.02798660164770006
1.202647796711574   0.19117419995472706   0.05638485746303172
1.202647796711574   0.19117419995472706   0.05638485746303172
1.202647796711574   0.19117419995472706   0.05638485746303172
1.202647796711574   0.19117419995472706   0.05638485746303172
1.1688269550650965   0.2224395625946663   0.02523961056632354
1.1688269550650965   0.2224395625946663   0.02523961056632354
1.1688269550650965   0.2224395625946663   0.02523961056632354
1.1688269550650965   0.2224395625946663   0.02523961056632354
0.06976618146552215   0.01696024235352378   -0.012548565369570013
0.06976618146552215   0.01696024235352378   -0.012548565369570013
0.06976618146552215   0.01696024235352378   -0.012548565369570013
0.06976618146552215   0.01696024235352378   -0.012548565369570013
0.628220470834756   0.09309054202182554   0.04752794240764919
0.628220470834756   0.09309054202182554   0.04752794240764919
0.628220470834756   0.09309054202182554   0.04752794240764919
0.628220470834756   0.09309054202182554   0.04752794240764919
1.0873191923931256   -0.21723474211187122   -0.0949732576631347
1.0873191923931256   -0.21723474211187122   -0.0949732576631347
1.0873191923931256   -0.21723474211187122   -0.0949732576631347
1.0873191923931256   -0.21723474211187122   -0.0949732576631347
2.2384406781966457   0.14784735678398264   0.06882763763821195
2.2384406781966457   0.14784735678398264   0.06882763763821195
2.2384406781966457   0.14784735678398264   0.06882763763821195
2.2384406781966457   0.14784735678398264   0.06882763763821195
2.263683485978064   0.07033231665776318   -0.1428533382421683
2.263683485978064   0.07033231665776318   -0.1428533382421683
2.263683485978064   0.07033231665776318   -0.1428533382421683
2.263683485978064   0.07033231665776318   -0.1428533382421683
1.158311020187076   -0.04471525685266731   0.04112379105905782
1.158311020187076   -0.04471525685266731   0.04112379105905782
1.158311020187076   -0.04471525685266731   0.04112379105905782
1.158311020187076   -0.04471525685266731   0.04112379105905782
1.6030923241298205   -0.02789358337497244   -0.04002148831307077
1.6030923241298205   -0.02789358337497244   -0.04002148831307077
1.6030923241298205   -0.02789358337497244   -0.04002148831307077
1.6030923241298205   -0.02789358337497244   -0.04002148831307077
1.1178621632799086   -0.1428570252494331   -0.06297872507999883
1.1178621632799086   -0.1428570252494331   -0.06297872507999883
1.1178621632799086   -0.1428570252494331   -0.06297872507999883
1.1178621632799086   -0.1428570252494331   -0.06297872507999883
2.324665356849868   0.18900709901916918   0.04338123375544771
2.324665356849868   0.18900709901916918   0.04338123375544771
2.324665356849868   0.18900709901916918   0.04338123375544771
2.324665356849868   0.18900709901916918   0.04338123375544771
2.2884989016338575   0.12788471089348313   -0.03221267112115146
2.2884989016338575   0.12788471089348313   -0.03221267112115146
2.2884989016338575   0.12788471089348313   -0.03221267112115146
2.2884989016338575   0.12788471089348313   -0.03221267112115146
1.1535892404890262   -0.018882152162299104   0.02114842846731836
1.1535892404890262   -0.018882152162299104   0.02114842846731836
1.1535892404890262   -0.018882152162299104   0.02114842846731836
1.1535892404890262   -0.018882152162299104   0.02114842846731836
1.6868685724368273   0.042128116302525664   0.02769752642018275
1.6868685724368273   0.042128116302525664   0.02769752642018275
1.6868685724368273   0.042128116302525664   0.02769752642018275
1.6868685724368273   0.042128116302525664   0.02769752642018275
1.1211549202048325   -0.10926884682606514   -0.050636478289875525
1.1211549202048325   -0.10926884682606514   -0.050636478289875525
1.1211549202048325   -0.10926884682606514   -0.050636478289875525
1.1211549202048325   -0.10926884682606514   -0.050636478289875525
2.318203475028098   0.21554165866729869   0.028653248076235524
2.318203475028098   0.21554165866729869   0.028653248076235524
2.318203475028098   0.21554165866729869   0.028653248076235524
2.318203475028098   0.21554165866729869   0.028653248076235524
2.2845319395201815   0.1955402543804879   -0.04936782329981418
2.2845319395201815   0.1955402543804879   -0.04936782329981418
2.2845319395201815   0.1955402543804879   -0.04936782329981418
2.2845319395201815   0.1955402543804879   -0.04936782329981418
1.1297737736259545   0.04069837759191486   0.011714888373345375
1.1297737736259545   0.04069837759191486   0.011714888373345375
1.1297737736259545   0.04069837759191486   0.011714888373345375
1.1297737736259545   0.04069837759191486   0.011714888373345375
1.64363884336092   0.0737793815952601   0.02046828926163488
1.64363884336092   0.0737793815952601   0.02046828926163488
1.64363884336092   0.0737793815952601   0.02046828926163488
1.64363884336092   0.0737793815952601   0.02046828926163488
-2.4580074903467657   -0.1116590911022382   0.1262289205778941
-2.4580074903467657   -0.1116590911022382   0.1262289205778941
-2.4580074903467657   -0.1116590911022382   0.1262289205778941
-2.4580074903467657   -0.1116590911022382   0.1262289205778941
-1.6319293904953738   -0.061802422903703524   -0.03284538887026367
-1.6319293904953738   -0.061802422903703524   -0.03284538887026367
-1.6319293904953738   -0.061802422903703524   -0.03284538887026367
-1.6319293904953738   -0.061802422903703524   -0.03284538887026367
-1.5732524482343506   0.13215343619895498   0.10593461788599587
-1.5732524482343506   0.13215343619895498   0.10593461788599587
-1.5732524482343506   0.13215343619895498   0.10593461788599587
-1.5732524482343506   0.13215343619895498   0.10593461788599587
-2.4693862340552295   -0.17622699360839134   -0.051485002831825194
-2.4693862340552295   -0.17622699360839134   -0.051485002831825194
-2.4693862340552295   -0.17622699360839134   -0.051485002831825194
-2.4693862340552295   -0.17622699360839134   -0.051485002831825194
-1.950555671976218   -0.030163574254285286   -0.0034600716831005296
-1.950555671976218   -0.030163574254285286   -0.0034600716831005296
-1.950555671976218   -0.030163574254285286   -0.0034600716831005296
-1.950555671976218   -0.030163574254285286   -0.0034600716831005296
-2.4007943044447746   -0.02624360691493144   0.14149125852698832
-2.4007943044447746   -0.02624360691493144   0.14149125852698832
-2.4007943044447746   -0.02624360691493144   0.14149125852698832
-2.4007943044447746   -0.02624360691493144   0.14149125852698832
-1.6310380803682822   -0.007023653017981912   -0.04381645356672567
-1.6310380803682822   -0.007023653017981912   -0.04381645356672567
-1.6310380803682822   -0.007023653017981912   -0.04381645356672567
-1.6310380803682822   -0.007023653017981912   -0.04381645356672567
-1.566883714662965   0.16388839063971172   0.0982183502297069
-1.566883714662965   0.16388839063971172   0.0982183502297069
-1.566883714662965   0.16388839063971172   0.0982183502297069
-1.566883714662965   0.16388839063971172   0.0982183502297069
-2.431258667691473   -0.14746590686950567   -0.07051339062423534
-2.431258667691473   -0.14746590686950567   -0.07051339062423534
-2.431258667691473   -0.14746590686950567   -0.07051339062423534
-2.431258667691473   -0.14746590686950567   -0.07051339062423534
-1.9548049549211544   0.0071237454212602636   0.022598871120762337
-1.9548049549211544   0.0071237454212602636   0.022598871120762337
-1.9548049549211544   0.0071237454212602636   0.022598871120762337
-1.9548049549211544   0.0071237454212602636   0.022598871120762337
-2.367376383304218   0.003693843128355412   0.0977382813141782
-2.367376383304218   0.003693843128355412   0.0977382813141782
-2.367376383304218   0.003693843128355412   0.0977382813141782
-2.367376383304218   0.003693843128355412   0.0977382813141782
-1.627203827502686   0.016290812189388992   -0.05578463551856398
-1.627203827502686   0.016290812189388992   -0.05578463551856398
-1.627203827502686   0.016290812189388992   -0.05578463551856398
-1.627203827502686   0.016290812189388992   -0.05578463551856398
-1.5684430152851634   0.1849147356593342   0.0779314447004476
-1.5684430152851634   0.1849147356593342   0.0779314447004476
-1.5684430152851634   0.1849147356593342   0.0779314447004476
-1.5684430152851634   0.1849147356593342   0.0779314447004476
-2.3817358203094647   -0.11693589881485383   -0.08993866450647763
-2.3817358203094647   -0.11693589881485383   -0.08993866450647763
-2.3817358203094647   -0.11693589881485383   -0.08993866450647763
-2.3817358203094647   -0.11693589881485383   -0.08993866450647763
-1.8987048647644136   0.04049988936087057   0.04690602672559632
-1.8987048647644136   0.04049988936087057   0.04690602672559632
-1.8987048647644136   0.04049988936087057   0.04690602672559632
-1.8987048647644136   0.04049988936087057   0.04690602672559632
-1.6368895901634184   -0.15518776031215073   0.035738950197961174
-1.6368895901634184   -0.15518776031215073   0.035738950197961174
-1.6368895901634184   -0.15518776031215073   0.035738950197961174
-1.6368895901634184   -0.15518776031215073   0.035738950197961174
-0.8262003314363767   -0.029762551499513623   0.0016050049131971986
-0.8262003314363767   -0.029762551499513623   0.0016050049131971986
-0.8262003314363767   -0.029762551499513623   0.0016050049131971986
-0.8262003314363767   -0.029762551499513623   0.0016050049131971986
-0.8028384090805618   0.08120961610156965   0.05758346531930374
-0.8028384090805618   0.08120961610156965   0.05758346531930374
-0.8028384090805618   0.08120961610156965   0.05758346531930374
-0.8028384090805618   0.08120961610156965   0.05758346531930374
-1.6629377553425422   -0.1530432534975516   -0.05729522795846692
-1.6629377553425422   -0.1530432534975516   -0.05729522795846692
-1.6629377553425422   -0.1530432534975516   -0.05729522795846692
-1.6629377553425422   -0.1530432534975516   -0.05729522795846692
-1.2278243309407522   -0.060250109487342746   -0.024814527897698536
-1.2278243309407522   -0.060250109487342746   -0.024814527897698536
-1.2278243309407522   -0.060250109487342746   -0.024814527897698536
-1.2278243309407522   -0.060250109487342746   -0.024814527897698536
-1.6317783934214383   -0.08916950683380459   0.034627834983309
-1.6317783934214383   -0.08916950683380459   0.034627834983309
-1.6317783934214383   -0.08916950683380459   0.034627834983309
-1.6317783934214383   -0.08916950683380459   0.034627834983309
-0.8276782696290987   0.023655370810393928   -0.009061592132197857
-0.8276782696290987   0.023655370810393928   -0.009061592132197857
-0.8276782696290987   0.023655370810393928   -0.009061592132197857
-0.8276782696290987   0.023655370810393928   -0.009061592132197857
-0.8003293858523304   0.13413124557735195   0.049828943928787534
-0.8003293858523304   0.13413124557735195   0.049828943928787534
-0.8003293858523304   0.13413124557735195   0.049828943928787534
-0.8003293858523304   0.13413124557735195   0.049828943928787534
-1.6535613359828438   -0.10363749303661224   -0.06764387269336326
-1.6535613359828438   -0.10363749303661224   -0.06764387269336326
-1.6535613359828438   -0.10363749303661224   -0.06764387269336326
-1.6535613359828438   -0.10363749303661224   -0.06764387269336326
-1.214457493819194   -0.006689610078152386   -5.395812092572061e-05
-1.214457493819194   -0.006689610078152386   -5.395812092572061e-05
-1.214457493819194   -0.006689610078152386   -5.395812092572061e-05
-1.214457493819194   -0.006689610078152386   -5.395812092572061e-05
-1.621764393544367   -0.035484062878609224   0.023187409341018206
-1.621764393544367   -0.035484062878609224   0.023187409341018206
-1.621764393544367   -0.035484062878609224   0.023187409341018206
-1.621764393544367   -0.035484062878609224   0.023187409341018206
-0.8269801378327539   0.07112400587740492   -0.02041757627336742
-0.8269801378327539   0.07112400587740492   -0.02041757627336742
-0.8269801378327539   0.07112400587740492   -0.02041757627336742
-0.8269801378327539   0.07112400587740492   -0.02041757627336742
-0.8001250104424953   0.18973500129753001   0.037344933082122625
-0.8001250104424953   0.18973500129753001   0.037344933082122625
-0.8001250104424953   0.18973500129753001   0.037344933082122625
-0.8001250104424953   0.18973500129753001   0.037344933082122625
-1.6456392129186375   -0.050337443973300255   -0.07279736383429208
-1.6456392129186375   -0.050337443973300255   -0.07279736383429208
-1.6456392129186375   -0.050337443973300255   -0.07279736383429208
-1.6456392129186375   -0.050337443973300255   -0.07279736383429208
-1.2152879959853196   0.04241258793070729   0.018863523872123075
-1.2152879959853196   0.04241258793070729   0.018863523872123075
-1.2152879959853196   0.04241258793070729   0.018863523872123075
-1.2152879959853196   0.04241258793070729   0.018863523872123075
-0.8570147093898658   -0.17727976532574882   -0.004949671028020764
-0.8570147093898658   -0.17727976532574882   -0.004949671028020764
-0.8570147093898658   -0.17727976532574882   -0.004949671028020764
-0.8570147093898658   -0.17727976532574882   -0.004949671028020764
-0.02796553479007783   0.008913656899437848   0.03660263220199813
-0.02796553479007783   0.008913656899437848   0.03660263220199813
-0.02796553479007783   0.008913656899437848   0.03660263220199813
-0.02796553479007783   0.008913656899437848   0.03660263220199813
-0.03113215033272581   0.05246747428695246   0.017486269491031887
-0.03113215033272581   0.05246747428695246   0.017486269491031887
-0.03113215033272581   0.05246747428695246   0.017486269491031887
-0.03113215033272581   0.05246747428695246   0.017486269491031887
-0.8576235886759129   -0.11367140026756237   -0.021461416288319796
-0.8576235886759129   -0.11367140026756237   -0.021461416288319796
-0.8576235886759129   -0.11367140026756237   -0.021461416288319796
-0.8576235886759129   -0.11367140026756237   -0.021461416288319796
-0.4447911041213624   -0.05553494098156947   -0.01387589424863699
-0.4447911041213624   -0.05553494098156947   -0.01387589424863699
-0.4447911041213624   -0.05553494098156947   -0.01387589424863699
-0.4447911041213624   -0.05553494098156947   -0.01387589424863699
-0.8567007997277416   -0.11853940321105061   -0.011979468603975208
-0.8567007997277416   -0.11853940321105061   -0.011979468603975208
-0.8567007997277416   -0.11853940321105061   -0.011979468603975208
-0.8567007997277416   -0.11853940321105061   -0.011979468603975208
-0.02734294271188223   0.062047473799454314   0.026852308082748327
-0.02734294271188223   0.062047473799454314   0.026852308082748327
-0.02734294271188223   0.062047473799454314   0.026852308082748327
-0.02734294271188223   0.062047473799454314   0.026852308082748327
-0.02725711324529842   0.11012871974379712   0.008406597178034249
-0.02725711324529842   0.11012871974379712   0.008406597178034249
-0.02725711324529842   0.11012871974379712   0.008406597178034249
-0.02725711324529842   0.11012871974379712   0.008406597178034249
-0.8555008165970766   -0.06044982377475941   -0.03144714044282409
-0.8555008165970766   -0.06044982377475941   -0.03144714044282409
-0.8555008165970766   -0.06044982377475941   -0.03144714044282409
-0.8555008165970766   -0.06044982377475941   -0.03144714044282409
-0.4405029207509992   -0.002211425488781865   0.00612803934822102
-0.4405029207509992   -0.002211425488781865   0.00612803934822102
-0.4405029207509992   -0.002211425488781865   0.00612803934822102
-0.4405029207509992   -0.002211425488781865   0.00612803934822102
-0.8542122047627428   -0.06169533250373466   -0.02375857254218021
-0.8542122047627428   -0.06169533250373466   -0.02375857254218021
-0.8542122047627428   -0.06169533250373466   -0.02375857254218021
-0.8542122047627428   -0.06169533250373466   -0.02375857254218021
-0.02465456207339408   0.11526539147901049   0.01628268130234293
-0.02465456207339408   0.11526539147901049   0.01628268130234293
-0.02465456207339408   0.11526539147901049   0.01628268130234293
-0.02465456207339408   0.11526539147901049   0.01628268130234293
-0.02645988794425528   0.16951692525540432   -0.0012824426711493878
-0.02645988794425528   0.16951692525540432   -0.0012824426711493878
-0.02645988794425528   0.16951692525540432   -0.0012824426711493878
-0.02645988794425528   0.16951692525540432   -0.0012824426711493878
-0.8551114175338894   -0.006319556406872068   -0.041532544670449915
-0.8551114175338894   -0.006319556406872068   -0.041532544670449915
-0.8551114175338894   -0.006319556406872068   -0.041532544670449915
-0.8551114175338894   -0.006319556406872068   -0.041532544670449915
-0.4371802413497609   0.05116247040874468   0.024471447819202463
-0.4371802413497609   0.05116247040874468   0.024471447819202463
-0.4371802413497609   0.05116247040874468   0.024471447819202463
-0.4371802413497609   0.05116247040874468   0.024471447819202463
-0.0843693267542055   -0.19404000839045601   -0.042462662328746126
-0.0843693267542055   -0.19404000839045601   -0.042462662328746126
-0.0843693267542055   -0.19404000839045601   -0.042462662328746126
-0.0843693267542055   -0.19404000839045601   -0.042462662328746126
0.7673348995347525   0.05420114137579332   0.06957923785254042
0.7673348995347525   0.05420114137579332   0.06957923785254042
0.7673348995347525   0.05420114137579332   0.06957923785254042
0.7673348995347525   0.05420114137579332   0.06957923785254042
0.7422483462573576   0.028874573358703498   -0.027370777684611686
0.7422483462573576   0.028874573358703498   -0.027370777684611686
0.7422483462573576   0.028874573358703498   -0.027370777684611686
0.7422483462573576   0.028874573358703498   -0.027370777684611686
-0.056361690234604536   -0.07111218788717845   0.01491823215576953
-0.056361690234604536   -0.07111218788717845   0.01491823215576953
-0.056361690234604536   -0.07111218788717845   0.01491823215576953
-0.056361690234604536   -0.07111218788717845   0.01491823215576953
0.33737231714498783   -0.04483014478688227   -0.007815347747495927
0.33737231714498783   -0.04483014478688227   -0.007815347747495927
0.33737231714498783   -0.04483014478688227   -0.007815347747495927
0.33737231714498783   -0.04483014478688227   -0.007815347747495927
-0.08410007245300094   -0.14158177350927134   -0.05330409331411956
-0.08410007245300094   -0.14158177350927134   -0.05330409331411956
-0.08410007245300094   -0.14158177350927134   -0.05330409331411956
-0.08410007245300094   -0.14158177350927134   -0.05330409331411956
0.7753454822148264   0.10470291271986994   0.06228656274156533
0.7753454822148264   0.10470291271986994   0.06228656274156533
0.7753454822148264   0.10470291271986994   0.06228656274156533
0.7753454822148264   0.10470291271986994   0.06228656274156533
0.7541781796745339   0.08251232750217569   -0.038454887762684783
0.7541781796745339   0.08251232750217569   -0.038454887762684783
0.7541781796745339   0.08251232750217569   -0.038454887762684783
0.7541781796745339   0.08251232750217569   -0.038454887762684783
-0.05479700755533247   -0.023430129152087788   0.004265974523749859
-0.05479700755533247   -0.023430129152087788   0.004265974523749859
-0.05479700755533247   -0.023430129152087788   0.004265974523749859
-0.05479700755533247   -0.023430129152087788   0.004265974523749859
0.34027585480340095   0.0033953203695360618   0.012056209545799734
0.34027585480340095   0.0033953203695360618   0.012056209545799734
0.34027585480340095   0.0033953203695360618   0.012056209545799734
0.34027585480340095   0.0033953203695360618   0.012056209545799734
-0.08177302431450896   -0.08982981952328345   -0.06421441890093768
-0.08177302431450896   -0.08982981952328345   -0.06421441890093768
-0.08177302431450896   -0.08982981952328345   -0.06421441890093768
-0.08177302431450896   -0.08982981952328345   -0.06421441890093768
0.7869935476296653   0.15475136906932618   0.05338291044582193
0.7869935476296653   0.15475136906932618   0.05338291044582193
0.7869935476296653   0.15475136906932618   0.05338291044582193
0.7869935476296653   0.15475136906932618   0.05338291044582193
0.7615092987934854   0.14979483590700274   -0.040118714930130896
0.7615092987934854   0.14979483590700274   -0.040118714930130896
0.7615092987934854   0.14979483590700274   -0.040118714930130896
0.7615092987934854   0.14979483590700274   -0.040118714930130896
-0.05491592923069964   0.0323141221474616   -0.006359845995427962
-0.05491592923069964   0.0323141221474616   -0.006359845995427962
-0.05491592923069964   0.0323141221474616   -0.006359845995427962
-0.05491592923069964   0.0323141221474616   -0.006359845995427962
0.35196393293555694   0.05719586250267357   0.03566476575157683
0.35196393293555694   0.05719586250267357   0.03566476575157683
0.35196393293555694   0.05719586250267357   0.03566476575157683
0.35196393293555694   0.05719586250267357   0.03566476575157683
0.6875315629904233   -0.19262271206963752   -0.08261359142366675
0.6875315629904233   -0.19262271206963752   -0.08261359142366675
0.6875315629904233   -0.19262271206963752   -0.08261359142366675
0.6875315629904233   -0.19262271206963752   -0.08261359142366675
1.51092028557437   0.11224667939561409   0.07728138080051478
1.51092028557437   0.11224667939561409   0.07728138080051478
1.51092028557437   0.11224667939561409   0.07728138080051478
1.51092028557437   0.11224667939561409   0.07728138080051478
1.4991230290314517   -0.006769464589506835   -0.10995925646952318
1.4991230290314517   -0.006769464589506835   -0.10995925646952318
1.4991230290314517   -0.006769464589506835   -0.10995925646952318
1.4991230290314517   -0.006769464589506835   -0.10995925646952318
0.7490718193729388   -0.01622102691084662   0.05184218816284968
0.7490718193729388   -0.01622102691084662   0.05184218816284968
0.7490718193729388   -0.01622102691084662   0.05184218816284968
0.7490718193729388   -0.01622102691084662   0.05184218816284968
1.0577052238286748   -0.037492220706923485   -0.03463986317268705
1.0577052238286748   -0.037492220706923485   -0.03463986317268705
1.0577052238286748   -0.037492220706923485   -0.03463986317268705
1.0577052238286748   -0.037492220706923485   -0.03463986317268705
0.6881653167195084   -0.16729285513418307   -0.10161849688096122
0.6881653167195084   -0.16729285513418307   -0.10161849688096122
0.6881653167195084   -0.16729285513418307   -0.10161849688096122
0.6881653167195084   -0.16729285513418307   -0.10161849688096122
1.564407489427153   0.1486803213761013   0.06101325954337502
1.564407489427153   0.1486803213761013   0.06101325954337502
1.564407489427153   0.1486803213761013   0.06101325954337502
1.564407489427153   0.1486803213761013   0.06101325954337502
1.535717064186466   0.023824747882825126   -0.14744489500450042
1.535717064186466   0.023824747882825126   -0.14744489500450042
1.535717064186466   0.023824747882825126   -0.14744489500450042
1.535717064186466   0.023824747882825126   -0.14744489500450042
0.7545100434254113   0.007114888378485673   0.038601870115405466
0.7545100434254113   0.007114888378485673   0.038601870115405466
0.7545100434254113   0.007114888378485673   0.038601870115405466
0.7545100434254113   0.007114888378485673   0.038601870115405466
1.1054287806912915   -0.004432871090174484   -0.010602957940724439
1.1054287806912915   -0.004432871090174484   -0.010602957940724439
1.1054287806912915   -0.004432871090174484   -0.010602957940724439
1.1054287806912915   -0.004432871090174484   -0.010602957940724439
0.6959048719674282   -0.13675877609940712   -0.11055032269662392
0.6959048719674282   -0.13675877609940712   -0.11055032269662392
0.6959048719674282   -0.13675877609940712   -0.11055032269662392
0.6959048719674282   -0.13675877609940712   -0.11055032269662392
1.6039900500656303   0.17736622678190064   0.040378555492261235
1.6039900500656303   0.17736622678190064   0.040378555492261235
1.6039900500656303   0.17736622678190064   0.040378555492261235
1.6039900500656303   0.17736622678190064   0.040378555492261235
1.5938322336163784   0.10343877659105943   -0.13864157662135546
1.5938322336163784   0.10343877659105943   -0.13864157662135546
1.5938322336163784   0.10343877659105943   -0.13864157662135546
1.5938322336163784   0.10343877659105943   -0.13864157662135546
0.7569533003410406   0.05872628461702384   0.028169844097637287
0.7569533003410406   0.05872628461702384   0.028169844097637287
0.7569533003410406   0.05872628461702384   0.028169844097637287
0.7569533003410406   0.05872628461702384   0.028169844097637287
1.1134540596354803   0.03339444676122816   0.01596962737652352
1.1134540596354803   0.03339444676122816   0.01596962737652352
1.1134540596354803   0.03339444676122816   0.01596962737652352
1.1134540596354803   0.03339444676122816   0.01596962737652352
-1.758298548634789   -0.05761623975286001   0.1144546850233692
-1.758298548634789   -0.05761623975286001   0.1144546850233692
-1.758298548634789   -0.05761623975286001   0.1144546850233692
-1.758298548634789   -0.05761623975286001   0.1144546850233692
-1.2295451394793302   -0.08195734419327866   -0.043269548143968314
-1.2295451394793302   -0.08195734419327866   -0.043269548143968314
-1.2295451394793302   -0.08195734419327866   -0.043269548143968314
-1.2295451394793302   -0.08195734419327866   -0.043269548143968314
-1.1574025920226496   0.11599044421405635   0.09761854424783314
-1.1574025920226496   0.11599044421405635   0.09761854424783314
-1.1574025920226496   0.11599044421405635   0.09761854424783314
-1.1574025920226496   0.11599044421405635   0.09761854424783314
-1.7584432726828008   -0.14470282886205357   -0.0632843191322113
-1.7584432726828008   -0.14470282886205357   -0.0632843191322113
-1.7584432726828008   -0.14470282886205357   -0.0632843191322113
-1.7584432726828008   -0.14470282886205357   -0.0632843191322113
-1.4154199823025166   -0.02259779224896924   -0.0029799940795470076
-1.4154199823025166   -0.02259779224896924   -0.0029799940795470076
-1.4154199823025166   -0.02259779224896924   -0.0029799940795470076
-1.4154199823025166   -0.02259779224896924   -0.0029799940795470076
-1.692834609521892   0.011159637855580884   0.10889652995469809
-1.692834609521892   0.011159637855580884   0.10889652995469809
-1.692834609521892   0.011159637855580884   0.10889652995469809
-1.692834609521892   0.011159637855580884   0.10889652995469809
-1.2176766642531671   -0.03453743157318487   -0.0532239411175014
-1.2176766642531671   -0.03453743157318487   -0.0532239411175014
-1.2176766642531671   -0.03453743157318487   -0.0532239411175014
-1.2176766642531671   -0.03453743157318487   -0.0532239411175014
-1.146508836312416   0.1400891278132933   0.08251195141070261
-1.146508836312416   0.1400891278132933   0.08251195141070261
-1.146508836312416   0.1400891278132933   0.08251195141070261
-1.146508836312416   0.1400891278132933   0.08251195141070261
-1.716915706607667   -0.11784420715275529   -0.08002368022569588
-1.716915706607667   -0.11784420715275529   -0.08002368022569588
-1.716915706607667   -0.11784420715275529   -0.08002368022569588
-1.716915706607667   -0.11784420715275529   -0.08002368022569588
-1.4055917771768782   0.009196755155068348   0.014946820101097963
-1.4055917771768782   0.009196755155068348   0.014946820101097963
-1.4055917771768782   0.009196755155068348   0.014946820101097963
-1.4055917771768782   0.009196755155068348   0.014946820101097963
-1.6518567590044126   0.0400021026002646   0.08742474803755579
-1.6518567590044126   0.0400021026002646   0.08742474803755579
-1.6518567590044126   0.0400021026002646   0.08742474803755579
-1.6518567590044126   0.0400021026002646   0.08742474803755579
-1.2067420543274394   -0.012931452351493677   -0.06563355849961523
-1.2067420543274394   -0.012931452351493677   -0.06563355849961523
-1.2067420543274394   -0.012931452351493677   -0.06563355849961523
-1.2067420543274394   -0.012931452351493677   -0.06563355849961523
-1.140473866068034   0.16350506645919632   0.0710042076223271
-1.140473866068034   0.16350506645919632   0.0710042076223271
-1.140473866068034   0.16350506645919632   0.0710042076223271
-1.140473866068034   0.16350506645919632   0.0710042076223271
-1.6612690783357276   -0.08235768882972128   -0.09582441466492285
-1.6612690783357276   -0.08235768882972128   -0.09582441466492285
-1.6612690783357276   -0.08235768882972128   -0.09582441466492285
-1.6612690783357276   -0.08235768882972128   -0.09582441466492285
-1.352893905099951   0.03896421375013831   0.040126199494316686
-1.352893905099951   0.03896421375013831   0.040126199494316686
-1.352893905099951   0.03896421375013831   0.040126199494316686
-1.352893905099951   0.03896421375013831   0.040126199494316686
-1.2158170990091228   -0.09943686999495507   0.042850180008736215
-1.2158170990091228   -0.09943686999495507   0.042850180008736215
-1.2158170990091228   -0.09943686999495507   0.042850180008736215
-1.2158170990091228   -0.09943686999495507   0.042850180008736215
-0.7043901522775663   -0.05311126227550285   -0.006980982594738793
-0.7043901522775663   -0.05311126227550285   -0.006980982594738793
-0.7043901522775663   -0.05311126227550285   -0.006980982594738793
-0.7043901522775663   -0.05311126227550285   -0.006980982594738793
-0.6686148424240974   0.06780760133431446   0.05263613328241867
-0.6686148424240974   0.06780760133431446   0.05263613328241867
-0.6686148424240974   0.06780760133431446   0.05263613328241867
-0.6686148424240974   0.06780760133431446   0.05263613328241867
-1.2340709509537424   -0.11829130382781491   -0.05144150236575878
-1.2340709509537424   -0.11829130382781491   -0.05144150236575878
-1.2340709509537424   -0.11829130382781491   -0.05144150236575878
-1.2340709509537424   -0.11829130382781491   -0.05144150236575878
-0.9518599324392755   -0.046457209225922086   -0.019374262679554062
-0.9518599324392755   -0.046457209225922086   -0.019374262679554062
-0.9518599324392755   -0.046457209225922086   -0.019374262679554062
-0.9518599324392755   -0.046457209225922086   -0.019374262679554062
-1.2015828673852584   -0.04230975665386083   0.0350173683027033
-1.2015828673852584   -0.04230975665386083   0.0350173683027033
-1.2015828673852584   -0.04230975665386083   0.0350173683027033
-1.2015828673852584   -0.04230975665386083   0.0350173683027033
-0.6969367077042021   -0.004007727551255835   -0.017157864232534493
-0.6969367077042021   -0.004007727551255835   -0.017157864232534493
-0.6969367077042021   -0.004007727551255835   -0.017157864232534493
-0.6969367077042021   -0.004007727551255835   -0.017157864232534493
-0.6601083247832626   0.11721473778849456   0.043164270232589494
-0.6601083247832626   0.11721473778849456   0.043164270232589494
-0.6601083247832626   0.11721473778849456   0.043164270232589494
-0.6601083247832626   0.11721473778849456   0.043164270232589494
-1.2174789995113877   -0.07164401243029464   -0.06060572434056744
-1.2174789995113877   -0.07164401243029464   -0.06060572434056744
-1.2174789995113877   -0.07164401243029464   -0.06060572434056744
-1.2174789995113877   -0.07164401243029464   -0.06060572434056744
-0.9335864807701356   0.0021304203166513935   0.0014971464818663849
-0.9335864807701356   0.0021304203166513935   0.0014971464818663849
-0.9335864807701356   0.0021304203166513935   0.0014971464818663849
-0.9335864807701356   0.0021304203166513935   0.0014971464818663849
-1.1825318589961493   0.010495308383721147   0.031990657421609045
-1.1825318589961493   0.010495308383721147   0.031990657421609045
-1.1825318589961493   0.010495308383721147   0.031990657421609045
-1.1825318589961493   0.010495308383721147   0.031990657421609045
-0.6898816597821709   0.04024922249081023   -0.028736889464259972
-0.6898816597821709   0.04024922249081023   -0.028736889464259972
-0.6898816597821709   0.04024922249081023   -0.028736889464259972
-0.6898816597821709   0.04024922249081023   -0.028736889464259972
-0.6518902075667269   0.16984057456751234   0.03434372351786025
-0.6518902075667269   0.16984057456751234   0.03434372351786025
-0.6518902075667269   0.16984057456751234   0.03434372351786025
-0.6518902075667269   0.16984057456751234   0.03434372351786025
-1.2050523885224924   -0.02139500276869799   -0.06698833542206671
-1.2050523885224924   -0.02139500276869799   -0.06698833542206671
-1.2050523885224924   -0.02139500276869799   -0.06698833542206671
-1.2050523885224924   -0.02139500276869799   -0.06698833542206671
-0.9265171631368588   0.047823842288654494   0.021362544332319724
-0.9265171631368588   0.047823842288654494   0.021362544332319724
-0.9265171631368588   0.047823842288654494   0.021362544332319724
-0.9265171631368588   0.047823842288654494   0.021362544332319724
-0.7193063873046217   -0.13634143670414622   0.0016680166986216705
-0.7193063873046217   -0.13634143670414622   0.0016680166986216705
-0.7193063873046217   -0.13634143670414622   0.0016680166986216705
-0.7193063873046217   -0.13634143670414622   0.0016680166986216705
-0.18471414643597145   -0.01577037429967703   0.029341253226202423
-0.18471414643597145   -0.01577037429967703   0.029341253226202423
-0.18471414643597145   -0.01577037429967703   0.029341253226202423
-0.18471414643597145   -0.01577037429967703   0.029341253226202423
-0.18015223943272266   0.02811631751818329   0.010005823397218255
-0.18015223943272266   0.02811631751818329   0.010005823397218255
-0.18015223943272266   0.02811631751818329   0.010005823397218255
-0.18015223943272266   0.02811631751818329   0.010005823397218255
-0.7114135329441704   -0.07982192642556481   -0.013727791558072775
-0.7114135329441704   -0.07982192642556481   -0.013727791558072775
-0.7114135329441704   -0.07982192642556481   -0.013727791558072775
-0.7114135329441704   -0.07982192642556481   -0.013727791558072775
-0.4496589237904785   -0.048781442656778334   -0.013762108558463115
-0.4496589237904785   -0.048781442656778334   -0.013762108558463115
-0.4496589237904785   -0.048781442656778334   -0.013762108558463115
-0.4496589237904785   -0.048781442656778334   -0.013762108558463115
-0.7102571580647067   -0.08121616633743417   -0.006551677248885057
-0.7102571580647067   -0.08121616633743417   -0.006551677248885057
-0.7102571580647067   -0.08121616633743417   -0.006551677248885057
-0.7102571580647067   -0.08121616633743417   -0.006551677248885057
-0.1771320191421674   0.0336871526000716   0.019536089768106255
-0.1771320191421674   0.0336871526000716   0.019536089768106255
-0.1771320191421674   0.0336871526000716   0.019536089768106255
-0.1771320191421674   0.0336871526000716   0.019536089768106255
-0.16988194682126803   0.0834899799678815   0.002633008494556603
-0.16988194682126803   0.0834899799678815   0.002633008494556603
-0.16988194682126803   0.0834899799678815   0.002633008494556603
-0.16988194682126803   0.0834899799678815   0.002633008494556603
-0.7028993676861821   -0.030022796479028113   -0.023553410014484945
-0.7028993676861821   -0.030022796479028113   -0.023553410014484945
-0.7028993676861821   -0.030022796479028113   -0.023553410014484945
-0.7028993676861821   -0.030022796479028113   -0.023553410014484945
-0.4386903224425049   0.000990301168067087   0.005903831782134401
-0.4386903224425049   0.000990301168067087   0.005903831782134401
-0.4386903224425049   0.000990301168067087   0.005903831782134401
-0.4386903224425049   0.000990301168067087   0.005903831782134401
-0.7002897466108318   -0.026019834926915036   -0.014508266189846984
-0.7002897466108318   -0.026019834926915036   -0.014508266189846984
-0.7002897466108318   -0.026019834926915036   -0.014508266189846984
-0.7002897466108318   -0.026019834926915036   -0.014508266189846984
-0.16863543685906357   0.08334314945332597   0.009012388820136202
-0.16863543685906357   0.08334314945332597   0.009012388820136202
-0.16863543685906357   0.08334314945332597   0.009012388820136202
-0.16863543685906357   0.08334314945332597   0.009012388820136202
-0.1606722151796909   0.13966667445324685   -0.006040592724069163
-0.1606722151796909   0.13966667445324685   -0.006040592724069163
-0.1606722151796909   0.13966667445324685   -0.006040592724069163
-0.1606722151796909   0.13966667445324685   -0.006040592724069163
-0.6954206133685079   0.02035566146346099   -0.03382339238699722
-0.6954206133685079   0.02035566146346099   -0.03382339238699722
-0.6954206133685079   0.02035566146346099   -0.03382339238699722
-0.6954206133685079   0.02035566146346099   -0.03382339238699722
-0.4286751435255128   0.05100043671830018   0.024849930543177363
-0.4286751435255128   0.05100043671830018   0.024849930543177363
-0.4286751435255128   0.05100043671830018   0.024849930543177363
-0.4286751435255128   0.05100043671830018   0.024849930543177363
-0.22846721311295665   -0.16659501634661417   -0.03859943811178804
-0.22846721311295665   -0.16659501634661417   -0.03859943811178804
-0.22846721311295665   -0.16659501634661417   -0.03859943811178804
-0.22846721311295665   -0.16659501634661417   -0.03859943811178804
0.3282207081546057   0.02611520922017002   0.0636353710600716
0.3282207081546057   0.02611520922017002   0.0636353710600716
0.3282207081546057   0.02611520922017002   0.0636353710600716
0.3282207081546057   0.02611520922017002   0.0636353710600716
0.30550016077107517   -0.008801095575278126   -0.03538815729040856
0.30550016077107517   -0.008801095575278126   -0.03538815729040856
0.30550016077107517   -0.008801095575278126   -0.03538815729040856
0.30550016077107517   -0.008801095575278126   -0.03538815729040856
-0.19081595114340846   -0.03872615398556432   0.0235297363475368
-0.19081595114340846   -0.03872615398556432   0.0235297363475368
-0.19081595114340846   -0.03872615398556432   0.0235297363475368
-0.19081595114340846   -0.03872615398556432   0.0235297363475368
0.051530332844864295   -0.04569944648659598   -0.00979037885383843
0.051530332844864295   -0.04569944648659598   -0.00979037885383843
0.051530332844864295   -0.04569944648659598   -0.00979037885383843
0.051530332844864295   -0.04569944648659598   -0.00979037885383843
-0.22056076801927482   -0.1164331252322819   -0.04748737678507743
-0.22056076801927482   -0.1164331252322819   -0.04748737678507743
-0.22056076801927482   -0.1164331252322819   -0.04748737678507743
-0.22056076801927482   -0.1164331252322819   -0.04748737678507743
0.3402161264670144   0.07387702449150653   0.05551355112249895
0.3402161264670144   0.07387702449150653   0.05551355112249895
0.3402161264670144   0.07387702449150653   0.05551355112249895
0.3402161264670144   0.07387702449150653   0.05551355112249895
0.32459626951333553   0.04357766550869938   -0.04008832924096693
0.32459626951333553   0.04357766550869938   -0.04008832924096693
0.32459626951333553   0.04357766550869938   -0.04008832924096693
0.32459626951333553   0.04357766550869938   -0.04008832924096693
-0.18340339711941855   0.005809461099204612   0.012706275872482627
-0.18340339711941855   0.005809461099204612   0.012706275872482627
-0.18340339711941855   0.005809461099204612   0.012706275872482627
-0.18340339711941855   0.005809461099204612   0.012706275872482627
0.0616798878108006   -0.0005846706152075193   0.010210555189758788
0.0616798878108006   -0.0005846706152075193   0.010210555189758788
0.0616798878108006   -0.0005846706152075193   0.010210555189758788
0.0616798878108006   -0.0005846706152075193   0.010210555189758788
-0.21210821810543748   -0.06728936646545035   -0.05771900149295792
-0.21210821810543748   -0.06728936646545035   -0.05771900149295792
-0.21210821810543748   -0.06728936646545035   -0.05771900149295792
-0.21210821810543748   -0.06728936646545035   -0.05771900149295792
0.35761180633802386   0.12098720891202044   0.04757981147915002
0.35761180633802386   0.12098720891202044   0.04757981147915002
0.35761180633802386   0.12098720891202044   0.04757981147915002
0.35761180633802386   0.12098720891202044   0.04757981147915002
0.33996850443709703   0.10330052466541176   -0.04631226707347384
0.33996850443709703   0.10330052466541176   -0.04631226707347384
0.33996850443709703   0.10330052466541176   -0.04631226707347384
0.33996850443709703   0.10330052466541176   -0.04631226707347384
-0.17547993742421703   0.057177176408421106   0.0024102940981245366
-0.17547993742421703   0.057177176408421106   0.0024102940981245366
-0.17547993742421703   0.057177176408421106   0.0024102940981245366
-0.17547993742421703   0.057177176408421106   0.0024102940981245366
0.07738539019696332   0.04852419451090262   0.03093271720181839
0.07738539019696332   0.04852419451090262   0.03093271720181839
0.07738539019696332   0.04852419451090262   0.03093271720181839
0.07738539019696332   0.04852419451090262   0.03093271720181839
0.26137798449591504   -0.16834222048568742   -0.07612081752752245
0.26137798449591504   -0.16834222048568742   -0.07612081752752245
0.26137798449591504   -0.16834222048568742   -0.07612081752752245
0.26137798449591504   -0.16834222048568742   -0.07612081752752245
0.7846006807478632   0.0772705613137089   0.0823218475889954
0.7846006807478632   0.0772705613137089   0.0823218475889954
0.7846006807478632   0.0772705613137089   0.0823218475889954
0.7846006807478632   0.0772705613137089   0.0823218475889954
0.7768378311877256   -0.04107619934546547   -0.10019968582503153
0.7768378311877256   -0.04107619934546547   -0.10019968582503153
0.7768378311877256   -0.04107619934546547   -0.10019968582503153
0.7768378311877256   -0.04107619934546547   -0.10019968582503153
0.32939202548586416   0.01385289835497322   0.06141717235328317
0.32939202548586416   0.01385289835497322   0.06141717235328317
0.32939202548586416   0.01385289835497322   0.06141717235328317
0.32939202548586416   0.01385289835497322   0.06141717235328317
0.5100150150920143   -0.034727729757792175   -0.026858746961871495
0.5100150150920143   -0.034727729757792175   -0.026858746961871495
0.5100150150920143   -0.034727729757792175   -0.026858746961871495
0.5100150150920143   -0.034727729757792175   -0.026858746961871495
0.2686736390870755   -0.14027789404810517   -0.08804396723757985
0.2686736390870755   -0.14027789404810517   -0.08804396723757985
0.2686736390870755   -0.14027789404810517   -0.08804396723757985
0.2686736390870755   -0.14027789404810517   -0.08804396723757985
0.8426247059867207   0.11812308145782721   0.06953540736666594
0.8426247059867207   0.11812308145782721   0.06953540736666594
0.8426247059867207   0.11812308145782721   0.06953540736666594
0.8426247059867207   0.11812308145782721   0.06953540736666594
0.8190452496239646   -0.011726557232688867   -0.12014056413902063
0.8190452496239646   -0.011726557232688867   -0.12014056413902063
0.8190452496239646   -0.011726557232688867   -0.12014056413902063
0.8190452496239646   -0.011726557232688867   -0.12014056413902063
0.340543029677034   0.03534967518334953   0.04787346190287148
0.340543029677034   0.03534967518334953   0.04787346190287148
0.340543029677034   0.03534967518334953   0.04787346190287148
0.340543029677034   0.03534967518334953   0.04787346190287148
0.552710620395065   -0.005149066970216554   -0.00328061422337185
0.552710620395065   -0.005149066970216554   -0.00328061422337185
0.552710620395065   -0.005149066970216554   -0.00328061422337185
0.552710620395065   -0.005149066970216554   -0.00328061422337185
0.28031112272652897   -0.11586045776469357   -0.10207593990160851
0.28031112272652897   -0.11586045776469357   -0.10207593990160851
0.28031112272652897   -0.11586045776469357   -0.10207593990160851
0.28031112272652897   -0.11586045776469357   -0.10207593990160851
0.8845558775008572   0.14476229664174395   0.05092372137102047
0.8845558775008572   0.14476229664174395   0.05092372137102047
0.8845558775008572   0.14476229664174395   0.05092372137102047
0.8845558775008572   0.14476229664174395   0.05092372137102047
0.8838213577962409   0.0527502516926428   -0.1285783779794682
0.8838213577962409   0.0527502516926428   -0.1285783779794682
0.8838213577962409   0.0527502516926428   -0.1285783779794682
0.8838213577962409   0.0527502516926428   -0.1285783779794682
0.3519567784275212   0.07889855285784297   0.038031074686213986
0.3519567784275212   0.07889855285784297   0.038031074686213986
0.3519567784275212   0.07889855285784297   0.038031074686213986
0.3519567784275212   0.07889855285784297   0.038031074686213986
0.5739090060869633   0.027477241381169068   0.016986022252787007
0.5739090060869633   0.027477241381169068   0.016986022252787007
0.5739090060869633   0.027477241381169068   0.016986022252787007
0.5739090060869633   0.027477241381169068   0.016986022252787007
-1.0552749541843982   -0.017907724414079784   0.10270836545706322
-1.0552749541843982   -0.017907724414079784   0.10270836545706322
-1.0552749541843982   -0.017907724414079784   0.10270836545706322
-1.0552749541843982   -0.017907724414079784   0.10270836545706322
-0.8221963232729683   -0.1042015988944488   -0.05088659148011461
-0.8221963232729683   -0.1042015988944488   -0.05088659148011461
-0.8221963232729683   -0.1042015988944488   -0.05088659148011461
-0.8221963232729683   -0.1042015988944488   -0.05088659148011461
-0.7442709615679256   0.08835817546120661   0.08784839136921424
-0.7442709615679256   0.08835817546120661   0.08784839136921424
-0.7442709615679256   0.08835817546120661   0.08784839136921424
-0.7442709615679256   0.08835817546120661   0.08784839136921424
-1.050771255354308   -0.11442698903822833   -0.06923333801094267
-1.050771255354308   -0.11442698903822833   -0.06923333801094267
-1.050771255354308   -0.11442698903822833   -0.06923333801094267
-1.050771255354308   -0.11442698903822833   -0.06923333801094267
-0.8829450718460873   -0.024349615411805303   -0.012849235556613187
-0.8829450718460873   -0.024349615411805303   -0.012849235556613187
-0.8829450718460873   -0.024349615411805303   -0.012849235556613187
-0.8829450718460873   -0.024349615411805303   -0.012849235556613187
-0.985996046597377   0.042072186273808626   0.09814353046167565
-0.985996046597377   0.042072186273808626   0.09814353046167565
-0.985996046597377   0.042072186273808626   0.09814353046167565
-0.985996046597377   0.042072186273808626   0.09814353046167565
-0.8045543143646986   -0.06364914389067608   -0.061561053262760276
-0.8045543143646986   -0.06364914389067608   -0.061561053262760276
-0.8045543143646986   -0.06364914389067608   -0.061561053262760276
-0.8045543143646986   -0.06364914389067608   -0.061561053262760276
-0.7257556431736795   0.11125634527269665   0.07431901846757631
-0.7257556431736795   0.11125634527269665   0.07431901846757631
-0.7257556431736795   0.11125634527269665   0.07431901846757631
-0.7257556431736795   0.11125634527269665   0.07431901846757631
-1.0025934624592832   -0.08848142380816437   -0.0865268707739998
-1.0025934624592832   -0.08848142380816437   -0.0865268707739998
-1.0025934624592832   -0.08848142380816437   -0.0865268707739998
-1.0025934624592832   -0.08848142380816437   -0.0865268707739998
-0.8577614727826858   0.0056340139236718545   0.006269550851455544
-0.8577614727826858   0.0056340139236718545   0.006269550851455544
-0.8577614727826858   0.0056340139236718545   0.006269550851455544
-0.8577614727826858   0.0056340139236718545   0.006269550851455544
-0.9377562792192515   0.06985661557805223   0.07932100603992633
-0.9377562792192515   0.06985661557805223   0.07932100603992633
-0.9377562792192515   0.06985661557805223   0.07932100603992633
-0.9377562792192515   0.06985661557805223   0.07932100603992633
-0.7863377433502843   -0.04282661105009572   -0.07450852609265537
-0.7863377433502843   -0.04282661105009572   -0.07450852609265537
-0.7863377433502843   -0.04282661105009572   -0.07450852609265537
-0.7863377433502843   -0.04282661105009572   -0.07450852609265537
-0.7107428960888164   0.13973223257950187   0.06409901013431235
-0.7107428960888164   0.13973223257950187   0.06409901013431235
-0.7107428960888164   0.13973223257950187   0.06409901013431235
-0.7107428960888164   0.13973223257950187   0.06409901013431235
-0.9378606555437713   -0.046952013121920655   -0.10014511343395285
-0.9378606555437713   -0.046952013121920655   -0.10014511343395285
-0.9378606555437713   -0.046952013121920655   -0.10014511343395285
-0.9378606555437713   -0.046952013121920655   -0.10014511343395285
-0.8068947538432751   0.035174186758425235   0.03001007872045274
-0.8068947538432751   0.035174186758425235   0.03001007872045274
-0.8068947538432751   0.035174186758425235   0.03001007872045274
-0.8068947538432751   0.035174186758425235   0.03001007872045274
-0.7934780076396436   -0.05985996605880391   0.04836335385086393
-0.7934780076396436   -0.05985996605880391   0.04836335385086393
-0.7934780076396436   -0.05985996605880391   0.04836335385086393
-0.7934780076396436   -0.05985996605880391   0.04836335385086393
-0.5816989117240724   -0.0790158513952442   -0.015071359190373125
-0.5816989117240724   -0.0790158513952442   -0.015071359190373125
-0.5816989117240724   -0.0790158513952442   -0.015071359190373125
-0.5816989117240724   -0.0790158513952442   -0.015071359190373125
-0.5382108661938028   0.040150457304951745   0.04490721853810405
-0.5382108661938028   0.040150457304951745   0.04490721853810405
-0.5382108661938028   0.040150457304951745   0.04490721853810405
-0.5382108661938028   0.040150457304951745   0.04490721853810405
-0.8051180607505252   -0.08449859157152816   -0.04353033751104107
-0.8051180607505252   -0.08449859157152816   -0.04353033751104107
-0.8051180607505252   -0.08449859157152816   -0.04353033751104107
-0.8051180607505252   -0.08449859157152816   -0.04353033751104107
-0.6777287561015903   -0.04220911401060391   -0.018203992351639057
-0.6777287561015903   -0.04220911401060391   -0.018203992351639057
-0.6777287561015903   -0.04220911401060391   -0.018203992351639057
-0.6777287561015903   -0.04220911401060391   -0.018203992351639057
-0.7727830652367165   -0.0075135137616385295   0.041159562248097255
-0.7727830652367165   -0.0075135137616385295   0.041159562248097255
-0.7727830652367165   -0.0075135137616385295   0.041159562248097255
-0.7727830652367165   -0.0075135137616385295   0.041159562248097255
-0.5669227045190707   -0.03321146331640483   -0.025290052466878928
-0.5669227045190707   -0.03321146331640483   -0.025290052466878928
-0.5669227045190707   -0.03321146331640483   -0.025290052466878928
-0.5669227045190707   -0.03321146331640483   -0.025290052466878928
-0.522239388827492   0.08671008706792682   0.03592516246664406
-0.522239388827492   0.08671008706792682   0.03592516246664406
-0.522239388827492   0.08671008706792682   0.03592516246664406
-0.522239388827492   0.08671008706792682   0.03592516246664406
-0.7812340402184885   -0.039707876523651625   -0.052108744960113376
-0.7812340402184885   -0.039707876523651625   -0.052108744960113376
-0.7812340402184885   -0.039707876523651625   -0.052108744960113376
-0.7812340402184885   -0.039707876523651625   -0.052108744960113376
-0.654659812271411   0.0027106562880426233   0.001915433413497182
-0.654659812271411   0.0027106562880426233   0.001915433413497182
-0.654659812271411   0.0027106562880426233   0.001915433413497182
-0.654659812271411   0.0027106562880426233   0.001915433413497182
-0.7470024412529636   0.04203393229856173   0.037307441045290234
-0.7470024412529636   0.04203393229856173   0.037307441045290234
-0.7470024412529636   0.04203393229856173   0.037307441045290234
-0.7470024412529636   0.04203393229856173   0.037307441045290234
-0.552288076653521   0.009151189385207537   -0.0367593789807851
-0.552288076653521   0.009151189385207537   -0.0367593789807851
-0.552288076653521   0.009151189385207537   -0.0367593789807851
-0.552288076653521   0.009151189385207537   -0.0367593789807851
-0.506319780200156   0.13722324413643633   0.027370290781268236
-0.506319780200156   0.13722324413643633   0.027370290781268236
-0.506319780200156   0.13722324413643633   0.027370290781268236
-0.506319780200156   0.13722324413643633   0.027370290781268236
-0.7614989587793886   0.009188646857855337   -0.05913771759688679
-0.7614989587793886   0.009188646857855337   -0.05913771759688679
-0.7614989587793886   0.009188646857855337   -0.05913771759688679
-0.7614989587793886   0.009188646857855337   -0.05913771759688679
-0.637968948926397   0.04671677698444618   0.02158407027286892
-0.637968948926397   0.04671677698444618   0.02158407027286892
-0.637968948926397   0.04671677698444618   0.02158407027286892
-0.637968948926397   0.04671677698444618   0.02158407027286892
-0.5810284371582313   -0.09920704220053932   0.008472204444120134
-0.5810284371582313   -0.09920704220053932   0.008472204444120134
-0.5810284371582313   -0.09920704220053932   0.008472204444120134
-0.5810284371582313   -0.09920704220053932   0.008472204444120134
-0.34451093540603717   -0.04156772419834076   0.02137153096730192
-0.34451093540603717   -0.04156772419834076   0.02137153096730192
-0.34451093540603717   -0.04156772419834076   0.02137153096730192
-0.34451093540603717   -0.04156772419834076   0.02137153096730192
-0.3326015750741695   -0.0007608417377608506   0.0027656740109460558
-0.3326015750741695   -0.0007608417377608506   0.0027656740109460558
-0.3326015750741695   -0.0007608417377608506   0.0027656740109460558
-0.3326015750741695   -0.0007608417377608506   0.0027656740109460558
-0.5652914040996353   -0.04529860524972537   -0.005046408436381954
-0.5652914040996353   -0.04529860524972537   -0.005046408436381954
-0.5652914040996353   -0.04529860524972537   -0.005046408436381954
-0.5652914040996353   -0.04529860524972537   -0.005046408436381954
-0.4565814414487276   -0.04452678728288943   -0.013249103306006246
-0.4565814414487276   -0.04452678728288943   -0.013249103306006246
-0.4565814414487276   -0.04452678728288943   -0.013249103306006246
-0.4565814414487276   -0.04452678728288943   -0.013249103306006246
-0.5646256233767255   -0.0476016735123113   0.00058556344074975
-0.5646256233767255   -0.0476016735123113   0.00058556344074975
-0.5646256233767255   -0.0476016735123113   0.00058556344074975
-0.5646256233767255   -0.0476016735123113   0.00058556344074975
-0.3296648770310771   0.005144705290826682   0.011543617197820148
-0.3296648770310771   0.005144705290826682   0.011543617197820148
-0.3296648770310771   0.005144705290826682   0.011543617197820148
-0.3296648770310771   0.005144705290826682   0.011543617197820148
-0.3152605841932061   0.05130232444796552   -0.00456658887252346
-0.3152605841932061   0.05130232444796552   -0.00456658887252346
-0.3152605841932061   0.05130232444796552   -0.00456658887252346
-0.3152605841932061   0.05130232444796552   -0.00456658887252346
-0.5492916888192335   0.0020794218662417985   -0.01470567229038218
-0.5492916888192335   0.0020794218662417985   -0.01470567229038218
-0.5492916888192335   0.0020794218662417985   -0.01470567229038218
-0.5492916888192335   0.0020794218662417985   -0.01470567229038218
-0.438293925309779   0.0022927051043602487   0.006256760178035153
-0.438293925309779   0.0022927051043602487   0.006256760178035153
-0.438293925309779   0.0022927051043602487   0.006256760178035153
-0.438293925309779   0.0022927051043602487   0.006256760178035153
-0.5473912216340283   0.004303943195563306   -0.007427857693681615
-0.5473912216340283   0.004303943195563306   -0.007427857693681615
-0.5473912216340283   0.004303943195563306   -0.007427857693681615
-0.5473912216340283   0.004303943195563306   -0.007427857693681615
-0.31390355116798896   0.05233530332906107   0.001185597372469531
-0.31390355116798896   0.05233530332906107   0.001185597372469531
-0.31390355116798896   0.05233530332906107   0.001185597372469531
-0.31390355116798896   0.05233530332906107   0.001185597372469531
-0.29888260315757   0.10384042408021053   -0.012937589514187407
-0.29888260315757   0.10384042408021053   -0.012937589514187407
-0.29888260315757   0.10384042408021053   -0.012937589514187407
-0.29888260315757   0.10384042408021053   -0.012937589514187407
-0.5342783516169592   0.04982362473683863   -0.02502294690314654
-0.5342783516169592   0.04982362473683863   -0.02502294690314654
-0.5342783516169592   0.04982362473683863   -0.02502294690314654
-0.5342783516169592   0.04982362473683863   -0.02502294690314654
-0.42099158175794543   0.04927998385173185   0.024978185016639412
-0.42099158175794543   0.04927998385173185   0.024978185016639412
-0.42099158175794543   0.04927998385173185   0.024978185016639412
-0.42099158175794543   0.04927998385173185   0.024978185016639412
-0.37352906563576455   -0.13334932385488402   -0.03193752052479759
-0.37352906563576455   -0.13334932385488402   -0.03193752052479759
-0.37352906563576455   -0.13334932385488402   -0.03193752052479759
-0.37352906563576455   -0.13334932385488402   -0.03193752052479759
-0.11382320877067291   -0.001803065728810475   0.05604753496954333
-0.11382320877067291   -0.001803065728810475   0.05604753496954333
-0.11382320877067291   -0.001803065728810475   0.05604753496954333
-0.11382320877067291   -0.001803065728810475   0.05604753496954333
-0.12961974486838845   -0.03940001278936048   -0.04103576394643334
-0.12961974486838845   -0.03940001278936048   -0.04103576394643334
-0.12961974486838845   -0.03940001278936048   -0.04103576394643334
-0.12961974486838845   -0.03940001278936048   -0.04103576394643334
-0.3276128658793936   -0.005096926221030286   0.032045304468091965
-0.3276128658793936   -0.005096926221030286   0.032045304468091965
-0.3276128658793936   -0.005096926221030286   0.032045304468091965
-0.3276128658793936   -0.005096926221030286   0.032045304468091965
-0.2361226792421256   -0.04295003651371687   -0.00955932235213557
-0.2361226792421256   -0.04295003651371687   -0.00955932235213557
-0.2361226792421256   -0.04295003651371687   -0.00955932235213557
-0.2361226792421256   -0.04295003651371687   -0.00955932235213557
-0.3580705594625258   -0.08495920071051812   -0.04038088895808413
-0.3580705594625258   -0.08495920071051812   -0.04038088895808413
-0.3580705594625258   -0.08495920071051812   -0.04038088895808413
-0.3580705594625258   -0.08495920071051812   -0.04038088895808413
-0.09512446350809149   0.04449984947729671   0.04754078058839416
-0.09512446350809149   0.04449984947729671   0.04754078058839416
-0.09512446350809149   0.04449984947729671   0.04754078058839416
-0.09512446350809149   0.04449984947729671   0.04754078058839416
-0.10429533106070928   0.009851031333521373   -0.04619393901464282
-0.10429533106070928   0.009851031333521373   -0.04619393901464282
-0.10429533106070928   0.009851031333521373   -0.04619393901464282
-0.10429533106070928   0.009851031333521373   -0.04619393901464282
-0.3128450393089891   0.03744568026037941   0.021367779736147525
-0.3128450393089891   0.03744568026037941   0.021367779736147525
-0.3128450393089891   0.03744568026037941   0.021367779736147525
-0.3128450393089891   0.03744568026037941   0.021367779736147525
-0.2166838619000878   0.0006441035929761543   0.010314927136502885
-0.2166838619000878   0.0006441035929761543   0.010314927136502885
-0.2166838619000878   0.0006441035929761543   0.010314927136502885
-0.2166838619000878   0.0006441035929761543   0.010314927136502885
-0.34233644266202745   -0.03853926211462297   -0.050104294654046366
-0.34233644266202745   -0.03853926211462297   -0.050104294654046366
-0.34233644266202745   -0.03853926211462297   -0.050104294654046366
-0.34233644266202745   -0.03853926211462297   -0.050104294654046366
-0.07104574791115265   0.08959415350504127   0.040310854561620424
-0.07104574791115265   0.08959415350504127   0.040310854561620424
-0.07104574791115265   0.08959415350504127   0.040310854561620424
-0.07104574791115265   0.08959415350504127   0.040310854561620424
-0.08287110109424008   0.0648687942675523   -0.051740452936196404
-0.08287110109424008   0.0648687942675523   -0.051740452936196404
-0.08287110109424008   0.0648687942675523   -0.051740452936196404
-0.08287110109424008   0.0648687942675523   -0.051740452936196404
-0.2977271642350739   0.08560517923771961   0.011074849940784254
-0.2977271642350739   0.08560517923771961   0.011074849940784254
-0.2977271642350739   0.08560517923771961   0.011074849940784254
-0.2977271642350739   0.08560517923771961   0.011074849940784254
-0.19654557232933156   0.04611440801927387   0.03020136956964515
-0.19654557232933156   0.04611440801927387   0.03020136956964515
-0.19654557232933156   0.04611440801927387   0.03020136956964515
-0.19654557232933156   0.04611440801927387   0.03020136956964515
-0.16723171312328453   -0.14343324790232065   -0.06936480462000458
-0.16723171312328453   -0.14343324790232065   -0.06936480462000458
-0.16723171312328453   -0.14343324790232065   -0.06936480462000458
-0.16723171312328453   -0.14343324790232065   -0.06936480462000458
0.06098351624942839   0.04267729476164357   0.08537347347588166
0.06098351624942839   0.04267729476164357   0.08537347347588166
0.06098351624942839   0.04267729476164357   0.08537347347588166
0.06098351624942839   0.04267729476164357   0.08537347347588166
0.061495211293653367   -0.07037559444483048   -0.09182847745355519
0.061495211293653367   -0.07037559444483048   -0.09182847745355519
0.061495211293653367   -0.07037559444483048   -0.09182847745355519
0.061495211293653367   -0.07037559444483048   -0.09182847745355519
-0.09071680280698224   0.044207920219328026   0.06987101335190916
-0.09071680280698224   0.044207920219328026   0.06987101335190916
-0.09071680280698224   0.044207920219328026   0.06987101335190916
-0.09071680280698224   0.044207920219328026   0.06987101335190916
-0.03587810417919827   -0.03035961678458847   -0.01630173814857216
-0.03587810417919827   -0.03035961678458847   -0.01630173814857216
-0.03587810417919827   -0.03035961678458847   -0.01630173814857216
-0.03587810417919827   -0.03035961678458847   -0.01630173814857216
-0.15159566065749278   -0.11057595373384316   -0.07973940194747242
-0.15159566065749278   -0.11057595373384316   -0.07973940194747242
-0.15159566065749278   -0.11057595373384316   -0.07973940194747242
-0.15159566065749278   -0.11057595373384316   -0.07973940194747242
0.12669200241275894   0.08872621277693574   0.07505367092020648
0.12669200241275894   0.08872621277693574   0.07505367092020648
0.12669200241275894   0.08872621277693574   0.07505367092020648
0.12669200241275894   0.08872621277693574   0.07505367092020648
0.10992776331815107   -0.0421601978757542   -0.10906063703376427
0.10992776331815107   -0.0421601978757542   -0.10906063703376427
0.10992776331815107   -0.0421601978757542   -0.10906063703376427
0.10992776331815107   -0.0421601978757542   -0.10906063703376427
-0.07288569704302869   0.06468058201777838   0.05602468038950306
-0.07288569704302869   0.06468058201777838   0.05602468038950306
-0.07288569704302869   0.06468058201777838   0.05602468038950306
-0.07288569704302869   0.06468058201777838   0.05602468038950306
0.004002013879390486   -0.0013425235154365823   0.005249984000447384
0.004002013879390486   -0.0013425235154365823   0.005249984000447384
0.004002013879390486   -0.0013425235154365823   0.005249984000447384
0.004002013879390486   -0.0013425235154365823   0.005249984000447384
-0.13293905911150844   -0.0873614537849639   -0.09220009415015332
-0.13293905911150844   -0.0873614537849639   -0.09220009415015332
-0.13293905911150844   -0.0873614537849639   -0.09220009415015332
-0.13293905911150844   -0.0873614537849639   -0.09220009415015332
0.17430079826581166   0.11420151080616894   0.05644282902261551
0.17430079826581166   0.11420151080616894   0.05644282902261551
0.17430079826581166   0.11420151080616894   0.05644282902261551
0.17430079826581166   0.11420151080616894   0.05644282902261551
0.177746693091635   0.0130960477974879   -0.11677136527967519
0.177746693091635   0.0130960477974879   -0.11677136527967519
0.177746693091635   0.0130960477974879   -0.11677136527967519
0.177746693091635   0.0130960477974879   -0.11677136527967519
-0.05622318564441488   0.10084281855543514   0.04552510002504675
-0.05622318564441488   0.10084281855543514   0.04552510002504675
-0.05622318564441488   0.10084281855543514   0.04552510002504675
-0.05622318564441488   0.10084281855543514   0.04552510002504675
0.039842057573408085   0.029169093187409935   0.026295727262345737
0.039842057573408085   0.029169093187409935   0.026295727262345737
0.039842057573408085   0.029169093187409935   0.026295727262345737
0.039842057573408085   0.029169093187409935   0.026295727262345737
-0.35110607706327696   0.01969873722343147   0.0975248428995955
-0.35110607706327696   0.01969873722343147   0.0975248428995955
-0.35110607706327696   0.01969873722343147   0.0975248428995955
-0.35110607706327696   0.01969873722343147   0.0975248428995955
-0.41557503905925947   -0.12722954145563903   -0.05756183622763613
-0.41557503905925947   -0.12722954145563903   -0.05756183622763613
-0.41557503905925947   -0.12722954145563903   -0.05756183622763613
-0.41557503905925947   -0.12722954145563903   -0.05756183622763613
-0.33178263327021973   0.0591923919173363   0.07987494468279213
-0.33178263327021973   0.0591923919173363   0.07987494468279213
-0.33178263327021973   0.0591923919173363   0.07987494468279213
-0.33178263327021973   0.0591923919173363   0.07987494468279213
-0.34089839585563436   -0.08391218647577864   -0.07413717187293155
-0.34089839585563436   -0.08391218647577864   -0.07413717187293155
-0.34089839585563436   -0.08391218647577864   -0.07413717187293155
-0.34089839585563436   -0.08391218647577864   -0.07413717187293155
-0.3506852607971208   -0.026984629658706002   -0.026592619725892053
-0.3506852607971208   -0.026984629658706002   -0.026592619725892053
-0.3506852607971208   -0.026984629658706002   -0.026592619725892053
-0.3506852607971208   -0.026984629658706002   -0.026592619725892053
-0.2766366835081272   0.07241536134246795   0.09084384204635784
-0.2766366835081272   0.07241536134246795   0.09084384204635784
-0.2766366835081272   0.07241536134246795   0.09084384204635784
-0.2766366835081272   0.07241536134246795   0.09084384204635784
-0.3920297526846627   -0.09312056296785631   -0.06904769750423019
-0.3920297526846627   -0.09312056296785631   -0.06904769750423019
-0.3920297526846627   -0.09312056296785631   -0.06904769750423019
-0.3920297526846627   -0.09312056296785631   -0.06904769750423019
-0.3058430509362499   0.08162108155359912   0.06723524451178449
-0.3058430509362499   0.08162108155359912   0.06723524451178449
-0.3058430509362499   0.08162108155359912   0.06723524451178449
-0.3058430509362499   0.08162108155359912   0.06723524451178449
-0.28547650872274694   -0.05856485514470222   -0.09238119993937752
-0.28547650872274694   -0.05856485514470222   -0.09238119993937752
-0.28547650872274694   -0.05856485514470222   -0.09238119993937752
-0.28547650872274694   -0.05856485514470222   -0.09238119993937752
-0.3097957088869012   0.0016840041937769418   -0.005454715293830216
-0.3097957088869012   0.0016840041937769418   -0.005454715293830216
-0.3097957088869012   0.0016840041937769418   -0.005454715293830216
-0.3097957088869012   0.0016840041937769418   -0.005454715293830216
-0.22083031324612412   0.09969463720756185   0.0725902850914723
-0.22083031324612412   0.09969463720756185   0.0725902850914723
-0.22083031324612412   0.09969463720756185   0.0725902850914723
-0.22083031324612412   0.09969463720756185   0.0725902850914723
-0.36669934296425766   -0.0728485073500486   -0.0825766267245987
-0.36669934296425766   -0.0728485073500486   -0.0825766267245987
-0.36669934296425766   -0.0728485073500486   -0.0825766267245987
-0.36669934296425766   -0.0728485073500486   -0.0825766267245987
-0.28209879847330027   0.11584406041407924   0.05807339717557564
-0.28209879847330027   0.11584406041407924   0.05807339717557564
-0.28209879847330027   0.11584406041407924   0.05807339717557564
-0.28209879847330027   0.11584406041407924   0.05807339717557564
-0.2115049693041982   -0.010379779495326084   -0.10407921342387384
-0.2115049693041982   -0.010379779495326084   -0.10407921342387384
-0.2115049693041982   -0.010379779495326084   -0.10407921342387384
-0.2115049693041982   -0.010379779495326084   -0.10407921342387384
-0.26059906514243625   0.03161431168027831   0.01719250115987322
-0.26059906514243625   0.03161431168027831   0.01719250115987322
-0.26059906514243625   0.03161431168027831   0.01719250115987322
-0.26059906514243625   0.03161431168027831   0.01719250115987322
-0.3721488495415011   -0.02301971094963306   0.055359280855141975
-0.3721488495415011   -0.02301971094963306   0.055359280855141975
-0.3721488495415011   -0.02301971094963306   0.055359280855141975
-0.3721488495415011   -0.02301971094963306   0.055359280855141975
-0.4607463122612586   -0.10377172806677455   -0.022492074058033402
-0.4607463122612586   -0.10377172806677455   -0.022492074058033402
-0.4607463122612586   -0.10377172806677455   -0.022492074058033402
-0.4607463122612586   -0.10377172806677455   -0.022492074058033402
-0.4105871411389636   0.01052551343138737   0.037059267891974945
-0.4105871411389636   0.01052551343138737   0.037059267891974945
-0.4105871411389636   0.01052551343138737   0.037059267891974945
-0.4105871411389636   0.01052551343138737   0.037059267891974945
-0.3762577681611208   -0.049213220081240495   -0.03409511777312869
-0.3762577681611208   -0.049213220081240495   -0.03409511777312869
-0.3762577681611208   -0.049213220081240495   -0.03409511777312869
-0.3762577681611208   -0.049213220081240495   -0.03409511777312869
-0.4052037081203895   -0.0382099266236995   -0.01876014886933713
-0.4052037081203895   -0.0382099266236995   -0.01876014886933713
-0.4052037081203895   -0.0382099266236995   -0.01876014886933713
-0.4052037081203895   -0.0382099266236995   -0.01876014886933713
-0.34474268774774497   0.025946636144780447   0.048320428067721743
-0.34474268774774497   0.025946636144780447   0.048320428067721743
-0.34474268774774497   0.025946636144780447   0.048320428067721743
-0.34474268774774497   0.025946636144780447   0.048320428067721743
-0.4389593141487819   -0.061491435391067856   -0.032784648334665656
-0.4389593141487819   -0.061491435391067856   -0.032784648334665656
-0.4389593141487819   -0.061491435391067856   -0.032784648334665656
-0.4389593141487819   -0.061491435391067856   -0.032784648334665656
-0.38741763145937114   0.05513313039776746   0.02827988088789543
-0.38741763145937114   0.05513313039776746   0.02827988088789543
-0.38741763145937114   0.05513313039776746   0.02827988088789543
-0.38741763145937114   0.05513313039776746   0.02827988088789543
-0.3453157825035112   -0.00618878408039901   -0.04231854769050843
-0.3453157825035112   -0.00618878408039901   -0.04231854769050843
-0.3453157825035112   -0.00618878408039901   -0.04231854769050843
-0.3453157825035112   -0.00618878408039901   -0.04231854769050843
-0.3775463484419158   0.0034424247400205443   0.0007590266654942356
-0.3775463484419158   0.0034424247400205443   0.0007590266654942356
-0.3775463484419158   0.0034424247400205443   0.0007590266654942356
-0.3775463484419158   0.0034424247400205443   0.0007590266654942356
-0.3122700664716178   0.07320909741287324   0.04351215097567093
-0.3122700664716178   0.07320909741287324   0.04351215097567093
-0.3122700664716178   0.07320909741287324   0.04351215097567093
-0.3122700664716178   0.07320909741287324   0.04351215097567093
-0.41711379048876984   -0.0209151940930037   -0.04415258976833458
-0.41711379048876984   -0.0209151940930037   -0.04415258976833458
-0.41711379048876984   -0.0209151940930037   -0.04415258976833458
-0.41711379048876984   -0.0209151940930037   -0.04415258976833458
-0.36413789695505616   0.10447550683174212   0.019935520448214776
-0.36413789695505616   0.10447550683174212   0.019935520448214776
-0.36413789695505616   0.10447550683174212   0.019935520448214776
-0.36413789695505616   0.10447550683174212   0.019935520448214776
-0.3185916917172104   0.0415319886460703   -0.05007899727596625
-0.3185916917172104   0.0415319886460703   -0.05007899727596625
-0.3185916917172104   0.0415319886460703   -0.05007899727596625
-0.3185916917172104   0.0415319886460703   -0.05007899727596625
-0.35140111543482305   0.046423593148145814   0.02061350955301331
-0.35140111543482305   0.046423593148145814   0.02061350955301331
-0.35140111543482305   0.046423593148145814   0.02061350955301331
-0.35140111543482305   0.046423593148145814   0.02061350955301331
-0.44495623811729984   -0.06282814767920988   0.015514716274188252
-0.44495623811729984   -0.06282814767920988   0.015514716274188252
-0.44495623811729984   -0.06282814767920988   0.015514716274188252
-0.44495623811729984   -0.06282814767920988   0.015514716274188252
-0.5058376096096362   -0.06537297021992304   0.013621306259239688
-0.5058376096096362   -0.06537297021992304   0.013621306259239688
-0.5058376096096362   -0.06537297021992304   0.013621306259239688
-0.5058376096096362   -0.06537297021992304   0.013621306259239688
-0.4872434213206383   -0.02963751175192282   -0.004788923726335485
-0.4872434213206383   -0.02963751175192282   -0.004788923726335485
-0.4872434213206383   -0.02963751175192282   -0.004788923726335485
-0.4872434213206383   -0.02963751175192282   -0.004788923726335485
-0.4210073719687744   -0.008938693699594685   0.004422320873898634
-0.4210073719687744   -0.008938693699594685   0.004422320873898634
-0.4210073719687744   -0.008938693699594685   0.004422320873898634
-0.4210073719687744   -0.008938693699594685   0.004422320873898634
-0.46545788557426304   -0.03932986887411925   -0.012434272494856909
-0.46545788557426304   -0.03932986887411925   -0.012434272494856909
-0.46545788557426304   -0.03932986887411925   -0.012434272494856909
-0.46545788557426304   -0.03932986887411925   -0.012434272494856909
-0.4213640697935696   -0.013969857575980932   0.007669995626305291
-0.4213640697935696   -0.013969857575980932   0.007669995626305291
-0.4213640697935696   -0.013969857575980932   0.007669995626305291
-0.4213640697935696   -0.013969857575980932   0.007669995626305291
-0.48392527689532544   -0.02164490127501889   0.003809187923328565
-0.48392527689532544   -0.02164490127501889   0.003809187923328565
-0.48392527689532544   -0.02164490127501889   0.003809187923328565
-0.48392527689532544   -0.02164490127501889   0.003809187923328565
-0.4629127723432097   0.019863915661425535   -0.012162119790487369
-0.4629127723432097   0.019863915661425535   -0.012162119790487369
-0.4629127723432097   0.019863915661425535   -0.012162119790487369
-0.4629127723432097   0.019863915661425535   -0.012162119790487369
-0.3979162395525697   0.035998097630732875   -0.005078126811063066
-0.3979162395525697   0.035998097630732875   -0.005078126811063066
-0.3979162395525697   0.035998097630732875   -0.005078126811063066
-0.3979162395525697   0.035998097630732875   -0.005078126811063066
-0.4400455705938852   0.004930910291203738   0.006830950215215827
-0.4400455705938852   0.004930910291203738   0.006830950215215827
-0.4400455705938852   0.004930910291203738   0.006830950215215827
-0.4400455705938852   0.004930910291203738   0.006830950215215827
-0.3971261228624906   0.035356483641398664   -0.0004859293713408014
-0.3971261228624906   0.035356483641398664   -0.0004859293713408014
-0.3971261228624906   0.035356483641398664   -0.0004859293713408014
-0.3971261228624906   0.035356483641398664   -0.0004859293713408014
-0.46112084538455855   0.023087573299488767   -0.006426142635294826
-0.46112084538455855   0.023087573299488767   -0.006426142635294826
-0.46112084538455855   0.023087573299488767   -0.006426142635294826
-0.46112084538455855   0.023087573299488767   -0.006426142635294826
-0.43961648037140005   0.06966226931225905   -0.020491595271573085
-0.43961648037140005   0.06966226931225905   -0.020491595271573085
-0.43961648037140005   0.06966226931225905   -0.020491595271573085
-0.43961648037140005   0.06966226931225905   -0.020491595271573085
-0.3758968130084553   0.0811188353888602   -0.015502388375898894
-0.3758968130084553   0.0811188353888602   -0.015502388375898894
-0.3758968130084553   0.0811188353888602   -0.015502388375898894
-0.3758968130084553   0.0811188353888602   -0.015502388375898894
-0.41580213748205996   0.04927152742572542   0.025195438832196687
-0.41580213748205996   0.04927152742572542   0.025195438832196687
-0.41580213748205996   0.04927152742572542   0.025195438832196687
-0.41580213748205996   0.04927152742572542   0.025195438832196687
-0.5204471598195552   -0.09941437161212742   -0.025385043398159026
-0.5204471598195552   -0.09941437161212742   -0.025385043398159026
-0.5204471598195552   -0.09941437161212742   -0.025385043398159026
-0.5204471598195552   -0.09941437161212742   -0.025385043398159026
-0.5546901373706514   -0.027771038438916984   0.04814942172913403
-0.5546901373706514   -0.027771038438916984   0.04814942172913403
-0.5546901373706514   -0.027771038438916984   0.04814942172913403
-0.5546901373706514   -0.027771038438916984   0.04814942172913403
-0.5635300189358732   -0.06812089636405366   -0.04715739319054538
-0.5635300189358732   -0.06812089636405366   -0.04715739319054538
-0.5635300189358732   -0.06812089636405366   -0.04715739319054538
-0.5635300189358732   -0.06812089636405366   -0.04715739319054538
-0.4662758412196612   0.029836009204506603   0.04057545582212062
-0.4662758412196612   0.029836009204506603   0.04057545582212062
-0.4662758412196612   0.029836009204506603   0.04057545582212062
-0.4662758412196612   0.029836009204506603   0.04057545582212062
-0.5240622746656427   -0.03868117394899459   -0.0078086777973741875
-0.5240622746656427   -0.03868117394899459   -0.0078086777973741875
-0.5240622746656427   -0.03868117394899459   -0.0078086777973741875
-0.5240622746656427   -0.03868117394899459   -0.0078086777973741875
-0.49749119424801047   -0.05217892734282544   -0.033486372772297705
-0.49749119424801047   -0.05217892734282544   -0.033486372772297705
-0.49749119424801047   -0.05217892734282544   -0.033486372772297705
-0.49749119424801047   -0.05217892734282544   -0.033486372772297705
-0.5292090998661918   0.01699960622462518   0.03932669956918284
-0.5292090998661918   0.01699960622462518   0.03932669956918284
-0.5292090998661918   0.01699960622462518   0.03932669956918284
-0.5292090998661918   0.01699960622462518   0.03932669956918284
-0.5316862746576055   -0.021177534441632298   -0.05290705842529446
-0.5316862746576055   -0.021177534441632298   -0.05290705842529446
-0.5316862746576055   -0.021177534441632298   -0.05290705842529446
-0.5316862746576055   -0.021177534441632298   -0.05290705842529446
-0.4443540968577175   0.07036897426045217   0.030126199037943592
-0.4443540968577175   0.07036897426045217   0.030126199037943592
-0.4443540968577175   0.07036897426045217   0.030126199037943592
-0.4443540968577175   0.07036897426045217   0.030126199037943592
-0.49521838370482785   0.0039316594550099365   0.012072685949975952
-0.49521838370482785   0.0039316594550099365   0.012072685949975952
-0.49521838370482785   0.0039316594550099365   0.012072685949975952
-0.49521838370482785   0.0039316594550099365   0.012072685949975952
-0.4746033741539944   -0.007774821077041735   -0.04297639210595289
-0.4746033741539944   -0.007774821077041735   -0.04297639210595289
-0.4746033741539944   -0.007774821077041735   -0.04297639210595289
-0.4746033741539944   -0.007774821077041735   -0.04297639210595289
-0.4982983617140958   0.06010489654309417   0.0327500753075319
-0.4982983617140958   0.06010489654309417   0.0327500753075319
-0.4982983617140958   0.06010489654309417   0.0327500753075319
-0.4982983617140958   0.06010489654309417   0.0327500753075319
-0.5038142374823213   0.030562978947286518   -0.058049078264164264
-0.5038142374823213   0.030562978947286518   -0.058049078264164264
-0.5038142374823213   0.030562978947286518   -0.058049078264164264
-0.5038142374823213   0.030562978947286518   -0.058049078264164264
-0.42237153417840634   0.11557433338301322   0.01982107162264129
-0.42237153417840634   0.11557433338301322   0.01982107162264129
-0.42237153417840634   0.11557433338301322   0.01982107162264129
-0.42237153417840634   0.11557433338301322   0.01982107162264129
-0.470680715829882   0.0462476684499087   0.031092965488963627
-0.470680715829882   0.0462476684499087   0.031092965488963627
-0.470680715829882   0.0462476684499087   0.031092965488963627
-0.470680715829882   0.0462476684499087   0.031092965488963627
-0.5951346026190968   -0.11832484358136841   -0.06351909937065306
-0.5951346026190968   -0.11832484358136841   -0.06351909937065306
-0.5951346026190968   -0.11832484358136841   -0.06351909937065306
-0.5951346026190968   -0.11832484358136841   -0.06351909937065306
-0.6569184977546715   0.009427831191290398   0.0865060800395129
-0.6569184977546715   0.009427831191290398   0.0865060800395129
-0.6569184977546715   0.009427831191290398   0.0865060800395129
-0.6569184977546715   0.009427831191290398   0.0865060800395129
-0.6478857171267791   -0.09811169973474052   -0.08455817209863667
-0.6478857171267791   -0.09811169973474052   -0.08455817209863667
-0.6478857171267791   -0.09811169973474052   -0.08455817209863667
-0.6478857171267791   -0.09811169973474052   -0.08455817209863667
-0.5100531729661457   0.0745624316635117   0.07754350863052092
-0.5100531729661457   0.0745624316635117   0.07754350863052092
-0.5100531729661457   0.0745624316635117   0.07754350863052092
-0.5100531729661457   0.0745624316635117   0.07754350863052092
-0.5783817778582936   -0.025318194550605952   -0.003965704104299774
-0.5783817778582936   -0.025318194550605952   -0.003965704104299774
-0.5783817778582936   -0.025318194550605952   -0.003965704104299774
-0.5783817778582936   -0.025318194550605952   -0.003965704104299774
-0.5710707396096965   -0.08036120699695196   -0.07262068592677656
-0.5710707396096965   -0.08036120699695196   -0.07262068592677656
-0.5710707396096965   -0.08036120699695196   -0.07262068592677656
-0.5710707396096965   -0.08036120699695196   -0.07262068592677656
-0.5835846464507727   0.060095442958177675   0.0787400385884777
-0.5835846464507727   0.060095442958177675   0.0787400385884777
-0.5835846464507727   0.060095442958177675   0.0787400385884777
-0.5835846464507727   0.060095442958177675   0.0787400385884777
-0.5929756363632096   -0.07069516854399303   -0.10076413309917298
-0.5929756363632096   -0.07069516854399303   -0.10076413309917298
-0.5929756363632096   -0.07069516854399303   -0.10076413309917298
-0.5929756363632096   -0.07069516854399303   -0.10076413309917298
-0.48540228994558354   0.09387265865400315   0.06346267203918007
-0.48540228994558354   0.09387265865400315   0.06346267203918007
-0.48540228994558354   0.09387265865400315   0.06346267203918007
-0.48540228994558354   0.09387265865400315   0.06346267203918007
-0.5411242004727721   0.003320970169822468   0.01512395157530725
-0.5411242004727721   0.003320970169822468   0.01512395157530725
-0.5411242004727721   0.003320970169822468   0.01512395157530725
-0.5411242004727721   0.003320970169822468   0.01512395157530725
-0.5452287404293197   -0.0577936225687342   -0.08400329915676885
-0.5452287404293197   -0.0577936225687342   -0.08400329915676885
-0.5452287404293197   -0.0577936225687342   -0.08400329915676885
-0.5452287404293197   -0.0577936225687342   -0.08400329915676885
-0.5297091531082511   0.08441114544996589   0.0604619691816612
-0.5297091531082511   0.08441114544996589   0.0604619691816612
-0.5297091531082511   0.08441114544996589   0.0604619691816612
-0.5297091531082511   0.08441114544996589   0.0604619691816612
-0.5209695367054478   -0.023231020508709344   -0.11009774423461205
-0.5209695367054478   -0.023231020508709344   -0.11009774423461205
-0.5209695367054478   -0.023231020508709344   -0.11009774423461205
-0.5209695367054478   -0.023231020508709344   -0.11009774423461205
-0.4633147345125055   0.12273799507747235   0.0522734204547256
-0.4633147345125055   0.12273799507747235   0.0522734204547256
-0.4633147345125055   0.12273799507747235   0.0522734204547256
-0.4633147345125055   0.12273799507747235   0.0522734204547256
-0.4903427580074473   0.03196115789519899   0.03720033660164648
-0.4903427580074473   0.03196115789519899   0.03720033660164648
-0.4903427580074473   0.03196115789519899   0.03720033660164648
-0.4903427580074473   0.03196115789519899   0.03720033660164648
0.35989450891062225   0.058268234019762416   0.09445749317942798
0.35989450891062225   0.058268234019762416   0.09445749317942798
0.35989450891062225   0.058268234019762416   0.09445749317942798
0.35989450891062225   0.058268234019762416   0.09445749317942798
-0.009254421750566962   -0.15188673527255236   -0.06245575467325509
-0.009254421750566962   -0.15188673527255236   -0.06245575467325509
-0.009254421750566962   -0.15188673527255236   -0.06245575467325509
-0.009254421750566962   -0.15188673527255236   -0.06245575467325509
0.08025311630505638   0.029745303081463028   0.07299876375264745
0.08025311630505638   0.029745303081463028   0.07299876375264745
0.08025311630505638   0.029745303081463028   0.07299876375264745
0.08025311630505638   0.029745303081463028   0.07299876375264745
0.3757263734258979   -0.05348939553427069   -0.07813199435466292
0.3757263734258979   -0.05348939553427069   -0.07813199435466292
0.3757263734258979   -0.05348939553427069   -0.07813199435466292
0.3757263734258979   -0.05348939553427069   -0.07813199435466292
0.18359811832513395   -0.02961657963735284   -0.044941159429755614
0.18359811832513395   -0.02961657963735284   -0.044941159429755614
0.18359811832513395   -0.02961657963735284   -0.044941159429755614
0.18359811832513395   -0.02961657963735284   -0.044941159429755614
0.4399235015329923   0.10412706458819034   0.08523718605834808
0.4399235015329923   0.10412706458819034   0.08523718605834808
0.4399235015329923   0.10412706458819034   0.08523718605834808
0.4399235015329923   0.10412706458819034   0.08523718605834808
0.019990155774577224   -0.12393698946438275   -0.07463374635390253
0.019990155774577224   -0.12393698946438275   -0.07463374635390253
0.019990155774577224   -0.12393698946438275   -0.07463374635390253
0.019990155774577224   -0.12393698946438275   -0.07463374635390253
0.11299709166675054   0.05179423095103908   0.06094063014983153
0.11299709166675054   0.05179423095103908   0.06094063014983153
0.11299709166675054   0.05179423095103908   0.06094063014983153
0.11299709166675054   0.05179423095103908   0.06094063014983153
0.4382630190798096   -0.028577520510690305   -0.09778809009474694
0.4382630190798096   -0.028577520510690305   -0.09778809009474694
0.4382630190798096   -0.028577520510690305   -0.09778809009474694
0.4382630190798096   -0.028577520510690305   -0.09778809009474694
0.240013753369076   -0.0021088398588897522   -0.02107498282736714
0.240013753369076   -0.0021088398588897522   -0.02107498282736714
0.240013753369076   -0.0021088398588897522   -0.02107498282736714
0.240013753369076   -0.0021088398588897522   -0.02107498282736714
0.5031802743687077   0.1310723955243945   0.06714827031465147
0.5031802743687077   0.1310723955243945   0.06714827031465147
0.5031802743687077   0.1310723955243945   0.06714827031465147
0.5031802743687077   0.1310723955243945   0.06714827031465147
0.05193470500673865   -0.10400081645515943   -0.08857625574402168
0.05193470500673865   -0.10400081645515943   -0.08857625574402168
0.05193470500673865   -0.10400081645515943   -0.08857625574402168
0.05193470500673865   -0.10400081645515943   -0.08857625574402168
0.14478176694546108   0.09224090602588697   0.05273747793253215
0.14478176694546108   0.09224090602588697   0.05273747793253215
0.14478176694546108   0.09224090602588697   0.05273747793253215
0.14478176694546108   0.09224090602588697   0.05273747793253215
0.5212593863393106   0.027191486355691512   -0.10785820293973666
0.5212593863393106   0.027191486355691512   -0.10785820293973666
0.5212593863393106   0.027191486355691512   -0.10785820293973666
0.5212593863393106   0.027191486355691512   -0.10785820293973666
0.28745571911781165   0.028693747295282956   0.0015126912852102582
0.28745571911781165   0.028693747295282956   0.0015126912852102582
0.28745571911781165   0.028693747295282956   0.0015126912852102582
0.28745571911781165   0.028693747295282956   0.0015126912852102582
0.04953648167411094   0.015588042472853328   0.06402398470473641
0.04953648167411094   0.015588042472853328   0.06402398470473641
0.04953648167411094   0.015588042472853328   0.06402398470473641
0.04953648167411094   0.015588042472853328   0.06402398470473641
-0.3434327288086425   -0.12891246538416096   -0.02864345987971838
-0.3434327288086425   -0.12891246538416096   -0.02864345987971838
-0.3434327288086425   -0.12891246538416096   -0.02864345987971838
-0.3434327288086425   -0.12891246538416096   -0.02864345987971838
-0.2868879736765249   -0.018659843515877184   0.02930197056909204
-0.2868879736765249   -0.018659843515877184   0.02930197056909204
-0.2868879736765249   -0.018659843515877184   0.02930197056909204
-0.2868879736765249   -0.018659843515877184   0.02930197056909204
0.05214118019870622   -0.015013605390625262   -0.022802008307015034
0.05214118019870622   -0.015013605390625262   -0.022802008307015034
0.05214118019870622   -0.015013605390625262   -0.022802008307015034
0.05214118019870622   -0.015013605390625262   -0.022802008307015034
-0.13498107968843145   -0.033447581363968706   -0.021627675914204
-0.13498107968843145   -0.033447581363968706   -0.021627675914204
-0.13498107968843145   -0.033447581363968706   -0.021627675914204
-0.13498107968843145   -0.033447581363968706   -0.021627675914204
0.08323803735689449   0.060865582496373735   0.05680308959692725
0.08323803735689449   0.060865582496373735   0.05680308959692725
0.08323803735689449   0.060865582496373735   0.05680308959692725
0.08323803735689449   0.060865582496373735   0.05680308959692725
-0.3151254349818817   -0.09167963555004474   -0.038865543923524495
-0.3151254349818817   -0.09167963555004474   -0.038865543923524495
-0.3151254349818817   -0.09167963555004474   -0.038865543923524495
-0.3151254349818817   -0.09167963555004474   -0.038865543923524495
-0.25702281849423636   0.024076776910884418   0.020716293256633912
-0.25702281849423636   0.024076776910884418   0.020716293256633912
-0.25702281849423636   0.024076776910884418   0.020716293256633912
-0.25702281849423636   0.024076776910884418   0.020716293256633912
0.08939619819385387   0.025579611427964957   -0.03084921769157766
0.08939619819385387   0.025579611427964957   -0.03084921769157766
0.08939619819385387   0.025579611427964957   -0.03084921769157766
0.08939619819385387   0.025579611427964957   -0.03084921769157766
-0.10333084264001494   0.0042808085025027275   -0.00260503799612983
-0.10333084264001494   0.0042808085025027275   -0.00260503799612983
-0.10333084264001494   0.0042808085025027275   -0.00260503799612983
-0.10333084264001494   0.0042808085025027275   -0.00260503799612983
0.1217976397452703   0.10587094183846071   0.05086665965500875
0.1217976397452703   0.10587094183846071   0.05086665965500875
0.1217976397452703   0.10587094183846071   0.05086665965500875
0.1217976397452703   0.10587094183846071   0.05086665965500875
-0.28667441344159406   -0.05346470689555262   -0.050000197673717536
-0.28667441344159406   -0.05346470689555262   -0.050000197673717536
-0.28667441344159406   -0.05346470689555262   -0.050000197673717536
-0.28667441344159406   -0.05346470689555262   -0.050000197673717536
-0.22698381897888675   0.07237567845768422   0.01253157904377962
-0.22698381897888675   0.07237567845768422   0.01253157904377962
-0.22698381897888675   0.07237567845768422   0.01253157904377962
-0.22698381897888675   0.07237567845768422   0.01253157904377962
0.12222064556800291   0.07157640117655444   -0.039403624105426055
0.12222064556800291   0.07157640117655444   -0.039403624105426055
0.12222064556800291   0.07157640117655444   -0.039403624105426055
0.12222064556800291   0.07157640117655444   -0.039403624105426055
-0.068361493490737   0.0459036555943593   0.017663125139402422
-0.068361493490737   0.0459036555943593   0.017663125139402422
-0.068361493490737   0.0459036555943593   0.017663125139402422
-0.068361493490737   0.0459036555943593   0.017663125139402422
-0.3122789862682647   -0.0247857910965886   0.022998578534601792
-0.3122789862682647   -0.0247857910965886   0.022998578534601792
-0.3122789862682647   -0.0247857910965886   0.022998578534601792
-0.3122789862682647   -0.0247857910965886   0.022998578534601792
-0.6715814139508347   -0.09142662880133076   0.005982330784436213
-0.6715814139508347   -0.09142662880133076   0.005982330784436213
-0.6715814139508347   -0.09142662880133076   0.005982330784436213
-0.6715814139508347   -0.09142662880133076   0.005982330784436213
-0.6453999027353818   -0.05723434967925087   -0.012663428257774993
-0.6453999027353818   -0.05723434967925087   -0.012663428257774993
-0.6453999027353818   -0.05723434967925087   -0.012663428257774993
-0.6453999027353818   -0.05723434967925087   -0.012663428257774993
-0.28138784181711934   0.02382897979568703   0.014313806554555854
-0.28138784181711934   0.02382897979568703   0.014313806554555854
-0.28138784181711934   0.02382897979568703   0.014313806554555854
-0.28138784181711934   0.02382897979568703   0.014313806554555854
-0.4783612177078341   -0.03433500160950649   -0.012569508720547979
-0.4783612177078341   -0.03433500160950649   -0.012569508720547979
-0.4783612177078341   -0.03433500160950649   -0.012569508720547979
-0.4783612177078341   -0.03433500160950649   -0.012569508720547979
-0.2817727161822185   0.021056213489905107   0.015162201034841623
-0.2817727161822185   0.021056213489905107   0.015162201034841623
-0.2817727161822185   0.021056213489905107   0.015162201034841623
-0.2817727161822185   0.021056213489905107   0.015162201034841623
-0.6425664739297714   -0.052013028932968   -0.003717604976005845
-0.6425664739297714   -0.052013028932968   -0.003717604976005845
-0.6425664739297714   -0.052013028932968   -0.003717604976005845
-0.6425664739297714   -0.052013028932968   -0.003717604976005845
-0.6140038666715514   -0.010186783735659954   -0.019914906524045595
-0.6140038666715514   -0.010186783735659954   -0.019914906524045595
-0.6140038666715514   -0.010186783735659954   -0.019914906524045595
-0.6140038666715514   -0.010186783735659954   -0.019914906524045595
-0.2518169687349232   0.06557520210684384   0.005247116857244154
-0.2518169687349232   0.06557520210684384   0.005247116857244154
-0.2518169687349232   0.06557520210684384   0.005247116857244154
-0.2518169687349232   0.06557520210684384   0.005247116857244154
-0.4459512080943108   0.00700056741710374   0.006587005000404961
-0.4459512080943108   0.00700056741710374   0.006587005000404961
-0.4459512080943108   0.00700056741710374   0.006587005000404961
-0.4459512080943108   0.00700056741710374   0.006587005000404961
-0.2510765422387455   0.0677387939539214   0.006785657491055308
-0.2510765422387455   0.0677387939539214   0.006785657491055308
-0.2510765422387455   0.0677387939539214   0.006785657491055308
-0.2510765422387455   0.0677387939539214   0.006785657491055308
-0.6127906293821181   -0.010396711797127561   -0.01363879201541797
-0.6127906293821181   -0.010396711797127561   -0.01363879201541797
-0.6127906293821181   -0.010396711797127561   -0.01363879201541797
-0.6127906293821181   -0.010396711797127561   -0.01363879201541797
-0.5838768535319662   0.03698368039000324   -0.028198122846672675
-0.5838768535319662   0.03698368039000324   -0.028198122846672675
-0.5838768535319662   0.03698368039000324   -0.028198122846672675
-0.5838768535319662   0.03698368039000324   -0.028198122846672675
-0.22351361409351264   0.10744448196110365   -0.00518620003276922
-0.22351361409351264   0.10744448196110365   -0.00518620003276922
-0.22351361409351264   0.10744448196110365   -0.00518620003276922
-0.22351361409351264   0.10744448196110365   -0.00518620003276922
-0.41522412667807623   0.04821960563611086   0.024492823741550603
-0.41522412667807623   0.04821960563611086   0.024492823741550603
-0.41522412667807623   0.04821960563611086   0.024492823741550603
-0.41522412667807623   0.04821960563611086   0.024492823741550603
-0.6712693584653582   -0.0645779759346552   -0.019306044654850363
-0.6712693584653582   -0.0645779759346552   -0.019306044654850363
-0.6712693584653582   -0.0645779759346552   -0.019306044654850363
-0.6712693584653582   -0.0645779759346552   -0.019306044654850363
-0.996091319970939   -0.056203768664342235   0.039997227783354
-0.996091319970939   -0.056203768664342235   0.039997227783354
-0.996091319970939   -0.056203768664342235   0.039997227783354
-0.996091319970939   -0.056203768664342235   0.039997227783354
-0.9962155039506488   -0.0949867742561786   -0.05359879875031777
-0.9962155039506488   -0.0949867742561786   -0.05359879875031777
-0.9962155039506488   -0.0949867742561786   -0.05359879875031777
-0.9962155039506488   -0.0949867742561786   -0.05359879875031777
-0.6094824532203605   0.060835017456070145   0.048854452182010455
-0.6094824532203605   0.060835017456070145   0.048854452182010455
-0.6094824532203605   0.060835017456070145   0.048854452182010455
-0.6094824532203605   0.060835017456070145   0.048854452182010455
-0.8136987291232114   -0.03473035019403528   -0.005274285232369343
-0.8136987291232114   -0.03473035019403528   -0.005274285232369343
-0.8136987291232114   -0.03473035019403528   -0.005274285232369343
-0.8136987291232114   -0.03473035019403528   -0.005274285232369343
-0.6404950218751354   -0.01849799401513144   -0.026875379620656704
-0.6404950218751354   -0.01849799401513144   -0.026875379620656704
-0.6404950218751354   -0.01849799401513144   -0.026875379620656704
-0.6404950218751354   -0.01849799401513144   -0.026875379620656704
-0.9631842936146923   -0.013635121103782732   0.030205599777077652
-0.9631842936146923   -0.013635121103782732   0.030205599777077652
-0.9631842936146923   -0.013635121103782732   0.030205599777077652
-0.9631842936146923   -0.013635121103782732   0.030205599777077652
-0.9569238542964758   -0.05009734536171667   -0.05963564163414232
-0.9569238542964758   -0.05009734536171667   -0.05963564163414232
-0.9569238542964758   -0.05009734536171667   -0.05963564163414232
-0.9569238542964758   -0.05009734536171667   -0.05963564163414232
-0.5804408755269929   0.09883595414328597   0.038877311319800656
-0.5804408755269929   0.09883595414328597   0.038877311319800656
-0.5804408755269929   0.09883595414328597   0.038877311319800656
-0.5804408755269929   0.09883595414328597   0.038877311319800656
-0.7748768729715355   0.0069312223048998145   0.014455955523879377
-0.7748768729715355   0.0069312223048998145   0.014455955523879377
-0.7748768729715355   0.0069312223048998145   0.014455955523879377
-0.7748768729715355   0.0069312223048998145   0.014455955523879377
-0.610427513575642   0.02390422179437171   -0.036124146574534145
-0.610427513575642   0.02390422179437171   -0.036124146574534145
-0.610427513575642   0.02390422179437171   -0.036124146574534145
-0.610427513575642   0.02390422179437171   -0.036124146574534145
-0.9246657895701595   0.027105813664864087   0.024451522970857953
-0.9246657895701595   0.027105813664864087   0.024451522970857953
-0.9246657895701595   0.027105813664864087   0.024451522970857953
-0.9246657895701595   0.027105813664864087   0.024451522970857953
-0.9217668744049767   -0.001106114890293497   -0.06418582951732182
-0.9217668744049767   -0.001106114890293497   -0.06418582951732182
-0.9217668744049767   -0.001106114890293497   -0.06418582951732182
-0.9217668744049767   -0.001106114890293497   -0.06418582951732182
-0.5516997585786835   0.1408435898375413   0.02882744247220273
-0.5516997585786835   0.1408435898375413   0.02882744247220273
-0.5516997585786835   0.1408435898375413   0.02882744247220273
-0.5516997585786835   0.1408435898375413   0.02882744247220273
-0.7457409880447934   0.045819936662111954   0.03214944340046958
-0.7457409880447934   0.045819936662111954   0.03214944340046958
-0.7457409880447934   0.045819936662111954   0.03214944340046958
-0.7457409880447934   0.045819936662111954   0.03214944340046958
-1.0231244654315543   -0.09282419332400146   -0.05854807486006344
-1.0231244654315543   -0.09282419332400146   -0.05854807486006344
-1.0231244654315543   -0.09282419332400146   -0.05854807486006344
-1.0231244654315543   -0.09282419332400146   -0.05854807486006344
-1.3657904428109575   -0.023770231137309916   0.08644990575486143
-1.3657904428109575   -0.023770231137309916   0.08644990575486143
-1.3657904428109575   -0.023770231137309916   0.08644990575486143
-1.3657904428109575   -0.023770231137309916   0.08644990575486143
-1.3464746642015495   -0.12384240854926795   -0.0780592011979736
-1.3464746642015495   -0.12384240854926795   -0.0780592011979736
-1.3464746642015495   -0.12384240854926795   -0.0780592011979736
-1.3464746642015495   -0.12384240854926795   -0.0780592011979736
-0.9289051818351187   0.1027423570231406   0.0852236805480139
-0.9289051818351187   0.1027423570231406   0.0852236805480139
-0.9289051818351187   0.1027423570231406   0.0852236805480139
-0.9289051818351187   0.1027423570231406   0.0852236805480139
-1.115826695047069   -0.019767923968938506   0.009171221922798102
-1.115826695047069   -0.019767923968938506   0.009171221922798102
-1.115826695047069   -0.019767923968938506   0.009171221922798102
-1.115826695047069   -0.019767923968938506   0.009171221922798102
-0.9897668318247973   -0.05013120359147444   -0.06621100878575817
-0.9897668318247973   -0.05013120359147444   -0.06621100878575817
-0.9897668318247973   -0.05013120359147444   -0.06621100878575817
-0.9897668318247973   -0.05013120359147444   -0.06621100878575817
-1.2837848752710952   0.030859291006119893   0.0806880438988868
-1.2837848752710952   0.030859291006119893   0.0806880438988868
-1.2837848752710952   0.030859291006119893   0.0806880438988868
-1.2837848752710952   0.030859291006119893   0.0806880438988868
-1.284408993606454   -0.0971979170550685   -0.09288350284530783
-1.284408993606454   -0.0971979170550685   -0.09288350284530783
-1.284408993606454   -0.0971979170550685   -0.09288350284530783
-1.284408993606454   -0.0971979170550685   -0.09288350284530783
-0.8968764345379778   0.1202582633195371   0.07024584847708448
-0.8968764345379778   0.1202582633195371   0.07024584847708448
-0.8968764345379778   0.1202582633195371   0.07024584847708448
-0.8968764345379778   0.1202582633195371   0.07024584847708448
-1.080488819763634   0.008178161460555389   0.025118664158773202
-1.080488819763634   0.008178161460555389   0.025118664158773202
-1.080488819763634   0.008178161460555389   0.025118664158773202
-1.080488819763634   0.008178161460555389   0.025118664158773202
-0.9559054658367221   -0.028207266559565625   -0.07643377813752533
-0.9559054658367221   -0.028207266559565625   -0.07643377813752533
-0.9559054658367221   -0.028207266559565625   -0.07643377813752533
-0.9559054658367221   -0.028207266559565625   -0.07643377813752533
-1.2231401939337756   0.05350738119796822   0.0627551972650377
-1.2231401939337756   0.05350738119796822   0.0627551972650377
-1.2231401939337756   0.05350738119796822   0.0627551972650377
-1.2231401939337756   0.05350738119796822   0.0627551972650377
-1.2080126076752142   -0.05736713938577814   -0.10355437869887947
-1.2080126076752142   -0.05736713938577814   -0.10355437869887947
-1.2080126076752142   -0.05736713938577814   -0.10355437869887947
-1.2080126076752142   -0.05736713938577814   -0.10355437869887947
-0.868709489866314   0.141477798422537   0.05851717986316164
-0.868709489866314   0.141477798422537   0.05851717986316164
-0.868709489866314   0.141477798422537   0.05851717986316164
-0.868709489866314   0.141477798422537   0.05851717986316164
-1.0146909063494851   0.034382061182694684   0.047550609859111845
-1.0146909063494851   0.034382061182694684   0.047550609859111845
-1.0146909063494851   0.034382061182694684   0.047550609859111845
-1.0146909063494851   0.034382061182694684   0.047550609859111845
1.0866986945466217   0.0986949049133369   0.09449932995900259
1.0866986945466217   0.0986949049133369   0.09449932995900259
1.0866986945466217   0.0986949049133369   0.09449932995900259
1.0866986945466217   0.0986949049133369   0.09449932995900259
0.3982796624658149   -0.18111341901871825   -0.0622146037148474
0.3982796624658149   -0.18111341901871825   -0.0622146037148474
0.3982796624658149   -0.18111341901871825   -0.0622146037148474
0.3982796624658149   -0.18111341901871825   -0.0622146037148474
0.4921870733211015   -0.0009675816720748354   0.06801637506117411
0.4921870733211015   -0.0009675816720748354   0.06801637506117411
0.4921870733211015   -0.0009675816720748354   0.06801637506117411
0.4921870733211015   -0.0009675816720748354   0.06801637506117411
1.1066392834793255   -0.025474549048112333   -0.0794118157088745
1.1066392834793255   -0.025474549048112333   -0.0794118157088745
1.1066392834793255   -0.025474549048112333   -0.0794118157088745
1.1066392834793255   -0.025474549048112333   -0.0794118157088745
0.7235263425217643   -0.0328818544596336   -0.06996585005720181
0.7235263425217643   -0.0328818544596336   -0.06996585005720181
0.7235263425217643   -0.0328818544596336   -0.06996585005720181
0.7235263425217643   -0.0328818544596336   -0.06996585005720181
1.1715924346016116   0.13773841145223176   0.08214097940219711
1.1715924346016116   0.13773841145223176   0.08214097940219711
1.1715924346016116   0.13773841145223176   0.08214097940219711
1.1715924346016116   0.13773841145223176   0.08214097940219711
0.4318213957308378   -0.15959306864039785   -0.07518652592181434
0.4318213957308378   -0.15959306864039785   -0.07518652592181434
0.4318213957308378   -0.15959306864039785   -0.07518652592181434
0.4318213957308378   -0.15959306864039785   -0.07518652592181434
0.5293359464806862   0.02041588012965996   0.05610598570612778
0.5293359464806862   0.02041588012965996   0.05610598570612778
0.5293359464806862   0.02041588012965996   0.05610598570612778
0.5293359464806862   0.02041588012965996   0.05610598570612778
1.1742345679105808   -0.0011630426396202487   -0.10008574053961036
1.1742345679105808   -0.0011630426396202487   -0.10008574053961036
1.1742345679105808   -0.0011630426396202487   -0.10008574053961036
1.1742345679105808   -0.0011630426396202487   -0.10008574053961036
0.7940634777134504   -0.006608179339900627   -0.04234623563728043
0.7940634777134504   -0.006608179339900627   -0.04234623563728043
0.7940634777134504   -0.006608179339900627   -0.04234623563728043
0.7940634777134504   -0.006608179339900627   -0.04234623563728043
1.2399212262220207   0.1639572005102447   0.06322730786771678
1.2399212262220207   0.1639572005102447   0.06322730786771678
1.2399212262220207   0.1639572005102447   0.06322730786771678
1.2399212262220207   0.1639572005102447   0.06322730786771678
0.46853937790277567   -0.13981427328667548   -0.08764670376708139
0.46853937790277567   -0.13981427328667548   -0.08764670376708139
0.46853937790277567   -0.13981427328667548   -0.08764670376708139
0.46853937790277567   -0.13981427328667548   -0.08764670376708139
0.5664310812484008   0.06752302342138067   0.04862778747961877
0.5664310812484008   0.06752302342138067   0.04862778747961877
0.5664310812484008   0.06752302342138067   0.04862778747961877
0.5664310812484008   0.06752302342138067   0.04862778747961877
1.2629735118840864   0.06224766299423706   -0.10798115743981196
1.2629735118840864   0.06224766299423706   -0.10798115743981196
1.2629735118840864   0.06224766299423706   -0.10798115743981196
1.2629735118840864   0.06224766299423706   -0.10798115743981196
0.8377166457286773   0.02533074166740551   -0.0184256563124211
0.8377166457286773   0.02533074166740551   -0.0184256563124211
0.8377166457286773   0.02533074166740551   -0.0184256563124211
0.8377166457286773   0.02533074166740551   -0.0184256563124211
0.47307119920416796   0.055202453654984676   0.0754272073031993
0.47307119920416796   0.055202453654984676   0.0754272073031993
0.47307119920416796   0.055202453654984676   0.0754272073031993
0.47307119920416796   0.055202453654984676   0.0754272073031993
-0.229974475176975   -0.16896913561709936   -0.03257341827491278
-0.229974475176975   -0.16896913561709936   -0.03257341827491278
-0.229974475176975   -0.16896913561709936   -0.03257341827491278
-0.229974475176975   -0.16896913561709936   -0.03257341827491278
-0.16532527127094232   -0.049369155293980255   0.022886693645858554
-0.16532527127094232   -0.049369155293980255   0.022886693645858554
-0.16532527127094232   -0.049369155293980255   0.022886693645858554
-0.16532527127094232   -0.049369155293980255   0.022886693645858554
0.47697999346180947   0.0010543731704592552   -0.010040979077812998
0.47697999346180947   0.0010543731704592552   -0.010040979077812998
0.47697999346180947   0.0010543731704592552   -0.010040979077812998
0.47697999346180947   0.0010543731704592552   -0.010040979077812998
0.13246756543710264   -0.03581807354779455   -0.029848280324815814
0.13246756543710264   -0.03581807354779455   -0.029848280324815814
0.13246756543710264   -0.03581807354779455   -0.029848280324815814
0.13246756543710264   -0.03581807354779455   -0.029848280324815814
0.5112176219967284   0.09483532665319064   0.06736621011404235
0.5112176219967284   0.09483532665319064   0.06736621011404235
0.5112176219967284   0.09483532665319064   0.06736621011404235
0.5112176219967284   0.09483532665319064   0.06736621011404235
-0.1968077044661663   -0.14039491343701863   -0.04349971418722669
-0.1968077044661663   -0.14039491343701863   -0.04349971418722669
-0.1968077044661663   -0.14039491343701863   -0.04349971418722669
-0.1968077044661663   -0.14039491343701863   -0.04349971418722669
-0.13071026615011888   -0.009376202616598312   0.014478176429517365
-0.13071026615011888   -0.009376202616598312   0.014478176429517365
-0.13071026615011888   -0.009376202616598312   0.014478176429517365
-0.13071026615011888   -0.009376202616598312   0.014478176429517365
0.5176822973114826   0.036957793222819654   -0.018704173233041865
0.5176822973114826   0.036957793222819654   -0.018704173233041865
0.5176822973114826   0.036957793222819654   -0.018704173233041865
0.5176822973114826   0.036957793222819654   -0.018704173233041865
0.16592446214023557   -0.004205086964264235   -0.01187495205603651
0.16592446214023557   -0.004205086964264235   -0.01187495205603651
0.16592446214023557   -0.004205086964264235   -0.01187495205603651
0.16592446214023557   -0.004205086964264235   -0.01187495205603651
0.5532870764242462   0.13648594476923054   0.05979157078435783
0.5532870764242462   0.13648594476923054   0.05979157078435783
0.5532870764242462   0.13648594476923054   0.05979157078435783
0.5532870764242462   0.13648594476923054   0.05979157078435783
-0.1635522921643628   -0.10614160106450099   -0.05296655519379967
-0.1635522921643628   -0.10614160106450099   -0.05296655519379967
-0.1635522921643628   -0.10614160106450099   -0.05296655519379967
-0.1635522921643628   -0.10614160106450099   -0.05296655519379967
-0.09653642664614859   0.036926853924693505   0.00610571184942079
-0.09653642664614859   0.036926853924693505   0.00610571184942079
-0.09653642664614859   0.036926853924693505   0.00610571184942079
-0.09653642664614859   0.036926853924693505   0.00610571184942079
0.5537987488211761   0.07968426974245182   -0.026695120977575856
0.5537987488211761   0.07968426974245182   -0.026695120977575856
0.5537987488211761   0.07968426974245182   -0.026695120977575856
0.5537987488211761   0.07968426974245182   -0.026695120977575856
0.20719524568416578   0.03453946605752863   0.009101070834447033
0.20719524568416578   0.03453946605752863   0.009101070834447033
0.20719524568416578   0.03453946605752863   0.009101070834447033
0.20719524568416578   0.03453946605752863   0.009101070834447033
-0.1808736363343087   0.011925657191115657   0.0320359831302037
-0.1808736363343087   0.011925657191115657   0.0320359831302037
-0.1808736363343087   0.011925657191115657   0.0320359831302037
-0.1808736363343087   0.011925657191115657   0.0320359831302037
-0.8457452736307728   -0.14913382910655293   -0.004265877207244013
-0.8457452736307728   -0.14913382910655293   -0.004265877207244013
-0.8457452736307728   -0.14913382910655293   -0.004265877207244013
-0.8457452736307728   -0.14913382910655293   -0.004265877207244013
-0.8046731504208982   -0.08766768894358555   -0.019884228538028213
-0.8046731504208982   -0.08766768894358555   -0.019884228538028213
-0.8046731504208982   -0.08766768894358555   -0.019884228538028213
-0.8046731504208982   -0.08766768894358555   -0.019884228538028213
-0.15137384713715393   0.0219451038036209   0.021329555217195484
-0.15137384713715393   0.0219451038036209   0.021329555217195484
-0.15137384713715393   0.0219451038036209   0.021329555217195484
-0.15137384713715393   0.0219451038036209   0.021329555217195484
-0.4965417087166769   -0.04588141923879692   -0.01862610141416511
-0.4965417087166769   -0.04588141923879692   -0.01862610141416511
-0.4965417087166769   -0.04588141923879692   -0.01862610141416511
-0.4965417087166769   -0.04588141923879692   -0.01862610141416511
-0.14454884964839207   0.05317828850953936   0.02422135795509026
-0.14454884964839207   0.05317828850953936   0.02422135795509026
-0.14454884964839207   0.05317828850953936   0.02422135795509026
-0.14454884964839207   0.05317828850953936   0.02422135795509026
-0.8096654457415748   -0.11706817148141813   -0.015445222603578806
-0.8096654457415748   -0.11706817148141813   -0.015445222603578806
-0.8096654457415748   -0.11706817148141813   -0.015445222603578806
-0.8096654457415748   -0.11706817148141813   -0.015445222603578806
-0.7665272891832995   -0.04378928937741258   -0.026865020115600373
-0.7665272891832995   -0.04378928937741258   -0.026865020115600373
-0.7665272891832995   -0.04378928937741258   -0.026865020115600373
-0.7665272891832995   -0.04378928937741258   -0.026865020115600373
-0.11767919626637854   0.05821029424290507   0.012047028988715597
-0.11767919626637854   0.05821029424290507   0.012047028988715597
-0.11767919626637854   0.05821029424290507   0.012047028988715597
-0.11767919626637854   0.05821029424290507   0.012047028988715597
-0.4580715221807579   -0.009165429401932546   -0.00029000223705382897
-0.4580715221807579   -0.009165429401932546   -0.00029000223705382897
-0.4580715221807579   -0.009165429401932546   -0.00029000223705382897
-0.4580715221807579   -0.009165429401932546   -0.00029000223705382897
-0.10944606799297757   0.0960704598362577   0.015352504762367832
-0.10944606799297757   0.0960704598362577   0.015352504762367832
-0.10944606799297757   0.0960704598362577   0.015352504762367832
-0.10944606799297757   0.0960704598362577   0.015352504762367832
-0.7730565461509546   -0.07994558366500927   -0.023355010666279877
-0.7730565461509546   -0.07994558366500927   -0.023355010666279877
-0.7730565461509546   -0.07994558366500927   -0.023355010666279877
-0.7730565461509546   -0.07994558366500927   -0.023355010666279877
-0.7310224024091702   -6.374640391101916e-05   -0.03521855354218507
-0.7310224024091702   -6.374640391101916e-05   -0.03521855354218507
-0.7310224024091702   -6.374640391101916e-05   -0.03521855354218507
-0.7310224024091702   -6.374640391101916e-05   -0.03521855354218507
-0.0855073649980938   0.09525593630169744   0.002921937712694587
-0.0855073649980938   0.09525593630169744   0.002921937712694587
-0.0855073649980938   0.09525593630169744   0.002921937712694587
-0.0855073649980938   0.09525593630169744   0.002921937712694587
-0.4227261069509887   0.027410752965112112   0.017161285632645115
-0.4227261069509887   0.027410752965112112   0.017161285632645115
-0.4227261069509887   0.027410752965112112   0.017161285632645115
-0.4227261069509887   0.027410752965112112   0.017161285632645115
-0.8240728723233376   -0.032339220539013086   -0.012698479237601604
-0.8240728723233376   -0.032339220539013086   -0.012698479237601604
-0.8240728723233376   -0.032339220539013086   -0.012698479237601604
-0.8240728723233376   -0.032339220539013086   -0.012698479237601604
-1.4472181072908727   -0.12072089316726548   0.0280956528393964
-1.4472181072908727   -0.12072089316726548   0.0280956528393964
-1.4472181072908727   -0.12072089316726548   0.0280956528393964
-1.4472181072908727   -0.12072089316726548   0.0280956528393964
-1.427108919008778   -0.1244315352044632   -0.05985184533223875
-1.427108919008778   -0.1244315352044632   -0.05985184533223875
-1.427108919008778   -0.1244315352044632   -0.05985184533223875
-1.427108919008778   -0.1244315352044632   -0.05985184533223875
-0.7612278866783186   0.05600836268894435   0.05366603854234551
-0.7612278866783186   0.05600836268894435   0.05366603854234551
-0.7612278866783186   0.05600836268894435   0.05366603854234551
-0.7612278866783186   0.05600836268894435   0.05366603854234551
-1.1071926724072123   -0.04837154734163143   -0.006484763687930571
-1.1071926724072123   -0.04837154734163143   -0.006484763687930571
-1.1071926724072123   -0.04837154734163143   -0.006484763687930571
-1.1071926724072123   -0.04837154734163143   -0.006484763687930571
-0.7845811540105587   0.01218833314638218   -0.019280268576292503
-0.7845811540105587   0.01218833314638218   -0.019280268576292503
-0.7845811540105587   0.01218833314638218   -0.019280268576292503
-0.7845811540105587   0.01218833314638218   -0.019280268576292503
-1.403683227558402   -0.08053908154375247   0.013384158258944574
-1.403683227558402   -0.08053908154375247   0.013384158258944574
-1.403683227558402   -0.08053908154375247   0.013384158258944574
-1.403683227558402   -0.08053908154375247   0.013384158258944574
-1.3772911949368503   -0.08154929505829694   -0.06619861527825677
-1.3772911949368503   -0.08154929505829694   -0.06619861527825677
-1.3772911949368503   -0.08154929505829694   -0.06619861527825677
-1.3772911949368503   -0.08154929505829694   -0.06619861527825677
-0.725700060240124   0.09060028869156303   0.042881546531307574
-0.725700060240124   0.09060028869156303   0.042881546531307574
-0.725700060240124   0.09060028869156303   0.042881546531307574
-0.725700060240124   0.09060028869156303   0.042881546531307574
-1.0565433615082853   -0.007782401387422089   0.011893291095340125
-1.0565433615082853   -0.007782401387422089   0.011893291095340125
-1.0565433615082853   -0.007782401387422089   0.011893291095340125
-1.0565433615082853   -0.007782401387422089   0.011893291095340125
-0.7476217683148987   0.05199914357628643   -0.028125848727291278
-0.7476217683148987   0.05199914357628643   -0.028125848727291278
-0.7476217683148987   0.05199914357628643   -0.028125848727291278
-0.7476217683148987   0.05199914357628643   -0.028125848727291278
-1.3542320749987   -0.041810738079645304   0.00935842743384177
-1.3542320749987   -0.041810738079645304   0.00935842743384177
-1.3542320749987   -0.041810738079645304   0.00935842743384177
-1.3542320749987   -0.041810738079645304   0.00935842743384177
-1.3327422191432756   -0.03504934990121383   -0.06959479565698083
-1.3327422191432756   -0.03504934990121383   -0.06959479565698083
-1.3327422191432756   -0.03504934990121383   -0.06959479565698083
-1.3327422191432756   -0.03504934990121383   -0.06959479565698083
-0.6912898935929237   0.12866067296401162   0.03471957117112971
-0.6912898935929237   0.12866067296401162   0.03471957117112971
-0.6912898935929237   0.12866067296401162   0.03471957117112971
-0.6912898935929237   0.12866067296401162   0.03471957117112971
-1.02219611909848   0.0269363766927333   0.027753836547407373
-1.02219611909848   0.0269363766927333   0.027753836547407373
-1.02219611909848   0.0269363766927333   0.027753836547407373
-1.02219611909848   0.0269363766927333   0.027753836547407373
-1.4533939208657978   -0.06940147461645763   -0.05410283358603697
-1.4533939208657978   -0.06940147461645763   -0.05410283358603697
-1.4533939208657978   -0.06940147461645763   -0.05410283358603697
-1.4533939208657978   -0.06940147461645763   -0.05410283358603697
-2.070946710419182   -0.07460754864667779   0.09378590958137663
-2.070946710419182   -0.07460754864667779   0.09378590958137663
-2.070946710419182   -0.07460754864667779   0.09378590958137663
-2.070946710419182   -0.07460754864667779   0.09378590958137663
-2.0307876293914395   -0.14899788090050092   -0.07159506151387311
-2.0307876293914395   -0.14899788090050092   -0.07159506151387311
-2.0307876293914395   -0.14899788090050092   -0.07159506151387311
-2.0307876293914395   -0.14899788090050092   -0.07159506151387311
-1.3479930019864725   0.11600946003424678   0.09528674454057885
-1.3479930019864725   0.11600946003424678   0.09528674454057885
-1.3479930019864725   0.11600946003424678   0.09528674454057885
-1.3479930019864725   0.11600946003424678   0.09528674454057885
-1.6492555549727446   -0.020395432268129177   0.018997763218700794
-1.6492555549727446   -0.020395432268129177   0.018997763218700794
-1.6492555549727446   -0.020395432268129177   0.018997763218700794
-1.6492555549727446   -0.020395432268129177   0.018997763218700794
-1.4066557865567826   -0.0218800364051156   -0.06013768187160316
-1.4066557865567826   -0.0218800364051156   -0.06013768187160316
-1.4066557865567826   -0.0218800364051156   -0.06013768187160316
-1.4066557865567826   -0.0218800364051156   -0.06013768187160316
-1.9711757609699767   -0.010159300609987876   0.08762570030290985
-1.9711757609699767   -0.010159300609987876   0.08762570030290985
-1.9711757609699767   -0.010159300609987876   0.08762570030290985
-1.9711757609699767   -0.010159300609987876   0.08762570030290985
-1.955492590096274   -0.12237417598022238   -0.08430019246341658
-1.955492590096274   -0.12237417598022238   -0.08430019246341658
-1.955492590096274   -0.12237417598022238   -0.08430019246341658
-1.955492590096274   -0.12237417598022238   -0.08430019246341658
-1.306158159747483   0.13243356456700256   0.07548370104327937
-1.306158159747483   0.13243356456700256   0.07548370104327937
-1.306158159747483   0.13243356456700256   0.07548370104327937
-1.306158159747483   0.13243356456700256   0.07548370104327937
-1.6102212995642453   0.008656896107612388   0.034323430907618774
-1.6102212995642453   0.008656896107612388   0.034323430907618774
-1.6102212995642453   0.008656896107612388   0.034323430907618774
-1.6102212995642453   0.008656896107612388   0.034323430907618774
-1.3615051535540337   -0.00040015905298762533   -0.06841754436948333
-1.3615051535540337   -0.00040015905298762533   -0.06841754436948333
-1.3615051535540337   -0.00040015905298762533   -0.06841754436948333
-1.3615051535540337   -0.00040015905298762533   -0.06841754436948333
-1.8992035567678156   0.011401587161659954   0.06336921103696053
-1.8992035567678156   0.011401587161659954   0.06336921103696053
-1.8992035567678156   0.011401587161659954   0.06336921103696053
-1.8992035567678156   0.011401587161659954   0.06336921103696053
-1.87325102856803   -0.09034128590699969   -0.09603670308280603
-1.87325102856803   -0.09034128590699969   -0.09603670308280603
-1.87325102856803   -0.09034128590699969   -0.09603670308280603
-1.87325102856803   -0.09034128590699969   -0.09603670308280603
-1.2693650356075248   0.14795649099379382   0.06428528112676463
-1.2693650356075248   0.14795649099379382   0.06428528112676463
-1.2693650356075248   0.14795649099379382   0.06428528112676463
-1.2693650356075248   0.14795649099379382   0.06428528112676463
-1.527332570640247   0.032832085168430614   0.057431885644008196
-1.527332570640247   0.032832085168430614   0.057431885644008196
-1.527332570640247   0.032832085168430614   0.057431885644008196
-1.527332570640247   0.032832085168430614   0.057431885644008196
1.8268639485066305   0.13644996286840444   0.09701801967988914
1.8268639485066305   0.13644996286840444   0.09701801967988914
1.8268639485066305   0.13644996286840444   0.09701801967988914
1.8268639485066305   0.13644996286840444   0.09701801967988914
0.8062454788658187   -0.21559648705764128   -0.044481639561569364
0.8062454788658187   -0.21559648705764128   -0.044481639561569364
0.8062454788658187   -0.21559648705764128   -0.044481639561569364
0.8062454788658187   -0.21559648705764128   -0.044481639561569364
0.899341613034501   -0.03771627703622463   0.06667721479538853
0.899341613034501   -0.03771627703622463   0.06667721479538853
0.899341613034501   -0.03771627703622463   0.06667721479538853
0.899341613034501   -0.03771627703622463   0.06667721479538853
1.8472205349519322   -0.0038407224868433065   -0.06979038096147946
1.8472205349519322   -0.0038407224868433065   -0.06979038096147946
1.8472205349519322   -0.0038407224868433065   -0.06979038096147946
1.8472205349519322   -0.0038407224868433065   -0.06979038096147946
1.2661221493460555   -0.03856870188821099   -0.09919485359812448
1.2661221493460555   -0.03856870188821099   -0.09919485359812448
1.2661221493460555   -0.03856870188821099   -0.09919485359812448
1.2661221493460555   -0.03856870188821099   -0.09919485359812448
1.911713037325111   0.16765737212194126   0.08117403629560795
1.911713037325111   0.16765737212194126   0.08117403629560795
1.911713037325111   0.16765737212194126   0.08117403629560795
1.911713037325111   0.16765737212194126   0.08117403629560795
0.8410382352434337   -0.20302524706289946   -0.05953070413326175
0.8410382352434337   -0.20302524706289946   -0.05953070413326175
0.8410382352434337   -0.20302524706289946   -0.05953070413326175
0.8410382352434337   -0.20302524706289946   -0.05953070413326175
0.935825990746941   -0.018042717294301014   0.053924463350625666
0.935825990746941   -0.018042717294301014   0.053924463350625666
0.935825990746941   -0.018042717294301014   0.053924463350625666
0.935825990746941   -0.018042717294301014   0.053924463350625666
1.910860986439074   0.017860148725331537   -0.08725069889654906
1.910860986439074   0.017860148725331537   -0.08725069889654906
1.910860986439074   0.017860148725331537   -0.08725069889654906
1.910860986439074   0.017860148725331537   -0.08725069889654906
1.3459609572983917   -0.015359153865983688   -0.0674447581554153
1.3459609572983917   -0.015359153865983688   -0.0674447581554153
1.3459609572983917   -0.015359153865983688   -0.0674447581554153
1.3459609572983917   -0.015359153865983688   -0.0674447581554153
1.974982829267772   0.19103957544516212   0.0601790885271102
1.974982829267772   0.19103957544516212   0.0601790885271102
1.974982829267772   0.19103957544516212   0.0601790885271102
1.974982829267772   0.19103957544516212   0.0601790885271102
0.8771255176233921   -0.1858007743089825   -0.07181984525243744
0.8771255176233921   -0.1858007743089825   -0.07181984525243744
0.8771255176233921   -0.1858007743089825   -0.07181984525243744
0.8771255176233921   -0.1858007743089825   -0.07181984525243744
0.9688662941806301   0.03447787267778463   0.04727710868138224
0.9688662941806301   0.03447787267778463   0.04727710868138224
0.9688662941806301   0.03447787267778463   0.04727710868138224
0.9688662941806301   0.03447787267778463   0.04727710868138224
1.9891201101071476   0.08133968022970389   -0.0913866821016926
1.9891201101071476   0.08133968022970389   -0.0913866821016926
1.9891201101071476   0.08133968022970389   -0.0913866821016926
1.9891201101071476   0.08133968022970389   -0.0913866821016926
1.3759703888915735   0.015858209187757877   -0.04544093375676238
1.3759703888915735   0.015858209187757877   -0.04544093375676238
1.3759703888915735   0.015858209187757877   -0.04544093375676238
1.3759703888915735   0.015858209187757877   -0.04544093375676238
0.8919269465076836   0.07965972891069678   0.08866948267940933
0.8919269465076836   0.07965972891069678   0.08866948267940933
0.8919269465076836   0.07965972891069678   0.08866948267940933
0.8919269465076836   0.07965972891069678   0.08866948267940933
-0.10948310540780093   -0.26582474832937164   -0.025303142668957466
-0.10948310540780093   -0.26582474832937164   -0.025303142668957466
-0.10948310540780093   -0.26582474832937164   -0.025303142668957466
-0.10948310540780093   -0.26582474832937164   -0.025303142668957466
-0.02922088619445657   -0.09364935585022596   0.022641255474965587
-0.02922088619445657   -0.09364935585022596   0.022641255474965587
-0.02922088619445657   -0.09364935585022596   0.022641255474965587
-0.02922088619445657   -0.09364935585022596   0.022641255474965587
0.8844710021249361   -0.049729066075368755   0.004336949286708636
0.8844710021249361   -0.049729066075368755   0.004336949286708636
0.8844710021249361   -0.049729066075368755   0.004336949286708636
0.8844710021249361   -0.049729066075368755   0.004336949286708636
0.39833346941843434   -0.07430044645162073   -0.0473626070782067
0.39833346941843434   -0.07430044645162073   -0.0473626070782067
0.39833346941843434   -0.07430044645162073   -0.0473626070782067
0.39833346941843434   -0.07430044645162073   -0.0473626070782067
0.9311755780234537   0.10960653203262569   0.07852423067131356
0.9311755780234537   0.10960653203262569   0.07852423067131356
0.9311755780234537   0.10960653203262569   0.07852423067131356
0.9311755780234537   0.10960653203262569   0.07852423067131356
-0.0726722755843   -0.24973176744954437   -0.0385332798749332
-0.0726722755843   -0.24973176744954437   -0.0385332798749332
-0.0726722755843   -0.24973176744954437   -0.0385332798749332
-0.0726722755843   -0.24973176744954437   -0.0385332798749332
0.007987598141966114   -0.05847150641678601   0.01384402773844631
0.007987598141966114   -0.05847150641678601   0.01384402773844631
0.007987598141966114   -0.05847150641678601   0.01384402773844631
0.007987598141966114   -0.05847150641678601   0.01384402773844631
0.9225552509891606   -0.023208084300866932   -0.007263868431710632
0.9225552509891606   -0.023208084300866932   -0.007263868431710632
0.9225552509891606   -0.023208084300866932   -0.007263868431710632
0.9225552509891606   -0.023208084300866932   -0.007263868431710632
0.430684818206353   -0.05270921570438185   -0.030718355455556748
0.430684818206353   -0.05270921570438185   -0.030718355455556748
0.430684818206353   -0.05270921570438185   -0.030718355455556748
0.430684818206353   -0.05270921570438185   -0.030718355455556748
0.9717691694054261   0.14552960846497237   0.07006803088377826
0.9717691694054261   0.14552960846497237   0.07006803088377826
0.9717691694054261   0.14552960846497237   0.07006803088377826
0.9717691694054261   0.14552960846497237   0.07006803088377826
-0.03929863450753708   -0.2252815134158629   -0.05577712850999278
-0.03929863450753708   -0.2252815134158629   -0.05577712850999278
-0.03929863450753708   -0.2252815134158629   -0.05577712850999278
-0.03929863450753708   -0.2252815134158629   -0.05577712850999278
0.03719022321111801   -0.01730870579708866   0.004948526934779729
0.03719022321111801   -0.01730870579708866   0.004948526934779729
0.03719022321111801   -0.01730870579708866   0.004948526934779729
0.03719022321111801   -0.01730870579708866   0.004948526934779729
0.9510844599892204   0.010594760266325415   -0.017748949864210183
0.9510844599892204   0.010594760266325415   -0.017748949864210183
0.9510844599892204   0.010594760266325415   -0.017748949864210183
0.9510844599892204   0.010594760266325415   -0.017748949864210183
0.4702254961663165   -0.02042814522011982   -0.01288417138653963
0.4702254961663165   -0.02042814522011982   -0.01288417138653963
0.4702254961663165   -0.02042814522011982   -0.01288417138653963
0.4702254961663165   -0.02042814522011982   -0.01288417138653963
-0.0380406677465556   0.022064272477755463   0.044020024830142064
-0.0380406677465556   0.022064272477755463   0.044020024830142064
-0.0380406677465556   0.022064272477755463   0.044020024830142064
-0.0380406677465556   0.022064272477755463   0.044020024830142064
-1.0181789841062743   -0.3338022170582558   -0.020400516113862906
-1.0181789841062743   -0.3338022170582558   -0.020400516113862906
-1.0181789841062743   -0.3338022170582558   -0.020400516113862906
-1.0181789841062743   -0.3338022170582558   -0.020400516113862906
-0.9368877698838145   -0.1437053269963111   -0.021408676035803986
-0.9368877698838145   -0.1437053269963111   -0.021408676035803986
-0.9368877698838145   -0.1437053269963111   -0.021408676035803986
-0.9368877698838145   -0.1437053269963111   -0.021408676035803986
-0.034171837931369124   -0.11557243296002197   0.01980957390019883
-0.034171837931369124   -0.11557243296002197   0.01980957390019883
-0.034171837931369124   -0.11557243296002197   0.01980957390019883
-0.034171837931369124   -0.11557243296002197   0.01980957390019883
-0.5091420493498334   -0.13510500525122787   -0.04233325562703087
-0.5091420493498334   -0.13510500525122787   -0.04233325562703087
-0.5091420493498334   -0.13510500525122787   -0.04233325562703087
-0.5091420493498334   -0.13510500525122787   -0.04233325562703087
0.003282696417612474   0.05576038667346004   0.03574942601162479
0.003282696417612474   0.05576038667346004   0.03574942601162479
0.003282696417612474   0.05576038667346004   0.03574942601162479
0.003282696417612474   0.05576038667346004   0.03574942601162479
-0.9719961699677722   -0.3126920123647692   -0.027963991087134342
-0.9719961699677722   -0.3126920123647692   -0.027963991087134342
-0.9719961699677722   -0.3126920123647692   -0.027963991087134342
-0.9719961699677722   -0.3126920123647692   -0.027963991087134342
-0.8907444924664816   -0.10464755242220204   -0.029176908136716948
-0.8907444924664816   -0.10464755242220204   -0.029176908136716948
-0.8907444924664816   -0.10464755242220204   -0.029176908136716948
-0.8907444924664816   -0.10464755242220204   -0.029176908136716948
0.0005003799779857605   -0.0900926451880619   0.008029075689820444
0.0005003799779857605   -0.0900926451880619   0.008029075689820444
0.0005003799779857605   -0.0900926451880619   0.008029075689820444
0.0005003799779857605   -0.0900926451880619   0.008029075689820444
-0.46434832640598217   -0.107037823218396   -0.023538032954650828
-0.46434832640598217   -0.107037823218396   -0.023538032954650828
-0.46434832640598217   -0.107037823218396   -0.023538032954650828
-0.46434832640598217   -0.107037823218396   -0.023538032954650828
0.041100368516929706   0.09312006336759938   0.027816309828878907
0.041100368516929706   0.09312006336759938   0.027816309828878907
0.041100368516929706   0.09312006336759938   0.027816309828878907
0.041100368516929706   0.09312006336759938   0.027816309828878907
-0.9313774227204262   -0.28789320269286306   -0.04909590913577343
-0.9313774227204262   -0.28789320269286306   -0.04909590913577343
-0.9313774227204262   -0.28789320269286306   -0.04909590913577343
-0.9313774227204262   -0.28789320269286306   -0.04909590913577343
-0.8581409243558635   -0.06742887190337007   -0.037868543954934594
-0.8581409243558635   -0.06742887190337007   -0.037868543954934594
-0.8581409243558635   -0.06742887190337007   -0.037868543954934594
-0.8581409243558635   -0.06742887190337007   -0.037868543954934594
0.023278133553737188   -0.06976262911220646   -0.01215799803700664
0.023278133553737188   -0.06976262911220646   -0.01215799803700664
0.023278133553737188   -0.06976262911220646   -0.01215799803700664
0.023278133553737188   -0.06976262911220646   -0.01215799803700664
-0.4314889120433471   -0.08087637982195009   -0.011793156489833607
-0.4314889120433471   -0.08087637982195009   -0.011793156489833607
-0.4314889120433471   -0.08087637982195009   -0.011793156489833607
-0.4314889120433471   -0.08087637982195009   -0.011793156489833607
-0.953205613562262   -0.027837250899863386   -0.0014986295522039367
-0.953205613562262   -0.027837250899863386   -0.0014986295522039367
-0.953205613562262   -0.027837250899863386   -0.0014986295522039367
-0.953205613562262   -0.027837250899863386   -0.0014986295522039367
-1.9308929361458056   -0.3588774098475801   -0.016455134421828138
-1.9308929361458056   -0.3588774098475801   -0.016455134421828138
-1.9308929361458056   -0.3588774098475801   -0.016455134421828138
-1.9308929361458056   -0.3588774098475801   -0.016455134421828138
-1.8434921993422164   -0.18393823431229225   -0.06380263379987847
-1.8434921993422164   -0.18393823431229225   -0.06380263379987847
-1.8434921993422164   -0.18393823431229225   -0.06380263379987847
-1.8434921993422164   -0.18393823431229225   -0.06380263379987847
-0.9194530725005123   -0.12003802144545982   0.04209750532984789
-0.9194530725005123   -0.12003802144545982   0.04209750532984789
-0.9194530725005123   -0.12003802144545982   0.04209750532984789
-0.9194530725005123   -0.12003802144545982   0.04209750532984789
-1.39936890332315   -0.16231948104359192   -0.029851391961269978
-1.39936890332315   -0.16231948104359192   -0.029851391961269978
-1.39936890332315   -0.16231948104359192   -0.029851391961269978
-1.39936890332315   -0.16231948104359192   -0.029851391961269978
-0.9022326788756703   0.015588739118926859   -0.00742728711032891
-0.9022326788756703   0.015588739118926859   -0.00742728711032891
-0.9022326788756703   0.015588739118926859   -0.00742728711032891
-0.9022326788756703   0.015588739118926859   -0.00742728711032891
-1.8614855576466403   -0.3203379595562584   -0.017369700078017098
-1.8614855576466403   -0.3203379595562584   -0.017369700078017098
-1.8614855576466403   -0.3203379595562584   -0.017369700078017098
-1.8614855576466403   -0.3203379595562584   -0.017369700078017098
-1.7775599072252324   -0.14312985654672328   -0.07390933267501568
-1.7775599072252324   -0.14312985654672328   -0.07390933267501568
-1.7775599072252324   -0.14312985654672328   -0.07390933267501568
-1.7775599072252324   -0.14312985654672328   -0.07390933267501568
-0.8746207811166257   -0.08937949413806849   0.036173590328435104
-0.8746207811166257   -0.08937949413806849   0.036173590328435104
-0.8746207811166257   -0.08937949413806849   0.036173590328435104
-0.8746207811166257   -0.08937949413806849   0.036173590328435104
-1.3316576481126856   -0.12316920083337038   -0.009870421300374403
-1.3316576481126856   -0.12316920083337038   -0.009870421300374403
-1.3316576481126856   -0.12316920083337038   -0.009870421300374403
-1.3316576481126856   -0.12316920083337038   -0.009870421300374403
-0.8559747207468191   0.05331160574320032   -0.013287207703810866
-0.8559747207468191   0.05331160574320032   -0.013287207703810866
-0.8559747207468191   0.05331160574320032   -0.013287207703810866
-0.8559747207468191   0.05331160574320032   -0.013287207703810866
-1.7994080393514988   -0.2890230281844515   -0.03725682166860676
-1.7994080393514988   -0.2890230281844515   -0.03725682166860676
-1.7994080393514988   -0.2890230281844515   -0.03725682166860676
-1.7994080393514988   -0.2890230281844515   -0.03725682166860676
-1.7240194597628444   -0.10007972383835667   -0.07625284667072939
-1.7240194597628444   -0.10007972383835667   -0.07625284667072939
-1.7240194597628444   -0.10007972383835667   -0.07625284667072939
-1.7240194597628444   -0.10007972383835667   -0.07625284667072939
-0.8488573294338247   -0.06988849275685195   0.011009051508749115
-0.8488573294338247   -0.06988849275685195   0.011009051508749115
-0.8488573294338247   -0.06988849275685195   0.011009051508749115
-0.8488573294338247   -0.06988849275685195   0.011009051508749115
-1.2941777891151223   -0.09929276794306227   -0.003362892084427048
-1.2941777891151223   -0.09929276794306227   -0.003362892084427048
-1.2941777891151223   -0.09929276794306227   -0.003362892084427048
-1.2941777891151223   -0.09929276794306227   -0.003362892084427048
-1.877999345754383   -0.06412348007704377   -0.04674111223525211
-1.877999345754383   -0.06412348007704377   -0.04674111223525211
-1.877999345754383   -0.06412348007704377   -0.04674111223525211
-1.877999345754383   -0.06412348007704377   -0.04674111223525211
-2.8316876161292717   -0.24222043547497207   0.10753397936592857
-2.8316876161292717   -0.24222043547497207   0.10753397936592857
-2.8316876161292717   -0.24222043547497207   0.10753397936592857
-2.8316876161292717   -0.24222043547497207   0.10753397936592857
-2.7339377761717105   -0.1927239609154821   -0.062435586022889136
-2.7339377761717105   -0.1927239609154821   -0.062435586022889136
-2.7339377761717105   -0.1927239609154821   -0.062435586022889136
-2.7339377761717105   -0.1927239609154821   -0.062435586022889136
-1.7641178043923629   0.050379777282255844   0.09875132935482608
-1.7641178043923629   0.050379777282255844   0.09875132935482608
-1.7641178043923629   0.050379777282255844   0.09875132935482608
-1.7641178043923629   0.050379777282255844   0.09875132935482608
-2.198998883227888   -0.0761390439990085   0.010268905094860503
-2.198998883227888   -0.0761390439990085   0.010268905094860503
-2.198998883227888   -0.0761390439990085   0.010268905094860503
-2.198998883227888   -0.0761390439990085   0.010268905094860503
-1.8052768809100903   -0.004864599874082776   -0.05179967607745077
-1.8052768809100903   -0.004864599874082776   -0.05179967607745077
-1.8052768809100903   -0.004864599874082776   -0.05179967607745077
-1.8052768809100903   -0.004864599874082776   -0.05179967607745077
-2.686138621181636   -0.13083950528680344   0.11467573329880312
-2.686138621181636   -0.13083950528680344   0.11467573329880312
-2.686138621181636   -0.13083950528680344   0.11467573329880312
-2.686138621181636   -0.13083950528680344   0.11467573329880312
-2.629109157142144   -0.1621241655026069   -0.07435395191004585
-2.629109157142144   -0.1621241655026069   -0.07435395191004585
-2.629109157142144   -0.1621241655026069   -0.07435395191004585
-2.629109157142144   -0.1621241655026069   -0.07435395191004585
-1.6988912178705406   0.0809062481360544   0.09539800941566542
-1.6988912178705406   0.0809062481360544   0.09539800941566542
-1.6988912178705406   0.0809062481360544   0.09539800941566542
-1.6988912178705406   0.0809062481360544   0.09539800941566542
-2.1368886020188285   -0.030716527200981503   0.04372760594651234
-2.1368886020188285   -0.030716527200981503   0.04372760594651234
-2.1368886020188285   -0.030716527200981503   0.04372760594651234
-2.1368886020188285   -0.030716527200981503   0.04372760594651234
-1.7415202308794966   0.019080207194445642   -0.055921014687491694
-1.7415202308794966   0.019080207194445642   -0.055921014687491694
-1.7415202308794966   0.019080207194445642   -0.055921014687491694
-1.7415202308794966   0.019080207194445642   -0.055921014687491694
-2.585152453058121   -0.09897043348591228   0.08227583649335074
-2.585152453058121   -0.09897043348591228   0.08227583649335074
-2.585152453058121   -0.09897043348591228   0.08227583649335074
-2.585152453058121   -0.09897043348591228   0.08227583649335074
-2.5207193676087716   -0.1331398805671965   -0.08984224467700194
-2.5207193676087716   -0.1331398805671965   -0.08984224467700194
-2.5207193676087716   -0.1331398805671965   -0.08984224467700194
-2.5207193676087716   -0.1331398805671965   -0.08984224467700194
-1.650470038156693   0.11756596109535578   0.0738485764263159
-1.650470038156693   0.11756596109535578   0.0738485764263159
-1.650470038156693   0.11756596109535578   0.0738485764263159
-1.650470038156693   0.11756596109535578   0.0738485764263159
-2.0204745589030932   0.008141857756119919   0.07717193549618064
-2.0204745589030932   0.008141857756119919   0.07717193549618064
-2.0204745589030932   0.008141857756119919   0.07717193549618064
-2.0204745589030932   0.008141857756119919   0.07717193549618064
2.496602476613603   0.14952299039361872   0.09075874994694633
2.496602476613603   0.14952299039361872   0.09075874994694633
2.496602476613603   0.14952299039361872   0.09075874994694633
2.496602476613603   0.14952299039361872   0.09075874994694633
1.190644717601121   -0.22328594994361506   0.02056463803368197
1.190644717601121   -0.22328594994361506   0.02056463803368197
1.190644717601121   -0.22328594994361506   0.02056463803368197
1.190644717601121   -0.22328594994361506   0.02056463803368197
1.2565780336512373   -0.09403157582633109   0.06989785364177639
1.2565780336512373   -0.09403157582633109   0.06989785364177639
1.2565780336512373   -0.09403157582633109   0.06989785364177639
1.2565780336512373   -0.09403157582633109   0.06989785364177639
2.5099018093078915   0.020812512878204847   -0.019978599243877904
2.5099018093078915   0.020812512878204847   -0.019978599243877904
2.5099018093078915   0.020812512878204847   -0.019978599243877904
2.5099018093078915   0.020812512878204847   -0.019978599243877904
1.7555582149197235   -0.04811197955959684   -0.11682886506435236
1.7555582149197235   -0.04811197955959684   -0.11682886506435236
1.7555582149197235   -0.04811197955959684   -0.11682886506435236
1.7555582149197235   -0.04811197955959684   -0.11682886506435236
2.5573940075304837   0.16650919097551686   0.07178571377176993
2.5573940075304837   0.16650919097551686   0.07178571377176993
2.5573940075304837   0.16650919097551686   0.07178571377176993
2.5573940075304837   0.16650919097551686   0.07178571377176993
1.2204986328379412   -0.22831545651434726   0.023784730263312265
1.2204986328379412   -0.22831545651434726   0.023784730263312265
1.2204986328379412   -0.22831545651434726   0.023784730263312265
1.2204986328379412   -0.22831545651434726   0.023784730263312265
1.2816099203309754   -0.07989811276834707   0.05320905974315636
1.2816099203309754   -0.07989811276834707   0.05320905974315636
1.2816099203309754   -0.07989811276834707   0.05320905974315636
1.2816099203309754   -0.07989811276834707   0.05320905974315636
2.5540546641313373   0.03675662681456404   -0.005894439257278505
2.5540546641313373   0.03675662681456404   -0.005894439257278505
2.5540546641313373   0.03675662681456404   -0.005894439257278505
2.5540546641313373   0.03675662681456404   -0.005894439257278505
1.8281496002740105   -0.03808427441758172   -0.07976201162835928
1.8281496002740105   -0.03808427441758172   -0.07976201162835928
1.8281496002740105   -0.03808427441758172   -0.07976201162835928
1.8281496002740105   -0.03808427441758172   -0.07976201162835928
2.594218988202023   0.18193220869947863   0.049751599211237466
2.594218988202023   0.18193220869947863   0.049751599211237466
2.594218988202023   0.18193220869947863   0.049751599211237466
2.594218988202023   0.18193220869947863   0.049751599211237466
1.2493851449049984   -0.2171341460085529   0.029321215853475358
1.2493851449049984   -0.2171341460085529   0.029321215853475358
1.2493851449049984   -0.2171341460085529   0.029321215853475358
1.2493851449049984   -0.2171341460085529   0.029321215853475358
1.3184233553784814   -0.024794123816266056   0.04864105239712374
1.3184233553784814   -0.024794123816266056   0.04864105239712374
1.3184233553784814   -0.024794123816266056   0.04864105239712374
1.3184233553784814   -0.024794123816266056   0.04864105239712374
2.599935539869085   0.07319592922090157   -0.0007306320432464153
2.599935539869085   0.07319592922090157   -0.0007306320432464153
2.599935539869085   0.07319592922090157   -0.0007306320432464153
2.599935539869085   0.07319592922090157   -0.0007306320432464153
1.8373214456161617   -0.01766704291044774   -0.05955300869802643
1.8373214456161617   -0.01766704291044774   -0.05955300869802643
1.8373214456161617   -0.01766704291044774   -0.05955300869802643
1.8373214456161617   -0.01766704291044774   -0.05955300869802643
1.2564658286931125   0.03141876311217301   0.09496548043785226
1.2564658286931125   0.03141876311217301   0.09496548043785226
1.2564658286931125   0.03141876311217301   0.09496548043785226
1.2564658286931125   0.03141876311217301   0.09496548043785226
0.06727986544027911   -0.4454178378687025   0.045962032144250375
0.06727986544027911   -0.4454178378687025   0.045962032144250375
0.06727986544027911   -0.4454178378687025   0.045962032144250375
0.06727986544027911   -0.4454178378687025   0.045962032144250375
0.1532969570913746   -0.18827885525007543   0.042762048446736894
0.1532969570913746   -0.18827885525007543   0.042762048446736894
0.1532969570913746   -0.18827885525007543   0.042762048446736894
0.1532969570913746   -0.18827885525007543   0.042762048446736894
1.2241666294607376   -0.21509746127616325   0.0289067181390949
1.2241666294607376   -0.21509746127616325   0.0289067181390949
1.2241666294607376   -0.21509746127616325   0.0289067181390949
1.2241666294607376   -0.21509746127616325   0.0289067181390949
0.6533360166740447   -0.2000266144198715   -0.07486720323344603
0.6533360166740447   -0.2000266144198715   -0.07486720323344603
0.6533360166740447   -0.2000266144198715   -0.07486720323344603
0.6533360166740447   -0.2000266144198715   -0.07486720323344603
1.2863875428404228   0.04564134746888532   0.07927247629249232
1.2863875428404228   0.04564134746888532   0.07927247629249232
1.2863875428404228   0.04564134746888532   0.07927247629249232
1.2863875428404228   0.04564134746888532   0.07927247629249232
0.10750035817365347   -0.4325933495331566   0.05809354814121229
0.10750035817365347   -0.4325933495331566   0.05809354814121229
0.10750035817365347   -0.4325933495331566   0.05809354814121229
0.10750035817365347   -0.4325933495331566   0.05809354814121229
0.1879138627289647   -0.16247659167816483   0.03103498294199565
0.1879138627289647   -0.16247659167816483   0.03103498294199565
0.1879138627289647   -0.16247659167816483   0.03103498294199565
0.1879138627289647   -0.16247659167816483   0.03103498294199565
1.2537818708372543   -0.2016114747165339   0.03578217422273758
1.2537818708372543   -0.2016114747165339   0.03578217422273758
1.2537818708372543   -0.2016114747165339   0.03578217422273758
1.2537818708372543   -0.2016114747165339   0.03578217422273758
0.6828380397682934   -0.19017101793446461   -0.0374319132859717
0.6828380397682934   -0.19017101793446461   -0.0374319132859717
0.6828380397682934   -0.19017101793446461   -0.0374319132859717
0.6828380397682934   -0.19017101793446461   -0.0374319132859717
1.3142888247267717   0.06994374826979632   0.06676172068399429
1.3142888247267717   0.06994374826979632   0.06676172068399429
1.3142888247267717   0.06994374826979632   0.06676172068399429
1.3142888247267717   0.06994374826979632   0.06676172068399429
0.14321116998218109   -0.41822755352176066   0.06327248105167707
0.14321116998218109   -0.41822755352176066   0.06327248105167707
0.14321116998218109   -0.41822755352176066   0.06327248105167707
0.14321116998218109   -0.41822755352176066   0.06327248105167707
0.24102378816788358   -0.12374880456609078   0.020593897795045772
0.24102378816788358   -0.12374880456609078   0.020593897795045772
0.24102378816788358   -0.12374880456609078   0.020593897795045772
0.24102378816788358   -0.12374880456609078   0.020593897795045772
1.286212803415812   -0.18109950665819496   0.04389367542570892
1.286212803415812   -0.18109950665819496   0.04389367542570892
1.286212803415812   -0.18109950665819496   0.04389367542570892
1.286212803415812   -0.18109950665819496   0.04389367542570892
0.7344470298751238   -0.1662597317675196   0.0061198120257056066
0.7344470298751238   -0.1662597317675196   0.0061198120257056066
0.7344470298751238   -0.1662597317675196   0.0061198120257056066
0.7344470298751238   -0.1662597317675196   0.0061198120257056066
0.14232117150136514   -0.08539328149814332   0.061144006079121405
0.14232117150136514   -0.08539328149814332   0.061144006079121405
0.14232117150136514   -0.08539328149814332   0.061144006079121405
0.14232117150136514   -0.08539328149814332   0.061144006079121405
-1.0655143796675548   -0.7655740975093903   0.06642106720976473
-1.0655143796675548   -0.7655740975093903   0.06642106720976473
-1.0655143796675548   -0.7655740975093903   0.06642106720976473
-1.0655143796675548   -0.7655740975093903   0.06642106720976473
-0.9294392145219726   -0.29767317376588825   0.004573246461470927
-0.9294392145219726   -0.29767317376588825   0.004573246461470927
-0.9294392145219726   -0.29767317376588825   0.004573246461470927
-0.9294392145219726   -0.29767317376588825   0.004573246461470927
0.07579127519939516   -0.5581609149442083   0.025115698680972437
0.07579127519939516   -0.5581609149442083   0.025115698680972437
0.07579127519939516   -0.5581609149442083   0.025115698680972437
0.07579127519939516   -0.5581609149442083   0.025115698680972437
-0.4582226142448282   -0.42976978673406   -0.08984505140750558
-0.4582226142448282   -0.42976978673406   -0.08984505140750558
-0.4582226142448282   -0.42976978673406   -0.08984505140750558
-0.4582226142448282   -0.42976978673406   -0.08984505140750558
0.17856911732950473   -0.06734779817535379   0.04819179256266586
0.17856911732950473   -0.06734779817535379   0.04819179256266586
0.17856911732950473   -0.06734779817535379   0.04819179256266586
0.17856911732950473   -0.06734779817535379   0.04819179256266586
-1.0084743435787162   -0.7647435774613754   0.07646800487324804
-1.0084743435787162   -0.7647435774613754   0.07646800487324804
-1.0084743435787162   -0.7647435774613754   0.07646800487324804
-1.0084743435787162   -0.7647435774613754   0.07646800487324804
-0.8769566649158166   -0.2671597987766215   0.0001503526408863226
-0.8769566649158166   -0.2671597987766215   0.0001503526408863226
-0.8769566649158166   -0.2671597987766215   0.0001503526408863226
-0.8769566649158166   -0.2671597987766215   0.0001503526408863226
0.1122760163164569   -0.5459984920625907   0.036367651263886164
0.1122760163164569   -0.5459984920625907   0.036367651263886164
0.1122760163164569   -0.5459984920625907   0.036367651263886164
0.1122760163164569   -0.5459984920625907   0.036367651263886164
-0.40509002009217476   -0.41520848192810705   -0.03356938808372234
-0.40509002009217476   -0.41520848192810705   -0.03356938808372234
-0.40509002009217476   -0.41520848192810705   -0.03356938808372234
-0.40509002009217476   -0.41520848192810705   -0.03356938808372234
0.21170808407162645   -0.04329251659322432   0.03082201457036764
0.21170808407162645   -0.04329251659322432   0.03082201457036764
0.21170808407162645   -0.04329251659322432   0.03082201457036764
0.21170808407162645   -0.04329251659322432   0.03082201457036764
-0.9549342808041481   -0.7484113223791475   0.09151379680176827
-0.9549342808041481   -0.7484113223791475   0.09151379680176827
-0.9549342808041481   -0.7484113223791475   0.09151379680176827
-0.9549342808041481   -0.7484113223791475   0.09151379680176827
-0.7903576057119583   -0.23200087333025593   -0.009713479861558405
-0.7903576057119583   -0.23200087333025593   -0.009713479861558405
-0.7903576057119583   -0.23200087333025593   -0.009713479861558405
-0.7903576057119583   -0.23200087333025593   -0.009713479861558405
0.16923601144491965   -0.5118472920287043   0.04975350164283607
0.16923601144491965   -0.5118472920287043   0.04975350164283607
0.16923601144491965   -0.5118472920287043   0.04975350164283607
0.16923601144491965   -0.5118472920287043   0.04975350164283607
-0.336110767995525   -0.3824391375737612   0.02539834456678991
-0.336110767995525   -0.3824391375737612   0.02539834456678991
-0.336110767995525   -0.3824391375737612   0.02539834456678991
-0.336110767995525   -0.3824391375737612   0.02539834456678991
-0.9505964350126455   -0.1536997867846663   0.029136479759580752
-0.9505964350126455   -0.1536997867846663   0.029136479759580752
-0.9505964350126455   -0.1536997867846663   0.029136479759580752
-0.9505964350126455   -0.1536997867846663   0.029136479759580752
-2.3728914668473884   -1.192394572615527   -0.05663595387050757
-2.3728914668473884   -1.192394572615527   -0.05663595387050757
-2.3728914668473884   -1.192394572615527   -0.05663595387050757
-2.3728914668473884   -1.192394572615527   -0.05663595387050757
-2.1482384386725433   -0.3873378607680911   -0.06561632511127787
-2.1482384386725433   -0.3873378607680911   -0.06561632511127787
-2.1482384386725433   -0.3873378607680911   -0.06561632511127787
-2.1482384386725433   -0.3873378607680911   -0.06561632511127787
-1.0664066925034759   -0.9977456177969932   0.01980830058505917
-1.0664066925034759   -0.9977456177969932   0.01980830058505917
-1.0664066925034759   -0.9977456177969932   0.01980830058505917
-1.0664066925034759   -0.9977456177969932   0.01980830058505917
-1.6326692920176589   -0.705244871685832   -0.0943279984541167
-1.6326692920176589   -0.705244871685832   -0.0943279984541167
-1.6326692920176589   -0.705244871685832   -0.0943279984541167
-1.6326692920176589   -0.705244871685832   -0.0943279984541167
-0.8885750496878638   -0.1166981154797286   0.02791901234585546
-0.8885750496878638   -0.1166981154797286   0.02791901234585546
-0.8885750496878638   -0.1166981154797286   0.02791901234585546
-0.8885750496878638   -0.1166981154797286   0.02791901234585546
-2.3207788245036727   -1.263094106100863   -0.052562008934154275
-2.3207788245036727   -1.263094106100863   -0.052562008934154275
-2.3207788245036727   -1.263094106100863   -0.052562008934154275
-2.3207788245036727   -1.263094106100863   -0.052562008934154275
-2.0784265519573744   -0.35074315393509153   -0.0668389378159313
-2.0784265519573744   -0.35074315393509153   -0.0668389378159313
-2.0784265519573744   -0.35074315393509153   -0.0668389378159313
-2.0784265519573744   -0.35074315393509153   -0.0668389378159313
-1.0155622597927088   -0.9900304647024297   0.029993044182237916
-1.0155622597927088   -0.9900304647024297   0.029993044182237916
-1.0155622597927088   -0.9900304647024297   0.029993044182237916
-1.0155622597927088   -0.9900304647024297   0.029993044182237916
-1.5594942258723516   -0.6863236842765019   -0.06638448517112604
-1.5594942258723516   -0.6863236842765019   -0.06638448517112604
-1.5594942258723516   -0.6863236842765019   -0.06638448517112604
-1.5594942258723516   -0.6863236842765019   -0.06638448517112604
-0.8392085952189516   -0.08765466212875199   0.009385564477343723
-0.8392085952189516   -0.08765466212875199   0.009385564477343723
-0.8392085952189516   -0.08765466212875199   0.009385564477343723
-0.8392085952189516   -0.08765466212875199   0.009385564477343723
-2.2547524351359853   -1.2530911751136098   -0.046120332530448144
-2.2547524351359853   -1.2530911751136098   -0.046120332530448144
-2.2547524351359853   -1.2530911751136098   -0.046120332530448144
-2.2547524351359853   -1.2530911751136098   -0.046120332530448144
-1.969571737637213   -0.3113855998302617   -0.07576207565491161
-1.969571737637213   -0.3113855998302617   -0.07576207565491161
-1.969571737637213   -0.3113855998302617   -0.07576207565491161
-1.969571737637213   -0.3113855998302617   -0.07576207565491161
-0.9055686940544222   -0.8906991446097204   0.07292934970559811
-0.9055686940544222   -0.8906991446097204   0.07292934970559811
-0.9055686940544222   -0.8906991446097204   0.07292934970559811
-0.9055686940544222   -0.8906991446097204   0.07292934970559811
-1.4777930106242285   -0.6223696663822362   -0.03720343203138475
-1.4777930106242285   -0.6223696663822362   -0.03720343203138475
-1.4777930106242285   -0.6223696663822362   -0.03720343203138475
-1.4777930106242285   -0.6223696663822362   -0.03720343203138475
-2.152286727651717   -0.13087368312848513   -0.015133147379191358
-2.152286727651717   -0.13087368312848513   -0.015133147379191358
-2.152286727651717   -0.13087368312848513   -0.015133147379191358
-2.152286727651717   -0.13087368312848513   -0.015133147379191358
-3.800375314729642   -0.7523267317232081   0.038741656113601586
-3.800375314729642   -0.7523267317232081   0.038741656113601586
-3.800375314729642   -0.7523267317232081   0.038741656113601586
-3.800375314729642   -0.7523267317232081   0.038741656113601586
-3.6504383209669333   -0.3626968820884846   -0.08031145092430556
-3.6504383209669333   -0.3626968820884846   -0.08031145092430556
-3.6504383209669333   -0.3626968820884846   -0.08031145092430556
-3.6504383209669333   -0.3626968820884846   -0.08031145092430556
-2.103935875545719   -0.38922954096516416   0.15778817071989815
-2.103935875545719   -0.38922954096516416   0.15778817071989815
-2.103935875545719   -0.38922954096516416   0.15778817071989815
-2.103935875545719   -0.38922954096516416   0.15778817071989815
-2.808150845808717   -0.43654549690894606   0.04048470831891296
-2.808150845808717   -0.43654549690894606   0.04048470831891296
-2.808150845808717   -0.43654549690894606   0.04048470831891296
-2.808150845808717   -0.43654549690894606   0.04048470831891296
-2.0633728695373175   -0.02912230804862559   0.0004959678453740068
-2.0633728695373175   -0.02912230804862559   0.0004959678453740068
-2.0633728695373175   -0.02912230804862559   0.0004959678453740068
-2.0633728695373175   -0.02912230804862559   0.0004959678453740068
-3.705338678960957   -0.7371414669906491   0.01963134400771116
-3.705338678960957   -0.7371414669906491   0.01963134400771116
-3.705338678960957   -0.7371414669906491   0.01963134400771116
-3.705338678960957   -0.7371414669906491   0.01963134400771116
-3.567671281689442   -0.3323145271457689   -0.10192580317455027
-3.567671281689442   -0.3323145271457689   -0.10192580317455027
-3.567671281689442   -0.3323145271457689   -0.10192580317455027
-3.567671281689442   -0.3323145271457689   -0.10192580317455027
-2.0320633214560946   -0.36963821011678333   0.18387227087217806
-2.0320633214560946   -0.36963821011678333   0.18387227087217806
-2.0320633214560946   -0.36963821011678333   0.18387227087217806
-2.0320633214560946   -0.36963821011678333   0.18387227087217806
-2.7643154716454736   -0.359453929961776   0.038862862966867126
-2.7643154716454736   -0.359453929961776   0.038862862966867126
-2.7643154716454736   -0.359453929961776   0.038862862966867126
-2.7643154716454736   -0.359453929961776   0.038862862966867126
-1.9993350702119637   -0.0022392173501175616   -0.019885465673832925
-1.9993350702119637   -0.0022392173501175616   -0.019885465673832925
-1.9993350702119637   -0.0022392173501175616   -0.019885465673832925
-1.9993350702119637   -0.0022392173501175616   -0.019885465673832925
-3.6057145945386724   -0.7050285815175295   0.08057168695102479
-3.6057145945386724   -0.7050285815175295   0.08057168695102479
-3.6057145945386724   -0.7050285815175295   0.08057168695102479
-3.6057145945386724   -0.7050285815175295   0.08057168695102479
-3.395816800062005   -0.2690475998052274   -0.11387246617128757
-3.395816800062005   -0.2690475998052274   -0.11387246617128757
-3.395816800062005   -0.2690475998052274   -0.11387246617128757
-3.395816800062005   -0.2690475998052274   -0.11387246617128757
-1.9203112279559047   -0.34352605917241974   0.202680932093806
-1.9203112279559047   -0.34352605917241974   0.202680932093806
-1.9203112279559047   -0.34352605917241974   0.202680932093806
-1.9203112279559047   -0.34352605917241974   0.202680932093806
-2.5983896454675177   -0.27474353332696555   0.07942299664022273
-2.5983896454675177   -0.27474353332696555   0.07942299664022273
-2.5983896454675177   -0.27474353332696555   0.07942299664022273
-2.5983896454675177   -0.27474353332696555   0.07942299664022273
2.7344928714692855   0.08908976598524332   0.03859506380980862
2.7344928714692855   0.08908976598524332   0.03859506380980862
2.7344928714692855   0.08908976598524332   0.03859506380980862
2.7344928714692855   0.08908976598524332   0.03859506380980862
1.39701873878497   -0.07325623894167188   0.028614439113619772
1.39701873878497   -0.07325623894167188   0.028614439113619772
1.39701873878497   -0.07325623894167188   0.028614439113619772
1.39701873878497   -0.07325623894167188   0.028614439113619772
1.3421840300824797   -0.1975306093899653   0.05602356864068367
1.3421840300824797   -0.1975306093899653   0.05602356864068367
1.3421840300824797   -0.1975306093899653   0.05602356864068367
1.3421840300824797   -0.1975306093899653   0.05602356864068367
2.714610621876307   0.15298647048961445   0.020786473758173163
2.714610621876307   0.15298647048961445   0.020786473758173163
2.714610621876307   0.15298647048961445   0.020786473758173163
2.714610621876307   0.15298647048961445   0.020786473758173163
1.9379703273832218   -0.027657644342994336   -0.07151598090965908
1.9379703273832218   -0.027657644342994336   -0.07151598090965908
1.9379703273832218   -0.027657644342994336   -0.07151598090965908
1.9379703273832218   -0.027657644342994336   -0.07151598090965908
2.6994986959794285   0.06864189417830535   0.029571420585087993
2.6994986959794285   0.06864189417830535   0.029571420585087993
2.6994986959794285   0.06864189417830535   0.029571420585087993
2.6994986959794285   0.06864189417830535   0.029571420585087993
1.3527949038710456   -0.11768708518696908   0.02923441338051691
1.3527949038710456   -0.11768708518696908   0.02923441338051691
1.3527949038710456   -0.11768708518696908   0.02923441338051691
1.3527949038710456   -0.11768708518696908   0.02923441338051691
1.3072584749817358   -0.20214975538011704   0.04636983891891719
1.3072584749817358   -0.20214975538011704   0.04636983891891719
1.3072584749817358   -0.20214975538011704   0.04636983891891719
1.3072584749817358   -0.20214975538011704   0.04636983891891719
2.6826596664758147   0.1462947410338205   0.0358343985113095
2.6826596664758147   0.1462947410338205   0.0358343985113095
2.6826596664758147   0.1462947410338205   0.0358343985113095
2.6826596664758147   0.1462947410338205   0.0358343985113095
1.9319951397512791   -0.03816326814910581   -0.08291403699223321
1.9319951397512791   -0.03816326814910581   -0.08291403699223321
1.9319951397512791   -0.03816326814910581   -0.08291403699223321
1.9319951397512791   -0.03816326814910581   -0.08291403699223321
2.6601952806237974   0.060937566684586164   0.008869643600432991
2.6601952806237974   0.060937566684586164   0.008869643600432991
2.6601952806237974   0.060937566684586164   0.008869643600432991
2.6601952806237974   0.060937566684586164   0.008869643600432991
1.3216568348009345   -0.12485860706371538   0.041070489698510335
1.3216568348009345   -0.12485860706371538   0.041070489698510335
1.3216568348009345   -0.12485860706371538   0.041070489698510335
1.3216568348009345   -0.12485860706371538   0.041070489698510335
1.2703867531234936   -0.18456044622894835   0.04003627745309535
1.2703867531234936   -0.18456044622894835   0.04003627745309535
1.2703867531234936   -0.18456044622894835   0.04003627745309535
1.2703867531234936   -0.18456044622894835   0.04003627745309535
2.6333946489709263   0.1477659882379212   0.051423280618650286
2.6333946489709263   0.1477659882379212   0.051423280618650286
2.6333946489709263   0.1477659882379212   0.051423280618650286
2.6333946489709263   0.1477659882379212   0.051423280618650286
1.8592153682393497   -0.03852690763198241   -0.1120615660502707
1.8592153682393497   -0.03852690763198241   -0.1120615660502707
1.8592153682393497   -0.03852690763198241   -0.1120615660502707
1.8592153682393497   -0.03852690763198241   -0.1120615660502707
1.384115295033026   -0.17756246841379786   0.06840344982602645
1.384115295033026   -0.17756246841379786   0.06840344982602645
1.384115295033026   -0.17756246841379786   0.06840344982602645
1.384115295033026   -0.17756246841379786   0.06840344982602645
0.27074107980575546   -0.164864076663211   0.014883681057964726
0.27074107980575546   -0.164864076663211   0.014883681057964726
0.27074107980575546   -0.164864076663211   0.014883681057964726
0.27074107980575546   -0.164864076663211   0.014883681057964726
0.17620178546804943   -0.415735184331053   0.07368294685733434
0.17620178546804943   -0.415735184331053   0.07368294685733434
0.17620178546804943   -0.415735184331053   0.07368294685733434
0.17620178546804943   -0.415735184331053   0.07368294685733434
1.391757174367882   0.053454422215994446   0.05290425846173544
1.391757174367882   0.053454422215994446   0.05290425846173544
1.391757174367882   0.053454422215994446   0.05290425846173544
1.391757174367882   0.053454422215994446   0.05290425846173544
0.7933292186541017   -0.17687877834775162   -0.003007847005420991
0.7933292186541017   -0.17687877834775162   -0.003007847005420991
0.7933292186541017   -0.17687877834775162   -0.003007847005420991
0.7933292186541017   -0.17687877834775162   -0.003007847005420991
1.3448826992032807   -0.18528194165377465   0.057268246508494686
1.3448826992032807   -0.18528194165377465   0.057268246508494686
1.3448826992032807   -0.18528194165377465   0.057268246508494686
1.3448826992032807   -0.18528194165377465   0.057268246508494686
0.21124218624152227   -0.18883289485241284   0.021982661246058577
0.21124218624152227   -0.18883289485241284   0.021982661246058577
0.21124218624152227   -0.18883289485241284   0.021982661246058577
0.21124218624152227   -0.18883289485241284   0.021982661246058577
0.13388859103390016   -0.4195506172893476   0.06597974116202343
0.13388859103390016   -0.4195506172893476   0.06597974116202343
0.13388859103390016   -0.4195506172893476   0.06597974116202343
0.13388859103390016   -0.4195506172893476   0.06597974116202343
1.3595449564483653   0.04294220828214407   0.06271028258980346
1.3595449564483653   0.04294220828214407   0.06271028258980346
1.3595449564483653   0.04294220828214407   0.06271028258980346
1.3595449564483653   0.04294220828214407   0.06271028258980346
0.7358915985619768   -0.18855381312732974   -0.038131711883794106
0.7358915985619768   -0.18855381312732974   -0.038131711883794106
0.7358915985619768   -0.18855381312732974   -0.038131711883794106
0.7358915985619768   -0.18855381312732974   -0.038131711883794106
1.3102790459559936   -0.188003239046088   0.04732617745616663
1.3102790459559936   -0.188003239046088   0.04732617745616663
1.3102790459559936   -0.188003239046088   0.04732617745616663
1.3102790459559936   -0.188003239046088   0.04732617745616663
0.17029750636629615   -0.20146216512108273   0.029935865655738567
0.17029750636629615   -0.20146216512108273   0.029935865655738567
0.17029750636629615   -0.20146216512108273   0.029935865655738567
0.17029750636629615   -0.20146216512108273   0.029935865655738567
0.08653236552723755   -0.41947696161254533   0.051686838542531435
0.08653236552723755   -0.41947696161254533   0.051686838542531435
0.08653236552723755   -0.41947696161254533   0.051686838542531435
0.08653236552723755   -0.41947696161254533   0.051686838542531435
1.3229876141679684   0.04347647455155629   0.07500366189497142
1.3229876141679684   0.04347647455155629   0.07500366189497142
1.3229876141679684   0.04347647455155629   0.07500366189497142
1.3229876141679684   0.04347647455155629   0.07500366189497142
0.7007498459661189   -0.18721306992761935   -0.06803450505099093
0.7007498459661189   -0.18721306992761935   -0.06803450505099093
0.7007498459661189   -0.18721306992761935   -0.06803450505099093
0.7007498459661189   -0.18721306992761935   -0.06803450505099093
0.21077300758870135   -0.5113041540318303   0.06148339734130928
0.21077300758870135   -0.5113041540318303   0.06148339734130928
0.21077300758870135   -0.5113041540318303   0.06148339734130928
0.21077300758870135   -0.5113041540318303   0.06148339734130928
-0.8118631130044442   -0.2561024121031657   0.0011166947802385384
-0.8118631130044442   -0.2561024121031657   0.0011166947802385384
-0.8118631130044442   -0.2561024121031657   0.0011166947802385384
-0.8118631130044442   -0.2561024121031657   0.0011166947802385384
-0.9829012333470083   -0.7580321387443052   0.08445208822689104
-0.9829012333470083   -0.7580321387443052   0.08445208822689104
-0.9829012333470083   -0.7580321387443052   0.08445208822689104
-0.9829012333470083   -0.7580321387443052   0.08445208822689104
0.24248015950786023   -0.044053899671412836   0.03339353239674453
0.24248015950786023   -0.044053899671412836   0.03339353239674453
0.24248015950786023   -0.044053899671412836   0.03339353239674453
0.24248015950786023   -0.044053899671412836   0.03339353239674453
-0.3308525585840749   -0.386854690416932   0.014501653481965512
-0.3308525585840749   -0.386854690416932   0.014501653481965512
-0.3308525585840749   -0.386854690416932   0.014501653481965512
-0.3308525585840749   -0.386854690416932   0.014501653481965512
0.14533854681777877   -0.540456905418117   0.044088474693045276
0.14533854681777877   -0.540456905418117   0.044088474693045276
0.14533854681777877   -0.540456905418117   0.044088474693045276
0.14533854681777877   -0.540456905418117   0.044088474693045276
-0.9023015531369467   -0.27817106547761133   0.007589416010497573
-0.9023015531369467   -0.27817106547761133   0.007589416010497573
-0.9023015531369467   -0.27817106547761133   0.007589416010497573
-0.9023015531369467   -0.27817106547761133   0.007589416010497573
-1.0418738290834215   -0.7703694028567079   0.0686629426932405
-1.0418738290834215   -0.7703694028567079   0.0686629426932405
-1.0418738290834215   -0.7703694028567079   0.0686629426932405
-1.0418738290834215   -0.7703694028567079   0.0686629426932405
0.20284183304275125   -0.055728196383213024   0.046923530300144345
0.20284183304275125   -0.055728196383213024   0.046923530300144345
0.20284183304275125   -0.055728196383213024   0.046923530300144345
0.20284183304275125   -0.055728196383213024   0.046923530300144345
-0.40452588454360405   -0.4104679095173115   -0.034731133994059554
-0.40452588454360405   -0.4104679095173115   -0.034731133994059554
-0.40452588454360405   -0.4104679095173115   -0.034731133994059554
-0.40452588454360405   -0.4104679095173115   -0.034731133994059554
0.1002665547828871   -0.5500084384154664   0.028327381033077137
0.1002665547828871   -0.5500084384154664   0.028327381033077137
0.1002665547828871   -0.5500084384154664   0.028327381033077137
0.1002665547828871   -0.5500084384154664   0.028327381033077137
-0.9589463104371359   -0.2957369204380238   0.00866805350597738
-0.9589463104371359   -0.2957369204380238   0.00866805350597738
-0.9589463104371359   -0.2957369204380238   0.00866805350597738
-0.9589463104371359   -0.2957369204380238   0.00866805350597738
-1.1057434160417496   -0.7651948239672812   0.05799526943662123
-1.1057434160417496   -0.7651948239672812   0.05799526943662123
-1.1057434160417496   -0.7651948239672812   0.05799526943662123
-1.1057434160417496   -0.7651948239672812   0.05799526943662123
0.15872914857803389   -0.06226736244861167   0.05546115463257956
0.15872914857803389   -0.06226736244861167   0.05546115463257956
0.15872914857803389   -0.06226736244861167   0.05546115463257956
0.15872914857803389   -0.06226736244861167   0.05546115463257956
-0.46426885748653784   -0.41948107892018305   -0.08384832976767101
-0.46426885748653784   -0.41948107892018305   -0.08384832976767101
-0.46426885748653784   -0.41948107892018305   -0.08384832976767101
-0.46426885748653784   -0.41948107892018305   -0.08384832976767101
-0.9214761677739545   -0.8761621002173607   0.07311110904689
-0.9214761677739545   -0.8761621002173607   0.07311110904689
-0.9214761677739545   -0.8761621002173607   0.07311110904689
-0.9214761677739545   -0.8761621002173607   0.07311110904689
-2.0437085393992422   -0.31893575328490775   -0.04748167845220069
-2.0437085393992422   -0.31893575328490775   -0.04748167845220069
-2.0437085393992422   -0.31893575328490775   -0.04748167845220069
-2.0437085393992422   -0.31893575328490775   -0.04748167845220069
-2.3425245833625845   -1.2701537381415653   -0.0661144102787545
-2.3425245833625845   -1.2701537381415653   -0.0661144102787545
-2.3425245833625845   -1.2701537381415653   -0.0661144102787545
-2.3425245833625845   -1.2701537381415653   -0.0661144102787545
-0.8568930723641927   -0.07239202577688811   0.02885278017354436
-0.8568930723641927   -0.07239202577688811   0.02885278017354436
-0.8568930723641927   -0.07239202577688811   0.02885278017354436
-0.8568930723641927   -0.07239202577688811   0.02885278017354436
-1.5264388858616134   -0.6099409141277252   -0.05289909371421314
-1.5264388858616134   -0.6099409141277252   -0.05289909371421314
-1.5264388858616134   -0.6099409141277252   -0.05289909371421314
-1.5264388858616134   -0.6099409141277252   -0.05289909371421314
-1.0416820120294814   -0.9918826088376248   0.024398664907845147
-1.0416820120294814   -0.9918826088376248   0.024398664907845147
-1.0416820120294814   -0.9918826088376248   0.024398664907845147
-1.0416820120294814   -0.9918826088376248   0.024398664907845147
-2.152941075701069   -0.3458685870845906   -0.04248202302815281
-2.152941075701069   -0.3458685870845906   -0.04248202302815281
-2.152941075701069   -0.3458685870845906   -0.04248202302815281
-2.152941075701069   -0.3458685870845906   -0.04248202302815281
-2.412631642088013   -1.290735104420933   -0.07646077211503635
-2.412631642088013   -1.290735104420933   -0.07646077211503635
-2.412631642088013   -1.290735104420933   -0.07646077211503635
-2.412631642088013   -1.290735104420933   -0.07646077211503635
-0.9112055650974246   -0.09150663912284555   0.043141498889355145
-0.9112055650974246   -0.09150663912284555   0.043141498889355145
-0.9112055650974246   -0.09150663912284555   0.043141498889355145
-0.9112055650974246   -0.09150663912284555   0.043141498889355145
-1.612070100437222   -0.6756186073032379   -0.07453065287123345
-1.612070100437222   -0.6756186073032379   -0.07453065287123345
-1.612070100437222   -0.6756186073032379   -0.07453065287123345
-1.612070100437222   -0.6756186073032379   -0.07453065287123345
-1.1019066256513368   -1.011393362759345   0.00952291975628955
-1.1019066256513368   -1.011393362759345   0.00952291975628955
-1.1019066256513368   -1.011393362759345   0.00952291975628955
-1.1019066256513368   -1.011393362759345   0.00952291975628955
-2.2221269533592687   -0.3710447526096162   -0.04362768028265357
-2.2221269533592687   -0.3710447526096162   -0.04362768028265357
-2.2221269533592687   -0.3710447526096162   -0.04362768028265357
-2.2221269533592687   -0.3710447526096162   -0.04362768028265357
-2.472473732730346   -1.2359117642618171   -0.0862287098789618
-2.472473732730346   -1.2359117642618171   -0.0862287098789618
-2.472473732730346   -1.2359117642618171   -0.0862287098789618
-2.472473732730346   -1.2359117642618171   -0.0862287098789618
-0.9800188275206607   -0.11848128841842519   0.039904676493191335
-0.9800188275206607   -0.11848128841842519   0.039904676493191335
-0.9800188275206607   -0.11848128841842519   0.039904676493191335
-0.9800188275206607   -0.11848128841842519   0.039904676493191335
-1.6908468073432534   -0.6980775618760702   -0.09513125445231217
-1.6908468073432534   -0.6980775618760702   -0.09513125445231217
-1.6908468073432534   -0.6980775618760702   -0.09513125445231217
-1.6908468073432534   -0.6980775618760702   -0.09513125445231217
-2.0070219328292174   -0.365001055286039   0.18201665639902265
-2.0070219328292174   -0.365001055286039   0.18201665639902265
-2.0070219328292174   -0.365001055286039   0.18201665639902265
-2.0070219328292174   -0.365001055286039   0.18201665639902265
-3.5380524281726613   -0.2651969725975112   -0.06325673077036101
-3.5380524281726613   -0.2651969725975112   -0.06325673077036101
-3.5380524281726613   -0.2651969725975112   -0.06325673077036101
-3.5380524281726613   -0.2651969725975112   -0.06325673077036101
-3.755326908039337   -0.7410646300506318   0.05000375778617783
-3.755326908039337   -0.7410646300506318   0.05000375778617783
-3.755326908039337   -0.7410646300506318   0.05000375778617783
-3.755326908039337   -0.7410646300506318   0.05000375778617783
-2.0658374798935917   0.029406404015596133   0.017760964909030147
-2.0658374798935917   0.029406404015596133   0.017760964909030147
-2.0658374798935917   0.029406404015596133   0.017760964909030147
-2.0658374798935917   0.029406404015596133   0.017760964909030147
-2.706228623719386   -0.26034946478997295   0.0544845004812891
-2.706228623719386   -0.26034946478997295   0.0544845004812891
-2.706228623719386   -0.26034946478997295   0.0544845004812891
-2.706228623719386   -0.26034946478997295   0.0544845004812891
-2.1213531215353636   -0.3919606601366007   0.16154982085236003
-2.1213531215353636   -0.3919606601366007   0.16154982085236003
-2.1213531215353636   -0.3919606601366007   0.16154982085236003
-2.1213531215353636   -0.3919606601366007   0.16154982085236003
-3.6902292803586954   -0.3101155798595605   -0.05545715400164955
-3.6902292803586954   -0.3101155798595605   -0.05545715400164955
-3.6902292803586954   -0.3101155798595605   -0.05545715400164955
-3.6902292803586954   -0.3101155798595605   -0.05545715400164955
-3.8477830764252188   -0.7727525663567145   -0.015979755358354275
-3.8477830764252188   -0.7727525663567145   -0.015979755358354275
-3.8477830764252188   -0.7727525663567145   -0.015979755358354275
-3.8477830764252188   -0.7727525663567145   -0.015979755358354275
-2.1310547180943207   0.008016481268631526   0.03267226216384053
-2.1310547180943207   0.008016481268631526   0.03267226216384053
-2.1310547180943207   0.008016481268631526   0.03267226216384053
-2.1310547180943207   0.008016481268631526   0.03267226216384053
-2.868740158740508   -0.34384351608513586   0.02253095808800898
-2.868740158740508   -0.34384351608513586   0.02253095808800898
-2.868740158740508   -0.34384351608513586   0.02253095808800898
-2.868740158740508   -0.34384351608513586   0.02253095808800898
-2.1948115215566086   -0.41215113257259606   0.13405585869362835
-2.1948115215566086   -0.41215113257259606   0.13405585869362835
-2.1948115215566086   -0.41215113257259606   0.13405585869362835
-2.1948115215566086   -0.41215113257259606   0.13405585869362835
-3.764864015195829   -0.33342269474836345   -0.0407143208196878
-3.764864015195829   -0.33342269474836345   -0.0407143208196878
-3.764864015195829   -0.33342269474836345   -0.0407143208196878
-3.764864015195829   -0.33342269474836345   -0.0407143208196878
-3.928482981599825   -0.7857206782828177   -0.00012040981426331143
-3.928482981599825   -0.7857206782828177   -0.00012040981426331143
-3.928482981599825   -0.7857206782828177   -0.00012040981426331143
-3.928482981599825   -0.7857206782828177   -0.00012040981426331143
-2.2225828572534434   -0.08598015518058344   0.013294058424318939
-2.2225828572534434   -0.08598015518058344   0.013294058424318939
-2.2225828572534434   -0.08598015518058344   0.013294058424318939
-2.2225828572534434   -0.08598015518058344   0.013294058424318939
-2.9040990603032877   -0.41561085362473926   0.03559777424833541
-2.9040990603032877   -0.41561085362473926   0.03559777424833541
-2.9040990603032877   -0.41561085362473926   0.03559777424833541
-2.9040990603032877   -0.41561085362473926   0.03559777424833541
2.392661038353926   0.10969706847973959   -0.05226132334827882
2.392661038353926   0.10969706847973959   -0.05226132334827882
2.392661038353926   0.10969706847973959   -0.05226132334827882
2.392661038353926   0.10969706847973959   -0.05226132334827882
1.205011312474835   -0.023841871251680358   0.02583716331484011
1.205011312474835   -0.023841871251680358   0.02583716331484011
1.205011312474835   -0.023841871251680358   0.02583716331484011
1.205011312474835   -0.023841871251680358   0.02583716331484011
1.1279750918723397   -0.17771514454055004   -0.046086071388681926
1.1279750918723397   -0.17771514454055004   -0.046086071388681926
1.1279750918723397   -0.17771514454055004   -0.046086071388681926
1.1279750918723397   -0.17771514454055004   -0.046086071388681926
2.364852487119605   0.1729140425698249   0.030229251144541586
2.364852487119605   0.1729140425698249   0.030229251144541586
2.364852487119605   0.1729140425698249   0.030229251144541586
2.364852487119605   0.1729140425698249   0.030229251144541586
1.6797015682462089   0.00411203111631625   -0.06489468357526208
1.6797015682462089   0.00411203111631625   -0.06489468357526208
1.6797015682462089   0.00411203111631625   -0.06489468357526208
1.6797015682462089   0.00411203111631625   -0.06489468357526208
2.3257905227441693   0.060526541899162234   -0.0526930700619504
2.3257905227441693   0.060526541899162234   -0.0526930700619504
2.3257905227441693   0.060526541899162234   -0.0526930700619504
2.3257905227441693   0.060526541899162234   -0.0526930700619504
1.1648570866554506   -0.0675076134622094   0.028116371448524913
1.1648570866554506   -0.0675076134622094   0.028116371448524913
1.1648570866554506   -0.0675076134622094   0.028116371448524913
1.1648570866554506   -0.0675076134622094   0.028116371448524913
1.0865116435431992   -0.18770698706718358   -0.038026219061095254
1.0865116435431992   -0.18770698706718358   -0.038026219061095254
1.0865116435431992   -0.18770698706718358   -0.038026219061095254
1.0865116435431992   -0.18770698706718358   -0.038026219061095254
2.307222084284044   0.15878072009849492   0.044108109282671545
2.307222084284044   0.15878072009849492   0.044108109282671545
2.307222084284044   0.15878072009849492   0.044108109282671545
2.307222084284044   0.15878072009849492   0.044108109282671545
1.6568879852810066   -0.016930347250917133   -0.07758982110792674
1.6568879852810066   -0.016930347250917133   -0.07758982110792674
1.6568879852810066   -0.016930347250917133   -0.07758982110792674
1.6568879852810066   -0.016930347250917133   -0.07758982110792674
2.2678789874568115   0.04783866214729854   -0.04166531690229662
2.2678789874568115   0.04783866214729854   -0.04166531690229662
2.2678789874568115   0.04783866214729854   -0.04166531690229662
2.2678789874568115   0.04783866214729854   -0.04166531690229662
1.1228427410688058   -0.07977692841761341   0.03569920991736793
1.1228427410688058   -0.07977692841761341   0.03569920991736793
1.1228427410688058   -0.07977692841761341   0.03569920991736793
1.1228427410688058   -0.07977692841761341   0.03569920991736793
1.046329005059098   -0.18514215378709334   -0.026051785594532556
1.046329005059098   -0.18514215378709334   -0.026051785594532556
1.046329005059098   -0.18514215378709334   -0.026051785594532556
1.046329005059098   -0.18514215378709334   -0.026051785594532556
2.235842156478547   0.1490339755498482   0.05731383683513719
2.235842156478547   0.1490339755498482   0.05731383683513719
2.235842156478547   0.1490339755498482   0.05731383683513719
2.235842156478547   0.1490339755498482   0.05731383683513719
1.5746403368228599   -0.029575746122111224   -0.10199002931672249
1.5746403368228599   -0.029575746122111224   -0.10199002931672249
1.5746403368228599   -0.029575746122111224   -0.10199002931672249
1.5746403368228599   -0.029575746122111224   -0.10199002931672249
1.2112005351549542   0.0223661327398314   0.010575272723916548
1.2112005351549542   0.0223661327398314   0.010575272723916548
1.2112005351549542   0.0223661327398314   0.010575272723916548
1.2112005351549542   0.0223661327398314   0.010575272723916548
0.11783779730140079   -0.07232383527342282   -0.0026081713075997714
0.11783779730140079   -0.07232383527342282   -0.0026081713075997714
0.11783779730140079   -0.07232383527342282   -0.0026081713075997714
0.11783779730140079   -0.07232383527342282   -0.0026081713075997714
0.04524955766260305   -0.2352878275260555   -0.04429937354323543
0.04524955766260305   -0.2352878275260555   -0.04429937354323543
0.04524955766260305   -0.2352878275260555   -0.04429937354323543
0.04524955766260305   -0.2352878275260555   -0.04429937354323543
1.2127119791021974   0.1397812911078347   0.0601019291122156
1.2127119791021974   0.1397812911078347   0.0601019291122156
1.2127119791021974   0.1397812911078347   0.0601019291122156
1.2127119791021974   0.1397812911078347   0.0601019291122156
0.6348785809126051   -0.033260768332742496   -0.025270682676717816
0.6348785809126051   -0.033260768332742496   -0.025270682676717816
0.6348785809126051   -0.033260768332742496   -0.025270682676717816
0.6348785809126051   -0.033260768332742496   -0.025270682676717816
1.1771323126462552   0.0036213131394922105   0.018363574800851074
1.1771323126462552   0.0036213131394922105   0.018363574800851074
1.1771323126462552   0.0036213131394922105   0.018363574800851074
1.1771323126462552   0.0036213131394922105   0.018363574800851074
0.08216935921489507   -0.09778771446136254   0.002799521153531763
0.08216935921489507   -0.09778771446136254   0.002799521153531763
0.08216935921489507   -0.09778771446136254   0.002799521153531763
0.08216935921489507   -0.09778771446136254   0.002799521153531763
0.005271153474608117   -0.24660791885200414   -0.03076655010724174
0.005271153474608117   -0.24660791885200414   -0.03076655010724174
0.005271153474608117   -0.24660791885200414   -0.03076655010724174
0.005271153474608117   -0.24660791885200414   -0.03076655010724174
1.1688180576476468   0.11949064671212695   0.06630821768183141
1.1688180576476468   0.11949064671212695   0.06630821768183141
1.1688180576476468   0.11949064671212695   0.06630821768183141
1.1688180576476468   0.11949064671212695   0.06630821768183141
0.588916435138676   -0.05191612904649465   -0.03578194080082313
0.588916435138676   -0.05191612904649465   -0.03578194080082313
0.588916435138676   -0.05191612904649465   -0.03578194080082313
0.588916435138676   -0.05191612904649465   -0.03578194080082313
1.1352319843613896   -0.0090739525505526   0.02694245051323467
1.1352319843613896   -0.0090739525505526   0.02694245051323467
1.1352319843613896   -0.0090739525505526   0.02694245051323467
1.1352319843613896   -0.0090739525505526   0.02694245051323467
0.03866158616093658   -0.11823896018925173   0.00781665466164816
0.03866158616093658   -0.11823896018925173   0.00781665466164816
0.03866158616093658   -0.11823896018925173   0.00781665466164816
0.03866158616093658   -0.11823896018925173   0.00781665466164816
-0.0376619730311374   -0.24784051531996404   -0.020931700263524408
-0.0376619730311374   -0.24784051531996404   -0.020931700263524408
-0.0376619730311374   -0.24784051531996404   -0.020931700263524408
-0.0376619730311374   -0.24784051531996404   -0.020931700263524408
1.1245344438454667   0.10653359866166434   0.07329965588855568
1.1245344438454667   0.10653359866166434   0.07329965588855568
1.1245344438454667   0.10653359866166434   0.07329965588855568
1.1245344438454667   0.10653359866166434   0.07329965588855568
0.5528724200832739   -0.0594300313344375   -0.04484567734936075
0.5528724200832739   -0.0594300313344375   -0.04484567734936075
0.5528724200832739   -0.0594300313344375   -0.04484567734936075
0.5528724200832739   -0.0594300313344375   -0.04484567734936075
0.1197366517893165   -0.06924445410730196   0.0038067199658579597
0.1197366517893165   -0.06924445410730196   0.0038067199658579597
0.1197366517893165   -0.06924445410730196   0.0038067199658579597
0.1197366517893165   -0.06924445410730196   0.0038067199658579597
-0.9328876739979182   -0.10790464373649768   -0.02937781010265558
-0.9328876739979182   -0.10790464373649768   -0.02937781010265558
-0.9328876739979182   -0.10790464373649768   -0.02937781010265558
-0.9328876739979182   -0.10790464373649768   -0.02937781010265558
-1.013584467897907   -0.3120280733202782   -0.05041270844187652
-1.013584467897907   -0.3120280733202782   -0.05041270844187652
-1.013584467897907   -0.3120280733202782   -0.05041270844187652
-1.013584467897907   -0.3120280733202782   -0.05041270844187652
0.1285050884326968   0.10225033233986151   0.0344401204413163
0.1285050884326968   0.10225033233986151   0.0344401204413163
0.1285050884326968   0.10225033233986151   0.0344401204413163
0.1285050884326968   0.10225033233986151   0.0344401204413163
-0.4258328640776675   -0.09209396003018881   -0.025114663495731295
-0.4258328640776675   -0.09209396003018881   -0.025114663495731295
-0.4258328640776675   -0.09209396003018881   -0.025114663495731295
-0.4258328640776675   -0.09209396003018881   -0.025114663495731295
0.0897055990060447   -0.07729076426794095   0.019983769915858218
0.0897055990060447   -0.07729076426794095   0.019983769915858218
0.0897055990060447   -0.07729076426794095   0.019983769915858218
0.0897055990060447   -0.07729076426794095   0.019983769915858218
-0.9718238825352639   -0.12952588077648466   -0.02411197417245399
-0.9718238825352639   -0.12952588077648466   -0.02411197417245399
-0.9718238825352639   -0.12952588077648466   -0.02411197417245399
-0.9718238825352639   -0.12952588077648466   -0.02411197417245399
-1.0604790208352926   -0.32443692302665916   -0.033299249038981155
-1.0604790208352926   -0.32443692302665916   -0.033299249038981155
-1.0604790208352926   -0.32443692302665916   -0.033299249038981155
-1.0604790208352926   -0.32443692302665916   -0.033299249038981155
0.08464171809834958   0.08052234861413855   0.038956005545322886
0.08464171809834958   0.08052234861413855   0.038956005545322886
0.08464171809834958   0.08052234861413855   0.038956005545322886
0.08464171809834958   0.08052234861413855   0.038956005545322886
-0.46461640901251683   -0.10506102430016559   -0.03013481265191253
-0.46461640901251683   -0.10506102430016559   -0.03013481265191253
-0.46461640901251683   -0.10506102430016559   -0.03013481265191253
-0.46461640901251683   -0.10506102430016559   -0.03013481265191253
0.048186588172425826   -0.09050284209278205   0.027705546622624637
0.048186588172425826   -0.09050284209278205   0.027705546622624637
0.048186588172425826   -0.09050284209278205   0.027705546622624637
0.048186588172425826   -0.09050284209278205   0.027705546622624637
-1.0234086312866142   -0.152796472696975   -0.01958775162528119
-1.0234086312866142   -0.152796472696975   -0.01958775162528119
-1.0234086312866142   -0.152796472696975   -0.01958775162528119
-1.0234086312866142   -0.152796472696975   -0.01958775162528119
-1.1125252749388874   -0.3335318220206932   -0.029606719710906837
-1.1125252749388874   -0.3335318220206932   -0.029606719710906837
-1.1125252749388874   -0.3335318220206932   -0.029606719710906837
-1.1125252749388874   -0.3335318220206932   -0.029606719710906837
0.03719867883348267   0.06196598208800094   0.04356506165160714
0.03719867883348267   0.06196598208800094   0.04356506165160714
0.03719867883348267   0.06196598208800094   0.04356506165160714
0.03719867883348267   0.06196598208800094   0.04356506165160714
-0.5150176970560506   -0.12058731451185484   -0.04221286098200887
-0.5150176970560506   -0.12058731451185484   -0.04221286098200887
-0.5150176970560506   -0.12058731451185484   -0.04221286098200887
-0.5150176970560506   -0.12058731451185484   -0.04221286098200887
-0.9188090674536671   -0.08153117285744534   0.01464175173953652
-0.9188090674536671   -0.08153117285744534   0.01464175173953652
-0.9188090674536671   -0.08153117285744534   0.01464175173953652
-0.9188090674536671   -0.08153117285744534   0.01464175173953652
-1.9579643579515598   -0.12626008500887143   -0.05186721044195322
-1.9579643579515598   -0.12626008500887143   -0.05186721044195322
-1.9579643579515598   -0.12626008500887143   -0.05186721044195322
-1.9579643579515598   -0.12626008500887143   -0.05186721044195322
-2.049734453776126   -0.3267820835709404   -0.050256127384784
-2.049734453776126   -0.3267820835709404   -0.050256127384784
-2.049734453776126   -0.3267820835709404   -0.050256127384784
-2.049734453776126   -0.3267820835709404   -0.050256127384784
-0.923566532172753   0.07798462487827004   0.009664271985330222
-0.923566532172753   0.07798462487827004   0.009664271985330222
-0.923566532172753   0.07798462487827004   0.009664271985330222
-0.923566532172753   0.07798462487827004   0.009664271985330222
-1.4504483831838406   -0.10885332891510424   -0.021164869238673598
-1.4504483831838406   -0.10885332891510424   -0.021164869238673598
-1.4504483831838406   -0.10885332891510424   -0.021164869238673598
-1.4504483831838406   -0.10885332891510424   -0.021164869238673598
-0.9520792427186764   -0.09015228921306943   0.035237633347060024
-0.9520792427186764   -0.09015228921306943   0.035237633347060024
-0.9520792427186764   -0.09015228921306943   0.035237633347060024
-0.9520792427186764   -0.09015228921306943   0.035237633347060024
-2.0154024916674738   -0.15282591791687344   -0.052552482495605055
-2.0154024916674738   -0.15282591791687344   -0.052552482495605055
-2.0154024916674738   -0.15282591791687344   -0.052552482495605055
-2.0154024916674738   -0.15282591791687344   -0.052552482495605055
-2.114640659509076   -0.34786625235168134   -0.035221472843172286
-2.114640659509076   -0.34786625235168134   -0.035221472843172286
-2.114640659509076   -0.34786625235168134   -0.035221472843172286
-2.114640659509076   -0.34786625235168134   -0.035221472843172286
-0.9757242124796519   0.05418727809882459   0.01185059161373024
-0.9757242124796519   0.05418727809882459   0.01185059161373024
-0.9757242124796519   0.05418727809882459   0.01185059161373024
-0.9757242124796519   0.05418727809882459   0.01185059161373024
-1.4915651420681166   -0.12057643974458357   -0.02125819036851554
-1.4915651420681166   -0.12057643974458357   -0.02125819036851554
-1.4915651420681166   -0.12057643974458357   -0.02125819036851554
-1.4915651420681166   -0.12057643974458357   -0.02125819036851554
-1.0038934088580198   -0.11136177507391117   0.03655366289462231
-1.0038934088580198   -0.11136177507391117   0.03655366289462231
-1.0038934088580198   -0.11136177507391117   0.03655366289462231
-1.0038934088580198   -0.11136177507391117   0.03655366289462231
-2.082574163292439   -0.17841989934067692   -0.044335344770990506
-2.082574163292439   -0.17841989934067692   -0.044335344770990506
-2.082574163292439   -0.17841989934067692   -0.044335344770990506
-2.082574163292439   -0.17841989934067692   -0.044335344770990506
-2.1881100912208105   -0.3756286957538552   -0.03774109648380887
-2.1881100912208105   -0.3756286957538552   -0.03774109648380887
-2.1881100912208105   -0.3756286957538552   -0.03774109648380887
-2.1881100912208105   -0.3756286957538552   -0.03774109648380887
-1.0320870017152508   0.024847462965148392   0.014205361421416152
-1.0320870017152508   0.024847462965148392   0.014205361421416152
-1.0320870017152508   0.024847462965148392   0.014205361421416152
-1.0320870017152508   0.024847462965148392   0.014205361421416152
-1.5643343655265725   -0.14898760970420621   -0.034479129343248135
-1.5643343655265725   -0.14898760970420621   -0.034479129343248135
-1.5643343655265725   -0.14898760970420621   -0.034479129343248135
-1.5643343655265725   -0.14898760970420621   -0.034479129343248135
-1.8914565433805162   0.08971325499655747   0.06469852240783677
-1.8914565433805162   0.08971325499655747   0.06469852240783677
-1.8914565433805162   0.08971325499655747   0.06469852240783677
-1.8914565433805162   0.08971325499655747   0.06469852240783677
-2.933113026366932   -0.1461724379021992   -0.0396841287927797
-2.933113026366932   -0.1461724379021992   -0.0396841287927797
-2.933113026366932   -0.1461724379021992   -0.0396841287927797
-2.933113026366932   -0.1461724379021992   -0.0396841287927797
-3.0057076492597004   -0.14882239472197634   0.06648714058733818
-3.0057076492597004   -0.14882239472197634   0.06648714058733818
-3.0057076492597004   -0.14882239472197634   0.06648714058733818
-3.0057076492597004   -0.14882239472197634   0.06648714058733818
-1.9653938989745081   0.060638053914264245   -0.015973490861914186
-1.9653938989745081   0.060638053914264245   -0.015973490861914186
-1.9653938989745081   0.060638053914264245   -0.015973490861914186
-1.9653938989745081   0.060638053914264245   -0.015973490861914186
-2.334813228011917   0.001874643118180086   0.059204511401901055
-2.334813228011917   0.001874643118180086   0.059204511401901055
-2.334813228011917   0.001874643118180086   0.059204511401901055
-2.334813228011917   0.001874643118180086   0.059204511401901055
-1.9447237860551199   0.0663999794427742   0.08161514820651006
-1.9447237860551199   0.0663999794427742   0.08161514820651006
-1.9447237860551199   0.0663999794427742   0.08161514820651006
-1.9447237860551199   0.0663999794427742   0.08161514820651006
-3.0250312971453615   -0.15323785521677047   -0.025715638346172992
-3.0250312971453615   -0.15323785521677047   -0.025715638346172992
-3.0250312971453615   -0.15323785521677047   -0.025715638346172992
-3.0250312971453615   -0.15323785521677047   -0.025715638346172992
-3.0973997175187837   -0.17370895431393796   0.09039008367545573
-3.0973997175187837   -0.17370895431393796   0.09039008367545573
-3.0973997175187837   -0.17370895431393796   0.09039008367545573
-3.0973997175187837   -0.17370895431393796   0.09039008367545573
-2.0326124173223765   0.043735641484864474   -0.016682155746237243
-2.0326124173223765   0.043735641484864474   -0.016682155746237243
-2.0326124173223765   0.043735641484864474   -0.016682155746237243
-2.0326124173223765   0.043735641484864474   -0.016682155746237243
-2.4528736387665417   -0.027276841077792935   0.03218576947249255
-2.4528736387665417   -0.027276841077792935   0.03218576947249255
-2.4528736387665417   -0.027276841077792935   0.03218576947249255
-2.4528736387665417   -0.027276841077792935   0.03218576947249255
-2.0137202290318212   0.041043176738870146   0.08047125045253409
-2.0137202290318212   0.041043176738870146   0.08047125045253409
-2.0137202290318212   0.041043176738870146   0.08047125045253409
-2.0137202290318212   0.041043176738870146   0.08047125045253409
-3.119849272465445   -0.17457385622404975   -0.020992789147740026
-3.119849272465445   -0.17457385622404975   -0.020992789147740026
-3.119849272465445   -0.17457385622404975   -0.020992789147740026
-3.119849272465445   -0.17457385622404975   -0.020992789147740026
-3.227692373182175   -0.27393745910901135   0.07861705471091104
-3.227692373182175   -0.27393745910901135   0.07861705471091104
-3.227692373182175   -0.27393745910901135   0.07861705471091104
-3.227692373182175   -0.27393745910901135   0.07861705471091104
-2.110109239203272   -0.007672626720820419   -0.015692905429186624
-2.110109239203272   -0.007672626720820419   -0.015692905429186624
-2.110109239203272   -0.007672626720820419   -0.015692905429186624
-2.110109239203272   -0.007672626720820419   -0.015692905429186624
-2.5034993836827124   -0.06392044418890891   0.008328639886044223
-2.5034993836827124   -0.06392044418890891   0.008328639886044223
-2.5034993836827124   -0.06392044418890891   0.008328639886044223
-2.5034993836827124   -0.06392044418890891   0.008328639886044223
1.9363314176628785   0.10337829465707726   -0.06938211232935403
1.9363314176628785   0.10337829465707726   -0.06938211232935403
1.9363314176628785   0.10337829465707726   -0.06938211232935403
1.9363314176628785   0.10337829465707726   -0.06938211232935403
0.9604828708422858   -0.0006006424220833528   0.025238822897843162
0.9604828708422858   -0.0006006424220833528   0.025238822897843162
0.9604828708422858   -0.0006006424220833528   0.025238822897843162
0.9604828708422858   -0.0006006424220833528   0.025238822897843162
0.8774618934045548   -0.1433237454706846   -0.06356909534301677
0.8774618934045548   -0.1433237454706846   -0.06356909534301677
0.8774618934045548   -0.1433237454706846   -0.06356909534301677
0.8774618934045548   -0.1433237454706846   -0.06356909534301677
1.8996763669139691   0.15675534098472022   0.031640147411604105
1.8996763669139691   0.15675534098472022   0.031640147411604105
1.8996763669139691   0.15675534098472022   0.031640147411604105
1.8996763669139691   0.15675534098472022   0.031640147411604105
1.3451542666354874   0.011899143931192346   -0.044259705257979245
1.3451542666354874   0.011899143931192346   -0.044259705257979245
1.3451542666354874   0.011899143931192346   -0.044259705257979245
1.3451542666354874   0.011899143931192346   -0.044259705257979245
1.8591095334061045   0.05235988814136017   -0.06679856728434252
1.8591095334061045   0.05235988814136017   -0.06679856728434252
1.8591095334061045   0.05235988814136017   -0.06679856728434252
1.8591095334061045   0.05235988814136017   -0.06679856728434252
0.9162826595688486   -0.04067435997089569   0.027885349978645127
0.9162826595688486   -0.04067435997089569   0.027885349978645127
0.9162826595688486   -0.04067435997089569   0.027885349978645127
0.9162826595688486   -0.04067435997089569   0.027885349978645127
0.8359347640736837   -0.15534549986998827   -0.05523567034938419
0.8359347640736837   -0.15534549986998827   -0.05523567034938419
0.8359347640736837   -0.15534549986998827   -0.05523567034938419
0.8359347640736837   -0.15534549986998827   -0.05523567034938419
1.8375499104479178   0.14024973525726248   0.04320851953794802
1.8375499104479178   0.14024973525726248   0.04320851953794802
1.8375499104479178   0.14024973525726248   0.04320851953794802
1.8375499104479178   0.14024973525726248   0.04320851953794802
1.3125301479210194   -0.009728009057422438   -0.05825288081702382
1.3125301479210194   -0.009728009057422438   -0.05825288081702382
1.3125301479210194   -0.009728009057422438   -0.05825288081702382
1.3125301479210194   -0.009728009057422438   -0.05825288081702382
1.7978573138250247   0.03757099873859332   -0.05257572705781739
1.7978573138250247   0.03757099873859332   -0.05257572705781739
1.7978573138250247   0.03757099873859332   -0.05257572705781739
1.7978573138250247   0.03757099873859332   -0.05257572705781739
0.8740673198837015   -0.054226804164190956   0.03430841299489709
0.8740673198837015   -0.054226804164190956   0.03430841299489709
0.8740673198837015   -0.054226804164190956   0.03430841299489709
0.8740673198837015   -0.054226804164190956   0.03430841299489709
0.7979989363739901   -0.1590211134434428   -0.045118388026761075
0.7979989363739901   -0.1590211134434428   -0.045118388026761075
0.7979989363739901   -0.1590211134434428   -0.045118388026761075
0.7979989363739901   -0.1590211134434428   -0.045118388026761075
1.7675117936554086   0.12569447408396112   0.05372293135032101
1.7675117936554086   0.12569447408396112   0.05372293135032101
1.7675117936554086   0.12569447408396112   0.05372293135032101
1.7675117936554086   0.12569447408396112   0.05372293135032101
1.2369151213044527   -0.02465753225424322   -0.07916986424286888
1.2369151213044527   -0.02465753225424322   -0.07916986424286888
1.2369151213044527   -0.02465753225424322   -0.07916986424286888
1.2369151213044527   -0.02465753225424322   -0.07916986424286888
0.9767929037740481   0.10102207442462775   0.005166270709944371
0.9767929037740481   0.10102207442462775   0.005166270709944371
0.9767929037740481   0.10102207442462775   0.005166270709944371
0.9767929037740481   0.10102207442462775   0.005166270709944371
0.03422115942480111   -0.031728760429163796   -0.0038828040478838264
0.03422115942480111   -0.031728760429163796   -0.0038828040478838264
0.03422115942480111   -0.031728760429163796   -0.0038828040478838264
0.03422115942480111   -0.031728760429163796   -0.0038828040478838264
-0.028351855348170918   -0.12909180058463335   -0.04319969489975621
-0.028351855348170918   -0.12909180058463335   -0.04319969489975621
-0.028351855348170918   -0.12909180058463335   -0.04319969489975621
-0.028351855348170918   -0.12909180058463335   -0.04319969489975621
0.9578579087404238   0.1418777307531152   0.05320950511251049
0.9578579087404238   0.1418777307531152   0.05320950511251049
0.9578579087404238   0.1418777307531152   0.05320950511251049
0.9578579087404238   0.1418777307531152   0.05320950511251049
0.4775752525015931   0.0202045650123321   -0.00550802012697223
0.4775752525015931   0.0202045650123321   -0.00550802012697223
0.4775752525015931   0.0202045650123321   -0.00550802012697223
0.4775752525015931   0.0202045650123321   -0.00550802012697223
0.935896342373339   0.07454471562138415   0.010734688408821337
0.935896342373339   0.07454471562138415   0.010734688408821337
0.935896342373339   0.07454471562138415   0.010734688408821337
0.935896342373339   0.07454471562138415   0.010734688408821337
-0.006003318643694137   -0.061371815115509695   0.000823003153504049
-0.006003318643694137   -0.061371815115509695   0.000823003153504049
-0.006003318643694137   -0.061371815115509695   0.000823003153504049
-0.006003318643694137   -0.061371815115509695   0.000823003153504049
-0.06769162219963759   -0.14853745754282968   -0.03732262374566743
-0.06769162219963759   -0.14853745754282968   -0.03732262374566743
-0.06769162219963759   -0.14853745754282968   -0.03732262374566743
-0.06769162219963759   -0.14853745754282968   -0.03732262374566743
0.9132966216107253   0.11733758590385528   0.058890531561970674
0.9132966216107253   0.11733758590385528   0.058890531561970674
0.9132966216107253   0.11733758590385528   0.058890531561970674
0.9132966216107253   0.11733758590385528   0.058890531561970674
0.42956122652964474   -0.0039648780217162866   -0.01924816732086487
0.42956122652964474   -0.0039648780217162866   -0.01924816732086487
0.42956122652964474   -0.0039648780217162866   -0.01924816732086487
0.42956122652964474   -0.0039648780217162866   -0.01924816732086487
0.892154286528776   0.05416628113600361   0.016350160920085385
0.892154286528776   0.05416628113600361   0.016350160920085385
0.892154286528776   0.05416628113600361   0.016350160920085385
0.892154286528776   0.05416628113600361   0.016350160920085385
-0.04651031640513144   -0.08532718206241958   0.005373629746453213
-0.04651031640513144   -0.08532718206241958   0.005373629746453213
-0.04651031640513144   -0.08532718206241958   0.005373629746453213
-0.04651031640513144   -0.08532718206241958   0.005373629746453213
-0.10663881521726937   -0.1602917823373152   -0.02965399004360573
-0.10663881521726937   -0.1602917823373152   -0.02965399004360573
-0.10663881521726937   -0.1602917823373152   -0.02965399004360573
-0.10663881521726937   -0.1602917823373152   -0.02965399004360573
0.8709162232144874   0.09660281519864979   0.06384411753362242
0.8709162232144874   0.09660281519864979   0.06384411753362242
0.8709162232144874   0.09660281519864979   0.06384411753362242
0.8709162232144874   0.09660281519864979   0.06384411753362242
0.39399695124914824   -0.01947824691740635   -0.029393548873495653
0.39399695124914824   -0.01947824691740635   -0.029393548873495653
0.39399695124914824   -0.01947824691740635   -0.029393548873495653
0.39399695124914824   -0.01947824691740635   -0.029393548873495653
0.06616982740312555   0.10217397803928735   0.02195779737528722
0.06616982740312555   0.10217397803928735   0.02195779737528722
0.06616982740312555   0.10217397803928735   0.02195779737528722
0.06616982740312555   0.10217397803928735   0.02195779737528722
-0.8631927858907756   -0.055691880707514185   -0.02972294075400299
-0.8631927858907756   -0.055691880707514185   -0.02972294075400299
-0.8631927858907756   -0.055691880707514185   -0.02972294075400299
-0.8631927858907756   -0.055691880707514185   -0.02972294075400299
-0.9120131548123183   -0.11819347489694194   -0.027260672497624466
-0.9120131548123183   -0.11819347489694194   -0.027260672497624466
-0.9120131548123183   -0.11819347489694194   -0.027260672497624466
-0.9120131548123183   -0.11819347489694194   -0.027260672497624466
0.034487858947978234   0.11615899004480987   0.02574808595154633
0.034487858947978234   0.11615899004480987   0.02574808595154633
0.034487858947978234   0.11615899004480987   0.02574808595154633
0.034487858947978234   0.11615899004480987   0.02574808595154633
-0.418115294587428   0.013100271940684333   0.001565621133516975
-0.418115294587428   0.013100271940684333   0.001565621133516975
-0.418115294587428   0.013100271940684333   0.001565621133516975
-0.418115294587428   0.013100271940684333   0.001565621133516975
0.027780627156305724   0.0807429995032554   0.027627917534738252
0.027780627156305724   0.0807429995032554   0.027627917534738252
0.027780627156305724   0.0807429995032554   0.027627917534738252
0.027780627156305724   0.0807429995032554   0.027627917534738252
-0.9042348019282512   -0.08170636326299288   -0.024856019711237978
-0.9042348019282512   -0.08170636326299288   -0.024856019711237978
-0.9042348019282512   -0.08170636326299288   -0.024856019711237978
-0.9042348019282512   -0.08170636326299288   -0.024856019711237978
-0.9542349342006613   -0.1395645673174745   -0.022601921813731454
-0.9542349342006613   -0.1395645673174745   -0.022601921813731454
-0.9542349342006613   -0.1395645673174745   -0.022601921813731454
-0.9542349342006613   -0.1395645673174745   -0.022601921813731454
-0.0060845886358386544   0.0909116452936004   0.031263441236897165
-0.0060845886358386544   0.0909116452936004   0.031263441236897165
-0.0060845886358386544   0.0909116452936004   0.031263441236897165
-0.0060845886358386544   0.0909116452936004   0.031263441236897165
-0.4585627518225725   -0.007791102833565294   -0.008774127302051196
-0.4585627518225725   -0.007791102833565294   -0.008774127302051196
-0.4585627518225725   -0.007791102833565294   -0.008774127302051196
-0.4585627518225725   -0.007791102833565294   -0.008774127302051196
-0.011817636226396087   0.06011770529639932   0.033392143281311064
-0.011817636226396087   0.06011770529639932   0.033392143281311064
-0.011817636226396087   0.06011770529639932   0.033392143281311064
-0.011817636226396087   0.06011770529639932   0.033392143281311064
-0.947578925203925   -0.10784766591408299   -0.021038778233433357
-0.947578925203925   -0.10784766591408299   -0.021038778233433357
-0.947578925203925   -0.10784766591408299   -0.021038778233433357
-0.947578925203925   -0.10784766591408299   -0.021038778233433357
-0.9961764040922202   -0.15639421787173177   -0.01486085522135374
-0.9961764040922202   -0.15639421787173177   -0.01486085522135374
-0.9961764040922202   -0.15639421787173177   -0.01486085522135374
-0.9961764040922202   -0.15639421787173177   -0.01486085522135374
-0.04811535983274781   0.06712787255689093   0.035543631984792046
-0.04811535983274781   0.06712787255689093   0.035543631984792046
-0.04811535983274781   0.06712787255689093   0.035543631984792046
-0.04811535983274781   0.06712787255689093   0.035543631984792046
-0.5020816431126038   -0.02903946134754322   -0.020066246731734357
-0.5020816431126038   -0.02903946134754322   -0.020066246731734357
-0.5020816431126038   -0.02903946134754322   -0.020066246731734357
-0.5020816431126038   -0.02903946134754322   -0.020066246731734357
-0.8138756678555152   0.12097104070139647   0.04019972801340305
-0.8138756678555152   0.12097104070139647   0.04019972801340305
-0.8138756678555152   0.12097104070139647   0.04019972801340305
-0.8138756678555152   0.12097104070139647   0.04019972801340305
-1.7304481468389603   -0.0766501952682041   -0.04875308257433637
-1.7304481468389603   -0.0766501952682041   -0.04875308257433637
-1.7304481468389603   -0.0766501952682041   -0.04875308257433637
-1.7304481468389603   -0.0766501952682041   -0.04875308257433637
-1.7685241788065384   -0.0944637399664583   -0.0076199056044647245
-1.7685241788065384   -0.0944637399664583   -0.0076199056044647245
-1.7685241788065384   -0.0944637399664583   -0.0076199056044647245
-1.7685241788065384   -0.0944637399664583   -0.0076199056044647245
-0.8656666273947295   0.08779818550556256   -0.001519695812177646
-0.8656666273947295   0.08779818550556256   -0.001519695812177646
-0.8656666273947295   0.08779818550556256   -0.001519695812177646
-0.8656666273947295   0.08779818550556256   -0.001519695812177646
-1.2852827997230705   0.013417652311649542   0.009347219048298896
-1.2852827997230705   0.013417652311649542   0.009347219048298896
-1.2852827997230705   0.013417652311649542   0.009347219048298896
-1.2852827997230705   0.013417652311649542   0.009347219048298896
-0.8541017349799968   0.09897110022762734   0.04513185153942183
-0.8541017349799968   0.09897110022762734   0.04513185153942183
-0.8541017349799968   0.09897110022762734   0.04513185153942183
-0.8541017349799968   0.09897110022762734   0.04513185153942183
-1.7786254984548808   -0.10417308192213531   -0.048417161890515675
-1.7786254984548808   -0.10417308192213531   -0.048417161890515675
-1.7786254984548808   -0.10417308192213531   -0.048417161890515675
-1.7786254984548808   -0.10417308192213531   -0.048417161890515675
-1.8205275360819844   -0.11848538177438989   -0.00670938415000967
-1.8205275360819844   -0.11848538177438989   -0.00670938415000967
-1.8205275360819844   -0.11848538177438989   -0.00670938415000967
-1.8205275360819844   -0.11848538177438989   -0.00670938415000967
-0.9083812205252726   0.06370509168649025   0.0033969875592551185
-0.9083812205252726   0.06370509168649025   0.0033969875592551185
-0.9083812205252726   0.06370509168649025   0.0033969875592551185
-0.9083812205252726   0.06370509168649025   0.0033969875592551185
-1.321747313056862   -0.005724938664266377   0.0008602291658539457
-1.321747313056862   -0.005724938664266377   0.0008602291658539457
-1.321747313056862   -0.005724938664266377   0.0008602291658539457
-1.321747313056862   -0.005724938664266377   0.0008602291658539457
-0.8957197983483983   0.07824990052362585   0.0521592896064829
-0.8957197983483983   0.07824990052362585   0.0521592896064829
-0.8957197983483983   0.07824990052362585   0.0521592896064829
-0.8957197983483983   0.07824990052362585   0.0521592896064829
-1.830228349610243   -0.13006958196290347   -0.043629251602804314
-1.830228349610243   -0.13006958196290347   -0.043629251602804314
-1.830228349610243   -0.13006958196290347   -0.043629251602804314
-1.830228349610243   -0.13006958196290347   -0.043629251602804314
-1.8684223025316793   -0.1441925708672513   0.00534049307584647
-1.8684223025316793   -0.1441925708672513   0.00534049307584647
-1.8684223025316793   -0.1441925708672513   0.00534049307584647
-1.8684223025316793   -0.1441925708672513   0.00534049307584647
-0.9536465145392383   0.0350642813245956   0.00633009334723969
-0.9536465145392383   0.0350642813245956   0.00633009334723969
-0.9536465145392383   0.0350642813245956   0.00633009334723969
-0.9536465145392383   0.0350642813245956   0.00633009334723969
-1.3785154539456734   -0.03251729976544243   -0.010522775664650402
-1.3785154539456734   -0.03251729976544243   -0.010522775664650402
-1.3785154539456734   -0.03251729976544243   -0.010522775664650402
-1.3785154539456734   -0.03251729976544243   -0.010522775664650402
-1.6689181371671966   0.12587726649964065   0.05636950401662265
-1.6689181371671966   0.12587726649964065   0.05636950401662265
-1.6689181371671966   0.12587726649964065   0.05636950401662265
-1.6689181371671966   0.12587726649964065   0.05636950401662265
-2.554042566859092   -0.11808344307568636   -0.04512456662044913
-2.554042566859092   -0.11808344307568636   -0.04512456662044913
-2.554042566859092   -0.11808344307568636   -0.04512456662044913
-2.554042566859092   -0.11808344307568636   -0.04512456662044913
-2.5893671493634463   -0.05135624078487655   0.04802828603138118
-2.5893671493634463   -0.05135624078487655   0.04802828603138118
-2.5893671493634463   -0.05135624078487655   0.04802828603138118
-2.5893671493634463   -0.05135624078487655   0.04802828603138118
-1.7427284585139642   0.0523117181230362   -0.025416762231089116
-1.7427284585139642   0.0523117181230362   -0.025416762231089116
-1.7427284585139642   0.0523117181230362   -0.025416762231089116
-1.7427284585139642   0.0523117181230362   -0.025416762231089116
-2.044296075750157   0.026304260777748167   0.04686196772683643
-2.044296075750157   0.026304260777748167   0.04686196772683643
-2.044296075750157   0.026304260777748167   0.04686196772683643
-2.044296075750157   0.026304260777748167   0.04686196772683643
-1.7095625187407177   0.12795329923753063   0.06477135552062702
-1.7095625187407177   0.12795329923753063   0.06477135552062702
-1.7095625187407177   0.12795329923753063   0.06477135552062702
-1.7095625187407177   0.12795329923753063   0.06477135552062702
-2.6205742872092967   -0.12503901997196082   -0.034324624010741475
-2.6205742872092967   -0.12503901997196082   -0.034324624010741475
-2.6205742872092967   -0.12503901997196082   -0.034324624010741475
-2.6205742872092967   -0.12503901997196082   -0.034324624010741475
-2.6539460118554867   -0.06392171700154059   0.0663646463548472
-2.6539460118554867   -0.06392171700154059   0.0663646463548472
-2.6539460118554867   -0.06392171700154059   0.0663646463548472
-2.6539460118554867   -0.06392171700154059   0.0663646463548472
-1.792321840767915   0.03846293717886823   -0.022629226532920974
-1.792321840767915   0.03846293717886823   -0.022629226532920974
-1.792321840767915   0.03846293717886823   -0.022629226532920974
-1.792321840767915   0.03846293717886823   -0.022629226532920974
-2.1329044720716044   0.012954431985102821   0.029996166173333616
-2.1329044720716044   0.012954431985102821   0.029996166173333616
-2.1329044720716044   0.012954431985102821   0.029996166173333616
-2.1329044720716044   0.012954431985102821   0.029996166173333616
-1.7556934188150548   0.11854253034802142   0.08043329006222591
-1.7556934188150548   0.11854253034802142   0.08043329006222591
-1.7556934188150548   0.11854253034802142   0.08043329006222591
-1.7556934188150548   0.11854253034802142   0.08043329006222591
-2.6886871914450476   -0.1421140678073875   -0.029148900787066653
-2.6886871914450476   -0.1421140678073875   -0.029148900787066653
-2.6886871914450476   -0.1421140678073875   -0.029148900787066653
-2.6886871914450476   -0.1421140678073875   -0.029148900787066653
-2.741528386682879   -0.11760483675019567   0.06606519190354403
-2.741528386682879   -0.11760483675019567   0.06606519190354403
-2.741528386682879   -0.11760483675019567   0.06606519190354403
-2.741528386682879   -0.11760483675019567   0.06606519190354403
-1.8454804114156893   -0.002897395533452085   -0.021245226678002577
-1.8454804114156893   -0.002897395533452085   -0.021245226678002577
-1.8454804114156893   -0.002897395533452085   -0.021245226678002577
-1.8454804114156893   -0.002897395533452085   -0.021245226678002577
-2.1590183844832707   -0.006186608948242467   0.024342211758285742
-2.1590183844832707   -0.006186608948242467   0.024342211758285742
-2.1590183844832707   -0.006186608948242467   0.024342211758285742
-2.1590183844832707   -0.006186608948242467   0.024342211758285742
1.4653041702270286   0.08124873005286562   -0.07033561411215491
1.4653041702270286   0.08124873005286562   -0.07033561411215491
1.4653041702270286   0.08124873005286562   -0.07033561411215491
1.4653041702270286   0.08124873005286562   -0.07033561411215491
0.6972007741525795   0.014341746089042623   0.026902255803001207
0.6972007741525795   0.014341746089042623   0.026902255803001207
0.6972007741525795   0.014341746089042623   0.026902255803001207
0.6972007741525795   0.014341746089042623   0.026902255803001207
0.6190152923063406   -0.11905397529595016   -0.06674535938411923
0.6190152923063406   -0.11905397529595016   -0.06674535938411923
0.6190152923063406   -0.11905397529595016   -0.06674535938411923
0.6190152923063406   -0.11905397529595016   -0.06674535938411923
1.4333434362696365   0.13487649731741597   0.03325372928732069
1.4333434362696365   0.13487649731741597   0.03325372928732069
1.4333434362696365   0.13487649731741597   0.03325372928732069
1.4333434362696365   0.13487649731741597   0.03325372928732069
0.9992962235335028   0.01352872113022513   -0.029540003715455725
0.9992962235335028   0.01352872113022513   -0.029540003715455725
0.9992962235335028   0.01352872113022513   -0.029540003715455725
0.9992962235335028   0.01352872113022513   -0.029540003715455725
1.3936139423086875   0.035926148284451065   -0.06644339148445992
1.3936139423086875   0.035926148284451065   -0.06644339148445992
1.3936139423086875   0.035926148284451065   -0.06644339148445992
1.3936139423086875   0.035926148284451065   -0.06644339148445992
0.6579591159272508   -0.02088929660302488   0.0298090800275021
0.6579591159272508   -0.02088929660302488   0.0298090800275021
0.6579591159272508   -0.02088929660302488   0.0298090800275021
0.6579591159272508   -0.02088929660302488   0.0298090800275021
0.5824724269426818   -0.13078732318943356   -0.05689928919029619
0.5824724269426818   -0.13078732318943356   -0.05689928919029619
0.5824724269426818   -0.13078732318943356   -0.05689928919029619
0.5824724269426818   -0.13078732318943356   -0.05689928919029619
1.3765276358088592   0.11811855295997029   0.04369039958041406
1.3765276358088592   0.11811855295997029   0.04369039958041406
1.3765276358088592   0.11811855295997029   0.04369039958041406
1.3765276358088592   0.11811855295997029   0.04369039958041406
0.9664669922956984   -0.006784929564815773   -0.041582786714096064
0.9664669922956984   -0.006784929564815773   -0.041582786714096064
0.9664669922956984   -0.006784929564815773   -0.041582786714096064
0.9664669922956984   -0.006784929564815773   -0.041582786714096064
1.3377341967404601   0.02101103337321797   -0.05316927617481687
1.3377341967404601   0.02101103337321797   -0.05316927617481687
1.3377341967404601   0.02101103337321797   -0.05316927617481687
1.3377341967404601   0.02101103337321797   -0.05316927617481687
0.6202808740038174   -0.034664795609943705   0.03602041853588605
0.6202808740038174   -0.034664795609943705   0.03602041853588605
0.6202808740038174   -0.034664795609943705   0.03602041853588605
0.6202808740038174   -0.034664795609943705   0.03602041853588605
0.5495218933096587   -0.13812411932569532   -0.04738013535221157
0.5495218933096587   -0.13812411932569532   -0.04738013535221157
0.5495218933096587   -0.13812411932569532   -0.04738013535221157
0.5495218933096587   -0.13812411932569532   -0.04738013535221157
1.3124729097625298   0.09989616146917354   0.051863315368115843
1.3124729097625298   0.09989616146917354   0.051863315368115843
1.3124729097625298   0.09989616146917354   0.051863315368115843
1.3124729097625298   0.09989616146917354   0.051863315368115843
0.9019324972731129   -0.022173356987391618   -0.05934035681620007
0.9019324972731129   -0.022173356987391618   -0.05934035681620007
0.9019324972731129   -0.022173356987391618   -0.05934035681620007
0.9019324972731129   -0.022173356987391618   -0.05934035681620007
0.708687178001647   0.10306350693605076   -0.004387485798656984
0.708687178001647   0.10306350693605076   -0.004387485798656984
0.708687178001647   0.10306350693605076   -0.004387485798656984
0.708687178001647   0.10306350693605076   -0.004387485798656984
-0.045910324673792545   -0.009793516465104969   -0.0002600527024558786
-0.045910324673792545   -0.009793516465104969   -0.0002600527024558786
-0.045910324673792545   -0.009793516465104969   -0.0002600527024558786
-0.045910324673792545   -0.009793516465104969   -0.0002600527024558786
-0.10098535255755951   -0.08900884729238356   -0.042380123816999904
-0.10098535255755951   -0.08900884729238356   -0.042380123816999904
-0.10098535255755951   -0.08900884729238356   -0.042380123816999904
-0.10098535255755951   -0.08900884729238356   -0.042380123816999904
0.6901085087500962   0.12254274502834017   0.047124002510364055
0.6901085087500962   0.12254274502834017   0.047124002510364055
0.6901085087500962   0.12254274502834017   0.047124002510364055
0.6901085087500962   0.12254274502834017   0.047124002510364055
0.3081575165624774   0.03028635772388031   0.002170303588454091
0.3081575165624774   0.03028635772388031   0.002170303588454091
0.3081575165624774   0.03028635772388031   0.002170303588454091
0.3081575165624774   0.03028635772388031   0.002170303588454091
0.6714246041697216   0.0743321781198672   0.0019150465169726905
0.6714246041697216   0.0743321781198672   0.0019150465169726905
0.6714246041697216   0.0743321781198672   0.0019150465169726905
0.6714246041697216   0.0743321781198672   0.0019150465169726905
-0.08197961203566566   -0.04047644444238987   0.004116175942475707
-0.08197961203566566   -0.04047644444238987   0.004116175942475707
-0.08197961203566566   -0.04047644444238987   0.004116175942475707
-0.08197961203566566   -0.04047644444238987   0.004116175942475707
-0.13540959806240196   -0.11118598154644942   -0.03502108601642546
-0.13540959806240196   -0.11118598154644942   -0.03502108601642546
-0.13540959806240196   -0.11118598154644942   -0.03502108601642546
-0.13540959806240196   -0.11118598154644942   -0.03502108601642546
0.6495335826396326   0.09609777784536255   0.051521388259655944
0.6495335826396326   0.09609777784536255   0.051521388259655944
0.6495335826396326   0.09609777784536255   0.051521388259655944
0.6495335826396326   0.09609777784536255   0.051521388259655944
0.2657670638558055   0.004148385854571397   -0.010956076632004149
0.2657670638558055   0.004148385854571397   -0.010956076632004149
0.2657670638558055   0.004148385854571397   -0.010956076632004149
0.2657670638558055   0.004148385854571397   -0.010956076632004149
0.6314665174430063   0.050541855651913256   0.006741984469979662
0.6314665174430063   0.050541855651913256   0.006741984469979662
0.6314665174430063   0.050541855651913256   0.006741984469979662
0.6314665174430063   0.050541855651913256   0.006741984469979662
-0.11760124497320008   -0.06588877146042357   0.008723469343558042
-0.11760124497320008   -0.06588877146042357   0.008723469343558042
-0.11760124497320008   -0.06588877146042357   0.008723469343558042
-0.11760124497320008   -0.06588877146042357   0.008723469343558042
-0.16938867630936646   -0.12984823893461192   -0.028106253608832264
-0.16938867630936646   -0.12984823893461192   -0.028106253608832264
-0.16938867630936646   -0.12984823893461192   -0.028106253608832264
-0.16938867630936646   -0.12984823893461192   -0.028106253608832264
0.6120720462472476   0.07161241491956125   0.05563409509047309
0.6120720462472476   0.07161241491956125   0.05563409509047309
0.6120720462472476   0.07161241491956125   0.05563409509047309
0.6120720462472476   0.07161241491956125   0.05563409509047309
0.23320070095694978   -0.015708492754570008   -0.021906406726965345
0.23320070095694978   -0.015708492754570008   -0.021906406726965345
0.23320070095694978   -0.015708492754570008   -0.021906406726965345
0.23320070095694978   -0.015708492754570008   -0.021906406726965345
-0.015857906274080902   0.1231344899440207   0.01707403288697667
-0.015857906274080902   0.1231344899440207   0.01707403288697667
-0.015857906274080902   0.1231344899440207   0.01707403288697667
-0.015857906274080902   0.1231344899440207   0.01707403288697667
-0.7731714357635412   -0.03331690576849444   -0.025647976764035338
-0.7731714357635412   -0.03331690576849444   -0.025647976764035338
-0.7731714357635412   -0.03331690576849444   -0.025647976764035338
-0.7731714357635412   -0.03331690576849444   -0.025647976764035338
-0.8086710819631654   -0.061623395930337055   -0.020004903013044736
-0.8086710819631654   -0.061623395930337055   -0.020004903013044736
-0.8086710819631654   -0.061623395930337055   -0.020004903013044736
-0.8086710819631654   -0.061623395930337055   -0.020004903013044736
-0.05081001071224876   0.09897418727858034   0.02051355083858994
-0.05081001071224876   0.09897418727858034   0.02051355083858994
-0.05081001071224876   0.09897418727858034   0.02051355083858994
-0.05081001071224876   0.09897418727858034   0.02051355083858994
-0.41115254270698404   0.03201417639259743   0.008069613996330313
-0.41115254270698404   0.03201417639259743   0.008069613996330313
-0.41115254270698404   0.03201417639259743   0.008069613996330313
-0.41115254270698404   0.03201417639259743   0.008069613996330313
-0.05011677843680021   0.09889935439702294   0.024054545097390127
-0.05011677843680021   0.09889935439702294   0.024054545097390127
-0.05011677843680021   0.09889935439702294   0.024054545097390127
-0.05011677843680021   0.09889935439702294   0.024054545097390127
-0.8086978294718161   -0.06088207828198182   -0.020879958204653565
-0.8086978294718161   -0.06088207828198182   -0.020879958204653565
-0.8086978294718161   -0.06088207828198182   -0.020879958204653565
-0.8086978294718161   -0.06088207828198182   -0.020879958204653565
-0.8439304239759866   -0.08562602532858934   -0.013579076533903604
-0.8439304239759866   -0.08562602532858934   -0.013579076533903604
-0.8439304239759866   -0.08562602532858934   -0.013579076533903604
-0.8439304239759866   -0.08562602532858934   -0.013579076533903604
-0.08669626793609077   0.07174287451484368   0.025616708553837395
-0.08669626793609077   0.07174287451484368   0.025616708553837395
-0.08669626793609077   0.07174287451484368   0.025616708553837395
-0.08669626793609077   0.07174287451484368   0.025616708553837395
-0.44677462265412815   0.008350797547963543   -0.002587805181789561
-0.44677462265412815   0.008350797547963543   -0.002587805181789561
-0.44677462265412815   0.008350797547963543   -0.002587805181789561
-0.44677462265412815   0.008350797547963543   -0.002587805181789561
-0.08529325944054328   0.07474345666213644   0.02963116888428205
-0.08529325944054328   0.07474345666213644   0.02963116888428205
-0.08529325944054328   0.07474345666213644   0.02963116888428205
-0.08529325944054328   0.07474345666213644   0.02963116888428205
-0.8451347954327155   -0.08842797043706344   -0.016798988709073537
-0.8451347954327155   -0.08842797043706344   -0.016798988709073537
-0.8451347954327155   -0.08842797043706344   -0.016798988709073537
-0.8451347954327155   -0.08842797043706344   -0.016798988709073537
-0.8787799530850999   -0.10755798189158404   -0.007221047005169314
-0.8787799530850999   -0.10755798189158404   -0.007221047005169314
-0.8787799530850999   -0.10755798189158404   -0.007221047005169314
-0.8787799530850999   -0.10755798189158404   -0.007221047005169314
-0.12272519967110336   0.04540538162651096   0.029957509021364293
-0.12272519967110336   0.04540538162651096   0.029957509021364293
-0.12272519967110336   0.04540538162651096   0.029957509021364293
-0.12272519967110336   0.04540538162651096   0.029957509021364293
-0.4840245246252012   -0.015514275313633516   -0.014453253478449574
-0.4840245246252012   -0.015514275313633516   -0.014453253478449574
-0.4840245246252012   -0.015514275313633516   -0.014453253478449574
-0.4840245246252012   -0.015514275313633516   -0.014453253478449574
-0.7256304982911187   0.14150992660178952   0.037229878227789934
-0.7256304982911187   0.14150992660178952   0.037229878227789934
-0.7256304982911187   0.14150992660178952   0.037229878227789934
-0.7256304982911187   0.14150992660178952   0.037229878227789934
-1.4835396577210243   -0.05732856060035457   -0.04628816372524143
-1.4835396577210243   -0.05732856060035457   -0.04628816372524143
-1.4835396577210243   -0.05732856060035457   -0.04628816372524143
-1.4835396577210243   -0.05732856060035457   -0.04628816372524143
-1.502951221899659   -0.03847867285370299   0.004380606896424083
-1.502951221899659   -0.03847867285370299   0.004380606896424083
-1.502951221899659   -0.03847867285370299   0.004380606896424083
-1.502951221899659   -0.03847867285370299   0.004380606896424083
-0.779339576239654   0.07103954448312133   -0.006010314808934741
-0.779339576239654   0.07103954448312133   -0.006010314808934741
-0.779339576239654   0.07103954448312133   -0.006010314808934741
-0.779339576239654   0.07103954448312133   -0.006010314808934741
-1.1155858051058845   0.03062007786341797   0.013680394985911976
-1.1155858051058845   0.03062007786341797   0.013680394985911976
-1.1155858051058845   0.03062007786341797   0.013680394985911976
-1.1155858051058845   0.03062007786341797   0.013680394985911976
-0.7599483403400004   0.1180357199278605   0.04394968924458287
-0.7599483403400004   0.1180357199278605   0.04394968924458287
-0.7599483403400004   0.1180357199278605   0.04394968924458287
-0.7599483403400004   0.1180357199278605   0.04394968924458287
-1.5221565146486333   -0.08528890514776477   -0.04483562455438575
-1.5221565146486333   -0.08528890514776477   -0.04483562455438575
-1.5221565146486333   -0.08528890514776477   -0.04483562455438575
-1.5221565146486333   -0.08528890514776477   -0.04483562455438575
-1.544005518440703   -0.06274049511364321   0.006793351474018286
-1.544005518440703   -0.06274049511364321   0.006793351474018286
-1.544005518440703   -0.06274049511364321   0.006793351474018286
-1.544005518440703   -0.06274049511364321   0.006793351474018286
-0.8150888571357349   0.04582040034984816   -0.0008176680110709225
-0.8150888571357349   0.04582040034984816   -0.0008176680110709225
-0.8150888571357349   0.04582040034984816   -0.0008176680110709225
-0.8150888571357349   0.04582040034984816   -0.0008176680110709225
-1.1457519206386713   0.009487885971561083   0.003755431172202034
-1.1457519206386713   0.009487885971561083   0.003755431172202034
-1.1457519206386713   0.009487885971561083   0.003755431172202034
-1.1457519206386713   0.009487885971561083   0.003755431172202034
-0.7948914267066944   0.09576802486262562   0.05022185962135371
-0.7948914267066944   0.09576802486262562   0.05022185962135371
-0.7948914267066944   0.09576802486262562   0.05022185962135371
-0.7948914267066944   0.09576802486262562   0.05022185962135371
-1.5631609529611603   -0.11164612371783736   -0.04007819252407303
-1.5631609529611603   -0.11164612371783736   -0.04007819252407303
-1.5631609529611603   -0.11164612371783736   -0.04007819252407303
-1.5631609529611603   -0.11164612371783736   -0.04007819252407303
-1.581256198798104   -0.08884151583977551   0.01441079178424981
-1.581256198798104   -0.08884151583977551   0.01441079178424981
-1.581256198798104   -0.08884151583977551   0.01441079178424981
-1.581256198798104   -0.08884151583977551   0.01441079178424981
-0.8518375909299917   0.016988946333259702   0.00294383554553624
-0.8518375909299917   0.016988946333259702   0.00294383554553624
-0.8518375909299917   0.016988946333259702   0.00294383554553624
-0.8518375909299917   0.016988946333259702   0.00294383554553624
-1.1915892497899867   -0.01696776865442201   -0.008827572947807685
-1.1915892497899867   -0.01696776865442201   -0.008827572947807685
-1.1915892497899867   -0.01696776865442201   -0.008827572947807685
-1.1915892497899867   -0.01696776865442201   -0.008827572947807685
-1.4269024116545284   0.12690283540891045   0.05266667059797135
-1.4269024116545284   0.12690283540891045   0.05266667059797135
-1.4269024116545284   0.12690283540891045   0.05266667059797135
-1.4269024116545284   0.12690283540891045   0.05266667059797135
-2.158587077919223   -0.09953265363042108   -0.051142499357336224
-2.158587077919223   -0.09953265363042108   -0.051142499357336224
-2.158587077919223   -0.09953265363042108   -0.051142499357336224
-2.158587077919223   -0.09953265363042108   -0.051142499357336224
-2.182769618971359   -0.02089981167478172   0.04856674923727766
-2.182769618971359   -0.02089981167478172   0.04856674923727766
-2.182769618971359   -0.02089981167478172   0.04856674923727766
-2.182769618971359   -0.02089981167478172   0.04856674923727766
-1.4950037078713332   0.03562897151631972   -0.029989467331968375
-1.4950037078713332   0.03562897151631972   -0.029989467331968375
-1.4950037078713332   0.03562897151631972   -0.029989467331968375
-1.4950037078713332   0.03562897151631972   -0.029989467331968375
-1.7355218485321187   0.028635236361999772   0.04242939005165709
-1.7355218485321187   0.028635236361999772   0.04242939005165709
-1.7355218485321187   0.028635236361999772   0.04242939005165709
-1.7355218485321187   0.028635236361999772   0.04242939005165709
-1.4584564217710758   0.12660388737913142   0.06177204730649867
-1.4584564217710758   0.12660388737913142   0.06177204730649867
-1.4584564217710758   0.12660388737913142   0.06177204730649867
-1.4584564217710758   0.12660388737913142   0.06177204730649867
-2.2186938024277647   -0.11125162489372858   -0.04070235482577826
-2.2186938024277647   -0.11125162489372858   -0.04070235482577826
-2.2186938024277647   -0.11125162489372858   -0.04070235482577826
-2.2186938024277647   -0.11125162489372858   -0.04070235482577826
-2.2364989453848665   -0.03369477996691994   0.06075929235515125
-2.2364989453848665   -0.03369477996691994   0.06075929235515125
-2.2364989453848665   -0.03369477996691994   0.06075929235515125
-2.2364989453848665   -0.03369477996691994   0.06075929235515125
-1.53359696883603   0.021801282288377577   -0.025705677904636612
-1.53359696883603   0.021801282288377577   -0.025705677904636612
-1.53359696883603   0.021801282288377577   -0.025705677904636612
-1.53359696883603   0.021801282288377577   -0.025705677904636612
-1.8104094332659493   0.014343891456204405   0.025715188882665094
-1.8104094332659493   0.014343891456204405   0.025715188882665094
-1.8104094332659493   0.014343891456204405   0.025715188882665094
-1.8104094332659493   0.014343891456204405   0.025715188882665094
-1.4948280204167366   0.11706301320977475   0.07287733327043334
-1.4948280204167366   0.11706301320977475   0.07287733327043334
-1.4948280204167366   0.11706301320977475   0.07287733327043334
-1.4948280204167366   0.11706301320977475   0.07287733327043334
-2.2742460334950465   -0.12793465057918957   -0.03373627758345564
-2.2742460334950465   -0.12793465057918957   -0.03373627758345564
-2.2742460334950465   -0.12793465057918957   -0.03373627758345564
-2.2742460334950465   -0.12793465057918957   -0.03373627758345564
-2.30740731373913   -0.07909140937439707   0.059711606440713466
-2.30740731373913   -0.07909140937439707   0.059711606440713466
-2.30740731373913   -0.07909140937439707   0.059711606440713466
-2.30740731373913   -0.07909140937439707   0.059711606440713466
-1.5743343926032505   -0.016531697810278634   -0.023289995270979316
-1.5743343926032505   -0.016531697810278634   -0.023289995270979316
-1.5743343926032505   -0.016531697810278634   -0.023289995270979316
-1.5743343926032505   -0.016531697810278634   -0.023289995270979316
-1.8299383791909816   -0.0033932877310496323   0.020101312416615308
-1.8299383791909816   -0.0033932877310496323   0.020101312416615308
-1.8299383791909816   -0.0033932877310496323   0.020101312416615308
-1.8299383791909816   -0.0033932877310496323   0.020101312416615308
1.004148095456523   0.056706907834881776   -0.06821925677180773
1.004148095456523   0.056706907834881776   -0.06821925677180773
1.004148095456523   0.056706907834881776   -0.06821925677180773
1.004148095456523   0.056706907834881776   -0.06821925677180773
0.4289330431095109   0.0277452092605861   0.029343436894246823
0.4289330431095109   0.0277452092605861   0.029343436894246823
0.4289330431095109   0.0277452092605861   0.029343436894246823
0.4289330431095109   0.0277452092605861   0.029343436894246823
0.3585687052493966   -0.09944551685748432   -0.06358161056694077
0.3585687052493966   -0.09944551685748432   -0.06358161056694077
0.3585687052493966   -0.09944551685748432   -0.06358161056694077
0.3585687052493966   -0.09944551685748432   -0.06358161056694077
0.9803988433067986   0.11431294916299099   0.035644028195191066
0.9803988433067986   0.11431294916299099   0.035644028195191066
0.9803988433067986   0.11431294916299099   0.035644028195191066
0.9803988433067986   0.11431294916299099   0.035644028195191066
0.6563029701572347   0.014572144772845963   -0.01793802237774511
0.6563029701572347   0.014572144772845963   -0.01793802237774511
0.6563029701572347   0.014572144772845963   -0.01793802237774511
0.6563029701572347   0.014572144772845963   -0.01793802237774511
0.9410966714925916   0.017054685134975156   -0.06360856684783849
0.9410966714925916   0.017054685134975156   -0.06360856684783849
0.9410966714925916   0.017054685134975156   -0.06360856684783849
0.9410966714925916   0.017054685134975156   -0.06360856684783849
0.39713303966606006   -0.0029250902270127332   0.03271963488591098
0.39713303966606006   -0.0029250902270127332   0.03271963488591098
0.39713303966606006   -0.0029250902270127332   0.03271963488591098
0.39713303966606006   -0.0029250902270127332   0.03271963488591098
0.32857845841286676   -0.11102833423569268   -0.05409485900190827
0.32857845841286676   -0.11102833423569268   -0.05409485900190827
0.32857845841286676   -0.11102833423569268   -0.05409485900190827
0.32857845841286676   -0.11102833423569268   -0.05409485900190827
0.9310689305404671   0.09788178113337392   0.045899992337552833
0.9310689305404671   0.09788178113337392   0.045899992337552833
0.9310689305404671   0.09788178113337392   0.045899992337552833
0.9310689305404671   0.09788178113337392   0.045899992337552833
0.6252129580947063   -0.004510980920428509   -0.029300757244485873
0.6252129580947063   -0.004510980920428509   -0.029300757244485873
0.6252129580947063   -0.004510980920428509   -0.029300757244485873
0.6252129580947063   -0.004510980920428509   -0.029300757244485873
0.892420763996951   0.0022227390268113323   -0.05168179827347239
0.892420763996951   0.0022227390268113323   -0.05168179827347239
0.892420763996951   0.0022227390268113323   -0.05168179827347239
0.892420763996951   0.0022227390268113323   -0.05168179827347239
0.36614191246366434   -0.016454004621849386   0.039148081638239116
0.36614191246366434   -0.016454004621849386   0.039148081638239116
0.36614191246366434   -0.016454004621849386   0.039148081638239116
0.36614191246366434   -0.016454004621849386   0.039148081638239116
0.30175906484923093   -0.12163486189762283   -0.04507795655256707
0.30175906484923093   -0.12163486189762283   -0.04507795655256707
0.30175906484923093   -0.12163486189762283   -0.04507795655256707
0.30175906484923093   -0.12163486189762283   -0.04507795655256707
0.8735030015218893   0.07622135490114847   0.052357814358903715
0.8735030015218893   0.07622135490114847   0.052357814358903715
0.8735030015218893   0.07622135490114847   0.052357814358903715
0.8735030015218893   0.07622135490114847   0.052357814358903715
0.5728643579633528   -0.020201873507051507   -0.04486113827497634
0.5728643579633528   -0.020201873507051507   -0.04486113827497634
0.5728643579633528   -0.020201873507051507   -0.04486113827497634
0.5728643579633528   -0.020201873507051507   -0.04486113827497634
0.43169321285527923   0.08329758379827829   -0.012408088914611353
0.43169321285527923   0.08329758379827829   -0.012408088914611353
0.43169321285527923   0.08329758379827829   -0.012408088914611353
0.43169321285527923   0.08329758379827829   -0.012408088914611353
-0.13297219983789627   0.00740985345587258   0.004048796120691896
-0.13297219983789627   0.00740985345587258   0.004048796120691896
-0.13297219983789627   0.00740985345587258   0.004048796120691896
-0.13297219983789627   0.00740985345587258   0.004048796120691896
-0.18107496488214367   -0.06894333926083504   -0.039122945303272115
-0.18107496488214367   -0.06894333926083504   -0.039122945303272115
-0.18107496488214367   -0.06894333926083504   -0.039122945303272115
-0.18107496488214367   -0.06894333926083504   -0.039122945303272115
0.4196049084067372   0.10018760021725741   0.041966288145026336
0.4196049084067372   0.10018760021725741   0.041966288145026336
0.4196049084067372   0.10018760021725741   0.041966288145026336
0.4196049084067372   0.10018760021725741   0.041966288145026336
0.13136272126144274   0.029010565752241358   0.005026975287047891
0.13136272126144274   0.029010565752241358   0.005026975287047891
0.13136272126144274   0.029010565752241358   0.005026975287047891
0.13136272126144274   0.029010565752241358   0.005026975287047891
0.40060774496556406   0.053876171667203   -0.00670810051078967
0.40060774496556406   0.053876171667203   -0.00670810051078967
0.40060774496556406   0.053876171667203   -0.00670810051078967
0.40060774496556406   0.053876171667203   -0.00670810051078967
-0.1623553819116137   -0.022909491181424574   0.008441121469967304
-0.1623553819116137   -0.022909491181424574   0.008441121469967304
-0.1623553819116137   -0.022909491181424574   0.008441121469967304
-0.1623553819116137   -0.022909491181424574   0.008441121469967304
-0.20897272759229546   -0.09223457657190491   -0.031634073594753266
-0.20897272759229546   -0.09223457657190491   -0.031634073594753266
-0.20897272759229546   -0.09223457657190491   -0.031634073594753266
-0.20897272759229546   -0.09223457657190491   -0.031634073594753266
0.3853957213782128   0.07333827692949008   0.0456248446596421
0.3853957213782128   0.07333827692949008   0.0456248446596421
0.3853957213782128   0.07333827692949008   0.0456248446596421
0.3853957213782128   0.07333827692949008   0.0456248446596421
0.09698474640370226   0.0027072870110225015   -0.007608920279903571
0.09698474640370226   0.0027072870110225015   -0.007608920279903571
0.09698474640370226   0.0027072870110225015   -0.007608920279903571
0.09698474640370226   0.0027072870110225015   -0.007608920279903571
0.36699899299004624   0.028902065160977285   -0.0019225855126839882
0.36699899299004624   0.028902065160977285   -0.0019225855126839882
0.36699899299004624   0.028902065160977285   -0.0019225855126839882
0.36699899299004624   0.028902065160977285   -0.0019225855126839882
-0.1912821488177456   -0.048504514417009814   0.013088758123101077
-0.1912821488177456   -0.048504514417009814   0.013088758123101077
-0.1912821488177456   -0.048504514417009814   0.013088758123101077
-0.1912821488177456   -0.048504514417009814   0.013088758123101077
-0.23650318966752465   -0.11417217118972113   -0.024713599541166385
-0.23650318966752465   -0.11417217118972113   -0.024713599541166385
-0.23650318966752465   -0.11417217118972113   -0.024713599541166385
-0.23650318966752465   -0.11417217118972113   -0.024713599541166385
0.35452462131829127   0.047499616301321886   0.04961534759379876
0.35452462131829127   0.047499616301321886   0.04961534759379876
0.35452462131829127   0.047499616301321886   0.04961534759379876
0.35452462131829127   0.047499616301321886   0.04961534759379876
0.06934432221666496   -0.019169596639995866   -0.01878345115202713
0.06934432221666496   -0.019169596639995866   -0.01878345115202713
0.06934432221666496   -0.019169596639995866   -0.01878345115202713
0.06934432221666496   -0.019169596639995866   -0.01878345115202713
-0.11214667409735805   0.10594574797783296   0.009640530301418607
-0.11214667409735805   0.10594574797783296   0.009640530301418607
-0.11214667409735805   0.10594574797783296   0.009640530301418607
-0.11214667409735805   0.10594574797783296   0.009640530301418607
-0.6865810520682994   -0.017119227000608056   -0.02085288011184501
-0.6865810520682994   -0.017119227000608056   -0.02085288011184501
-0.6865810520682994   -0.017119227000608056   -0.02085288011184501
-0.6865810520682994   -0.017119227000608056   -0.02085288011184501
-0.7140910655721263   -0.040852539766170606   -0.015339029525287224
-0.7140910655721263   -0.040852539766170606   -0.015339029525287224
-0.7140910655721263   -0.040852539766170606   -0.015339029525287224
-0.7140910655721263   -0.040852539766170606   -0.015339029525287224
-0.14093033591403428   0.07640138505178846   0.016255475224647466
-0.14093033591403428   0.07640138505178846   0.016255475224647466
-0.14093033591403428   0.07640138505178846   0.016255475224647466
-0.14093033591403428   0.07640138505178846   0.016255475224647466
-0.4124332815941619   0.030619666439212878   0.008137089199635981
-0.4124332815941619   0.030619666439212878   0.008137089199635981
-0.4124332815941619   0.030619666439212878   0.008137089199635981
-0.4124332815941619   0.030619666439212878   0.008137089199635981
-0.14005721260718826   0.08035544341168394   0.016667033398985946
-0.14005721260718826   0.08035544341168394   0.016667033398985946
-0.14005721260718826   0.08035544341168394   0.016667033398985946
-0.14005721260718826   0.08035544341168394   0.016667033398985946
-0.7150389827822994   -0.04488139202938218   -0.016049763312940703
-0.7150389827822994   -0.04488139202938218   -0.016049763312940703
-0.7150389827822994   -0.04488139202938218   -0.016049763312940703
-0.7150389827822994   -0.04488139202938218   -0.016049763312940703
-0.7422745103842989   -0.0662290535747043   -0.008664689445694235
-0.7422745103842989   -0.0662290535747043   -0.008664689445694235
-0.7422745103842989   -0.0662290535747043   -0.008664689445694235
-0.7422745103842989   -0.0662290535747043   -0.008664689445694235
-0.1702036790591754   0.04876936018516529   0.02120723231377293
-0.1702036790591754   0.04876936018516529   0.02120723231377293
-0.1702036790591754   0.04876936018516529   0.02120723231377293
-0.1702036790591754   0.04876936018516529   0.02120723231377293
-0.44141064262817425   0.0059245794833414495   -0.0027320294243339573
-0.44141064262817425   0.0059245794833414495   -0.0027320294243339573
-0.44141064262817425   0.0059245794833414495   -0.0027320294243339573
-0.44141064262817425   0.0059245794833414495   -0.0027320294243339573
-0.16872659200396617   0.054738227954582316   0.022623799820406
-0.16872659200396617   0.054738227954582316   0.022623799820406
-0.16872659200396617   0.054738227954582316   0.022623799820406
-0.16872659200396617   0.054738227954582316   0.022623799820406
-0.7441965303834476   -0.07264285428806005   -0.011860988728081619
-0.7441965303834476   -0.07264285428806005   -0.011860988728081619
-0.7441965303834476   -0.07264285428806005   -0.011860988728081619
-0.7441965303834476   -0.07264285428806005   -0.011860988728081619
-0.7699877620289662   -0.090474406497413   -0.0021788692403928306
-0.7699877620289662   -0.090474406497413   -0.0021788692403928306
-0.7699877620289662   -0.090474406497413   -0.0021788692403928306
-0.7699877620289662   -0.090474406497413   -0.0021788692403928306
-0.19922549165135045   0.021918105758501255   0.025584613591482317
-0.19922549165135045   0.021918105758501255   0.025584613591482317
-0.19922549165135045   0.021918105758501255   0.025584613591482317
-0.19922549165135045   0.021918105758501255   0.025584613591482317
-0.4715776471647267   -0.01879967364317181   -0.01451116025603644
-0.4715776471647267   -0.01879967364317181   -0.01451116025603644
-0.4715776471647267   -0.01879967364317181   -0.01451116025603644
-0.4715776471647267   -0.01879967364317181   -0.01451116025603644
-0.6476832853755494   0.12533640990336323   0.031180316447934175
-0.6476832853755494   0.12533640990336323   0.031180316447934175
-0.6476832853755494   0.12533640990336323   0.031180316447934175
-0.6476832853755494   0.12533640990336323   0.031180316447934175
-1.2302202010492733   -0.041497329679564515   -0.042501727065728585
-1.2302202010492733   -0.041497329679564515   -0.042501727065728585
-1.2302202010492733   -0.041497329679564515   -0.042501727065728585
-1.2302202010492733   -0.041497329679564515   -0.042501727065728585
-1.2405708460977836   -0.017969150398773004   0.010177480639722986
-1.2405708460977836   -0.017969150398773004   0.010177480639722986
-1.2405708460977836   -0.017969150398773004   0.010177480639722986
-1.2405708460977836   -0.017969150398773004   0.010177480639722986
-0.6947198987174865   0.049767557519405536   -0.009103292537679691
-0.6947198987174865   0.049767557519405536   -0.009103292537679691
-0.6947198987174865   0.049767557519405536   -0.009103292537679691
-0.6947198987174865   0.049767557519405536   -0.009103292537679691
-0.9476597626980131   0.029196561351858275   0.011827642940295341
-0.9476597626980131   0.029196561351858275   0.011827642940295341
-0.9476597626980131   0.029196561351858275   0.011827642940295341
-0.9476597626980131   0.029196561351858275   0.011827642940295341
-0.6750737391156683   0.10072815622321635   0.03816690676761603
-0.6750737391156683   0.10072815622321635   0.03816690676761603
-0.6750737391156683   0.10072815622321635   0.03816690676761603
-0.6750737391156683   0.10072815622321635   0.03816690676761603
-1.2610695986286786   -0.06978234203166961   -0.04050309038186331
-1.2610695986286786   -0.06978234203166961   -0.04050309038186331
-1.2610695986286786   -0.06978234203166961   -0.04050309038186331
-1.2610695986286786   -0.06978234203166961   -0.04050309038186331
-1.2737875127078158   -0.04310063103092468   0.01327583065714582
-1.2737875127078158   -0.04310063103092468   0.01327583065714582
-1.2737875127078158   -0.04310063103092468   0.01327583065714582
-1.2737875127078158   -0.04310063103092468   0.01327583065714582
-0.7232034292664006   0.02430669731080934   -0.0038450347417230274
-0.7232034292664006   0.02430669731080934   -0.0038450347417230274
-0.7232034292664006   0.02430669731080934   -0.0038450347417230274
-0.7232034292664006   0.02430669731080934   -0.0038450347417230274
-0.9720852238602523   0.006786633298929451   0.0009258978249323466
-0.9720852238602523   0.006786633298929451   0.0009258978249323466
-0.9720852238602523   0.006786633298929451   0.0009258978249323466
-0.9720852238602523   0.006786633298929451   0.0009258978249323466
-0.7028521603546626   0.0773957289448613   0.044822278182922386
-0.7028521603546626   0.0773957289448613   0.044822278182922386
-0.7028521603546626   0.0773957289448613   0.044822278182922386
-0.7028521603546626   0.0773957289448613   0.044822278182922386
-1.294210097847677   -0.09626097889311147   -0.035676747179989296
-1.294210097847677   -0.09626097889311147   -0.035676747179989296
-1.294210097847677   -0.09626097889311147   -0.035676747179989296
-1.294210097847677   -0.09626097889311147   -0.035676747179989296
-1.3033747403909326   -0.06985999554304975   0.02023627562493003
-1.3033747403909326   -0.06985999554304975   0.02023627562493003
-1.3033747403909326   -0.06985999554304975   0.02023627562493003
-1.3033747403909326   -0.06985999554304975   0.02023627562493003
-0.7521826743746699   -0.003915158998014728   0.00028732153168260777
-0.7521826743746699   -0.003915158998014728   0.00028732153168260777
-0.7521826743746699   -0.003915158998014728   0.00028732153168260777
-0.7521826743746699   -0.003915158998014728   0.00028732153168260777
-1.0086631693941814   -0.01918812462370542   -0.011713012076999152
-1.0086631693941814   -0.01918812462370542   -0.011713012076999152
-1.0086631693941814   -0.01918812462370542   -0.011713012076999152
-1.0086631693941814   -0.01918812462370542   -0.011713012076999152
-1.180384115843593   0.11614392709399518   0.049037442189114766
-1.180384115843593   0.11614392709399518   0.049037442189114766
-1.180384115843593   0.11614392709399518   0.049037442189114766
-1.180384115843593   0.11614392709399518   0.049037442189114766
-1.741153653152591   -0.08009361773889367   -0.05532219457615423
-1.741153653152591   -0.08009361773889367   -0.05532219457615423
-1.741153653152591   -0.08009361773889367   -0.05532219457615423
-1.741153653152591   -0.08009361773889367   -0.05532219457615423
-1.7580767773711028   -0.0012651360641312004   0.04861306426554658
-1.7580767773711028   -0.0012651360641312004   0.04861306426554658
-1.7580767773711028   -0.0012651360641312004   0.04861306426554658
-1.7580767773711028   -0.0012651360641312004   0.04861306426554658
-1.2422984295311856   0.016823599916768017   -0.03325318684284456
-1.2422984295311856   0.016823599916768017   -0.03325318684284456
-1.2422984295311856   0.016823599916768017   -0.03325318684284456
-1.2422984295311856   0.016823599916768017   -0.03325318684284456
-1.4153644511478247   0.027039391059862916   0.035769963979593825
-1.4153644511478247   0.027039391059862916   0.035769963979593825
-1.4153644511478247   0.027039391059862916   0.035769963979593825
-1.4153644511478247   0.027039391059862916   0.035769963979593825
-1.2052136062838945   0.11115315930190012   0.057841370008495
-1.2052136062838945   0.11115315930190012   0.057841370008495
-1.2052136062838945   0.11115315930190012   0.057841370008495
-1.2052136062838945   0.11115315930190012   0.057841370008495
-1.7958876650209128   -0.09632075985176669   -0.045385750195852434
-1.7958876650209128   -0.09632075985176669   -0.045385750195852434
-1.7958876650209128   -0.09632075985176669   -0.045385750195852434
-1.7958876650209128   -0.09632075985176669   -0.045385750195852434
-1.8049871564985815   -0.015080999786921623   0.06127309938141896
-1.8049871564985815   -0.015080999786921623   0.06127309938141896
-1.8049871564985815   -0.015080999786921623   0.06127309938141896
-1.8049871564985815   -0.015080999786921623   0.06127309938141896
-1.2729193473977252   0.0028604982549911284   -0.028344472078340913
-1.2729193473977252   0.0028604982549911284   -0.028344472078340913
-1.2729193473977252   0.0028604982549911284   -0.028344472078340913
-1.2729193473977252   0.0028604982549911284   -0.028344472078340913
-1.4785202610308619   0.011148678804048295   0.018653743627295397
-1.4785202610308619   0.011148678804048295   0.018653743627295397
-1.4785202610308619   0.011148678804048295   0.018653743627295397
-1.4785202610308619   0.011148678804048295   0.018653743627295397
-1.234095882245556   0.10047442131241946   0.06815893062509916
-1.234095882245556   0.10047442131241946   0.06815893062509916
-1.234095882245556   0.10047442131241946   0.06815893062509916
-1.234095882245556   0.10047442131241946   0.06815893062509916
-1.8443359199024447   -0.11322022109604041   -0.037331496328778926
-1.8443359199024447   -0.11322022109604041   -0.037331496328778926
-1.8443359199024447   -0.11322022109604041   -0.037331496328778926
-1.8443359199024447   -0.11322022109604041   -0.037331496328778926
-1.8677441035280848   -0.05825565962072382   0.061499906601629115
-1.8677441035280848   -0.05825565962072382   0.061499906601629115
-1.8677441035280848   -0.05825565962072382   0.061499906601629115
-1.8677441035280848   -0.05825565962072382   0.061499906601629115
-1.3049500799218157   -0.03243989146363557   -0.025060526108921857
-1.3049500799218157   -0.03243989146363557   -0.025060526108921857
-1.3049500799218157   -0.03243989146363557   -0.025060526108921857
-1.3049500799218157   -0.03243989146363557   -0.025060526108921857
-1.4965409811415686   -0.0069544189909473975   0.010483443193113881
-1.4965409811415686   -0.0069544189909473975   0.010483443193113881
-1.4965409811415686   -0.0069544189909473975   0.010483443193113881
-1.4965409811415686   -0.0069544189909473975   0.010483443193113881
0.5503542989531854   0.032828415571714245   -0.06666178739378695
0.5503542989531854   0.032828415571714245   -0.06666178739378695
0.5503542989531854   0.032828415571714245   -0.06666178739378695
0.5503542989531854   0.032828415571714245   -0.06666178739378695
0.1593941367556649   0.04015836362149639   0.031938067493003375
0.1593941367556649   0.04015836362149639   0.031938067493003375
0.1593941367556649   0.04015836362149639   0.031938067493003375
0.1593941367556649   0.04015836362149639   0.031938067493003375
0.09731024946580841   -0.08118709164746608   -0.05876758201610412
0.09731024946580841   -0.08118709164746608   -0.05876758201610412
0.09731024946580841   -0.08118709164746608   -0.05876758201610412
0.09731024946580841   -0.08118709164746608   -0.05876758201610412
0.5350413130061211   0.09421484709449807   0.03842999020493819
0.5350413130061211   0.09421484709449807   0.03842999020493819
0.5350413130061211   0.09421484709449807   0.03842999020493819
0.5350413130061211   0.09421484709449807   0.03842999020493819
0.3159000458625946   0.015698887707114806   -0.0073278762912491816
0.3159000458625946   0.015698887707114806   -0.0073278762912491816
0.3159000458625946   0.015698887707114806   -0.0073278762912491816
0.3159000458625946   0.015698887707114806   -0.0073278762912491816
0.49590655751397666   -0.0019334180557246256   -0.06109552210556514
0.49590655751397666   -0.0019334180557246256   -0.06109552210556514
0.49590655751397666   -0.0019334180557246256   -0.06109552210556514
0.49590655751397666   -0.0019334180557246256   -0.06109552210556514
0.1352233363778673   0.013739504922670738   0.03587125597405535
0.1352233363778673   0.013739504922670738   0.03587125597405535
0.1352233363778673   0.013739504922670738   0.03587125597405535
0.1352233363778673   0.013739504922670738   0.03587125597405535
0.07386565233706255   -0.09271733112677352   -0.04989229075984106
0.07386565233706255   -0.09271733112677352   -0.04989229075984106
0.07386565233706255   -0.09271733112677352   -0.04989229075984106
0.07386565233706255   -0.09271733112677352   -0.04989229075984106
0.49290111244492185   0.07830139910227885   0.04934057013587875
0.49290111244492185   0.07830139910227885   0.04934057013587875
0.49290111244492185   0.07830139910227885   0.04934057013587875
0.49290111244492185   0.07830139910227885   0.04934057013587875
0.28641733859467194   -0.0022997301123464584   -0.019023144752880146
0.28641733859467194   -0.0022997301123464584   -0.019023144752880146
0.28641733859467194   -0.0022997301123464584   -0.019023144752880146
0.28641733859467194   -0.0022997301123464584   -0.019023144752880146
0.45399772611700895   -0.01673954224925911   -0.05013542015215404
0.45399772611700895   -0.01673954224925911   -0.05013542015215404
0.45399772611700895   -0.01673954224925911   -0.05013542015215404
0.45399772611700895   -0.01673954224925911   -0.05013542015215404
0.1111353098114487   0.0006898813712267401   0.04304878411409138
0.1111353098114487   0.0006898813712267401   0.04304878411409138
0.1111353098114487   0.0006898813712267401   0.04304878411409138
0.1111353098114487   0.0006898813712267401   0.04304878411409138
0.0528970704369445   -0.10668063682934191   -0.041546213208603355
0.0528970704369445   -0.10668063682934191   -0.041546213208603355
0.0528970704369445   -0.10668063682934191   -0.041546213208603355
0.0528970704369445   -0.10668063682934191   -0.041546213208603355
0.4407350579366746   0.05280667917054964   0.054757159414240184
0.4407350579366746   0.05280667917054964   0.054757159414240184
0.4407350579366746   0.05280667917054964   0.054757159414240184
0.4407350579366746   0.05280667917054964   0.054757159414240184
0.24580974838194186   -0.01835238896556239   -0.03329590650241254
0.24580974838194186   -0.01835238896556239   -0.03329590650241254
0.24580974838194186   -0.01835238896556239   -0.03329590650241254
0.24580974838194186   -0.01835238896556239   -0.03329590650241254
0.15308381187517037   0.05993354826397093   -0.019388741551944314
0.15308381187517037   0.05993354826397093   -0.019388741551944314
0.15308381187517037   0.05993354826397093   -0.019388741551944314
0.15308381187517037   0.05993354826397093   -0.019388741551944314
-0.22517345147726114   0.019469558341547427   0.0077973248512760406
-0.22517345147726114   0.019469558341547427   0.0077973248512760406
-0.22517345147726114   0.019469558341547427   0.0077973248512760406
-0.22517345147726114   0.019469558341547427   0.0077973248512760406
-0.2651588400560619   -0.05201302877826128   -0.03427310836976801
-0.2651588400560619   -0.05201302877826128   -0.03427310836976801
-0.2651588400560619   -0.05201302877826128   -0.03427310836976801
-0.2651588400560619   -0.05201302877826128   -0.03427310836976801
0.14746338806722625   0.0744089785937529   0.0364020407497681
0.14746338806722625   0.0744089785937529   0.0364020407497681
0.14746338806722625   0.0744089785937529   0.0364020407497681
0.14746338806722625   0.0744089785937529   0.0364020407497681
-0.048758336278406145   0.02437898620018575   0.006145674826765755
-0.048758336278406145   0.02437898620018575   0.006145674826765755
-0.048758336278406145   0.02437898620018575   0.006145674826765755
-0.048758336278406145   0.02437898620018575   0.006145674826765755
0.12859892852752644   0.030742409117845163   -0.014253687472824163
0.12859892852752644   0.030742409117845163   -0.014253687472824163
0.12859892852752644   0.030742409117845163   -0.014253687472824163
0.12859892852752644   0.030742409117845163   -0.014253687472824163
-0.24733379168251216   -0.009385870468508861   0.012224975188228453
-0.24733379168251216   -0.009385870468508861   0.012224975188228453
-0.24733379168251216   -0.009385870468508861   0.012224975188228453
-0.24733379168251216   -0.009385870468508861   0.012224975188228453
-0.2861337699085728   -0.07545741858169104   -0.02682414160947781
-0.2861337699085728   -0.07545741858169104   -0.02682414160947781
-0.2861337699085728   -0.07545741858169104   -0.02682414160947781
-0.2861337699085728   -0.07545741858169104   -0.02682414160947781
0.11994282731814625   0.04809083320102307   0.03968541981778276
0.11994282731814625   0.04809083320102307   0.03968541981778276
0.11994282731814625   0.04809083320102307   0.03968541981778276
0.11994282731814625   0.04809083320102307   0.03968541981778276
-0.07466333794385487   -0.0008881960450289536   -0.005959702054434393
-0.07466333794385487   -0.0008881960450289536   -0.005959702054434393
-0.07466333794385487   -0.0008881960450289536   -0.005959702054434393
-0.07466333794385487   -0.0008881960450289536   -0.005959702054434393
0.10163749184703808   0.005592981019982762   -0.009343405356719708
0.10163749184703808   0.005592981019982762   -0.009343405356719708
0.10163749184703808   0.005592981019982762   -0.009343405356719708
0.10163749184703808   0.005592981019982762   -0.009343405356719708
-0.2691734683569763   -0.03430460032016211   0.016824547886979412
-0.2691734683569763   -0.03430460032016211   0.016824547886979412
-0.2691734683569763   -0.03430460032016211   0.016824547886979412
-0.2691734683569763   -0.03430460032016211   0.016824547886979412
-0.30694978775029863   -0.09873657123663503   -0.020091181027334568
-0.30694978775029863   -0.09873657123663503   -0.020091181027334568
-0.30694978775029863   -0.09873657123663503   -0.020091181027334568
-0.30694978775029863   -0.09873657123663503   -0.020091181027334568
0.09584750922869312   0.02222674683125228   0.04429859708954652
0.09584750922869312   0.02222674683125228   0.04429859708954652
0.09584750922869312   0.02222674683125228   0.04429859708954652
0.09584750922869312   0.02222674683125228   0.04429859708954652
-0.09710270894183294   -0.02354081381317087   -0.017399160862778606
-0.09710270894183294   -0.02354081381317087   -0.017399160862778606
-0.09710270894183294   -0.02354081381317087   -0.017399160862778606
-0.09710270894183294   -0.02354081381317087   -0.017399160862778606
-0.2136051354529961   0.08222352083970949   0.0028849424744393087
-0.2136051354529961   0.08222352083970949   0.0028849424744393087
-0.2136051354529961   0.08222352083970949   0.0028849424744393087
-0.2136051354529961   0.08222352083970949   0.0028849424744393087
-0.6046833238323063   -0.007084827876814664   -0.016588423740244572
-0.6046833238323063   -0.007084827876814664   -0.016588423740244572
-0.6046833238323063   -0.007084827876814664   -0.016588423740244572
-0.6046833238323063   -0.007084827876814664   -0.016588423740244572
-0.6235672423259727   -0.02535661023768776   -0.009897594810795197
-0.6235672423259727   -0.02535661023768776   -0.009897594810795197
-0.6235672423259727   -0.02535661023768776   -0.009897594810795197
-0.6235672423259727   -0.02535661023768776   -0.009897594810795197
-0.23579271596637355   0.048970769179387405   0.011573714121021563
-0.23579271596637355   0.048970769179387405   0.011573714121021563
-0.23579271596637355   0.048970769179387405   0.011573714121021563
-0.23579271596637355   0.048970769179387405   0.011573714121021563
-0.4184209349283144   0.024175389093390384   0.006380326917123459
-0.4184209349283144   0.024175389093390384   0.006380326917123459
-0.4184209349283144   0.024175389093390384   0.006380326917123459
-0.4184209349283144   0.024175389093390384   0.006380326917123459
-0.2346599992298843   0.056371642283550606   0.009836424699308219
-0.2346599992298843   0.056371642283550606   0.009836424699308219
-0.2346599992298843   0.056371642283550606   0.009836424699308219
-0.2346599992298843   0.056371642283550606   0.009836424699308219
-0.6256094273015816   -0.033666951580970036   -0.01179817834555746
-0.6256094273015816   -0.033666951580970036   -0.01179817834555746
-0.6256094273015816   -0.033666951580970036   -0.01179817834555746
-0.6256094273015816   -0.033666951580970036   -0.01179817834555746
-0.6444493400431276   -0.05095034348565178   -0.0031456250563602697
-0.6444493400431276   -0.05095034348565178   -0.0031456250563602697
-0.6444493400431276   -0.05095034348565178   -0.0031456250563602697
-0.6444493400431276   -0.05095034348565178   -0.0031456250563602697
-0.2579339911958204   0.022279353327767593   0.016437980044821894
-0.2579339911958204   0.022279353327767593   0.016437980044821894
-0.2579339911958204   0.022279353327767593   0.016437980044821894
-0.2579339911958204   0.022279353327767593   0.016437980044821894
-0.44020983239740646   -0.00012816778367681636   -0.004475206782522133
-0.44020983239740646   -0.00012816778367681636   -0.004475206782522133
-0.44020983239740646   -0.00012816778367681636   -0.004475206782522133
-0.44020983239740646   -0.00012816778367681636   -0.004475206782522133
-0.25641530310473926   0.030456453065748762   0.015854320762254064
-0.25641530310473926   0.030456453065748762   0.015854320762254064
-0.25641530310473926   0.030456453065748762   0.015854320762254064
-0.25641530310473926   0.030456453065748762   0.015854320762254064
-0.6472612403596159   -0.06042065544904002   -0.007734814675420719
-0.6472612403596159   -0.06042065544904002   -0.007734814675420719
-0.6472612403596159   -0.06042065544904002   -0.007734814675420719
-0.6472612403596159   -0.06042065544904002   -0.007734814675420719
-0.6649335838610656   -0.07566291782805916   0.0033875878683953427
-0.6649335838610656   -0.07566291782805916   0.0033875878683953427
-0.6649335838610656   -0.07566291782805916   0.0033875878683953427
-0.6649335838610656   -0.07566291782805916   0.0033875878683953427
-0.2796925503012186   -0.0034360138172742846   0.02089444879870833
-0.2796925503012186   -0.0034360138172742846   0.02089444879870833
-0.2796925503012186   -0.0034360138172742846   0.02089444879870833
-0.2796925503012186   -0.0034360138172742846   0.02089444879870833
-0.4631328839325741   -0.024491338420945627   -0.01626023322274224
-0.4631328839325741   -0.024491338420945627   -0.01626023322274224
-0.4631328839325741   -0.024491338420945627   -0.01626023322274224
-0.4631328839325741   -0.024491338420945627   -0.01626023322274224
-0.5741279062195015   0.10336853499077378   0.025735301456190955
-0.5741279062195015   0.10336853499077378   0.025735301456190955
-0.5741279062195015   0.10336853499077378   0.025735301456190955
-0.5741279062195015   0.10336853499077378   0.025735301456190955
-0.9757795755731895   -0.028843799443143386   -0.03790140668280464
-0.9757795755731895   -0.028843799443143386   -0.03790140668280464
-0.9757795755731895   -0.028843799443143386   -0.03790140668280464
-0.9757795755731895   -0.028843799443143386   -0.03790140668280464
-0.9776526195477282   -0.0018084136510500004   0.015949572440284165
-0.9776526195477282   -0.0018084136510500004   0.015949572440284165
-0.9776526195477282   -0.0018084136510500004   0.015949572440284165
-0.9776526195477282   -0.0018084136510500004   0.015949572440284165
-0.6138809823452032   0.025156737269014823   -0.011979642413658051
-0.6138809823452032   0.025156737269014823   -0.011979642413658051
-0.6138809823452032   0.025156737269014823   -0.011979642413658051
-0.6138809823452032   0.025156737269014823   -0.011979642413658051
-0.7813741536976464   0.02442695098628128   0.008416256808755927
-0.7813741536976464   0.02442695098628128   0.008416256808755927
-0.7813741536976464   0.02442695098628128   0.008416256808755927
-0.7813741536976464   0.02442695098628128   0.008416256808755927
-0.5943330827347973   0.07820741483746516   0.03270917806992918
-0.5943330827347973   0.07820741483746516   0.03270917806992918
-0.5943330827347973   0.07820741483746516   0.03270917806992918
-0.5943330827347973   0.07820741483746516   0.03270917806992918
-0.9989481838771131   -0.05660675593847947   -0.03572990691921968
-0.9989481838771131   -0.05660675593847947   -0.03572990691921968
-0.9989481838771131   -0.05660675593847947   -0.03572990691921968
-0.9989481838771131   -0.05660675593847947   -0.03572990691921968
-1.0033571288317433   -0.027037355476203506   0.019588400888616977
-1.0033571288317433   -0.027037355476203506   0.019588400888616977
-1.0033571288317433   -0.027037355476203506   0.019588400888616977
-1.0033571288317433   -0.027037355476203506   0.019588400888616977
-0.6348728430672281   0.000586656266635982   -0.006800139929165547
-0.6348728430672281   0.000586656266635982   -0.006800139929165547
-0.6348728430672281   0.000586656266635982   -0.006800139929165547
-0.6348728430672281   0.000586656266635982   -0.006800139929165547
-0.799904998684087   0.0017695159545097483   -0.002967195689048803
-0.799904998684087   0.0017695159545097483   -0.002967195689048803
-0.799904998684087   0.0017695159545097483   -0.002967195689048803
-0.799904998684087   0.0017695159545097483   -0.002967195689048803
-0.6148048075056258   0.054650639533662004   0.03947605461182714
-0.6148048075056258   0.054650639533662004   0.03947605461182714
-0.6148048075056258   0.054650639533662004   0.03947605461182714
-0.6148048075056258   0.054650639533662004   0.03947605461182714
-1.024514279390351   -0.08219045374023626   -0.031044253640403988
-1.024514279390351   -0.08219045374023626   -0.031044253640403988
-1.024514279390351   -0.08219045374023626   -0.031044253640403988
-1.024514279390351   -0.08219045374023626   -0.031044253640403988
-1.0255685000605996   -0.053321911260744814   0.02663938590390029
-1.0255685000605996   -0.053321911260744814   0.02663938590390029
-1.0255685000605996   -0.053321911260744814   0.02663938590390029
-1.0255685000605996   -0.053321911260744814   0.02663938590390029
-0.6561256260437708   -0.025676650125634665   -0.0025588907475708397
-0.6561256260437708   -0.025676650125634665   -0.0025588907475708397
-0.6561256260437708   -0.025676650125634665   -0.0025588907475708397
-0.6561256260437708   -0.025676650125634665   -0.0025588907475708397
-0.8274261249317963   -0.02289498228412093   -0.015364727580929688
-0.8274261249317963   -0.02289498228412093   -0.015364727580929688
-0.8274261249317963   -0.02289498228412093   -0.015364727580929688
-0.8274261249317963   -0.02289498228412093   -0.015364727580929688
-0.9329663351403088   0.1017270699887387   0.04559392604972537
-0.9329663351403088   0.1017270699887387   0.04559392604972537
-0.9329663351403088   0.1017270699887387   0.04559392604972537
-0.9329663351403088   0.1017270699887387   0.04559392604972537
-1.312424013805691   -0.060327298959267195   -0.0576338217799392
-1.312424013805691   -0.060327298959267195   -0.0576338217799392
-1.312424013805691   -0.060327298959267195   -0.0576338217799392
-1.312424013805691   -0.060327298959267195   -0.0576338217799392
-1.3220757277989168   0.017105417125286293   0.0479331974674166
-1.3220757277989168   0.017105417125286293   0.0479331974674166
-1.3220757277989168   0.017105417125286293   0.0479331974674166
-1.3220757277989168   0.017105417125286293   0.0479331974674166
-0.988144822042323   -0.003095131329795525   -0.035224722353961783
-0.988144822042323   -0.003095131329795525   -0.035224722353961783
-0.988144822042323   -0.003095131329795525   -0.035224722353961783
-0.988144822042323   -0.003095131329795525   -0.035224722353961783
-1.0899799186000372   0.024468591336328477   0.026340882016826023
-1.0899799186000372   0.024468591336328477   0.026340882016826023
-1.0899799186000372   0.024468591336328477   0.026340882016826023
-1.0899799186000372   0.024468591336328477   0.026340882016826023
-0.951200606744587   0.09247837200303594   0.05392285080189613
-0.951200606744587   0.09247837200303594   0.05392285080189613
-0.951200606744587   0.09247837200303594   0.05392285080189613
-0.951200606744587   0.09247837200303594   0.05392285080189613
-1.360878786415435   -0.08032692952633344   -0.04864974896353968
-1.360878786415435   -0.08032692952633344   -0.04864974896353968
-1.360878786415435   -0.08032692952633344   -0.04864974896353968
-1.360878786415435   -0.08032692952633344   -0.04864974896353968
-1.3620946684611623   0.002939300703397929   0.06122486122713015
-1.3620946684611623   0.002939300703397929   0.06122486122713015
-1.3620946684611623   0.002939300703397929   0.06122486122713015
-1.3620946684611623   0.002939300703397929   0.06122486122713015
-1.0112754348400137   -0.016805398920708203   -0.030235085708245943
-1.0112754348400137   -0.016805398920708203   -0.030235085708245943
-1.0112754348400137   -0.016805398920708203   -0.030235085708245943
-1.0112754348400137   -0.016805398920708203   -0.030235085708245943
-1.1410744396490973   0.007706482537673087   0.00942363807349035
-1.1410744396490973   0.007706482537673087   0.00942363807349035
-1.1410744396490973   0.007706482537673087   0.00942363807349035
-1.1410744396490973   0.007706482537673087   0.00942363807349035
-0.9727607281495904   0.08138977190410052   0.06414327691907083
-0.9727607281495904   0.08138977190410052   0.06414327691907083
-0.9727607281495904   0.08138977190410052   0.06414327691907083
-0.9727607281495904   0.08138977190410052   0.06414327691907083
-1.4023708259610608   -0.09701732093087917   -0.04019930463805356
-1.4023708259610608   -0.09701732093087917   -0.04019930463805356
-1.4023708259610608   -0.09701732093087917   -0.04019930463805356
-1.4023708259610608   -0.09701732093087917   -0.04019930463805356
-1.4174482353062166   -0.037280625371662934   0.06323395973534222
-1.4174482353062166   -0.037280625371662934   0.06323395973534222
-1.4174482353062166   -0.037280625371662934   0.06323395973534222
-1.4174482353062166   -0.037280625371662934   0.06323395973534222
-1.0351400392716716   -0.04817408878633225   -0.02636613262588732
-1.0351400392716716   -0.04817408878633225   -0.02636613262588732
-1.0351400392716716   -0.04817408878633225   -0.02636613262588732
-1.0351400392716716   -0.04817408878633225   -0.02636613262588732
-1.157814180709495   -0.01010340613610225   -0.0006568993303842016
-1.157814180709495   -0.01010340613610225   -0.0006568993303842016
-1.157814180709495   -0.01010340613610225   -0.0006568993303842016
-1.157814180709495   -0.01010340613610225   -0.0006568993303842016
0.09687377175004044   0.00797643711326595   -0.06645120004252436
0.09687377175004044   0.00797643711326595   -0.06645120004252436
0.09687377175004044   0.00797643711326595   -0.06645120004252436
0.09687377175004044   0.00797643711326595   -0.06645120004252436
-0.1095698118393274   0.04988077045380364   0.03401703484977604
-0.1095698118393274   0.04988077045380364   0.03401703484977604
-0.1095698118393274   0.04988077045380364   0.03401703484977604
-0.1095698118393274   0.04988077045380364   0.03401703484977604
-0.16372075173130257   -0.06392383383302688   -0.053501349695293625
-0.16372075173130257   -0.06392383383302688   -0.053501349695293625
-0.16372075173130257   -0.06392383383302688   -0.053501349695293625
-0.16372075173130257   -0.06392383383302688   -0.053501349695293625
0.0886687308635444   0.07021581593672065   0.04178573235930378
0.0886687308635444   0.07021581593672065   0.04178573235930378
0.0886687308635444   0.07021581593672065   0.04178573235930378
0.0886687308635444   0.07021581593672065   0.04178573235930378
-0.02411276002696736   0.015406157052139137   0.00578629183778172
-0.02411276002696736   0.015406157052139137   0.00578629183778172
-0.02411276002696736   0.015406157052139137   0.00578629183778172
-0.02411276002696736   0.015406157052139137   0.00578629183778172
0.04991509419335803   -0.022374768100014604   -0.0593918669548928
0.04991509419335803   -0.022374768100014604   -0.0593918669548928
0.04991509419335803   -0.022374768100014604   -0.0593918669548928
0.04991509419335803   -0.022374768100014604   -0.0593918669548928
-0.12726157382061545   0.026372291444209096   0.03849841458090589
-0.12726157382061545   0.026372291444209096   0.03849841458090589
-0.12726157382061545   0.026372291444209096   0.03849841458090589
-0.12726157382061545   0.026372291444209096   0.03849841458090589
-0.1815543744115697   -0.07552526013527941   -0.04533723919542093
-0.1815543744115697   -0.07552526013527941   -0.04533723919542093
-0.1815543744115697   -0.07552526013527941   -0.04533723919542093
-0.1815543744115697   -0.07552526013527941   -0.04533723919542093
0.05193214051151597   0.05445216557294886   0.05729233170180448
0.05193214051151597   0.05445216557294886   0.05729233170180448
0.05193214051151597   0.05445216557294886   0.05729233170180448
0.05193214051151597   0.05445216557294886   0.05729233170180448
-0.05313101557060104   -0.0019730324173834173   -0.007623222931948255
-0.05313101557060104   -0.0019730324173834173   -0.007623222931948255
-0.05313101557060104   -0.0019730324173834173   -0.007623222931948255
-0.05313101557060104   -0.0019730324173834173   -0.007623222931948255
0.012287455223659765   -0.03748769350171238   -0.04899123566281528
0.012287455223659765   -0.03748769350171238   -0.04899123566281528
0.012287455223659765   -0.03748769350171238   -0.04899123566281528
0.012287455223659765   -0.03748769350171238   -0.04899123566281528
-0.14509194247006652   0.013232345593028667   0.048217314783786006
-0.14509194247006652   0.013232345593028667   0.048217314783786006
-0.14509194247006652   0.013232345593028667   0.048217314783786006
-0.14509194247006652   0.013232345593028667   0.048217314783786006
-0.19788952312892064   -0.09338385486985704   -0.0375709297221979
-0.19788952312892064   -0.09338385486985704   -0.0375709297221979
-0.19788952312892064   -0.09338385486985704   -0.0375709297221979
-0.19788952312892064   -0.09338385486985704   -0.0375709297221979
0.0009144129719163151   0.021391717544787227   0.06530239589214504
0.0009144129719163151   0.021391717544787227   0.06530239589214504
0.0009144129719163151   0.021391717544787227   0.06530239589214504
0.0009144129719163151   0.021391717544787227   0.06530239589214504
-0.08423441472385565   -0.019482315395238644   -0.023073815381605925
-0.08423441472385565   -0.019482315395238644   -0.023073815381605925
-0.08423441472385565   -0.019482315395238644   -0.023073815381605925
-0.08423441472385565   -0.019482315395238644   -0.023073815381605925
-0.12511809458773795   0.032627035884585195   -0.026470644323058286
-0.12511809458773795   0.032627035884585195   -0.026470644323058286
-0.12511809458773795   0.032627035884585195   -0.026470644323058286
-0.12511809458773795   0.032627035884585195   -0.026470644323058286
-0.3185834637925204   0.013395918128650208   0.008892148624560912
-0.3185834637925204   0.013395918128650208   0.008892148624560912
-0.3185834637925204   0.013395918128650208   0.008892148624560912
-0.3185834637925204   0.013395918128650208   0.008892148624560912
-0.3465037745765197   -0.03722645038784696   -0.027807941514454537
-0.3465037745765197   -0.03722645038784696   -0.027807941514454537
-0.3465037745765197   -0.03722645038784696   -0.027807941514454537
-0.3465037745765197   -0.03722645038784696   -0.027807941514454537
-0.1286036762766858   0.03160507156101637   0.026555122183746907
-0.1286036762766858   0.03160507156101637   0.026555122183746907
-0.1286036762766858   0.03160507156101637   0.026555122183746907
-0.1286036762766858   0.03160507156101637   0.026555122183746907
-0.2292270588698728   0.009455323325408403   0.005027287691208289
-0.2292270588698728   0.009455323325408403   0.005027287691208289
-0.2292270588698728   0.009455323325408403   0.005027287691208289
-0.2292270588698728   0.009455323325408403   0.005027287691208289
-0.14367452209951603   0.004551817780472714   -0.021745853149859773
-0.14367452209951603   0.004551817780472714   -0.021745853149859773
-0.14367452209951603   0.004551817780472714   -0.021745853149859773
-0.14367452209951603   0.004551817780472714   -0.021745853149859773
-0.3333141504927765   -0.012054418346390268   0.012968146862804444
-0.3333141504927765   -0.012054418346390268   0.012968146862804444
-0.3333141504927765   -0.012054418346390268   0.012968146862804444
-0.3333141504927765   -0.012054418346390268   0.012968146862804444
-0.36038396951639445   -0.0600137368608447   -0.020510633657015376
-0.36038396951639445   -0.0600137368608447   -0.020510633657015376
-0.36038396951639445   -0.0600137368608447   -0.020510633657015376
-0.36038396951639445   -0.0600137368608447   -0.020510633657015376
-0.15010868003665512   0.006426197912512952   0.02993977463135873
-0.15010868003665512   0.006426197912512952   0.02993977463135873
-0.15010868003665512   0.006426197912512952   0.02993977463135873
-0.15010868003665512   0.006426197912512952   0.02993977463135873
-0.24676233011748272   -0.013403243581560795   -0.006437679070064081
-0.24676233011748272   -0.013403243581560795   -0.006437679070064081
-0.24676233011748272   -0.013403243581560795   -0.006437679070064081
-0.24676233011748272   -0.013403243581560795   -0.006437679070064081
-0.16463293570286947   -0.020010387103485468   -0.01624491868371354
-0.16463293570286947   -0.020010387103485468   -0.01624491868371354
-0.16463293570286947   -0.020010387103485468   -0.01624491868371354
-0.16463293570286947   -0.020010387103485468   -0.01624491868371354
-0.34787857499567815   -0.03559601299034928   0.01759861507607064
-0.34787857499567815   -0.03559601299034928   0.01759861507607064
-0.34787857499567815   -0.03559601299034928   0.01759861507607064
-0.34787857499567815   -0.03559601299034928   0.01759861507607064
-0.37435569181339745   -0.08348313348243307   -0.014047603436759004
-0.37435569181339745   -0.08348313348243307   -0.014047603436759004
-0.37435569181339745   -0.08348313348243307   -0.014047603436759004
-0.37435569181339745   -0.08348313348243307   -0.014047603436759004
-0.16809105063068783   -0.019111205111623075   0.03714878301073139
-0.16809105063068783   -0.019111205111623075   0.03714878301073139
-0.16809105063068783   -0.019111205111623075   0.03714878301073139
-0.16809105063068783   -0.019111205111623075   0.03714878301073139
-0.2642909389481852   -0.03603618221080479   -0.01810393862394624
-0.2642909389481852   -0.03603618221080479   -0.01810393862394624
-0.2642909389481852   -0.03603618221080479   -0.01810393862394624
-0.2642909389481852   -0.03603618221080479   -0.01810393862394624
-0.3127935231823712   0.05404864246834397   -0.002810872664386649
-0.3127935231823712   0.05404864246834397   -0.002810872664386649
-0.3127935231823712   0.05404864246834397   -0.002810872664386649
-0.3127935231823712   0.05404864246834397   -0.002810872664386649
-0.5257811529282977   -0.017972997070153665   -0.014833874499202284
-0.5257811529282977   -0.017972997070153665   -0.014833874499202284
-0.5257811529282977   -0.017972997070153665   -0.014833874499202284
-0.5257811529282977   -0.017972997070153665   -0.014833874499202284
-0.5312923275635529   -0.013065153902575802   -0.0031062896916457354
-0.5312923275635529   -0.013065153902575802   -0.0031062896916457354
-0.5312923275635529   -0.013065153902575802   -0.0031062896916457354
-0.5312923275635529   -0.013065153902575802   -0.0031062896916457354
-0.3320946678509494   0.002917014615337471   0.004094127110212571
-0.3320946678509494   0.002917014615337471   0.004094127110212571
-0.3320946678509494   0.002917014615337471   0.004094127110212571
-0.3320946678509494   0.002917014615337471   0.004094127110212571
-0.42460377836641106   0.006071268152025244   0.0016923052993088258
-0.42460377836641106   0.006071268152025244   0.0016923052993088258
-0.42460377836641106   0.006071268152025244   0.0016923052993088258
-0.42460377836641106   0.006071268152025244   0.0016923052993088258
-0.32683447433815027   0.029258413782285844   0.004053695507259775
-0.32683447433815027   0.029258413782285844   0.004053695507259775
-0.32683447433815027   0.029258413782285844   0.004053695507259775
-0.32683447433815027   0.029258413782285844   0.004053695507259775
-0.538361258345145   -0.04121529033831722   -0.010300807163865132
-0.538361258345145   -0.04121529033831722   -0.010300807163865132
-0.538361258345145   -0.04121529033831722   -0.010300807163865132
-0.538361258345145   -0.04121529033831722   -0.010300807163865132
-0.5443046338200276   -0.037544934450675777   0.0036871837768122154
-0.5443046338200276   -0.037544934450675777   0.0036871837768122154
-0.5443046338200276   -0.037544934450675777   0.0036871837768122154
-0.5443046338200276   -0.037544934450675777   0.0036871837768122154
-0.34681841970485977   -0.021145665124877214   0.0084490436646904
-0.34681841970485977   -0.021145665124877214   0.0084490436646904
-0.34681841970485977   -0.021145665124877214   0.0084490436646904
-0.34681841970485977   -0.021145665124877214   0.0084490436646904
-0.4387132294646283   -0.016192077109161235   -0.008837981056399321
-0.4387132294646283   -0.016192077109161235   -0.008837981056399321
-0.4387132294646283   -0.016192077109161235   -0.008837981056399321
-0.4387132294646283   -0.016192077109161235   -0.008837981056399321
-0.3413937956863654   0.004320913455959349   0.010105585176325697
-0.3413937956863654   0.004320913455959349   0.010105585176325697
-0.3413937956863654   0.004320913455959349   0.010105585176325697
-0.3413937956863654   0.004320913455959349   0.010105585176325697
-0.5519094501964398   -0.06519170538942504   -0.006690127166499478
-0.5519094501964398   -0.06519170538942504   -0.006690127166499478
-0.5519094501964398   -0.06519170538942504   -0.006690127166499478
-0.5519094501964398   -0.06519170538942504   -0.006690127166499478
-0.5569788138206918   -0.061032287433822885   0.010199344235407873
-0.5569788138206918   -0.061032287433822885   0.010199344235407873
-0.5569788138206918   -0.061032287433822885   0.010199344235407873
-0.5569788138206918   -0.061032287433822885   0.010199344235407873
-0.36095369904575225   -0.04385297162090971   0.01333219853994374
-0.36095369904575225   -0.04385297162090971   0.01333219853994374
-0.36095369904575225   -0.04385297162090971   0.01333219853994374
-0.36095369904575225   -0.04385297162090971   0.01333219853994374
-0.45389623202286067   -0.03859621441720828   -0.020279755273910252
-0.45389623202286067   -0.03859621441720828   -0.020279755273910252
-0.45389623202286067   -0.03859621441720828   -0.020279755273910252
-0.45389623202286067   -0.03859621441720828   -0.020279755273910252
-0.49922819745780245   0.07836528222759667   0.021592623555539238
-0.49922819745780245   0.07836528222759667   0.021592623555539238
-0.49922819745780245   0.07836528222759667   0.021592623555539238
-0.49922819745780245   0.07836528222759667   0.021592623555539238
-0.724722188577356   -0.02985281790069197   -0.03329432086283084
-0.724722188577356   -0.02985281790069197   -0.03329432086283084
-0.724722188577356   -0.02985281790069197   -0.03329432086283084
-0.724722188577356   -0.02985281790069197   -0.03329432086283084
-0.7149580618216144   0.011816230258012594   0.022394902007741996
-0.7149580618216144   0.011816230258012594   0.022394902007741996
-0.7149580618216144   0.011816230258012594   0.022394902007741996
-0.7149580618216144   0.011816230258012594   0.022394902007741996
-0.5331464216633807   -0.010607987717643402   -0.014833926375716816
-0.5331464216633807   -0.010607987717643402   -0.014833926375716816
-0.5331464216633807   -0.010607987717643402   -0.014833926375716816
-0.5331464216633807   -0.010607987717643402   -0.014833926375716816
-0.6158871941276329   0.012521867623837751   0.002938966083555601
-0.6158871941276329   0.012521867623837751   0.002938966083555601
-0.6158871941276329   0.012521867623837751   0.002938966083555601
-0.6158871941276329   0.012521867623837751   0.002938966083555601
-0.5116239432575262   0.05369847429705349   0.028472003638858323
-0.5116239432575262   0.05369847429705349   0.028472003638858323
-0.5116239432575262   0.05369847429705349   0.028472003638858323
-0.5116239432575262   0.05369847429705349   0.028472003638858323
-0.7391214781504875   -0.05513116967970544   -0.03147477969892028
-0.7391214781504875   -0.05513116967970544   -0.03147477969892028
-0.7391214781504875   -0.05513116967970544   -0.03147477969892028
-0.7391214781504875   -0.05513116967970544   -0.03147477969892028
-0.7324024845265942   -0.012269924178835323   0.026446599302813317
-0.7324024845265942   -0.012269924178835323   0.026446599302813317
-0.7324024845265942   -0.012269924178835323   0.026446599302813317
-0.7324024845265942   -0.012269924178835323   0.026446599302813317
-0.5460466413434113   -0.032477468829106085   -0.010090319461676347
-0.5460466413434113   -0.032477468829106085   -0.010090319461676347
-0.5460466413434113   -0.032477468829106085   -0.010090319461676347
-0.5460466413434113   -0.032477468829106085   -0.010090319461676347
-0.6277398640907722   -0.008933520985982019   -0.008476333892475284
-0.6277398640907722   -0.008933520985982019   -0.008476333892475284
-0.6277398640907722   -0.008933520985982019   -0.008476333892475284
-0.6277398640907722   -0.008933520985982019   -0.008476333892475284
-0.5242804214968855   0.031098192295760857   0.035165118646085514
-0.5242804214968855   0.031098192295760857   0.035165118646085514
-0.5242804214968855   0.031098192295760857   0.035165118646085514
-0.5242804214968855   0.031098192295760857   0.035165118646085514
-0.7562541376882254   -0.07793101861881034   -0.027150572065383457
-0.7562541376882254   -0.07793101861881034   -0.027150572065383457
-0.7562541376882254   -0.07793101861881034   -0.027150572065383457
-0.7562541376882254   -0.07793101861881034   -0.027150572065383457
-0.7465847031955036   -0.036521600976192115   0.0336754321513747
-0.7465847031955036   -0.036521600976192115   0.0336754321513747
-0.7465847031955036   -0.036521600976192115   0.0336754321513747
-0.7465847031955036   -0.036521600976192115   0.0336754321513747
-0.5589924215076446   -0.054860501068608666   -0.006040480564577167
-0.5589924215076446   -0.054860501068608666   -0.006040480564577167
-0.5589924215076446   -0.054860501068608666   -0.006040480564577167
-0.5589924215076446   -0.054860501068608666   -0.006040480564577167
-0.6455696729109756   -0.030801112502774147   -0.020169593927070295
-0.6455696729109756   -0.030801112502774147   -0.020169593927070295
-0.6455696729109756   -0.030801112502774147   -0.020169593927070295
-0.6455696729109756   -0.030801112502774147   -0.020169593927070295
-0.6865731963389681   0.08490766114645715   0.042690161281959765
-0.6865731963389681   0.08490766114645715   0.042690161281959765
-0.6865731963389681   0.08490766114645715   0.042690161281959765
-0.6865731963389681   0.08490766114645715   0.042690161281959765
-0.8828950518946357   -0.04410197788063583   -0.05576555701312851
-0.8828950518946357   -0.04410197788063583   -0.05576555701312851
-0.8828950518946357   -0.04410197788063583   -0.05576555701312851
-0.8828950518946357   -0.04410197788063583   -0.05576555701312851
-0.8835653040720947   0.03427749242372419   0.04705887844337755
-0.8835653040720947   0.03427749242372419   0.04705887844337755
-0.8835653040720947   0.03427749242372419   0.04705887844337755
-0.8835653040720947   0.03427749242372419   0.04705887844337755
-0.7336389753421083   -0.025071933917566153   -0.034121501419156534
-0.7336389753421083   -0.025071933917566153   -0.034121501419156534
-0.7336389753421083   -0.025071933917566153   -0.034121501419156534
-0.7336389753421083   -0.025071933917566153   -0.034121501419156534
-0.7644609137211771   0.020207600652908442   0.014728642361404767
-0.7644609137211771   0.020207600652908442   0.014728642361404767
-0.7644609137211771   0.020207600652908442   0.014728642361404767
-0.7644609137211771   0.020207600652908442   0.014728642361404767
-0.6972892484738025   0.07219330637971735   0.05036189262508182
-0.6972892484738025   0.07219330637971735   0.05036189262508182
-0.6972892484738025   0.07219330637971735   0.05036189262508182
-0.6972892484738025   0.07219330637971735   0.05036189262508182
-0.9226559512309015   -0.06572866816406397   -0.04838819676285249
-0.9226559512309015   -0.06572866816406397   -0.04838819676285249
-0.9226559512309015   -0.06572866816406397   -0.04838819676285249
-0.9226559512309015   -0.06572866816406397   -0.04838819676285249
-0.915296694774108   0.020566434675125644   0.060645342205017536
-0.915296694774108   0.020566434675125644   0.060645342205017536
-0.915296694774108   0.020566434675125644   0.060645342205017536
-0.915296694774108   0.020566434675125644   0.060645342205017536
-0.7487465837785007   -0.03764187853914994   -0.029901942596411817
-0.7487465837785007   -0.03764187853914994   -0.029901942596411817
-0.7487465837785007   -0.03764187853914994   -0.029901942596411817
-0.7487465837785007   -0.03764187853914994   -0.029901942596411817
-0.8022069313456459   0.0035289786903546505   -0.0010899420788955325
-0.8022069313456459   0.0035289786903546505   -0.0010899420788955325
-0.8022069313456459   0.0035289786903546505   -0.0010899420788955325
-0.8022069313456459   0.0035289786903546505   -0.0010899420788955325
-0.7108771888974712   0.06140158171947224   0.06040157155011368
-0.7108771888974712   0.06140158171947224   0.06040157155011368
-0.7108771888974712   0.06140158171947224   0.06040157155011368
-0.7108771888974712   0.06140158171947224   0.06040157155011368
-0.9559623319181085   -0.08127326784646505   -0.04084314099337948
-0.9559623319181085   -0.08127326784646505   -0.04084314099337948
-0.9559623319181085   -0.08127326784646505   -0.04084314099337948
-0.9559623319181085   -0.08127326784646505   -0.04084314099337948
-0.9622196956312672   -0.015489496260685381   0.06413648636194272
-0.9622196956312672   -0.015489496260685381   0.06413648636194272
-0.9622196956312672   -0.015489496260685381   0.06413648636194272
-0.9622196956312672   -0.015489496260685381   0.06413648636194272
-0.7639141665821432   -0.06366425969800843   -0.02582922606000662
-0.7639141665821432   -0.06366425969800843   -0.02582922606000662
-0.7639141665821432   -0.06366425969800843   -0.02582922606000662
-0.7639141665821432   -0.06366425969800843   -0.02582922606000662
-0.8167385239518178   -0.012981821542111444   -0.012331656719964758
-0.8167385239518178   -0.012981821542111444   -0.012331656719964758
-0.8167385239518178   -0.012981821542111444   -0.012331656719964758
-0.8167385239518178   -0.012981821542111444   -0.012331656719964758
-0.3779287779238122   -0.024697725260573816   -0.07051647763762643
-0.3779287779238122   -0.024697725260573816   -0.07051647763762643
-0.3779287779238122   -0.024697725260573816   -0.07051647763762643
-0.3779287779238122   -0.024697725260573816   -0.07051647763762643
-0.37285354926898784   0.054085147717925885   0.031742552700691
-0.37285354926898784   0.054085147717925885   0.031742552700691
-0.37285354926898784   0.054085147717925885   0.031742552700691
-0.37285354926898784   0.054085147717925885   0.031742552700691
-0.41934030776199166   -0.04929768952640711   -0.047772756330798964
-0.41934030776199166   -0.04929768952640711   -0.047772756330798964
-0.41934030776199166   -0.04929768952640711   -0.047772756330798964
-0.41934030776199166   -0.04929768952640711   -0.047772756330798964
-0.3856595733957419   0.028062005014518984   0.04775043063158124
-0.3856595733957419   0.028062005014518984   0.04775043063158124
-0.3856595733957419   0.028062005014518984   0.04775043063158124
-0.3856595733957419   0.028062005014518984   0.04775043063158124
-0.36942741443715843   0.009064271516088546   0.032382915920423874
-0.36942741443715843   0.009064271516088546   0.032382915920423874
-0.36942741443715843   0.009064271516088546   0.032382915920423874
-0.36942741443715843   0.009064271516088546   0.032382915920423874
-0.4230966245341092   -0.052307471353186474   -0.05906534869254755
-0.4230966245341092   -0.052307471353186474   -0.05906534869254755
-0.4230966245341092   -0.052307471353186474   -0.05906534869254755
-0.4230966245341092   -0.052307471353186474   -0.05906534869254755
-0.38656669776979097   0.026408345695126997   0.04038925840867032
-0.38656669776979097   0.026408345695126997   0.04038925840867032
-0.38656669776979097   0.026408345695126997   0.04038925840867032
-0.38656669776979097   0.026408345695126997   0.04038925840867032
-0.4332983857226595   -0.06213446586657925   -0.04041029926166059
-0.4332983857226595   -0.06213446586657925   -0.04041029926166059
-0.4332983857226595   -0.06213446586657925   -0.04041029926166059
-0.4332983857226595   -0.06213446586657925   -0.04041029926166059
-0.42172385315478567   0.01057332067323452   0.08870902973697083
-0.42172385315478567   0.01057332067323452   0.08870902973697083
-0.42172385315478567   0.01057332067323452   0.08870902973697083
-0.42172385315478567   0.01057332067323452   0.08870902973697083
-0.4027060126765583   -0.012994867210912114   0.012921174464047905
-0.4027060126765583   -0.012994867210912114   0.012921174464047905
-0.4027060126765583   -0.012994867210912114   0.012921174464047905
-0.4027060126765583   -0.012994867210912114   0.012921174464047905
-0.4646869033411724   -0.0695305747019122   -0.04600232581981248
-0.4646869033411724   -0.0695305747019122   -0.04600232581981248
-0.4646869033411724   -0.0695305747019122   -0.04600232581981248
-0.4646869033411724   -0.0695305747019122   -0.04600232581981248
-0.401354143427442   0.006950621617398872   0.050225824730448926
-0.401354143427442   0.006950621617398872   0.050225824730448926
-0.401354143427442   0.006950621617398872   0.050225824730448926
-0.401354143427442   0.006950621617398872   0.050225824730448926
-0.444719147532213   -0.08715249250408068   -0.03178509384806516
-0.444719147532213   -0.08715249250408068   -0.03178509384806516
-0.444719147532213   -0.08715249250408068   -0.03178509384806516
-0.444719147532213   -0.08715249250408068   -0.03178509384806516
-0.4777969510979848   -0.04721955308080557   0.0830279928617991
-0.4777969510979848   -0.04721955308080557   0.0830279928617991
-0.4777969510979848   -0.04721955308080557   0.0830279928617991
-0.4777969510979848   -0.04721955308080557   0.0830279928617991
-0.43146835245229914   -0.039079560059803564   -0.017882086264981847
-0.43146835245229914   -0.039079560059803564   -0.017882086264981847
-0.43146835245229914   -0.039079560059803564   -0.017882086264981847
-0.43146835245229914   -0.039079560059803564   -0.017882086264981847
-0.39966314808936626   -0.011868755993572552   -0.03635153768970706
-0.39966314808936626   -0.011868755993572552   -0.03635153768970706
-0.39966314808936626   -0.011868755993572552   -0.03635153768970706
-0.39966314808936626   -0.011868755993572552   -0.03635153768970706
-0.4041823915361857   -0.049622980566798876   -0.002108987964811968
-0.4041823915361857   -0.049622980566798876   -0.002108987964811968
-0.4041823915361857   -0.049622980566798876   -0.002108987964811968
-0.4041823915361857   -0.049622980566798876   -0.002108987964811968
-0.40705110435900294   -0.03301203241155163   -0.01808296959677596
-0.40705110435900294   -0.03301203241155163   -0.01808296959677596
-0.40705110435900294   -0.03301203241155163   -0.01808296959677596
-0.40705110435900294   -0.03301203241155163   -0.01808296959677596
-0.41360545568643586   -0.06764277279420278   -0.0007534126852243288
-0.41360545568643586   -0.06764277279420278   -0.0007534126852243288
-0.41360545568643586   -0.06764277279420278   -0.0007534126852243288
-0.41360545568643586   -0.06764277279420278   -0.0007534126852243288
-0.40266954078929784   -0.04229503352048973   -0.0014987622069004732
-0.40266954078929784   -0.04229503352048973   -0.0014987622069004732
-0.40266954078929784   -0.04229503352048973   -0.0014987622069004732
-0.40266954078929784   -0.04229503352048973   -0.0014987622069004732
-0.4136149502573358   -0.03699744944887395   -0.03144620888505468
-0.4136149502573358   -0.03699744944887395   -0.03144620888505468
-0.4136149502573358   -0.03699744944887395   -0.03144620888505468
-0.4136149502573358   -0.03699744944887395   -0.03144620888505468
-0.4096363138900799   -0.06625205985885893   0.0022310101951388012
-0.4096363138900799   -0.06625205985885893   0.0022310101951388012
-0.4096363138900799   -0.06625205985885893   0.0022310101951388012
-0.4096363138900799   -0.06625205985885893   0.0022310101951388012
-0.41381320274938477   -0.054632101604325585   -0.011647200240104275
-0.41381320274938477   -0.054632101604325585   -0.011647200240104275
-0.41381320274938477   -0.054632101604325585   -0.011647200240104275
-0.41381320274938477   -0.054632101604325585   -0.011647200240104275
-0.42849644586691804   -0.08771392124979327   0.009178855400260859
-0.42849644586691804   -0.08771392124979327   0.009178855400260859
-0.42849644586691804   -0.08771392124979327   0.009178855400260859
-0.42849644586691804   -0.08771392124979327   0.009178855400260859
-0.4118454832894201   -0.05974941795918618   -0.011495294978226633
-0.4118454832894201   -0.05974941795918618   -0.011495294978226633
-0.4118454832894201   -0.05974941795918618   -0.011495294978226633
-0.4118454832894201   -0.05974941795918618   -0.011495294978226633
-0.429474588232024   -0.06010007848987597   -0.023325699185186323
-0.429474588232024   -0.06010007848987597   -0.023325699185186323
-0.429474588232024   -0.06010007848987597   -0.023325699185186323
-0.429474588232024   -0.06010007848987597   -0.023325699185186323
-0.41615433534374324   -0.08556521932371305   0.00758025450748711
-0.41615433534374324   -0.08556521932371305   0.00758025450748711
-0.41615433534374324   -0.08556521932371305   0.00758025450748711
-0.41615433534374324   -0.08556521932371305   0.00758025450748711
-0.41987444090433784   -0.07795199048960808   -0.005271753605512868
-0.41987444090433784   -0.07795199048960808   -0.005271753605512868
-0.41987444090433784   -0.07795199048960808   -0.005271753605512868
-0.41987444090433784   -0.07795199048960808   -0.005271753605512868
-0.43988229441611965   -0.11323615915076216   0.01848283837908119
-0.43988229441611965   -0.11323615915076216   0.01848283837908119
-0.43988229441611965   -0.11323615915076216   0.01848283837908119
-0.43988229441611965   -0.11323615915076216   0.01848283837908119
-0.42450153679280195   -0.08086511262187872   -0.024224339538475675
-0.42450153679280195   -0.08086511262187872   -0.024224339538475675
-0.42450153679280195   -0.08086511262187872   -0.024224339538475675
-0.42450153679280195   -0.08086511262187872   -0.024224339538475675
-0.3931289792074402   0.010192692663564193   -0.006657599551439873
-0.3931289792074402   0.010192692663564193   -0.006657599551439873
-0.3931289792074402   0.010192692663564193   -0.006657599551439873
-0.3931289792074402   0.010192692663564193   -0.006657599551439873
-0.444027114983617   -0.08428852076445964   -0.021262025721442007
-0.444027114983617   -0.08428852076445964   -0.021262025721442007
-0.444027114983617   -0.08428852076445964   -0.021262025721442007
-0.444027114983617   -0.08428852076445964   -0.021262025721442007
-0.4258302089848722   -0.015519516971653033   0.005647010309182944
-0.4258302089848722   -0.015519516971653033   0.005647010309182944
-0.4258302089848722   -0.015519516971653033   0.005647010309182944
-0.4258302089848722   -0.015519516971653033   0.005647010309182944
-0.4177221265942178   -0.09129814526779288   -0.013151967916617055
-0.4177221265942178   -0.09129814526779288   -0.013151967916617055
-0.4177221265942178   -0.09129814526779288   -0.013151967916617055
-0.4177221265942178   -0.09129814526779288   -0.013151967916617055
-0.4198840089614194   -0.046658227595033484   -0.00954177524928673
-0.4198840089614194   -0.046658227595033484   -0.00954177524928673
-0.4198840089614194   -0.046658227595033484   -0.00954177524928673
-0.4198840089614194   -0.046658227595033484   -0.00954177524928673
-0.3991026201208929   -0.011311597853537275   -4.098296424824219e-05
-0.3991026201208929   -0.011311597853537275   -4.098296424824219e-05
-0.3991026201208929   -0.011311597853537275   -4.098296424824219e-05
-0.3991026201208929   -0.011311597853537275   -4.098296424824219e-05
-0.4468040707453187   -0.09786041967302508   -0.01688139579167724
-0.4468040707453187   -0.09786041967302508   -0.01688139579167724
-0.4468040707453187   -0.09786041967302508   -0.01688139579167724
-0.4468040707453187   -0.09786041967302508   -0.01688139579167724
-0.4306719861191058   -0.0371980896571492   0.012040487417576514
-0.4306719861191058   -0.0371980896571492   0.012040487417576514
-0.4306719861191058   -0.0371980896571492   0.012040487417576514
-0.4306719861191058   -0.0371980896571492   0.012040487417576514
-0.4240507180142993   -0.10838784959256068   -0.009079028576445526
-0.4240507180142993   -0.10838784959256068   -0.009079028576445526
-0.4240507180142993   -0.10838784959256068   -0.009079028576445526
-0.4240507180142993   -0.10838784959256068   -0.009079028576445526
-0.4250330695891265   -0.06317740748993148   -0.018113262870629677
-0.4250330695891265   -0.06317740748993148   -0.018113262870629677
-0.4250330695891265   -0.06317740748993148   -0.018113262870629677
-0.4250330695891265   -0.06317740748993148   -0.018113262870629677
-0.4059465629904339   -0.033375269270721014   0.006429166221045526
-0.4059465629904339   -0.033375269270721014   0.006429166221045526
-0.4059465629904339   -0.033375269270721014   0.006429166221045526
-0.4059465629904339   -0.033375269270721014   0.006429166221045526
-0.4514060404606744   -0.11484056929669528   -0.013987304650728017
-0.4514060404606744   -0.11484056929669528   -0.013987304650728017
-0.4514060404606744   -0.11484056929669528   -0.013987304650728017
-0.4514060404606744   -0.11484056929669528   -0.013987304650728017
-0.43460331726059354   -0.057591090491828874   0.018291222400189176
-0.43460331726059354   -0.057591090491828874   0.018291222400189176
-0.43460331726059354   -0.057591090491828874   0.018291222400189176
-0.43460331726059354   -0.057591090491828874   0.018291222400189176
-0.4287460084977288   -0.12479712150292699   -0.0027844605591526867
-0.4287460084977288   -0.12479712150292699   -0.0027844605591526867
-0.4287460084977288   -0.12479712150292699   -0.0027844605591526867
-0.4287460084977288   -0.12479712150292699   -0.0027844605591526867
-0.431177784213585   -0.08045670233788758   -0.027531883536978403
-0.431177784213585   -0.08045670233788758   -0.027531883536978403
-0.431177784213585   -0.08045670233788758   -0.027531883536978403
-0.431177784213585   -0.08045670233788758   -0.027531883536978403
-0.41000016201608697   0.0438894127120647   0.02069480563968354
-0.41000016201608697   0.0438894127120647   0.02069480563968354
-0.41000016201608697   0.0438894127120647   0.02069480563968354
-0.41000016201608697   0.0438894127120647   0.02069480563968354
-0.4839434835930772   -0.06278701178764463   -0.029600224917897273
-0.4839434835930772   -0.06278701178764463   -0.029600224917897273
-0.4839434835930772   -0.06278701178764463   -0.029600224917897273
-0.4839434835930772   -0.06278701178764463   -0.029600224917897273
-0.45775183996557084   0.013178933734369652   0.028706099186538533
-0.45775183996557084   0.013178933734369652   0.028706099186538533
-0.45775183996557084   0.013178933734369652   0.028706099186538533
-0.45775183996557084   0.013178933734369652   0.028706099186538533
-0.4414976501221156   -0.07025940312703098   -0.017950309221656108
-0.4414976501221156   -0.07025940312703098   -0.017950309221656108
-0.4414976501221156   -0.07025940312703098   -0.017950309221656108
-0.4414976501221156   -0.07025940312703098   -0.017950309221656108
-0.44827079221562127   -0.01852001080383041   -0.005699514511648938
-0.44827079221562127   -0.01852001080383041   -0.005699514511648938
-0.44827079221562127   -0.01852001080383041   -0.005699514511648938
-0.44827079221562127   -0.01852001080383041   -0.005699514511648938
-0.4141167350406971   0.02158642291143148   0.027108440146974
-0.4141167350406971   0.02158642291143148   0.027108440146974
-0.4141167350406971   0.02158642291143148   0.027108440146974
-0.4141167350406971   0.02158642291143148   0.027108440146974
-0.4882572430437618   -0.0817913803008653   -0.028850602169181533
-0.4882572430437618   -0.0817913803008653   -0.028850602169181533
-0.4882572430437618   -0.0817913803008653   -0.028850602169181533
-0.4882572430437618   -0.0817913803008653   -0.028850602169181533
-0.4661882195018564   -0.007979270182406642   0.032542251930265886
-0.4661882195018564   -0.007979270182406642   0.032542251930265886
-0.4661882195018564   -0.007979270182406642   0.032542251930265886
-0.4661882195018564   -0.007979270182406642   0.032542251930265886
-0.44570447420414155   -0.08602554176326202   -0.014294500901489288
-0.44570447420414155   -0.08602554176326202   -0.014294500901489288
-0.44570447420414155   -0.08602554176326202   -0.014294500901489288
-0.44570447420414155   -0.08602554176326202   -0.014294500901489288
-0.45250353420348827   -0.03642015619994089   -0.015750170382634713
-0.45250353420348827   -0.03642015619994089   -0.015750170382634713
-0.45250353420348827   -0.03642015619994089   -0.015750170382634713
-0.45250353420348827   -0.03642015619994089   -0.015750170382634713
-0.4186338431672723   0.001691481001980008   0.03334163151761502
-0.4186338431672723   0.001691481001980008   0.03334163151761502
-0.4186338431672723   0.001691481001980008   0.03334163151761502
-0.4186338431672723   0.001691481001980008   0.03334163151761502
-0.49596675531370593   -0.0984041977226289   -0.02592549958875931
-0.49596675531370593   -0.0984041977226289   -0.02592549958875931
-0.49596675531370593   -0.0984041977226289   -0.02592549958875931
-0.49596675531370593   -0.0984041977226289   -0.02592549958875931
-0.47175441096481513   -0.028268424423446903   0.0396818921183715
-0.47175441096481513   -0.028268424423446903   0.0396818921183715
-0.47175441096481513   -0.028268424423446903   0.0396818921183715
-0.47175441096481513   -0.028268424423446903   0.0396818921183715
-0.44930968298471535   -0.10185981451337651   -0.010971882198872457
-0.44930968298471535   -0.10185981451337651   -0.010971882198872457
-0.44930968298471535   -0.10185981451337651   -0.010971882198872457
-0.44930968298471535   -0.10185981451337651   -0.010971882198872457
-0.45994253062366236   -0.05328167863762941   -0.025484502749171394
-0.45994253062366236   -0.05328167863762941   -0.025484502749171394
-0.45994253062366236   -0.05328167863762941   -0.025484502749171394
-0.45994253062366236   -0.05328167863762941   -0.025484502749171394
-0.4446148112983832   0.06296533882902167   0.041290785938906456
-0.4446148112983832   0.06296533882902167   0.041290785938906456
-0.4446148112983832   0.06296533882902167   0.041290785938906456
-0.4446148112983832   0.06296533882902167   0.041290785938906456
-0.4744327517632264   -0.037840089196152435   -0.042919759802002785
-0.4744327517632264   -0.037840089196152435   -0.042919759802002785
-0.4744327517632264   -0.037840089196152435   -0.042919759802002785
-0.4744327517632264   -0.037840089196152435   -0.042919759802002785
-0.4636788819061758   0.0449208328808226   0.04588223913685475
-0.4636788819061758   0.0449208328808226   0.04588223913685475
-0.4636788819061758   0.0449208328808226   0.04588223913685475
-0.4636788819061758   0.0449208328808226   0.04588223913685475
-0.48112853716179604   -0.048765516488427745   -0.026232936571797656
-0.48112853716179604   -0.048765516488427745   -0.026232936571797656
-0.48112853716179604   -0.048765516488427745   -0.026232936571797656
-0.48112853716179604   -0.048765516488427745   -0.026232936571797656
-0.450143231036724   0.011296450403624148   0.0016874544605454608
-0.450143231036724   0.011296450403624148   0.0016874544605454608
-0.450143231036724   0.011296450403624148   0.0016874544605454608
-0.450143231036724   0.011296450403624148   0.0016874544605454608
-0.44684985413810896   0.048657652515587846   0.04773730954261408
-0.44684985413810896   0.048657652515587846   0.04773730954261408
-0.44684985413810896   0.048657652515587846   0.04773730954261408
-0.44684985413810896   0.048657652515587846   0.04773730954261408
-0.5004991581034319   -0.05504392929676088   -0.03825437967182741
-0.5004991581034319   -0.05504392929676088   -0.03825437967182741
-0.5004991581034319   -0.05504392929676088   -0.03825437967182741
-0.5004991581034319   -0.05504392929676088   -0.03825437967182741
-0.4841031383605236   0.033084186408890576   0.05908493672581378
-0.4841031383605236   0.033084186408890576   0.05908493672581378
-0.4841031383605236   0.033084186408890576   0.05908493672581378
-0.4841031383605236   0.033084186408890576   0.05908493672581378
-0.4874981014413125   -0.05803827513408558   -0.02394815281533573
-0.4874981014413125   -0.05803827513408558   -0.02394815281533573
-0.4874981014413125   -0.05803827513408558   -0.02394815281533573
-0.4874981014413125   -0.05803827513408558   -0.02394815281533573
-0.47213381611700134   -0.0030516979549004702   -0.010155159939636654
-0.47213381611700134   -0.0030516979549004702   -0.010155159939636654
-0.47213381611700134   -0.0030516979549004702   -0.010155159939636654
-0.47213381611700134   -0.0030516979549004702   -0.010155159939636654
-0.4518413826316252   0.03914915285775754   0.05714801324125016
-0.4518413826316252   0.03914915285775754   0.05714801324125016
-0.4518413826316252   0.03914915285775754   0.05714801324125016
-0.4518413826316252   0.03914915285775754   0.05714801324125016
-0.5230764037547404   -0.06741978816748062   -0.03527741566888311
-0.5230764037547404   -0.06741978816748062   -0.03527741566888311
-0.5230764037547404   -0.06741978816748062   -0.03527741566888311
-0.5230764037547404   -0.06741978816748062   -0.03527741566888311
-0.5201950003118214   0.002873348486970184   0.06313964859456478
-0.5201950003118214   0.002873348486970184   0.06313964859456478
-0.5201950003118214   0.002873348486970184   0.06313964859456478
-0.5201950003118214   0.002873348486970184   0.06313964859456478
-0.49330381616551416   -0.07551790507830694   -0.02081565323025658
-0.49330381616551416   -0.07551790507830694   -0.02081565323025658
-0.49330381616551416   -0.07551790507830694   -0.02081565323025658
-0.49330381616551416   -0.07551790507830694   -0.02081565323025658
-0.48256624351926136   -0.01624270535070639   -0.02084963075139949
-0.48256624351926136   -0.01624270535070639   -0.02084963075139949
-0.48256624351926136   -0.01624270535070639   -0.02084963075139949
-0.48256624351926136   -0.01624270535070639   -0.02084963075139949
-0.9594384275643505   -0.0876082153357226   -0.0901393842721889
-0.9594384275643505   -0.0876082153357226   -0.0901393842721889
-0.9594384275643505   -0.0876082153357226   -0.0901393842721889
-0.9594384275643505   -0.0876082153357226   -0.0901393842721889
-0.6077776755795208   0.05221104318287814   0.021276627738607147
-0.6077776755795208   0.05221104318287814   0.021276627738607147
-0.6077776755795208   0.05221104318287814   0.021276627738607147
-0.6077776755795208   0.05221104318287814   0.021276627738607147
-0.6381156869287233   -0.04000487988891853   -0.04012788035262495
-0.6381156869287233   -0.04000487988891853   -0.04012788035262495
-0.6381156869287233   -0.04000487988891853   -0.04012788035262495
-0.6381156869287233   -0.04000487988891853   -0.04012788035262495
-1.0195848450066016   -0.1143576886193432   0.10121854031328754
-1.0195848450066016   -0.1143576886193432   0.10121854031328754
-1.0195848450066016   -0.1143576886193432   0.10121854031328754
-1.0195848450066016   -0.1143576886193432   0.10121854031328754
-0.7412825609442844   -0.028045161273492644   0.09805884778815543
-0.7412825609442844   -0.028045161273492644   0.09805884778815543
-0.7412825609442844   -0.028045161273492644   0.09805884778815543
-0.7412825609442844   -0.028045161273492644   0.09805884778815543
-1.0559014143280376   -0.12873404023408508   -0.06598795467914328
-1.0559014143280376   -0.12873404023408508   -0.06598795467914328
-1.0559014143280376   -0.12873404023408508   -0.06598795467914328
-1.0559014143280376   -0.12873404023408508   -0.06598795467914328
-0.6273271822315664   -0.051156592898454506   0.02496635614269567
-0.6273271822315664   -0.051156592898454506   0.02496635614269567
-0.6273271822315664   -0.051156592898454506   0.02496635614269567
-0.6273271822315664   -0.051156592898454506   0.02496635614269567
-0.6477234675738349   -0.0581178761418773   -0.028747339919539122
-0.6477234675738349   -0.0581178761418773   -0.028747339919539122
-0.6477234675738349   -0.0581178761418773   -0.028747339919539122
-0.6477234675738349   -0.0581178761418773   -0.028747339919539122
-1.0517763782391623   -0.15985898236355708   0.0026386615293960743
-1.0517763782391623   -0.15985898236355708   0.0026386615293960743
-1.0517763782391623   -0.15985898236355708   0.0026386615293960743
-1.0517763782391623   -0.15985898236355708   0.0026386615293960743
-0.8203629327177158   -0.09646444801517193   0.022608399761433577
-0.8203629327177158   -0.09646444801517193   0.022608399761433577
-0.8203629327177158   -0.09646444801517193   0.022608399761433577
-0.8203629327177158   -0.09646444801517193   0.022608399761433577
-1.060033799231937   -0.14544329970766245   -0.05306412609036265
-1.060033799231937   -0.14544329970766245   -0.05306412609036265
-1.060033799231937   -0.14544329970766245   -0.05306412609036265
-1.060033799231937   -0.14544329970766245   -0.05306412609036265
-0.647217531436989   -0.08028504365370029   -0.004050491723493222
-0.647217531436989   -0.08028504365370029   -0.004050491723493222
-0.647217531436989   -0.08028504365370029   -0.004050491723493222
-0.647217531436989   -0.08028504365370029   -0.004050491723493222
-0.6479887883267801   -0.10204350501406677   -0.02089992957571155
-0.6479887883267801   -0.10204350501406677   -0.02089992957571155
-0.6479887883267801   -0.10204350501406677   -0.02089992957571155
-0.6479887883267801   -0.10204350501406677   -0.02089992957571155
-1.076627045436594   -0.24425053022789123   0.016232448132249083
-1.076627045436594   -0.24425053022789123   0.016232448132249083
-1.076627045436594   -0.24425053022789123   0.016232448132249083
-1.076627045436594   -0.24425053022789123   0.016232448132249083
-0.8192700525569774   -0.13264706681601496   0.001637779292741776
-0.8192700525569774   -0.13264706681601496   0.001637779292741776
-0.8192700525569774   -0.13264706681601496   0.001637779292741776
-0.8192700525569774   -0.13264706681601496   0.001637779292741776
-0.6563248085308254   -0.11123272094980907   -0.05801527288522331
-0.6563248085308254   -0.11123272094980907   -0.05801527288522331
-0.6563248085308254   -0.11123272094980907   -0.05801527288522331
-0.6563248085308254   -0.11123272094980907   -0.05801527288522331
-0.4502906820855895   -0.2902894106741556   -0.054459182119860214
-0.4502906820855895   -0.2902894106741556   -0.054459182119860214
-0.4502906820855895   -0.2902894106741556   -0.054459182119860214
-0.4502906820855895   -0.2902894106741556   -0.054459182119860214
-0.39555742767494084   -0.06455662965697867   -0.0033707250105988167
-0.39555742767494084   -0.06455662965697867   -0.0033707250105988167
-0.39555742767494084   -0.06455662965697867   -0.0033707250105988167
-0.39555742767494084   -0.06455662965697867   -0.0033707250105988167
-0.6974535834652935   -0.30810123370772646   -0.06872100921666832
-0.6974535834652935   -0.30810123370772646   -0.06872100921666832
-0.6974535834652935   -0.30810123370772646   -0.06872100921666832
-0.6974535834652935   -0.30810123370772646   -0.06872100921666832
-0.5435100671372184   -0.20546024633238974   -0.015823805922532554
-0.5435100671372184   -0.20546024633238974   -0.015823805922532554
-0.5435100671372184   -0.20546024633238974   -0.015823805922532554
-0.5435100671372184   -0.20546024633238974   -0.015823805922532554
-0.6557518360605351   -0.12465338959341513   -0.04366011630718676
-0.6557518360605351   -0.12465338959341513   -0.04366011630718676
-0.6557518360605351   -0.12465338959341513   -0.04366011630718676
-0.6557518360605351   -0.12465338959341513   -0.04366011630718676
-0.4399212532964902   -0.2506665519880821   -0.0390799307872498
-0.4399212532964902   -0.2506665519880821   -0.0390799307872498
-0.4399212532964902   -0.2506665519880821   -0.0390799307872498
-0.4399212532964902   -0.2506665519880821   -0.0390799307872498
-0.3998687645543053   -0.08368455172969771   0.0006980216881258626
-0.3998687645543053   -0.08368455172969771   0.0006980216881258626
-0.3998687645543053   -0.08368455172969771   0.0006980216881258626
-0.3998687645543053   -0.08368455172969771   0.0006980216881258626
-0.6997704881378095   -0.306507777018695   -0.04059254186260107
-0.6997704881378095   -0.306507777018695   -0.04059254186260107
-0.6997704881378095   -0.306507777018695   -0.04059254186260107
-0.6997704881378095   -0.306507777018695   -0.04059254186260107
-0.5373467543616449   -0.1925938262310205   -0.016809600137370522
-0.5373467543616449   -0.1925938262310205   -0.016809600137370522
-0.5373467543616449   -0.1925938262310205   -0.016809600137370522
-0.5373467543616449   -0.1925938262310205   -0.016809600137370522
-0.6655959920861695   -0.14351264108192807   -0.03271519754116169
-0.6655959920861695   -0.14351264108192807   -0.03271519754116169
-0.6655959920861695   -0.14351264108192807   -0.03271519754116169
-0.6655959920861695   -0.14351264108192807   -0.03271519754116169
-0.4395405807479179   -0.25217700780843755   -0.02916860320120522
-0.4395405807479179   -0.25217700780843755   -0.02916860320120522
-0.4395405807479179   -0.25217700780843755   -0.02916860320120522
-0.4395405807479179   -0.25217700780843755   -0.02916860320120522
-0.3994969942473922   -0.10755282653597178   0.00651420128430568
-0.3994969942473922   -0.10755282653597178   0.00651420128430568
-0.3994969942473922   -0.10755282653597178   0.00651420128430568
-0.3994969942473922   -0.10755282653597178   0.00651420128430568
-0.6978285673141826   -0.31168886613217184   -0.06045346339462624
-0.6978285673141826   -0.31168886613217184   -0.06045346339462624
-0.6978285673141826   -0.31168886613217184   -0.06045346339462624
-0.6978285673141826   -0.31168886613217184   -0.06045346339462624
-0.545240591960829   -0.20720262253593158   -0.031205303173740973
-0.545240591960829   -0.20720262253593158   -0.031205303173740973
-0.545240591960829   -0.20720262253593158   -0.031205303173740973
-0.545240591960829   -0.20720262253593158   -0.031205303173740973
-0.3966506834096689   -0.07155879099022017   -0.004989808424192678
-0.3966506834096689   -0.07155879099022017   -0.004989808424192678
-0.3966506834096689   -0.07155879099022017   -0.004989808424192678
-0.3966506834096689   -0.07155879099022017   -0.004989808424192678
-0.3319888633113075   -0.22195369259812697   -0.03831724109842265
-0.3319888633113075   -0.22195369259812697   -0.03831724109842265
-0.3319888633113075   -0.22195369259812697   -0.03831724109842265
-0.3319888633113075   -0.22195369259812697   -0.03831724109842265
-0.2860684845930357   -0.059270356648249804   0.01533333317991612
-0.2860684845930357   -0.059270356648249804   0.01533333317991612
-0.2860684845930357   -0.059270356648249804   0.01533333317991612
-0.2860684845930357   -0.059270356648249804   0.01533333317991612
-0.43874385319873704   -0.24147295673242283   -0.04238652555414341
-0.43874385319873704   -0.24147295673242283   -0.04238652555414341
-0.43874385319873704   -0.24147295673242283   -0.04238652555414341
-0.43874385319873704   -0.24147295673242283   -0.04238652555414341
-0.36175205444647646   -0.1506658584155338   -0.017692037398110587
-0.36175205444647646   -0.1506658584155338   -0.017692037398110587
-0.36175205444647646   -0.1506658584155338   -0.017692037398110587
-0.36175205444647646   -0.1506658584155338   -0.017692037398110587
-0.3987784634406652   -0.08473793812750026   0.000705404631293376
-0.3987784634406652   -0.08473793812750026   0.000705404631293376
-0.3987784634406652   -0.08473793812750026   0.000705404631293376
-0.3987784634406652   -0.08473793812750026   0.000705404631293376
-0.3283874484196406   -0.21835894932170546   -0.03717289327964543
-0.3283874484196406   -0.21835894932170546   -0.03717289327964543
-0.3283874484196406   -0.21835894932170546   -0.03717289327964543
-0.3283874484196406   -0.21835894932170546   -0.03717289327964543
-0.2859790057626094   -0.07498600124899962   0.019858500889669818
-0.2859790057626094   -0.07498600124899962   0.019858500889669818
-0.2859790057626094   -0.07498600124899962   0.019858500889669818
-0.2859790057626094   -0.07498600124899962   0.019858500889669818
-0.4399341076825929   -0.2453033786801362   -0.038009867002881254
-0.4399341076825929   -0.2453033786801362   -0.038009867002881254
-0.4399341076825929   -0.2453033786801362   -0.038009867002881254
-0.4399341076825929   -0.2453033786801362   -0.038009867002881254
-0.3609423906214889   -0.15660239854231678   -0.022953845981825507
-0.3609423906214889   -0.15660239854231678   -0.022953845981825507
-0.3609423906214889   -0.15660239854231678   -0.022953845981825507
-0.3609423906214889   -0.15660239854231678   -0.022953845981825507
-0.4019232136159427   -0.10066524838963056   0.007406473039863847
-0.4019232136159427   -0.10066524838963056   0.007406473039863847
-0.4019232136159427   -0.10066524838963056   0.007406473039863847
-0.4019232136159427   -0.10066524838963056   0.007406473039863847
-0.3252814283982382   -0.22091566010848787   -0.030723953428986386
-0.3252814283982382   -0.22091566010848787   -0.030723953428986386
-0.3252814283982382   -0.22091566010848787   -0.030723953428986386
-0.3252814283982382   -0.22091566010848787   -0.030723953428986386
-0.2823950729311707   -0.09001400180716923   0.02478020235307793
-0.2823950729311707   -0.09001400180716923   0.02478020235307793
-0.2823950729311707   -0.09001400180716923   0.02478020235307793
-0.2823950729311707   -0.09001400180716923   0.02478020235307793
-0.4344664834530037   -0.2484730742493271   -0.02741299703040037
-0.4344664834530037   -0.2484730742493271   -0.02741299703040037
-0.4344664834530037   -0.2484730742493271   -0.02741299703040037
-0.4344664834530037   -0.2484730742493271   -0.02741299703040037
-0.3596489996191436   -0.1643926573591705   -0.026577970968886706
-0.3596489996191436   -0.1643926573591705   -0.026577970968886706
-0.3596489996191436   -0.1643926573591705   -0.026577970968886706
-0.3596489996191436   -0.1643926573591705   -0.026577970968886706
-0.2765044097070168   -0.009957404301561557   0.02710873862645765
-0.2765044097070168   -0.009957404301561557   0.02710873862645765
-0.2765044097070168   -0.009957404301561557   0.02710873862645765
-0.2765044097070168   -0.009957404301561557   0.02710873862645765
-0.2607114891012541   -0.11733945944193669   -0.022870243222849605
-0.2607114891012541   -0.11733945944193669   -0.022870243222849605
-0.2607114891012541   -0.11733945944193669   -0.022870243222849605
-0.2607114891012541   -0.11733945944193669   -0.022870243222849605
-0.22461395484337632   -0.017008318321914132   0.031421419525188815
-0.22461395484337632   -0.017008318321914132   0.031421419525188815
-0.22461395484337632   -0.017008318321914132   0.031421419525188815
-0.22461395484337632   -0.017008318321914132   0.031421419525188815
-0.3076878826396432   -0.13580642271408877   -0.01622759098728239
-0.3076878826396432   -0.13580642271408877   -0.01622759098728239
-0.3076878826396432   -0.13580642271408877   -0.01622759098728239
-0.3076878826396432   -0.13580642271408877   -0.01622759098728239
-0.26827783036399283   -0.06939307954268088   -0.00958786713545572
-0.26827783036399283   -0.06939307954268088   -0.00958786713545572
-0.26827783036399283   -0.06939307954268088   -0.00958786713545572
-0.26827783036399283   -0.06939307954268088   -0.00958786713545572
-0.27651184126771133   -0.02741911740013443   0.031265310558422355
-0.27651184126771133   -0.02741911740013443   0.031265310558422355
-0.27651184126771133   -0.02741911740013443   0.031265310558422355
-0.27651184126771133   -0.02741911740013443   0.031265310558422355
-0.25828579741703017   -0.12789142483759053   -0.026054686827404205
-0.25828579741703017   -0.12789142483759053   -0.026054686827404205
-0.25828579741703017   -0.12789142483759053   -0.026054686827404205
-0.25828579741703017   -0.12789142483759053   -0.026054686827404205
-0.22475724286147541   -0.03222464638431049   0.033762744650586894
-0.22475724286147541   -0.03222464638431049   0.033762744650586894
-0.22475724286147541   -0.03222464638431049   0.033762744650586894
-0.22475724286147541   -0.03222464638431049   0.033762744650586894
-0.3073911473857913   -0.14407197105559405   -0.01811623741965342
-0.3073911473857913   -0.14407197105559405   -0.01811623741965342
-0.3073911473857913   -0.14407197105559405   -0.01811623741965342
-0.3073911473857913   -0.14407197105559405   -0.01811623741965342
-0.26693504903370685   -0.08162765677234068   -0.01625866847843045
-0.26693504903370685   -0.08162765677234068   -0.01625866847843045
-0.26693504903370685   -0.08162765677234068   -0.01625866847843045
-0.26693504903370685   -0.08162765677234068   -0.01625866847843045
-0.2762715978345412   -0.04216513204403488   0.035574671325030706
-0.2762715978345412   -0.04216513204403488   0.035574671325030706
-0.2762715978345412   -0.04216513204403488   0.035574671325030706
-0.2762715978345412   -0.04216513204403488   0.035574671325030706
-0.25738737552363633   -0.1356420685067804   -0.02597049653774782
-0.25738737552363633   -0.1356420685067804   -0.02597049653774782
-0.25738737552363633   -0.1356420685067804   -0.02597049653774782
-0.25738737552363633   -0.1356420685067804   -0.02597049653774782
-0.22263689204654322   -0.046506893087629966   0.03911993399167282
-0.22263689204654322   -0.046506893087629966   0.03911993399167282
-0.22263689204654322   -0.046506893087629966   0.03911993399167282
-0.22263689204654322   -0.046506893087629966   0.03911993399167282
-0.30230158528727274   -0.15235125704125443   -0.012415104193346828
-0.30230158528727274   -0.15235125704125443   -0.012415104193346828
-0.30230158528727274   -0.15235125704125443   -0.012415104193346828
-0.30230158528727274   -0.15235125704125443   -0.012415104193346828
-0.2659225937829953   -0.092120571207493   -0.020873809914961686
-0.2659225937829953   -0.092120571207493   -0.020873809914961686
-0.2659225937829953   -0.092120571207493   -0.020873809914961686
-0.2659225937829953   -0.092120571207493   -0.020873809914961686
-0.21813941861056946   0.030443882793753173   0.042206766994883654
-0.21813941861056946   0.030443882793753173   0.042206766994883654
-0.21813941861056946   0.030443882793753173   0.042206766994883654
-0.21813941861056946   0.030443882793753173   0.042206766994883654
-0.1439390751371386   -0.038476941079746   -0.014016913402874823
-0.1439390751371386   -0.038476941079746   -0.014016913402874823
-0.1439390751371386   -0.038476941079746   -0.014016913402874823
-0.1439390751371386   -0.038476941079746   -0.014016913402874823
-0.1253571372783169   0.03596669478069743   0.041656719890349095
-0.1253571372783169   0.03596669478069743   0.041656719890349095
-0.1253571372783169   0.03596669478069743   0.041656719890349095
-0.1253571372783169   0.03596669478069743   0.041656719890349095
-0.24077892177539167   -0.05916324632292677   -0.00724848713387523
-0.24077892177539167   -0.05916324632292677   -0.00724848713387523
-0.24077892177539167   -0.05916324632292677   -0.00724848713387523
-0.24077892177539167   -0.05916324632292677   -0.00724848713387523
-0.1795957557168375   -0.003742648628412594   -0.007681719239285763
-0.1795957557168375   -0.003742648628412594   -0.007681719239285763
-0.1795957557168375   -0.003742648628412594   -0.007681719239285763
-0.1795957557168375   -0.003742648628412594   -0.007681719239285763
-0.21447788877169166   0.019024905680243558   0.04606852588145446
-0.21447788877169166   0.019024905680243558   0.04606852588145446
-0.21447788877169166   0.019024905680243558   0.04606852588145446
-0.21447788877169166   0.019024905680243558   0.04606852588145446
-0.15190059599530673   -0.04246388293576657   -0.012629995978151473
-0.15190059599530673   -0.04246388293576657   -0.012629995978151473
-0.15190059599530673   -0.04246388293576657   -0.012629995978151473
-0.15190059599530673   -0.04246388293576657   -0.012629995978151473
-0.13076747593450327   0.028580863598547408   0.05241691534101998
-0.13076747593450327   0.028580863598547408   0.05241691534101998
-0.13076747593450327   0.028580863598547408   0.05241691534101998
-0.13076747593450327   0.028580863598547408   0.05241691534101998
-0.23951884598660705   -0.06295575482131666   -0.009314162538065086
-0.23951884598660705   -0.06295575482131666   -0.009314162538065086
-0.23951884598660705   -0.06295575482131666   -0.009314162538065086
-0.23951884598660705   -0.06295575482131666   -0.009314162538065086
-0.1847700931751938   -0.011812986069188805   -0.010767020503039492
-0.1847700931751938   -0.011812986069188805   -0.010767020503039492
-0.1847700931751938   -0.011812986069188805   -0.010767020503039492
-0.1847700931751938   -0.011812986069188805   -0.010767020503039492
-0.21196105092310316   0.012468814270209176   0.05305024368792867
-0.21196105092310316   0.012468814270209176   0.05305024368792867
-0.21196105092310316   0.012468814270209176   0.05305024368792867
-0.21196105092310316   0.012468814270209176   0.05305024368792867
-0.1602117765232342   -0.048730211018207965   -0.01749351298589451
-0.1602117765232342   -0.048730211018207965   -0.01749351298589451
-0.1602117765232342   -0.048730211018207965   -0.01749351298589451
-0.1602117765232342   -0.048730211018207965   -0.01749351298589451
-0.1496778942194017   0.008278811178440666   0.05454200610736888
-0.1496778942194017   0.008278811178440666   0.05454200610736888
-0.1496778942194017   0.008278811178440666   0.05454200610736888
-0.1496778942194017   0.008278811178440666   0.05454200610736888
-0.23598619880752986   -0.06630970450643311   -0.007823788394457264
-0.23598619880752986   -0.06630970450643311   -0.007823788394457264
-0.23598619880752986   -0.06630970450643311   -0.007823788394457264
-0.23598619880752986   -0.06630970450643311   -0.007823788394457264
-0.18720155098658597   -0.01762526407646957   -0.0158114776121887
-0.18720155098658597   -0.01762526407646957   -0.0158114776121887
-0.18720155098658597   -0.01762526407646957   -0.0158114776121887
-0.18720155098658597   -0.01762526407646957   -0.0158114776121887
-2.2585716282830144   -0.3197338839887141   -0.18765405541586805
-2.2585716282830144   -0.3197338839887141   -0.18765405541586805
-2.2585716282830144   -0.3197338839887141   -0.18765405541586805
-2.2585716282830144   -0.3197338839887141   -0.18765405541586805
-0.7834054323149966   -1.2295733402432276   -0.14694265979360094
-0.7834054323149966   -1.2295733402432276   -0.14694265979360094
-0.7834054323149966   -1.2295733402432276   -0.14694265979360094
-0.7834054323149966   -1.2295733402432276   -0.14694265979360094
-0.6058631991548716   -0.05168083816068837   0.0008811467548238104
-0.6058631991548716   -0.05168083816068837   0.0008811467548238104
-0.6058631991548716   -0.05168083816068837   0.0008811467548238104
-0.6058631991548716   -0.05168083816068837   0.0008811467548238104
-2.410768709965237   -1.445886490778014   -0.7713310401486502
-2.410768709965237   -1.445886490778014   -0.7713310401486502
-2.410768709965237   -1.445886490778014   -0.7713310401486502
-2.410768709965237   -1.445886490778014   -0.7713310401486502
-1.4768083943641888   -0.7193881197010439   -0.10481467046735797
-1.4768083943641888   -0.7193881197010439   -0.10481467046735797
-1.4768083943641888   -0.7193881197010439   -0.10481467046735797
-1.4768083943641888   -0.7193881197010439   -0.10481467046735797
-2.0986165303195397   -0.40141588357018765   -0.25504074912800495
-2.0986165303195397   -0.40141588357018765   -0.25504074912800495
-2.0986165303195397   -0.40141588357018765   -0.25504074912800495
-2.0986165303195397   -0.40141588357018765   -0.25504074912800495
-0.8458766022781874   -1.0240126688461346   -0.22685403817630273
-0.8458766022781874   -1.0240126688461346   -0.22685403817630273
-0.8458766022781874   -1.0240126688461346   -0.22685403817630273
-0.8458766022781874   -1.0240126688461346   -0.22685403817630273
-0.617973296387692   -0.06897125825094785   0.023274200240971994
-0.617973296387692   -0.06897125825094785   0.023274200240971994
-0.617973296387692   -0.06897125825094785   0.023274200240971994
-0.617973296387692   -0.06897125825094785   0.023274200240971994
-2.255857083841203   -1.2894659073425014   -0.7090645982367408
-2.255857083841203   -1.2894659073425014   -0.7090645982367408
-2.255857083841203   -1.2894659073425014   -0.7090645982367408
-2.255857083841203   -1.2894659073425014   -0.7090645982367408
-1.3909055093521576   -0.6485984671744691   0.05637363478064618
-1.3909055093521576   -0.6485984671744691   0.05637363478064618
-1.3909055093521576   -0.6485984671744691   0.05637363478064618
-1.3909055093521576   -0.6485984671744691   0.05637363478064618
-1.970618724071628   -0.3821857709851721   -0.19015293574621328
-1.970618724071628   -0.3821857709851721   -0.19015293574621328
-1.970618724071628   -0.3821857709851721   -0.19015293574621328
-1.970618724071628   -0.3821857709851721   -0.19015293574621328
-0.8230639663345346   -0.8961037047855468   -0.17504670295863617
-0.8230639663345346   -0.8961037047855468   -0.17504670295863617
-0.8230639663345346   -0.8961037047855468   -0.17504670295863617
-0.8230639663345346   -0.8961037047855468   -0.17504670295863617
-0.7098862291675156   -0.18151489698780937   -0.036830201936420254
-0.7098862291675156   -0.18151489698780937   -0.036830201936420254
-0.7098862291675156   -0.18151489698780937   -0.036830201936420254
-0.7098862291675156   -0.18151489698780937   -0.036830201936420254
-2.0560009167045403   -1.0833489969858872   -0.6278699827380855
-2.0560009167045403   -1.0833489969858872   -0.6278699827380855
-2.0560009167045403   -1.0833489969858872   -0.6278699827380855
-2.0560009167045403   -1.0833489969858872   -0.6278699827380855
-1.288328336126097   -0.5622412192400272   0.23842636069366002
-1.288328336126097   -0.5622412192400272   0.23842636069366002
-1.288328336126097   -0.5622412192400272   0.23842636069366002
-1.288328336126097   -0.5622412192400272   0.23842636069366002
-0.580377336901569   -0.31474167483943233   -0.04663384813026446
-0.580377336901569   -0.31474167483943233   -0.04663384813026446
-0.580377336901569   -0.31474167483943233   -0.04663384813026446
-0.580377336901569   -0.31474167483943233   -0.04663384813026446
-0.2680053949674137   -0.3874068862653697   -0.06620340596845016
-0.2680053949674137   -0.3874068862653697   -0.06620340596845016
-0.2680053949674137   -0.3874068862653697   -0.06620340596845016
-0.2680053949674137   -0.3874068862653697   -0.06620340596845016
-0.23660761808187725   -0.2009591419005905   0.006143484435595092
-0.23660761808187725   -0.2009591419005905   0.006143484435595092
-0.23660761808187725   -0.2009591419005905   0.006143484435595092
-0.23660761808187725   -0.2009591419005905   0.006143484435595092
-0.7092761148825176   -0.5680517848213573   0.00018751477726884624
-0.7092761148825176   -0.5680517848213573   0.00018751477726884624
-0.7092761148825176   -0.5680517848213573   0.00018751477726884624
-0.7092761148825176   -0.5680517848213573   0.00018751477726884624
-0.3811290142731371   -0.27558286124767145   0.12199562453641992
-0.3811290142731371   -0.27558286124767145   0.12199562453641992
-0.3811290142731371   -0.27558286124767145   0.12199562453641992
-0.3811290142731371   -0.27558286124767145   0.12199562453641992
-0.6602822909715076   -0.29291816955287076   -0.0299769809361757
-0.6602822909715076   -0.29291816955287076   -0.0299769809361757
-0.6602822909715076   -0.29291816955287076   -0.0299769809361757
-0.6602822909715076   -0.29291816955287076   -0.0299769809361757
-0.30558311358826246   -0.49607442876445296   -0.04361870623246465
-0.30558311358826246   -0.49607442876445296   -0.04361870623246465
-0.30558311358826246   -0.49607442876445296   -0.04361870623246465
-0.30558311358826246   -0.49607442876445296   -0.04361870623246465
-0.25545294783836636   -0.2082670337977983   0.006293633942431709
-0.25545294783836636   -0.2082670337977983   0.006293633942431709
-0.25545294783836636   -0.2082670337977983   0.006293633942431709
-0.25545294783836636   -0.2082670337977983   0.006293633942431709
-0.7437104205813827   -0.5606370090922574   -0.11374566988616619
-0.7437104205813827   -0.5606370090922574   -0.11374566988616619
-0.7437104205813827   -0.5606370090922574   -0.11374566988616619
-0.7437104205813827   -0.5606370090922574   -0.11374566988616619
-0.4542557600877163   -0.3536420205458935   0.05579143464218293
-0.4542557600877163   -0.3536420205458935   0.05579143464218293
-0.4542557600877163   -0.3536420205458935   0.05579143464218293
-0.4542557600877163   -0.3536420205458935   0.05579143464218293
-0.6812001907963205   -0.30586792932374934   -0.05596360072936924
-0.6812001907963205   -0.30586792932374934   -0.05596360072936924
-0.6812001907963205   -0.30586792932374934   -0.05596360072936924
-0.6812001907963205   -0.30586792932374934   -0.05596360072936924
-0.31609377064280664   -0.46116670658568426   -0.04401080729187612
-0.31609377064280664   -0.46116670658568426   -0.04401080729187612
-0.31609377064280664   -0.46116670658568426   -0.04401080729187612
-0.31609377064280664   -0.46116670658568426   -0.04401080729187612
-0.28448041338357166   -0.21507580864630627   0.009263670104090495
-0.28448041338357166   -0.21507580864630627   0.009263670104090495
-0.28448041338357166   -0.21507580864630627   0.009263670104090495
-0.28448041338357166   -0.21507580864630627   0.009263670104090495
-0.7949741043922661   -0.5446470711957543   -0.0991374038522236
-0.7949741043922661   -0.5446470711957543   -0.0991374038522236
-0.7949741043922661   -0.5446470711957543   -0.0991374038522236
-0.7949741043922661   -0.5446470711957543   -0.0991374038522236
-0.47514581348413354   -0.33328334808197313   0.05905009102080393
-0.47514581348413354   -0.33328334808197313   0.05905009102080393
-0.47514581348413354   -0.33328334808197313   0.05905009102080393
-0.47514581348413354   -0.33328334808197313   0.05905009102080393
-0.21204693926852614   -0.1875545519314682   0.013736538192089934
-0.21204693926852614   -0.1875545519314682   0.013736538192089934
-0.21204693926852614   -0.1875545519314682   0.013736538192089934
-0.21204693926852614   -0.1875545519314682   0.013736538192089934
-0.12923154990311198   -0.1202133988575694   -0.032288380289054466
-0.12923154990311198   -0.1202133988575694   -0.032288380289054466
-0.12923154990311198   -0.1202133988575694   -0.032288380289054466
-0.12923154990311198   -0.1202133988575694   -0.032288380289054466
-0.1254316275464889   -0.16755855997532582   0.0138732325791011
-0.1254316275464889   -0.16755855997532582   0.0138732325791011
-0.1254316275464889   -0.16755855997532582   0.0138732325791011
-0.1254316275464889   -0.16755855997532582   0.0138732325791011
-0.23369743964437156   -0.16533693968891294   -0.014927825588550263
-0.23369743964437156   -0.16533693968891294   -0.014927825588550263
-0.23369743964437156   -0.16533693968891294   -0.014927825588550263
-0.23369743964437156   -0.16533693968891294   -0.014927825588550263
-0.14791540853004054   -0.13514585347490243   0.06114935042962054
-0.14791540853004054   -0.13514585347490243   0.06114935042962054
-0.14791540853004054   -0.13514585347490243   0.06114935042962054
-0.14791540853004054   -0.13514585347490243   0.06114935042962054
-0.23244088807435964   -0.1887762167351668   0.014794209307759362
-0.23244088807435964   -0.1887762167351668   0.014794209307759362
-0.23244088807435964   -0.1887762167351668   0.014794209307759362
-0.23244088807435964   -0.1887762167351668   0.014794209307759362
-0.12869141680972818   -0.1461225206222987   -0.023861753090122423
-0.12869141680972818   -0.1461225206222987   -0.023861753090122423
-0.12869141680972818   -0.1461225206222987   -0.023861753090122423
-0.12869141680972818   -0.1461225206222987   -0.023861753090122423
-0.12671372195228997   -0.17259437474777894   0.012314766928610055
-0.12671372195228997   -0.17259437474777894   0.012314766928610055
-0.12671372195228997   -0.17259437474777894   0.012314766928610055
-0.12671372195228997   -0.17259437474777894   0.012314766928610055
-0.2479582153797845   -0.19301741393714272   0.028517676374693192
-0.2479582153797845   -0.19301741393714272   0.028517676374693192
-0.2479582153797845   -0.19301741393714272   0.028517676374693192
-0.2479582153797845   -0.19301741393714272   0.028517676374693192
-0.16063081112613933   -0.15054465706252956   0.051920681345063904
-0.16063081112613933   -0.15054465706252956   0.051920681345063904
-0.16063081112613933   -0.15054465706252956   0.051920681345063904
-0.16063081112613933   -0.15054465706252956   0.051920681345063904
-0.250214650195041   -0.195761580091498   0.019979668452758066
-0.250214650195041   -0.195761580091498   0.019979668452758066
-0.250214650195041   -0.195761580091498   0.019979668452758066
-0.250214650195041   -0.195761580091498   0.019979668452758066
-0.13517006844998053   -0.18056298990637074   -0.0219983504012508
-0.13517006844998053   -0.18056298990637074   -0.0219983504012508
-0.13517006844998053   -0.18056298990637074   -0.0219983504012508
-0.13517006844998053   -0.18056298990637074   -0.0219983504012508
-0.12793083342758865   -0.1782265472091639   0.01728398814500827
-0.12793083342758865   -0.1782265472091639   0.01728398814500827
-0.12793083342758865   -0.1782265472091639   0.01728398814500827
-0.12793083342758865   -0.1782265472091639   0.01728398814500827
-0.2896787436405832   -0.23775777437747922   0.005953984550209776
-0.2896787436405832   -0.23775777437747922   0.005953984550209776
-0.2896787436405832   -0.23775777437747922   0.005953984550209776
-0.2896787436405832   -0.23775777437747922   0.005953984550209776
-0.17913920489696816   -0.17172670489304945   0.02469958666148582
-0.17913920489696816   -0.17172670489304945   0.02469958666148582
-0.17913920489696816   -0.17172670489304945   0.02469958666148582
-0.17913920489696816   -0.17172670489304945   0.02469958666148582
-0.10641017199688907   -0.07465343774966304   0.036258548134153676
-0.10641017199688907   -0.07465343774966304   0.036258548134153676
-0.10641017199688907   -0.07465343774966304   0.036258548134153676
-0.10641017199688907   -0.07465343774966304   0.036258548134153676
-0.0742428066333041   0.0007181701115506339   -0.007225516159164243
-0.0742428066333041   0.0007181701115506339   -0.007225516159164243
-0.0742428066333041   0.0007181701115506339   -0.007225516159164243
-0.0742428066333041   0.0007181701115506339   -0.007225516159164243
-0.07048397433671436   -0.08061613805453734   0.02251992400753821
-0.07048397433671436   -0.08061613805453734   0.02251992400753821
-0.07048397433671436   -0.08061613805453734   0.02251992400753821
-0.07048397433671436   -0.08061613805453734   0.02251992400753821
-0.09831938999744519   -0.013384059262165796   -0.004740080388840386
-0.09831938999744519   -0.013384059262165796   -0.004740080388840386
-0.09831938999744519   -0.013384059262165796   -0.004740080388840386
-0.09831938999744519   -0.013384059262165796   -0.004740080388840386
-0.08080184546858948   -0.040475049168802575   0.017987269801268968
-0.08080184546858948   -0.040475049168802575   0.017987269801268968
-0.08080184546858948   -0.040475049168802575   0.017987269801268968
-0.08080184546858948   -0.040475049168802575   0.017987269801268968
-0.10489588610807059   -0.08516985770928572   0.03416323750515253
-0.10489588610807059   -0.08516985770928572   0.03416323750515253
-0.10489588610807059   -0.08516985770928572   0.03416323750515253
-0.10489588610807059   -0.08516985770928572   0.03416323750515253
-0.06203916532970496   -0.006962026711033414   -0.008910142300918704
-0.06203916532970496   -0.006962026711033414   -0.008910142300918704
-0.06203916532970496   -0.006962026711033414   -0.008910142300918704
-0.06203916532970496   -0.006962026711033414   -0.008910142300918704
-0.06446873237455797   -0.08771545660384901   0.020743919827838356
-0.06446873237455797   -0.08771545660384901   0.020743919827838356
-0.06446873237455797   -0.08771545660384901   0.020743919827838356
-0.06446873237455797   -0.08771545660384901   0.020743919827838356
-0.09888156595193107   -0.027036290852725853   0.0059174630353516205
-0.09888156595193107   -0.027036290852725853   0.0059174630353516205
-0.09888156595193107   -0.027036290852725853   0.0059174630353516205
-0.09888156595193107   -0.027036290852725853   0.0059174630353516205
-0.07398225879397466   -0.046361890379992485   0.02153678210744523
-0.07398225879397466   -0.046361890379992485   0.02153678210744523
-0.07398225879397466   -0.046361890379992485   0.02153678210744523
-0.07398225879397466   -0.046361890379992485   0.02153678210744523
-0.10530173093776977   -0.09222897569281051   0.03900932294624268
-0.10530173093776977   -0.09222897569281051   0.03900932294624268
-0.10530173093776977   -0.09222897569281051   0.03900932294624268
-0.10530173093776977   -0.09222897569281051   0.03900932294624268
-0.05857927564079659   -0.023053480015841687   -0.014470773091362034
-0.05857927564079659   -0.023053480015841687   -0.014470773091362034
-0.05857927564079659   -0.023053480015841687   -0.014470773091362034
-0.05857927564079659   -0.023053480015841687   -0.014470773091362034
-0.05367624589806641   -0.09558660386145769   0.022782822316430612
-0.05367624589806641   -0.09558660386145769   0.022782822316430612
-0.05367624589806641   -0.09558660386145769   0.022782822316430612
-0.05367624589806641   -0.09558660386145769   0.022782822316430612
-0.10629254221521481   -0.06053404652438568   0.007782943522099383
-0.10629254221521481   -0.06053404652438568   0.007782943522099383
-0.10629254221521481   -0.06053404652438568   0.007782943522099383
-0.10629254221521481   -0.06053404652438568   0.007782943522099383
-0.07096989209224447   -0.05857245440222808   0.018741867789605023
-0.07096989209224447   -0.05857245440222808   0.018741867789605023
-0.07096989209224447   -0.05857245440222808   0.018741867789605023
-0.07096989209224447   -0.05857245440222808   0.018741867789605023
-0.06830865182807785   -0.013262323451379468   0.03642575142989709
-0.06830865182807785   -0.013262323451379468   0.03642575142989709
-0.06830865182807785   -0.013262323451379468   0.03642575142989709
-0.06830865182807785   -0.013262323451379468   0.03642575142989709
-0.011693417145761593   0.008118530735202632   -0.0007352769507968835
-0.011693417145761593   0.008118530735202632   -0.0007352769507968835
-0.011693417145761593   0.008118530735202632   -0.0007352769507968835
-0.011693417145761593   0.008118530735202632   -0.0007352769507968835
0.00432733473493793   -0.004193693996445698   0.022493017988200543
0.00432733473493793   -0.004193693996445698   0.022493017988200543
0.00432733473493793   -0.004193693996445698   0.022493017988200543
0.00432733473493793   -0.004193693996445698   0.022493017988200543
-0.05821404401024256   0.006180696035184978   -0.0029272584498250664
-0.05821404401024256   0.006180696035184978   -0.0029272584498250664
-0.05821404401024256   0.006180696035184978   -0.0029272584498250664
-0.05821404401024256   0.006180696035184978   -0.0029272584498250664
-0.0340559541984947   -0.00252712467658419   -0.0028557651930206838
-0.0340559541984947   -0.00252712467658419   -0.0028557651930206838
-0.0340559541984947   -0.00252712467658419   -0.0028557651930206838
-0.0340559541984947   -0.00252712467658419   -0.0028557651930206838
-0.05384331472966991   -0.012754175574468962   0.037861259562692075
-0.05384331472966991   -0.012754175574468962   0.037861259562692075
-0.05384331472966991   -0.012754175574468962   0.037861259562692075
-0.05384331472966991   -0.012754175574468962   0.037861259562692075
0.00200421626725187   0.01678878842609482   -0.010105056772770273
0.00200421626725187   0.01678878842609482   -0.010105056772770273
0.00200421626725187   0.01678878842609482   -0.010105056772770273
0.00200421626725187   0.01678878842609482   -0.010105056772770273
0.012498139475039947   -0.005146895500793341   0.027713148602912126
0.012498139475039947   -0.005146895500793341   0.027713148602912126
0.012498139475039947   -0.005146895500793341   0.027713148602912126
0.012498139475039947   -0.005146895500793341   0.027713148602912126
-0.05096602486020605   0.004870924717134333   -0.004328923921385374
-0.05096602486020605   0.004870924717134333   -0.004328923921385374
-0.05096602486020605   0.004870924717134333   -0.004328923921385374
-0.05096602486020605   0.004870924717134333   -0.004328923921385374
-0.022097646590409574   -0.000509912093177114   0.003625038308473553
-0.022097646590409574   -0.000509912093177114   0.003625038308473553
-0.022097646590409574   -0.000509912093177114   0.003625038308473553
-0.022097646590409574   -0.000509912093177114   0.003625038308473553
-0.04579207247929724   -0.014221012560152556   0.040632775260445564
-0.04579207247929724   -0.014221012560152556   0.040632775260445564
-0.04579207247929724   -0.014221012560152556   0.040632775260445564
-0.04579207247929724   -0.014221012560152556   0.040632775260445564
0.00918090420208911   0.01580175888445536   -0.009821682147075404
0.00918090420208911   0.01580175888445536   -0.009821682147075404
0.00918090420208911   0.01580175888445536   -0.009821682147075404
0.00918090420208911   0.01580175888445536   -0.009821682147075404
0.02091422112007117   -0.007988871971603952   0.026879954352087558
0.02091422112007117   -0.007988871971603952   0.026879954352087558
0.02091422112007117   -0.007988871971603952   0.026879954352087558
0.02091422112007117   -0.007988871971603952   0.026879954352087558
-0.03906234676663088   0.005185337854592532   -0.004919623742441953
-0.03906234676663088   0.005185337854592532   -0.004919623742441953
-0.03906234676663088   0.005185337854592532   -0.004919623742441953
-0.03906234676663088   0.005185337854592532   -0.004919623742441953
-0.011388003339318109   0.0007913978667200016   0.009369319745000848
-0.011388003339318109   0.0007913978667200016   0.009369319745000848
-0.011388003339318109   0.0007913978667200016   0.009369319745000848
-0.011388003339318109   0.0007913978667200016   0.009369319745000848
              </DataArray>   
             <DataArray type="Float64" NumberOfComponents="3" Name="Displacements" format="ascii">   
0.0   0.0   0.0
-0.006283313862668766   -0.004119436492682857   -0.002104658905569831
0.0   0.0   0.0
0.0   0.0   0.0
-0.006283313862668766   -0.004119436492682857   -0.002104658905569831
-0.003998621041038859   -0.0037014506658943703   -0.0015462695827691158
0.0   0.0   0.0
-0.003919847921212149   -0.003887367262656802   -0.001295357174936718
0.0   0.0   0.0
0.0   0.0   0.0
-0.003919847921212149   -0.003887367262656802   -0.001295357174936718
0.0   0.0   0.0
0.0   0.0   0.0
-0.003919847921212149   -0.003887367262656802   -0.001295357174936718
-0.006576164546350315   -0.0043888076951265   -0.001689617827533909
-0.006283313862668766   -0.004119436492682857   -0.002104658905569831
0.0   0.0   0.0
-0.003919847921212149   -0.003887367262656802   -0.001295357174936718
-0.006283313862668766   -0.004119436492682857   -0.002104658905569831
0.0   0.0   0.0
0.0   0.0   0.0
-0.006576164546350315   -0.0043888076951265   -0.001689617827533909
0.0   0.0   0.0
0.0   0.0   0.0
-0.006576164546350315   -0.0043888076951265   -0.001689617827533909
-0.003919847921212149   -0.003887367262656802   -0.001295357174936718
0.0   0.0   0.0
-0.003931234190646496   -0.003982605609614983   -0.0010447683963699004
0.0   0.0   0.0
0.0   0.0   0.0
-0.003931234190646496   -0.003982605609614983   -0.0010447683963699004
0.0   0.0   0.0
0.0   0.0   0.0
-0.003931234190646496   -0.003982605609614983   -0.0010447683963699004
-0.00678198294517842   -0.004519778807406527   -0.0012918721919028713
-0.006576164546350315   -0.0043888076951265   -0.001689617827533909
0.0   0.0   0.0
-0.003931234190646496   -0.003982605609614983   -0.0010447683963699004
-0.006576164546350315   -0.0043888076951265   -0.001689617827533909
0.0   0.0   0.0
0.0   0.0   0.0
-0.00678198294517842   -0.004519778807406527   -0.0012918721919028713
0.0   0.0   0.0
0.0   0.0   0.0
-0.00678198294517842   -0.004519778807406527   -0.0012918721919028713
-0.003931234190646496   -0.003982605609614983   -0.0010447683963699004
0.0   0.0   0.0
-0.003929541658195325   -0.00400702577584403   -0.0007856091420164705
0.0   0.0   0.0
0.0   0.0   0.0
-0.003929541658195325   -0.00400702577584403   -0.0007856091420164705
0.0   0.0   0.0
0.0   0.0   0.0
-0.003929541658195325   -0.00400702577584403   -0.0007856091420164705
-0.007225043396320313   -0.004618836715819577   -0.0008303839878925327
-0.00678198294517842   -0.004519778807406527   -0.0012918721919028713
0.0   0.0   0.0
-0.003929541658195325   -0.00400702577584403   -0.0007856091420164705
-0.00678198294517842   -0.004519778807406527   -0.0012918721919028713
0.0   0.0   0.0
0.0   0.0   0.0
-0.003998621041038859   -0.0037014506658943703   -0.0015462695827691158
0.0   0.0   0.0
0.0   0.0   0.0
-0.003998621041038859   -0.0037014506658943703   -0.0015462695827691158
-0.0018206101683570376   -0.0035480836406445236   -0.0011759822786904703
0.0   0.0   0.0
-0.0017513602979145186   -0.0036691332569494407   -0.0010575689211670938
0.0   0.0   0.0
0.0   0.0   0.0
-0.0017513602979145186   -0.0036691332569494407   -0.0010575689211670938
0.0   0.0   0.0
0.0   0.0   0.0
-0.0017513602979145186   -0.0036691332569494407   -0.0010575689211670938
-0.003919847921212149   -0.003887367262656802   -0.001295357174936718
-0.003998621041038859   -0.0037014506658943703   -0.0015462695827691158
0.0   0.0   0.0
-0.0017513602979145186   -0.0036691332569494407   -0.0010575689211670938
-0.003998621041038859   -0.0037014506658943703   -0.0015462695827691158
0.0   0.0   0.0
0.0   0.0   0.0
-0.003919847921212149   -0.003887367262656802   -0.001295357174936718
0.0   0.0   0.0
0.0   0.0   0.0
-0.003919847921212149   -0.003887367262656802   -0.001295357174936718
-0.0017513602979145186   -0.0036691332569494407   -0.0010575689211670938
0.0   0.0   0.0
-0.001712602990139909   -0.003715259354468199   -0.000942210624223141
0.0   0.0   0.0
0.0   0.0   0.0
-0.001712602990139909   -0.003715259354468199   -0.000942210624223141
0.0   0.0   0.0
0.0   0.0   0.0
-0.001712602990139909   -0.003715259354468199   -0.000942210624223141
-0.003931234190646496   -0.003982605609614983   -0.0010447683963699004
-0.003919847921212149   -0.003887367262656802   -0.001295357174936718
0.0   0.0   0.0
-0.001712602990139909   -0.003715259354468199   -0.000942210624223141
-0.003919847921212149   -0.003887367262656802   -0.001295357174936718
0.0   0.0   0.0
0.0   0.0   0.0
-0.003931234190646496   -0.003982605609614983   -0.0010447683963699004
0.0   0.0   0.0
0.0   0.0   0.0
-0.003931234190646496   -0.003982605609614983   -0.0010447683963699004
-0.001712602990139909   -0.003715259354468199   -0.000942210624223141
0.0   0.0   0.0
-0.0016773662048458955   -0.003695984399620216   -0.0008229122367392453
0.0   0.0   0.0
0.0   0.0   0.0
-0.0016773662048458955   -0.003695984399620216   -0.0008229122367392453
0.0   0.0   0.0
0.0   0.0   0.0
-0.0016773662048458955   -0.003695984399620216   -0.0008229122367392453
-0.003929541658195325   -0.00400702577584403   -0.0007856091420164705
-0.003931234190646496   -0.003982605609614983   -0.0010447683963699004
0.0   0.0   0.0
-0.0016773662048458955   -0.003695984399620216   -0.0008229122367392453
-0.003931234190646496   -0.003982605609614983   -0.0010447683963699004
0.0   0.0   0.0
0.0   0.0   0.0
-0.0018206101683570376   -0.0035480836406445236   -0.0011759822786904703
0.0   0.0   0.0
0.0   0.0   0.0
-0.0018206101683570376   -0.0035480836406445236   -0.0011759822786904703
0.00023748435499716786   -0.0035676823396397473   -0.0009399425342335236
0.0   0.0   0.0
0.00028153271579629287   -0.003630465370020257   -0.0009564229580366331
0.0   0.0   0.0
0.0   0.0   0.0
0.00028153271579629287   -0.003630465370020257   -0.0009564229580366331
0.0   0.0   0.0
0.0   0.0   0.0
0.00028153271579629287   -0.003630465370020257   -0.0009564229580366331
-0.0017513602979145186   -0.0036691332569494407   -0.0010575689211670938
-0.0018206101683570376   -0.0035480836406445236   -0.0011759822786904703
0.0   0.0   0.0
0.00028153271579629287   -0.003630465370020257   -0.0009564229580366331
-0.0018206101683570376   -0.0035480836406445236   -0.0011759822786904703
0.0   0.0   0.0
0.0   0.0   0.0
-0.0017513602979145186   -0.0036691332569494407   -0.0010575689211670938
0.0   0.0   0.0
0.0   0.0   0.0
-0.0017513602979145186   -0.0036691332569494407   -0.0010575689211670938
0.00028153271579629287   -0.003630465370020257   -0.0009564229580366331
0.0   0.0   0.0
0.00031625464464306817   -0.003625296906741459   -0.0009712774981966646
0.0   0.0   0.0
0.0   0.0   0.0
0.00031625464464306817   -0.003625296906741459   -0.0009712774981966646
0.0   0.0   0.0
0.0   0.0   0.0
0.00031625464464306817   -0.003625296906741459   -0.0009712774981966646
-0.001712602990139909   -0.003715259354468199   -0.000942210624223141
-0.0017513602979145186   -0.0036691332569494407   -0.0010575689211670938
0.0   0.0   0.0
0.00031625464464306817   -0.003625296906741459   -0.0009712774981966646
-0.0017513602979145186   -0.0036691332569494407   -0.0010575689211670938
0.0   0.0   0.0
0.0   0.0   0.0
-0.001712602990139909   -0.003715259354468199   -0.000942210624223141
0.0   0.0   0.0
0.0   0.0   0.0
-0.001712602990139909   -0.003715259354468199   -0.000942210624223141
0.00031625464464306817   -0.003625296906741459   -0.0009712774981966646
0.0   0.0   0.0
0.0003630832439904163   -0.003546597947900855   -0.0009865057932116458
0.0   0.0   0.0
0.0   0.0   0.0
0.0003630832439904163   -0.003546597947900855   -0.0009865057932116458
0.0   0.0   0.0
0.0   0.0   0.0
0.0003630832439904163   -0.003546597947900855   -0.0009865057932116458
-0.0016773662048458955   -0.003695984399620216   -0.0008229122367392453
-0.001712602990139909   -0.003715259354468199   -0.000942210624223141
0.0   0.0   0.0
0.0003630832439904163   -0.003546597947900855   -0.0009865057932116458
-0.001712602990139909   -0.003715259354468199   -0.000942210624223141
0.0   0.0   0.0
0.0   0.0   0.0
0.00023748435499716786   -0.0035676823396397473   -0.0009399425342335236
0.0   0.0   0.0
0.0   0.0   0.0
0.00023748435499716786   -0.0035676823396397473   -0.0009399425342335236
0.0024712326984883243   -0.003741591503802223   -0.0008231076275050874
0.0   0.0   0.0
0.0024751726407190753   -0.003761625947849149   -0.0009815234977756328
0.0   0.0   0.0
0.0   0.0   0.0
0.0024751726407190753   -0.003761625947849149   -0.0009815234977756328
0.0   0.0   0.0
0.0   0.0   0.0
0.0024751726407190753   -0.003761625947849149   -0.0009815234977756328
0.00028153271579629287   -0.003630465370020257   -0.0009564229580366331
0.00023748435499716786   -0.0035676823396397473   -0.0009399425342335236
0.0   0.0   0.0
0.0024751726407190753   -0.003761625947849149   -0.0009815234977756328
0.00023748435499716786   -0.0035676823396397473   -0.0009399425342335236
0.0   0.0   0.0
0.0   0.0   0.0
0.00028153271579629287   -0.003630465370020257   -0.0009564229580366331
0.0   0.0   0.0
0.0   0.0   0.0
0.00028153271579629287   -0.003630465370020257   -0.0009564229580366331
0.0024751726407190753   -0.003761625947849149   -0.0009815234977756328
0.0   0.0   0.0
0.002464180306374161   -0.00370790809472958   -0.001133455036460023
0.0   0.0   0.0
0.0   0.0   0.0
0.002464180306374161   -0.00370790809472958   -0.001133455036460023
0.0   0.0   0.0
0.0   0.0   0.0
0.002464180306374161   -0.00370790809472958   -0.001133455036460023
0.00031625464464306817   -0.003625296906741459   -0.0009712774981966646
0.00028153271579629287   -0.003630465370020257   -0.0009564229580366331
0.0   0.0   0.0
0.002464180306374161   -0.00370790809472958   -0.001133455036460023
0.00028153271579629287   -0.003630465370020257   -0.0009564229580366331
0.0   0.0   0.0
0.0   0.0   0.0
0.00031625464464306817   -0.003625296906741459   -0.0009712774981966646
0.0   0.0   0.0
0.0   0.0   0.0
0.00031625464464306817   -0.003625296906741459   -0.0009712774981966646
0.002464180306374161   -0.00370790809472958   -0.001133455036460023
0.0   0.0   0.0
0.0025115278568157303   -0.0035639552806198843   -0.001282461922776648
0.0   0.0   0.0
0.0   0.0   0.0
0.0025115278568157303   -0.0035639552806198843   -0.001282461922776648
0.0   0.0   0.0
0.0   0.0   0.0
0.0025115278568157303   -0.0035639552806198843   -0.001282461922776648
0.0003630832439904163   -0.003546597947900855   -0.0009865057932116458
0.00031625464464306817   -0.003625296906741459   -0.0009712774981966646
0.0   0.0   0.0
0.0025115278568157303   -0.0035639552806198843   -0.001282461922776648
0.00031625464464306817   -0.003625296906741459   -0.0009712774981966646
0.0   0.0   0.0
0.0   0.0   0.0
0.0024712326984883243   -0.003741591503802223   -0.0008231076275050874
0.0   0.0   0.0
0.0   0.0   0.0
0.0024712326984883243   -0.003741591503802223   -0.0008231076275050874
0.0055767585088828345   -0.004182267046973109   -0.0007763962944613076
0.0   0.0   0.0
0.005236886073537232   -0.004136714689428035   -0.0011354401688837656
0.0   0.0   0.0
0.0   0.0   0.0
0.005236886073537232   -0.004136714689428035   -0.0011354401688837656
0.0   0.0   0.0
0.0   0.0   0.0
0.005236886073537232   -0.004136714689428035   -0.0011354401688837656
0.0024751726407190753   -0.003761625947849149   -0.0009815234977756328
0.0024712326984883243   -0.003741591503802223   -0.0008231076275050874
0.0   0.0   0.0
0.005236886073537232   -0.004136714689428035   -0.0011354401688837656
0.0024712326984883243   -0.003741591503802223   -0.0008231076275050874
0.0   0.0   0.0
0.0   0.0   0.0
0.0024751726407190753   -0.003761625947849149   -0.0009815234977756328
0.0   0.0   0.0
0.0   0.0   0.0
0.0024751726407190753   -0.003761625947849149   -0.0009815234977756328
0.005236886073537232   -0.004136714689428035   -0.0011354401688837656
0.0   0.0   0.0
0.00507998045431491   -0.004050705835233881   -0.0014390263842115746
0.0   0.0   0.0
0.0   0.0   0.0
0.00507998045431491   -0.004050705835233881   -0.0014390263842115746
0.0   0.0   0.0
0.0   0.0   0.0
0.00507998045431491   -0.004050705835233881   -0.0014390263842115746
0.002464180306374161   -0.00370790809472958   -0.001133455036460023
0.0024751726407190753   -0.003761625947849149   -0.0009815234977756328
0.0   0.0   0.0
0.00507998045431491   -0.004050705835233881   -0.0014390263842115746
0.0024751726407190753   -0.003761625947849149   -0.0009815234977756328
0.0   0.0   0.0
0.0   0.0   0.0
0.002464180306374161   -0.00370790809472958   -0.001133455036460023
0.0   0.0   0.0
0.0   0.0   0.0
0.002464180306374161   -0.00370790809472958   -0.001133455036460023
0.00507998045431491   -0.004050705835233881   -0.0014390263842115746
0.0   0.0   0.0
0.004846665778337772   -0.0038305551769417068   -0.0017602173512786818
0.0   0.0   0.0
0.0   0.0   0.0
0.004846665778337772   -0.0038305551769417068   -0.0017602173512786818
0.0   0.0   0.0
0.0   0.0   0.0
0.004846665778337772   -0.0038305551769417068   -0.0017602173512786818
0.0025115278568157303   -0.0035639552806198843   -0.001282461922776648
0.002464180306374161   -0.00370790809472958   -0.001133455036460023
0.0   0.0   0.0
0.004846665778337772   -0.0038305551769417068   -0.0017602173512786818
0.002464180306374161   -0.00370790809472958   -0.001133455036460023
0.0   0.0   0.0
-0.006283313862668766   -0.004119436492682857   -0.002104658905569831
-0.011738174951866114   -0.01150348272685681   -0.002835417758997545
-0.003998621041038859   -0.0037014506658943703   -0.0015462695827691158
-0.006576164546350315   -0.0043888076951265   -0.001689617827533909
-0.011738174951866114   -0.01150348272685681   -0.002835417758997545
-0.007492127915141002   -0.01112747923973504   -0.002333647175632954
-0.003998621041038859   -0.0037014506658943703   -0.0015462695827691158
-0.007501444880027756   -0.011317743860465971   -0.0021015185417736634
-0.006576164546350315   -0.0043888076951265   -0.001689617827533909
-0.003919847921212149   -0.003887367262656802   -0.001295357174936718
-0.007501444880027756   -0.011317743860465971   -0.0021015185417736634
-0.003998621041038859   -0.0037014506658943703   -0.0015462695827691158
-0.006576164546350315   -0.0043888076951265   -0.001689617827533909
-0.007501444880027756   -0.011317743860465971   -0.0021015185417736634
-0.012090477128264816   -0.011768927961810803   -0.002458408196649079
-0.011738174951866114   -0.01150348272685681   -0.002835417758997545
-0.006576164546350315   -0.0043888076951265   -0.001689617827533909
-0.007501444880027756   -0.011317743860465971   -0.0021015185417736634
-0.011738174951866114   -0.01150348272685681   -0.002835417758997545
-0.003998621041038859   -0.0037014506658943703   -0.0015462695827691158
-0.006576164546350315   -0.0043888076951265   -0.001689617827533909
-0.012090477128264816   -0.011768927961810803   -0.002458408196649079
-0.003919847921212149   -0.003887367262656802   -0.001295357174936718
-0.00678198294517842   -0.004519778807406527   -0.0012918721919028713
-0.012090477128264816   -0.011768927961810803   -0.002458408196649079
-0.007501444880027756   -0.011317743860465971   -0.0021015185417736634
-0.003919847921212149   -0.003887367262656802   -0.001295357174936718
-0.007531488929063306   -0.01143368853651314   -0.0018784223020596716
-0.00678198294517842   -0.004519778807406527   -0.0012918721919028713
-0.003931234190646496   -0.003982605609614983   -0.0010447683963699004
-0.007531488929063306   -0.01143368853651314   -0.0018784223020596716
-0.003919847921212149   -0.003887367262656802   -0.001295357174936718
-0.00678198294517842   -0.004519778807406527   -0.0012918721919028713
-0.007531488929063306   -0.01143368853651314   -0.0018784223020596716
-0.012335450401938028   -0.011918799628590557   -0.0020892098216202626
-0.012090477128264816   -0.011768927961810803   -0.002458408196649079
-0.00678198294517842   -0.004519778807406527   -0.0012918721919028713
-0.007531488929063306   -0.01143368853651314   -0.0018784223020596716
-0.012090477128264816   -0.011768927961810803   -0.002458408196649079
-0.003919847921212149   -0.003887367262656802   -0.001295357174936718
-0.00678198294517842   -0.004519778807406527   -0.0012918721919028713
-0.012335450401938028   -0.011918799628590557   -0.0020892098216202626
-0.003931234190646496   -0.003982605609614983   -0.0010447683963699004
-0.007225043396320313   -0.004618836715819577   -0.0008303839878925327
-0.012335450401938028   -0.011918799628590557   -0.0020892098216202626
-0.007531488929063306   -0.01143368853651314   -0.0018784223020596716
-0.003931234190646496   -0.003982605609614983   -0.0010447683963699004
-0.0075095695819495725   -0.011493786076910305   -0.0016695665301953524
-0.007225043396320313   -0.004618836715819577   -0.0008303839878925327
-0.003929541658195325   -0.00400702577584403   -0.0007856091420164705
-0.0075095695819495725   -0.011493786076910305   -0.0016695665301953524
-0.003931234190646496   -0.003982605609614983   -0.0010447683963699004
-0.007225043396320313   -0.004618836715819577   -0.0008303839878925327
-0.0075095695819495725   -0.011493786076910305   -0.0016695665301953524
-0.012625020389782655   -0.01200581828515371   -0.0017532411588703503
-0.012335450401938028   -0.011918799628590557   -0.0020892098216202626
-0.007225043396320313   -0.004618836715819577   -0.0008303839878925327
-0.0075095695819495725   -0.011493786076910305   -0.0016695665301953524
-0.012335450401938028   -0.011918799628590557   -0.0020892098216202626
-0.003931234190646496   -0.003982605609614983   -0.0010447683963699004
-0.003998621041038859   -0.0037014506658943703   -0.0015462695827691158
-0.007492127915141002   -0.01112747923973504   -0.002333647175632954
-0.0018206101683570376   -0.0035480836406445236   -0.0011759822786904703
-0.003919847921212149   -0.003887367262656802   -0.001295357174936718
-0.007492127915141002   -0.01112747923973504   -0.002333647175632954
-0.003475519364845865   -0.010952522666221676   -0.00199108040792348
-0.0018206101683570376   -0.0035480836406445236   -0.0011759822786904703
-0.003446012925884863   -0.011073651346486654   -0.00187217038206064
-0.003919847921212149   -0.003887367262656802   -0.001295357174936718
-0.0017513602979145186   -0.0036691332569494407   -0.0010575689211670938
-0.003446012925884863   -0.011073651346486654   -0.00187217038206064
-0.0018206101683570376   -0.0035480836406445236   -0.0011759822786904703
-0.003919847921212149   -0.003887367262656802   -0.001295357174936718
-0.003446012925884863   -0.011073651346486654   -0.00187217038206064
-0.007501444880027756   -0.011317743860465971   -0.0021015185417736634
-0.007492127915141002   -0.01112747923973504   -0.002333647175632954
-0.003919847921212149   -0.003887367262656802   -0.001295357174936718
-0.003446012925884863   -0.011073651346486654   -0.00187217038206064
-0.007492127915141002   -0.01112747923973504   -0.002333647175632954
-0.0018206101683570376   -0.0035480836406445236   -0.0011759822786904703
-0.003919847921212149   -0.003887367262656802   -0.001295357174936718
-0.007501444880027756   -0.011317743860465971   -0.0021015185417736634
-0.0017513602979145186   -0.0036691332569494407   -0.0010575689211670938
-0.003931234190646496   -0.003982605609614983   -0.0010447683963699004
-0.007501444880027756   -0.011317743860465971   -0.0021015185417736634
-0.003446012925884863   -0.011073651346486654   -0.00187217038206064
-0.0017513602979145186   -0.0036691332569494407   -0.0010575689211670938
-0.003419919302754085   -0.011132383235493287   -0.0017643561464989299
-0.003931234190646496   -0.003982605609614983   -0.0010447683963699004
-0.001712602990139909   -0.003715259354468199   -0.000942210624223141
-0.003419919302754085   -0.011132383235493287   -0.0017643561464989299
-0.0017513602979145186   -0.0036691332569494407   -0.0010575689211670938
-0.003931234190646496   -0.003982605609614983   -0.0010447683963699004
-0.003419919302754085   -0.011132383235493287   -0.0017643561464989299
-0.007531488929063306   -0.01143368853651314   -0.0018784223020596716
-0.007501444880027756   -0.011317743860465971   -0.0021015185417736634
-0.003931234190646496   -0.003982605609614983   -0.0010447683963699004
-0.003419919302754085   -0.011132383235493287   -0.0017643561464989299
-0.007501444880027756   -0.011317743860465971   -0.0021015185417736634
-0.0017513602979145186   -0.0036691332569494407   -0.0010575689211670938
-0.003931234190646496   -0.003982605609614983   -0.0010447683963699004
-0.007531488929063306   -0.01143368853651314   -0.0018784223020596716
-0.001712602990139909   -0.003715259354468199   -0.000942210624223141
-0.003929541658195325   -0.00400702577584403   -0.0007856091420164705
-0.007531488929063306   -0.01143368853651314   -0.0018784223020596716
-0.003419919302754085   -0.011132383235493287   -0.0017643561464989299
-0.001712602990139909   -0.003715259354468199   -0.000942210624223141
-0.00338075680464477   -0.011130933408956661   -0.001670467492252101
-0.003929541658195325   -0.00400702577584403   -0.0007856091420164705
-0.0016773662048458955   -0.003695984399620216   -0.0008229122367392453
-0.00338075680464477   -0.011130933408956661   -0.001670467492252101
-0.001712602990139909   -0.003715259354468199   -0.000942210624223141
-0.003929541658195325   -0.00400702577584403   -0.0007856091420164705
-0.00338075680464477   -0.011130933408956661   -0.001670467492252101
-0.0075095695819495725   -0.011493786076910305   -0.0016695665301953524
-0.007531488929063306   -0.01143368853651314   -0.0018784223020596716
-0.003929541658195325   -0.00400702577584403   -0.0007856091420164705
-0.00338075680464477   -0.011130933408956661   -0.001670467492252101
-0.007531488929063306   -0.01143368853651314   -0.0018784223020596716
-0.001712602990139909   -0.003715259354468199   -0.000942210624223141
-0.0018206101683570376   -0.0035480836406445236   -0.0011759822786904703
-0.003475519364845865   -0.010952522666221676   -0.00199108040792348
0.00023748435499716786   -0.0035676823396397473   -0.0009399425342335236
-0.0017513602979145186   -0.0036691332569494407   -0.0010575689211670938
-0.003475519364845865   -0.010952522666221676   -0.00199108040792348
0.0003980152524100749   -0.010957703114181575   -0.0017744166526299625
0.00023748435499716786   -0.0035676823396397473   -0.0009399425342335236
0.00043436594412159365   -0.01101513899618069   -0.0017666314908512896
-0.0017513602979145186   -0.0036691332569494407   -0.0010575689211670938
0.00028153271579629287   -0.003630465370020257   -0.0009564229580366331
0.00043436594412159365   -0.01101513899618069   -0.0017666314908512896
0.00023748435499716786   -0.0035676823396397473   -0.0009399425342335236
-0.0017513602979145186   -0.0036691332569494407   -0.0010575689211670938
0.00043436594412159365   -0.01101513899618069   -0.0017666314908512896
-0.003446012925884863   -0.011073651346486654   -0.00187217038206064
-0.003475519364845865   -0.010952522666221676   -0.00199108040792348
-0.0017513602979145186   -0.0036691332569494407   -0.0010575689211670938
0.00043436594412159365   -0.01101513899618069   -0.0017666314908512896
-0.003475519364845865   -0.010952522666221676   -0.00199108040792348
0.00023748435499716786   -0.0035676823396397473   -0.0009399425342335236
-0.0017513602979145186   -0.0036691332569494407   -0.0010575689211670938
-0.003446012925884863   -0.011073651346486654   -0.00187217038206064
0.00028153271579629287   -0.003630465370020257   -0.0009564229580366331
-0.001712602990139909   -0.003715259354468199   -0.000942210624223141
-0.003446012925884863   -0.011073651346486654   -0.00187217038206064
0.00043436594412159365   -0.01101513899618069   -0.0017666314908512896
0.00028153271579629287   -0.003630465370020257   -0.0009564229580366331
0.000458672844546766   -0.01101164243377182   -0.0017714416935142255
-0.001712602990139909   -0.003715259354468199   -0.000942210624223141
0.00031625464464306817   -0.003625296906741459   -0.0009712774981966646
0.000458672844546766   -0.01101164243377182   -0.0017714416935142255
0.00028153271579629287   -0.003630465370020257   -0.0009564229580366331
-0.001712602990139909   -0.003715259354468199   -0.000942210624223141
0.000458672844546766   -0.01101164243377182   -0.0017714416935142255
-0.003419919302754085   -0.011132383235493287   -0.0017643561464989299
-0.003446012925884863   -0.011073651346486654   -0.00187217038206064
-0.001712602990139909   -0.003715259354468199   -0.000942210624223141
0.000458672844546766   -0.01101164243377182   -0.0017714416935142255
-0.003446012925884863   -0.011073651346486654   -0.00187217038206064
0.00028153271579629287   -0.003630465370020257   -0.0009564229580366331
-0.001712602990139909   -0.003715259354468199   -0.000942210624223141
-0.003419919302754085   -0.011132383235493287   -0.0017643561464989299
0.00031625464464306817   -0.003625296906741459   -0.0009712774981966646
-0.0016773662048458955   -0.003695984399620216   -0.0008229122367392453
-0.003419919302754085   -0.011132383235493287   -0.0017643561464989299
0.000458672844546766   -0.01101164243377182   -0.0017714416935142255
0.00031625464464306817   -0.003625296906741459   -0.0009712774981966646
0.00048478615223905856   -0.010945351721983   -0.0017890470233925407
-0.0016773662048458955   -0.003695984399620216   -0.0008229122367392453
0.0003630832439904163   -0.003546597947900855   -0.0009865057932116458
0.00048478615223905856   -0.010945351721983   -0.0017890470233925407
0.00031625464464306817   -0.003625296906741459   -0.0009712774981966646
-0.0016773662048458955   -0.003695984399620216   -0.0008229122367392453
0.00048478615223905856   -0.010945351721983   -0.0017890470233925407
-0.00338075680464477   -0.011130933408956661   -0.001670467492252101
-0.003419919302754085   -0.011132383235493287   -0.0017643561464989299
-0.0016773662048458955   -0.003695984399620216   -0.0008229122367392453
0.00048478615223905856   -0.010945351721983   -0.0017890470233925407
-0.003419919302754085   -0.011132383235493287   -0.0017643561464989299
0.00031625464464306817   -0.003625296906741459   -0.0009712774981966646
0.00023748435499716786   -0.0035676823396397473   -0.0009399425342335236
0.0003980152524100749   -0.010957703114181575   -0.0017744166526299625
0.0024712326984883243   -0.003741591503802223   -0.0008231076275050874
0.00028153271579629287   -0.003630465370020257   -0.0009564229580366331
0.0003980152524100749   -0.010957703114181575   -0.0017744166526299625
0.004502612190269472   -0.011136509061786379   -0.0016732205172403788
0.0024712326984883243   -0.003741591503802223   -0.0008231076275050874
0.004522927611294691   -0.011136094056628585   -0.0017801671377396862
0.00028153271579629287   -0.003630465370020257   -0.0009564229580366331
0.0024751726407190753   -0.003761625947849149   -0.0009815234977756328
0.004522927611294691   -0.011136094056628585   -0.0017801671377396862
0.0024712326984883243   -0.003741591503802223   -0.0008231076275050874
0.00028153271579629287   -0.003630465370020257   -0.0009564229580366331
0.004522927611294691   -0.011136094056628585   -0.0017801671377396862
0.00043436594412159365   -0.01101513899618069   -0.0017666314908512896
0.0003980152524100749   -0.010957703114181575   -0.0017744166526299625
0.00028153271579629287   -0.003630465370020257   -0.0009564229580366331
0.004522927611294691   -0.011136094056628585   -0.0017801671377396862
0.0003980152524100749   -0.010957703114181575   -0.0017744166526299625
0.0024712326984883243   -0.003741591503802223   -0.0008231076275050874
0.00028153271579629287   -0.003630465370020257   -0.0009564229580366331
0.00043436594412159365   -0.01101513899618069   -0.0017666314908512896
0.0024751726407190753   -0.003761625947849149   -0.0009815234977756328
0.00031625464464306817   -0.003625296906741459   -0.0009712774981966646
0.00043436594412159365   -0.01101513899618069   -0.0017666314908512896
0.004522927611294691   -0.011136094056628585   -0.0017801671377396862
0.0024751726407190753   -0.003761625947849149   -0.0009815234977756328
0.004501523036459007   -0.011075916989475207   -0.0019013644223086065
0.00031625464464306817   -0.003625296906741459   -0.0009712774981966646
0.002464180306374161   -0.00370790809472958   -0.001133455036460023
0.004501523036459007   -0.011075916989475207   -0.0019013644223086065
0.0024751726407190753   -0.003761625947849149   -0.0009815234977756328
0.00031625464464306817   -0.003625296906741459   -0.0009712774981966646
0.004501523036459007   -0.011075916989475207   -0.0019013644223086065
0.000458672844546766   -0.01101164243377182   -0.0017714416935142255
0.00043436594412159365   -0.01101513899618069   -0.0017666314908512896
0.00031625464464306817   -0.003625296906741459   -0.0009712774981966646
0.004501523036459007   -0.011075916989475207   -0.0019013644223086065
0.00043436594412159365   -0.01101513899618069   -0.0017666314908512896
0.0024751726407190753   -0.003761625947849149   -0.0009815234977756328
0.00031625464464306817   -0.003625296906741459   -0.0009712774981966646
0.000458672844546766   -0.01101164243377182   -0.0017714416935142255
0.002464180306374161   -0.00370790809472958   -0.001133455036460023
0.0003630832439904163   -0.003546597947900855   -0.0009865057932116458
0.000458672844546766   -0.01101164243377182   -0.0017714416935142255
0.004501523036459007   -0.011075916989475207   -0.0019013644223086065
0.002464180306374161   -0.00370790809472958   -0.001133455036460023
0.00448907400599047   -0.010939503609826463   -0.002032329994670343
0.0003630832439904163   -0.003546597947900855   -0.0009865057932116458
0.0025115278568157303   -0.0035639552806198843   -0.001282461922776648
0.00448907400599047   -0.010939503609826463   -0.002032329994670343
0.002464180306374161   -0.00370790809472958   -0.001133455036460023
0.0003630832439904163   -0.003546597947900855   -0.0009865057932116458
0.00448907400599047   -0.010939503609826463   -0.002032329994670343
0.00048478615223905856   -0.010945351721983   -0.0017890470233925407
0.000458672844546766   -0.01101164243377182   -0.0017714416935142255
0.0003630832439904163   -0.003546597947900855   -0.0009865057932116458
0.00448907400599047   -0.010939503609826463   -0.002032329994670343
0.000458672844546766   -0.01101164243377182   -0.0017714416935142255
0.002464180306374161   -0.00370790809472958   -0.001133455036460023
0.0024712326984883243   -0.003741591503802223   -0.0008231076275050874
0.004502612190269472   -0.011136509061786379   -0.0016732205172403788
0.0055767585088828345   -0.004182267046973109   -0.0007763962944613076
0.0024751726407190753   -0.003761625947849149   -0.0009815234977756328
0.004502612190269472   -0.011136509061786379   -0.0016732205172403788
0.009455037094240091   -0.011468953909542197   -0.0016457685221534782
0.0055767585088828345   -0.004182267046973109   -0.0007763962944613076
0.009261952664164344   -0.011437792522107623   -0.0018863044287246874
0.0024751726407190753   -0.003761625947849149   -0.0009815234977756328
0.005236886073537232   -0.004136714689428035   -0.0011354401688837656
0.009261952664164344   -0.011437792522107623   -0.0018863044287246874
0.0055767585088828345   -0.004182267046973109   -0.0007763962944613076
0.0024751726407190753   -0.003761625947849149   -0.0009815234977756328
0.009261952664164344   -0.011437792522107623   -0.0018863044287246874
0.004522927611294691   -0.011136094056628585   -0.0017801671377396862
0.004502612190269472   -0.011136509061786379   -0.0016732205172403788
0.0024751726407190753   -0.003761625947849149   -0.0009815234977756328
0.009261952664164344   -0.011437792522107623   -0.0018863044287246874
0.004502612190269472   -0.011136509061786379   -0.0016732205172403788
0.0055767585088828345   -0.004182267046973109   -0.0007763962944613076
0.0024751726407190753   -0.003761625947849149   -0.0009815234977756328
0.004522927611294691   -0.011136094056628585   -0.0017801671377396862
0.005236886073537232   -0.004136714689428035   -0.0011354401688837656
0.002464180306374161   -0.00370790809472958   -0.001133455036460023
0.004522927611294691   -0.011136094056628585   -0.0017801671377396862
0.009261952664164344   -0.011437792522107623   -0.0018863044287246874
0.005236886073537232   -0.004136714689428035   -0.0011354401688837656
0.009089458358342104   -0.011344994395079697   -0.0021568304931642393
0.002464180306374161   -0.00370790809472958   -0.001133455036460023
0.00507998045431491   -0.004050705835233881   -0.0014390263842115746
0.009089458358342104   -0.011344994395079697   -0.0021568304931642393
0.005236886073537232   -0.004136714689428035   -0.0011354401688837656
0.002464180306374161   -0.00370790809472958   -0.001133455036460023
0.009089458358342104   -0.011344994395079697   -0.0021568304931642393
0.004501523036459007   -0.011075916989475207   -0.0019013644223086065
0.004522927611294691   -0.011136094056628585   -0.0017801671377396862
0.002464180306374161   -0.00370790809472958   -0.001133455036460023
0.009089458358342104   -0.011344994395079697   -0.0021568304931642393
0.004522927611294691   -0.011136094056628585   -0.0017801671377396862
0.005236886073537232   -0.004136714689428035   -0.0011354401688837656
0.002464180306374161   -0.00370790809472958   -0.001133455036460023
0.004501523036459007   -0.011075916989475207   -0.0019013644223086065
0.00507998045431491   -0.004050705835233881   -0.0014390263842115746
0.0025115278568157303   -0.0035639552806198843   -0.001282461922776648
0.004501523036459007   -0.011075916989475207   -0.0019013644223086065
0.009089458358342104   -0.011344994395079697   -0.0021568304931642393
0.00507998045431491   -0.004050705835233881   -0.0014390263842115746
0.008831290254139977   -0.011138372183827818   -0.0024383945559809904
0.0025115278568157303   -0.0035639552806198843   -0.001282461922776648
0.004846665778337772   -0.0038305551769417068   -0.0017602173512786818
0.008831290254139977   -0.011138372183827818   -0.0024383945559809904
0.00507998045431491   -0.004050705835233881   -0.0014390263842115746
0.0025115278568157303   -0.0035639552806198843   -0.001282461922776648
0.008831290254139977   -0.011138372183827818   -0.0024383945559809904
0.00448907400599047   -0.010939503609826463   -0.002032329994670343
0.004501523036459007   -0.011075916989475207   -0.0019013644223086065
0.0025115278568157303   -0.0035639552806198843   -0.001282461922776648
0.008831290254139977   -0.011138372183827818   -0.0024383945559809904
0.004501523036459007   -0.011075916989475207   -0.0019013644223086065
0.00507998045431491   -0.004050705835233881   -0.0014390263842115746
-0.011738174951866114   -0.01150348272685681   -0.002835417758997545
-0.016086092719077946   -0.021579351437397233   -0.00322921315604895
-0.007492127915141002   -0.01112747923973504   -0.002333647175632954
-0.012090477128264816   -0.011768927961810803   -0.002458408196649079
-0.016086092719077946   -0.021579351437397233   -0.00322921315604895
-0.010341950933057224   -0.021291910589726466   -0.002822080767944222
-0.007492127915141002   -0.01112747923973504   -0.002333647175632954
-0.010365172899553094   -0.02145619328778909   -0.002641927073121164
-0.012090477128264816   -0.011768927961810803   -0.002458408196649079
-0.007501444880027756   -0.011317743860465971   -0.0021015185417736634
-0.010365172899553094   -0.02145619328778909   -0.002641927073121164
-0.007492127915141002   -0.01112747923973504   -0.002333647175632954
-0.012090477128264816   -0.011768927961810803   -0.002458408196649079
-0.010365172899553094   -0.02145619328778909   -0.002641927073121164
-0.016372886730326983   -0.021803840553268616   -0.002947918902397066
-0.016086092719077946   -0.021579351437397233   -0.00322921315604895
-0.012090477128264816   -0.011768927961810803   -0.002458408196649079
-0.010365172899553094   -0.02145619328778909   -0.002641927073121164
-0.016086092719077946   -0.021579351437397233   -0.00322921315604895
-0.007492127915141002   -0.01112747923973504   -0.002333647175632954
-0.012090477128264816   -0.011768927961810803   -0.002458408196649079
-0.016372886730326983   -0.021803840553268616   -0.002947918902397066
-0.007501444880027756   -0.011317743860465971   -0.0021015185417736634
-0.012335450401938028   -0.011918799628590557   -0.0020892098216202626
-0.016372886730326983   -0.021803840553268616   -0.002947918902397066
-0.010365172899553094   -0.02145619328778909   -0.002641927073121164
-0.007501444880027756   -0.011317743860465971   -0.0021015185417736634
-0.010392451937608975   -0.02157048297401229   -0.0024747916825967075
-0.012335450401938028   -0.011918799628590557   -0.0020892098216202626
-0.007531488929063306   -0.01143368853651314   -0.0018784223020596716
-0.010392451937608975   -0.02157048297401229   -0.0024747916825967075
-0.007501444880027756   -0.011317743860465971   -0.0021015185417736634
-0.012335450401938028   -0.011918799628590557   -0.0020892098216202626
-0.010392451937608975   -0.02157048297401229   -0.0024747916825967075
-0.016553935928780298   -0.021944569728210492   -0.0026857095241356052
-0.016372886730326983   -0.021803840553268616   -0.002947918902397066
-0.012335450401938028   -0.011918799628590557   -0.0020892098216202626
-0.010392451937608975   -0.02157048297401229   -0.0024747916825967075
-0.016372886730326983   -0.021803840553268616   -0.002947918902397066
-0.007501444880027756   -0.011317743860465971   -0.0021015185417736634
-0.012335450401938028   -0.011918799628590557   -0.0020892098216202626
-0.016553935928780298   -0.021944569728210492   -0.0026857095241356052
-0.007531488929063306   -0.01143368853651314   -0.0018784223020596716
-0.012625020389782655   -0.01200581828515371   -0.0017532411588703503
-0.016553935928780298   -0.021944569728210492   -0.0026857095241356052
-0.010392451937608975   -0.02157048297401229   -0.0024747916825967075
-0.007531488929063306   -0.01143368853651314   -0.0018784223020596716
-0.010373548824629998   -0.02164561893204126   -0.0023179024202032474
-0.012625020389782655   -0.01200581828515371   -0.0017532411588703503
-0.0075095695819495725   -0.011493786076910305   -0.0016695665301953524
-0.010373548824629998   -0.02164561893204126   -0.0023179024202032474
-0.007531488929063306   -0.01143368853651314   -0.0018784223020596716
-0.012625020389782655   -0.01200581828515371   -0.0017532411588703503
-0.010373548824629998   -0.02164561893204126   -0.0023179024202032474
-0.01675993365417346   -0.022045688541385784   -0.0024443693125228926
-0.016553935928780298   -0.021944569728210492   -0.0026857095241356052
-0.012625020389782655   -0.01200581828515371   -0.0017532411588703503
-0.010373548824629998   -0.02164561893204126   -0.0023179024202032474
-0.016553935928780298   -0.021944569728210492   -0.0026857095241356052
-0.007531488929063306   -0.01143368853651314   -0.0018784223020596716
-0.007492127915141002   -0.01112747923973504   -0.002333647175632954
-0.010341950933057224   -0.021291910589726466   -0.002822080767944222
-0.003475519364845865   -0.010952522666221676   -0.00199108040792348
-0.007501444880027756   -0.011317743860465971   -0.0021015185417736634
-0.010341950933057224   -0.021291910589726466   -0.002822080767944222
-0.004925287601805427   -0.021148635133395946   -0.0025392026229777514
-0.003475519364845865   -0.010952522666221676   -0.00199108040792348
-0.004913498836423267   -0.021253716245567197   -0.0024374372628479662
-0.007501444880027756   -0.011317743860465971   -0.0021015185417736634
-0.003446012925884863   -0.011073651346486654   -0.00187217038206064
-0.004913498836423267   -0.021253716245567197   -0.0024374372628479662
-0.003475519364845865   -0.010952522666221676   -0.00199108040792348
-0.007501444880027756   -0.011317743860465971   -0.0021015185417736634
-0.004913498836423267   -0.021253716245567197   -0.0024374372628479662
-0.010365172899553094   -0.02145619328778909   -0.002641927073121164
-0.010341950933057224   -0.021291910589726466   -0.002822080767944222
-0.007501444880027756   -0.011317743860465971   -0.0021015185417736634
-0.004913498836423267   -0.021253716245567197   -0.0024374372628479662
-0.010341950933057224   -0.021291910589726466   -0.002822080767944222
-0.003475519364845865   -0.010952522666221676   -0.00199108040792348
-0.007501444880027756   -0.011317743860465971   -0.0021015185417736634
-0.010365172899553094   -0.02145619328778909   -0.002641927073121164
-0.003446012925884863   -0.011073651346486654   -0.00187217038206064
-0.007531488929063306   -0.01143368853651314   -0.0018784223020596716
-0.010365172899553094   -0.02145619328778909   -0.002641927073121164
-0.004913498836423267   -0.021253716245567197   -0.0024374372628479662
-0.003446012925884863   -0.011073651346486654   -0.00187217038206064
-0.0048989324189264525   -0.021315426208607383   -0.002348071545750473
-0.007531488929063306   -0.01143368853651314   -0.0018784223020596716
-0.003419919302754085   -0.011132383235493287   -0.0017643561464989299
-0.0048989324189264525   -0.021315426208607383   -0.002348071545750473
-0.003446012925884863   -0.011073651346486654   -0.00187217038206064
-0.007531488929063306   -0.01143368853651314   -0.0018784223020596716
-0.0048989324189264525   -0.021315426208607383   -0.002348071545750473
-0.010392451937608975   -0.02157048297401229   -0.0024747916825967075
-0.010365172899553094   -0.02145619328778909   -0.002641927073121164
-0.007531488929063306   -0.01143368853651314   -0.0018784223020596716
-0.0048989324189264525   -0.021315426208607383   -0.002348071545750473
-0.010365172899553094   -0.02145619328778909   -0.002641927073121164
-0.003446012925884863   -0.011073651346486654   -0.00187217038206064
-0.007531488929063306   -0.01143368853651314   -0.0018784223020596716
-0.010392451937608975   -0.02157048297401229   -0.0024747916825967075
-0.003419919302754085   -0.011132383235493287   -0.0017643561464989299
-0.0075095695819495725   -0.011493786076910305   -0.0016695665301953524
-0.010392451937608975   -0.02157048297401229   -0.0024747916825967075
-0.0048989324189264525   -0.021315426208607383   -0.002348071545750473
-0.003419919302754085   -0.011132383235493287   -0.0017643561464989299
-0.004874645492486511   -0.021334647336941664   -0.0022710670403808014
-0.0075095695819495725   -0.011493786076910305   -0.0016695665301953524
-0.00338075680464477   -0.011130933408956661   -0.001670467492252101
-0.004874645492486511   -0.021334647336941664   -0.0022710670403808014
-0.003419919302754085   -0.011132383235493287   -0.0017643561464989299
-0.0075095695819495725   -0.011493786076910305   -0.0016695665301953524
-0.004874645492486511   -0.021334647336941664   -0.0022710670403808014
-0.010373548824629998   -0.02164561893204126   -0.0023179024202032474
-0.010392451937608975   -0.02157048297401229   -0.0024747916825967075
-0.0075095695819495725   -0.011493786076910305   -0.0016695665301953524
-0.004874645492486511   -0.021334647336941664   -0.0022710670403808014
-0.010392451937608975   -0.02157048297401229   -0.0024747916825967075
-0.003419919302754085   -0.011132383235493287   -0.0017643561464989299
-0.003475519364845865   -0.010952522666221676   -0.00199108040792348
-0.004925287601805427   -0.021148635133395946   -0.0025392026229777514
0.0003980152524100749   -0.010957703114181575   -0.0017744166526299625
-0.003446012925884863   -0.011073651346486654   -0.00187217038206064
-0.004925287601805427   -0.021148635133395946   -0.0025392026229777514
0.0003325226859606666   -0.021141017213872567   -0.0023637306239571066
0.0003980152524100749   -0.010957703114181575   -0.0017744166526299625
0.00035464350756978663   -0.021187837516883152   -0.002339930266018281
-0.003446012925884863   -0.011073651346486654   -0.00187217038206064
0.00043436594412159365   -0.01101513899618069   -0.0017666314908512896
0.00035464350756978663   -0.021187837516883152   -0.002339930266018281
0.0003980152524100749   -0.010957703114181575   -0.0017744166526299625
-0.003446012925884863   -0.011073651346486654   -0.00187217038206064
0.00035464350756978663   -0.021187837516883152   -0.002339930266018281
-0.004913498836423267   -0.021253716245567197   -0.0024374372628479662
-0.004925287601805427   -0.021148635133395946   -0.0025392026229777514
-0.003446012925884863   -0.011073651346486654   -0.00187217038206064
0.00035464350756978663   -0.021187837516883152   -0.002339930266018281
-0.004925287601805427   -0.021148635133395946   -0.0025392026229777514
0.0003980152524100749   -0.010957703114181575   -0.0017744166526299625
-0.003446012925884863   -0.011073651346486654   -0.00187217038206064
-0.004913498836423267   -0.021253716245567197   -0.0024374372628479662
0.00043436594412159365   -0.01101513899618069   -0.0017666314908512896
-0.003419919302754085   -0.011132383235493287   -0.0017643561464989299
-0.004913498836423267   -0.021253716245567197   -0.0024374372628479662
0.00035464350756978663   -0.021187837516883152   -0.002339930266018281
0.00043436594412159365   -0.01101513899618069   -0.0017666314908512896
0.0003686301296533653   -0.021191461790621636   -0.0023282038809386376
-0.003419919302754085   -0.011132383235493287   -0.0017643561464989299
0.000458672844546766   -0.01101164243377182   -0.0017714416935142255
0.0003686301296533653   -0.021191461790621636   -0.0023282038809386376
0.00043436594412159365   -0.01101513899618069   -0.0017666314908512896
-0.003419919302754085   -0.011132383235493287   -0.0017643561464989299
0.0003686301296533653   -0.021191461790621636   -0.0023282038809386376
-0.0048989324189264525   -0.021315426208607383   -0.002348071545750473
-0.004913498836423267   -0.021253716245567197   -0.0024374372628479662
-0.003419919302754085   -0.011132383235493287   -0.0017643561464989299
0.0003686301296533653   -0.021191461790621636   -0.0023282038809386376
-0.004913498836423267   -0.021253716245567197   -0.0024374372628479662
0.00043436594412159365   -0.01101513899618069   -0.0017666314908512896
-0.003419919302754085   -0.011132383235493287   -0.0017643561464989299
-0.0048989324189264525   -0.021315426208607383   -0.002348071545750473
0.000458672844546766   -0.01101164243377182   -0.0017714416935142255
-0.00338075680464477   -0.011130933408956661   -0.001670467492252101
-0.0048989324189264525   -0.021315426208607383   -0.002348071545750473
0.0003686301296533653   -0.021191461790621636   -0.0023282038809386376
0.000458672844546766   -0.01101164243377182   -0.0017714416935142255
0.00037859041997561976   -0.021151245319944494   -0.0023292872051899807
-0.00338075680464477   -0.011130933408956661   -0.001670467492252101
0.00048478615223905856   -0.010945351721983   -0.0017890470233925407
0.00037859041997561976   -0.021151245319944494   -0.0023292872051899807
0.000458672844546766   -0.01101164243377182   -0.0017714416935142255
-0.00338075680464477   -0.011130933408956661   -0.001670467492252101
0.00037859041997561976   -0.021151245319944494   -0.0023292872051899807
-0.004874645492486511   -0.021334647336941664   -0.0022710670403808014
-0.0048989324189264525   -0.021315426208607383   -0.002348071545750473
-0.00338075680464477   -0.011130933408956661   -0.001670467492252101
0.00037859041997561976   -0.021151245319944494   -0.0023292872051899807
-0.0048989324189264525   -0.021315426208607383   -0.002348071545750473
0.000458672844546766   -0.01101164243377182   -0.0017714416935142255
0.0003980152524100749   -0.010957703114181575   -0.0017744166526299625
0.0003325226859606666   -0.021141017213872567   -0.0023637306239571066
0.004502612190269472   -0.011136509061786379   -0.0016732205172403788
0.00043436594412159365   -0.01101513899618069   -0.0017666314908512896
0.0003325226859606666   -0.021141017213872567   -0.0023637306239571066
0.0058145889105682075   -0.021260997799846065   -0.002292651566782393
0.004502612190269472   -0.011136509061786379   -0.0016732205172403788
0.005833789072641931   -0.021254434862753906   -0.002348439535174365
0.00043436594412159365   -0.01101513899618069   -0.0017666314908512896
0.004522927611294691   -0.011136094056628585   -0.0017801671377396862
0.005833789072641931   -0.021254434862753906   -0.002348439535174365
0.004502612190269472   -0.011136509061786379   -0.0016732205172403788
0.00043436594412159365   -0.01101513899618069   -0.0017666314908512896
0.005833789072641931   -0.021254434862753906   -0.002348439535174365
0.00035464350756978663   -0.021187837516883152   -0.002339930266018281
0.0003325226859606666   -0.021141017213872567   -0.0023637306239571066
0.00043436594412159365   -0.01101513899618069   -0.0017666314908512896
0.005833789072641931   -0.021254434862753906   -0.002348439535174365
0.0003325226859606666   -0.021141017213872567   -0.0023637306239571066
0.004502612190269472   -0.011136509061786379   -0.0016732205172403788
0.00043436594412159365   -0.01101513899618069   -0.0017666314908512896
0.00035464350756978663   -0.021187837516883152   -0.002339930266018281
0.004522927611294691   -0.011136094056628585   -0.0017801671377396862
0.000458672844546766   -0.01101164243377182   -0.0017714416935142255
0.00035464350756978663   -0.021187837516883152   -0.002339930266018281
0.005833789072641931   -0.021254434862753906   -0.002348439535174365
0.004522927611294691   -0.011136094056628585   -0.0017801671377396862
0.005818425318661542   -0.021205586090140123   -0.002415414279724055
0.000458672844546766   -0.01101164243377182   -0.0017714416935142255
0.004501523036459007   -0.011075916989475207   -0.0019013644223086065
0.005818425318661542   -0.021205586090140123   -0.002415414279724055
0.004522927611294691   -0.011136094056628585   -0.0017801671377396862
0.000458672844546766   -0.01101164243377182   -0.0017714416935142255
0.005818425318661542   -0.021205586090140123   -0.002415414279724055
0.0003686301296533653   -0.021191461790621636   -0.0023282038809386376
0.00035464350756978663   -0.021187837516883152   -0.002339930266018281
0.000458672844546766   -0.01101164243377182   -0.0017714416935142255
0.005818425318661542   -0.021205586090140123   -0.002415414279724055
0.00035464350756978663   -0.021187837516883152   -0.002339930266018281
0.004522927611294691   -0.011136094056628585   -0.0017801671377396862
0.000458672844546766   -0.01101164243377182   -0.0017714416935142255
0.0003686301296533653   -0.021191461790621636   -0.0023282038809386376
0.004501523036459007   -0.011075916989475207   -0.0019013644223086065
0.00048478615223905856   -0.010945351721983   -0.0017890470233925407
0.0003686301296533653   -0.021191461790621636   -0.0023282038809386376
0.005818425318661542   -0.021205586090140123   -0.002415414279724055
0.004501523036459007   -0.011075916989475207   -0.0019013644223086065
0.0057957419823122195   -0.021103998736348006   -0.0024948995994496003
0.00048478615223905856   -0.010945351721983   -0.0017890470233925407
0.00448907400599047   -0.010939503609826463   -0.002032329994670343
0.0057957419823122195   -0.021103998736348006   -0.0024948995994496003
0.004501523036459007   -0.011075916989475207   -0.0019013644223086065
0.00048478615223905856   -0.010945351721983   -0.0017890470233925407
0.0057957419823122195   -0.021103998736348006   -0.0024948995994496003
0.00037859041997561976   -0.021151245319944494   -0.0023292872051899807
0.0003686301296533653   -0.021191461790621636   -0.0023282038809386376
0.00048478615223905856   -0.010945351721983   -0.0017890470233925407
0.0057957419823122195   -0.021103998736348006   -0.0024948995994496003
0.0003686301296533653   -0.021191461790621636   -0.0023282038809386376
0.004501523036459007   -0.011075916989475207   -0.0019013644223086065
0.004502612190269472   -0.011136509061786379   -0.0016732205172403788
0.0058145889105682075   -0.021260997799846065   -0.002292651566782393
0.009455037094240091   -0.011468953909542197   -0.0016457685221534782
0.004522927611294691   -0.011136094056628585   -0.0017801671377396862
0.0058145889105682075   -0.021260997799846065   -0.002292651566782393
0.012057536517447065   -0.021478729588410763   -0.0022937140321152632
0.009455037094240091   -0.011468953909542197   -0.0016457685221534782
0.011951826821837949   -0.021441435387578645   -0.002439386595244523
0.004522927611294691   -0.011136094056628585   -0.0017801671377396862
0.009261952664164344   -0.011437792522107623   -0.0018863044287246874
0.011951826821837949   -0.021441435387578645   -0.002439386595244523
0.009455037094240091   -0.011468953909542197   -0.0016457685221534782
0.004522927611294691   -0.011136094056628585   -0.0017801671377396862
0.011951826821837949   -0.021441435387578645   -0.002439386595244523
0.005833789072641931   -0.021254434862753906   -0.002348439535174365
0.0058145889105682075   -0.021260997799846065   -0.002292651566782393
0.004522927611294691   -0.011136094056628585   -0.0017801671377396862
0.011951826821837949   -0.021441435387578645   -0.002439386595244523
0.0058145889105682075   -0.021260997799846065   -0.002292651566782393
0.009455037094240091   -0.011468953909542197   -0.0016457685221534782
0.004522927611294691   -0.011136094056628585   -0.0017801671377396862
0.005833789072641931   -0.021254434862753906   -0.002348439535174365
0.009261952664164344   -0.011437792522107623   -0.0018863044287246874
0.004501523036459007   -0.011075916989475207   -0.0019013644223086065
0.005833789072641931   -0.021254434862753906   -0.002348439535174365
0.011951826821837949   -0.021441435387578645   -0.002439386595244523
0.009261952664164344   -0.011437792522107623   -0.0018863044287246874
0.011846421421258715   -0.021366194741372996   -0.0026052312964325534
0.004501523036459007   -0.011075916989475207   -0.0019013644223086065
0.009089458358342104   -0.011344994395079697   -0.0021568304931642393
0.011846421421258715   -0.021366194741372996   -0.0026052312964325534
0.009261952664164344   -0.011437792522107623   -0.0018863044287246874
0.004501523036459007   -0.011075916989475207   -0.0019013644223086065
0.011846421421258715   -0.021366194741372996   -0.0026052312964325534
0.005818425318661542   -0.021205586090140123   -0.002415414279724055
0.005833789072641931   -0.021254434862753906   -0.002348439535174365
0.004501523036459007   -0.011075916989475207   -0.0019013644223086065
0.011846421421258715   -0.021366194741372996   -0.0026052312964325534
0.005833789072641931   -0.021254434862753906   -0.002348439535174365
0.009261952664164344   -0.011437792522107623   -0.0018863044287246874
0.004501523036459007   -0.011075916989475207   -0.0019013644223086065
0.005818425318661542   -0.021205586090140123   -0.002415414279724055
0.009089458358342104   -0.011344994395079697   -0.0021568304931642393
0.00448907400599047   -0.010939503609826463   -0.002032329994670343
0.005818425318661542   -0.021205586090140123   -0.002415414279724055
0.011846421421258715   -0.021366194741372996   -0.0026052312964325534
0.009089458358342104   -0.011344994395079697   -0.0021568304931642393
0.011659687416017075   -0.021208201928154414   -0.0027912694000116144
0.00448907400599047   -0.010939503609826463   -0.002032329994670343
0.008831290254139977   -0.011138372183827818   -0.0024383945559809904
0.011659687416017075   -0.021208201928154414   -0.0027912694000116144
0.009089458358342104   -0.011344994395079697   -0.0021568304931642393
0.00448907400599047   -0.010939503609826463   -0.002032329994670343
0.011659687416017075   -0.021208201928154414   -0.0027912694000116144
0.0057957419823122195   -0.021103998736348006   -0.0024948995994496003
0.005818425318661542   -0.021205586090140123   -0.002415414279724055
0.00448907400599047   -0.010939503609826463   -0.002032329994670343
0.011659687416017075   -0.021208201928154414   -0.0027912694000116144
0.005818425318661542   -0.021205586090140123   -0.002415414279724055
0.009089458358342104   -0.011344994395079697   -0.0021568304931642393
-0.016086092719077946   -0.021579351437397233   -0.00322921315604895
-0.01921271151358129   -0.03353025167563748   -0.0034434476913494587
-0.010341950933057224   -0.021291910589726466   -0.002822080767944222
-0.016372886730326983   -0.021803840553268616   -0.002947918902397066
-0.01921271151358129   -0.03353025167563748   -0.0034434476913494587
-0.012470042383608246   -0.033347277548431066   -0.0031113573937217335
-0.010341950933057224   -0.021291910589726466   -0.002822080767944222
-0.012485534012123815   -0.03348865046668329   -0.0029823639022078623
-0.016372886730326983   -0.021803840553268616   -0.002947918902397066
-0.010365172899553094   -0.02145619328778909   -0.002641927073121164
-0.012485534012123815   -0.03348865046668329   -0.0029823639022078623
-0.010341950933057224   -0.021291910589726466   -0.002822080767944222
-0.016372886730326983   -0.021803840553268616   -0.002947918902397066
-0.012485534012123815   -0.03348865046668329   -0.0029823639022078623
-0.01940618327287813   -0.03372148724000585   -0.0032565543455445353
-0.01921271151358129   -0.03353025167563748   -0.0034434476913494587
-0.016372886730326983   -0.021803840553268616   -0.002947918902397066
-0.012485534012123815   -0.03348865046668329   -0.0029823639022078623
-0.01921271151358129   -0.03353025167563748   -0.0034434476913494587
-0.010341950933057224   -0.021291910589726466   -0.002822080767944222
-0.016372886730326983   -0.021803840553268616   -0.002947918902397066
-0.01940618327287813   -0.03372148724000585   -0.0032565543455445353
-0.010365172899553094   -0.02145619328778909   -0.002641927073121164
-0.016553935928780298   -0.021944569728210492   -0.0026857095241356052
-0.01940618327287813   -0.03372148724000585   -0.0032565543455445353
-0.012485534012123815   -0.03348865046668329   -0.0029823639022078623
-0.010365172899553094   -0.02145619328778909   -0.002641927073121164
-0.012496743549194162   -0.03360069248628544   -0.002866216153063122
-0.016553935928780298   -0.021944569728210492   -0.0026857095241356052
-0.010392451937608975   -0.02157048297401229   -0.0024747916825967075
-0.012496743549194162   -0.03360069248628544   -0.002866216153063122
-0.010365172899553094   -0.02145619328778909   -0.002641927073121164
-0.016553935928780298   -0.021944569728210492   -0.0026857095241356052
-0.012496743549194162   -0.03360069248628544   -0.002866216153063122
-0.019517437923713122   -0.03385674584693623   -0.0030875741909353544
-0.01940618327287813   -0.03372148724000585   -0.0032565543455445353
-0.016553935928780298   -0.021944569728210492   -0.0026857095241356052
-0.012496743549194162   -0.03360069248628544   -0.002866216153063122
-0.01940618327287813   -0.03372148724000585   -0.0032565543455445353
-0.010365172899553094   -0.02145619328778909   -0.002641927073121164
-0.016553935928780298   -0.021944569728210492   -0.0026857095241356052
-0.019517437923713122   -0.03385674584693623   -0.0030875741909353544
-0.010392451937608975   -0.02157048297401229   -0.0024747916825967075
-0.01675993365417346   -0.022045688541385784   -0.0024443693125228926
-0.019517437923713122   -0.03385674584693623   -0.0030875741909353544
-0.012496743549194162   -0.03360069248628544   -0.002866216153063122
-0.010392451937608975   -0.02157048297401229   -0.0024747916825967075
-0.012471385787323175   -0.03369269115663213   -0.0027612095907332216
-0.01675993365417346   -0.022045688541385784   -0.0024443693125228926
-0.010373548824629998   -0.02164561893204126   -0.0023179024202032474
-0.012471385787323175   -0.03369269115663213   -0.0027612095907332216
-0.010392451937608975   -0.02157048297401229   -0.0024747916825967075
-0.01675993365417346   -0.022045688541385784   -0.0024443693125228926
-0.012471385787323175   -0.03369269115663213   -0.0027612095907332216
-0.019632076158832116   -0.03397791484190111   -0.002938633708739732
-0.019517437923713122   -0.03385674584693623   -0.0030875741909353544
-0.01675993365417346   -0.022045688541385784   -0.0024443693125228926
-0.012471385787323175   -0.03369269115663213   -0.0027612095907332216
-0.019517437923713122   -0.03385674584693623   -0.0030875741909353544
-0.010392451937608975   -0.02157048297401229   -0.0024747916825967075
-0.010341950933057224   -0.021291910589726466   -0.002822080767944222
-0.012470042383608246   -0.033347277548431066   -0.0031113573937217335
-0.004925287601805427   -0.021148635133395946   -0.0025392026229777514
-0.010365172899553094   -0.02145619328778909   -0.002641927073121164
-0.012470042383608246   -0.033347277548431066   -0.0031113573937217335
-0.006148559162412347   -0.033252758504580586   -0.0028813896980005257
-0.004925287601805427   -0.021148635133395946   -0.0025392026229777514
-0.006137356768132531   -0.03334150079865917   -0.0027962782137155584
-0.010365172899553094   -0.02145619328778909   -0.002641927073121164
-0.004913498836423267   -0.021253716245567197   -0.0024374372628479662
-0.006137356768132531   -0.03334150079865917   -0.0027962782137155584
-0.004925287601805427   -0.021148635133395946   -0.0025392026229777514
-0.010365172899553094   -0.02145619328778909   -0.002641927073121164
-0.006137356768132531   -0.03334150079865917   -0.0027962782137155584
-0.012485534012123815   -0.03348865046668329   -0.0029823639022078623
-0.012470042383608246   -0.033347277548431066   -0.0031113573937217335
-0.010365172899553094   -0.02145619328778909   -0.002641927073121164
-0.006137356768132531   -0.03334150079865917   -0.0027962782137155584
-0.012470042383608246   -0.033347277548431066   -0.0031113573937217335
-0.004925287601805427   -0.021148635133395946   -0.0025392026229777514
-0.010365172899553094   -0.02145619328778909   -0.002641927073121164
-0.012485534012123815   -0.03348865046668329   -0.0029823639022078623
-0.004913498836423267   -0.021253716245567197   -0.0024374372628479662
-0.010392451937608975   -0.02157048297401229   -0.0024747916825967075
-0.012485534012123815   -0.03348865046668329   -0.0029823639022078623
-0.006137356768132531   -0.03334150079865917   -0.0027962782137155584
-0.004913498836423267   -0.021253716245567197   -0.0024374372628479662
-0.006121872571554509   -0.033405668176384275   -0.0027238217809602244
-0.010392451937608975   -0.02157048297401229   -0.0024747916825967075
-0.0048989324189264525   -0.021315426208607383   -0.002348071545750473
-0.006121872571554509   -0.033405668176384275   -0.0027238217809602244
-0.004913498836423267   -0.021253716245567197   -0.0024374372628479662
-0.010392451937608975   -0.02157048297401229   -0.0024747916825967075
-0.006121872571554509   -0.033405668176384275   -0.0027238217809602244
-0.012496743549194162   -0.03360069248628544   -0.002866216153063122
-0.012485534012123815   -0.03348865046668329   -0.0029823639022078623
-0.010392451937608975   -0.02157048297401229   -0.0024747916825967075
-0.006121872571554509   -0.033405668176384275   -0.0027238217809602244
-0.012485534012123815   -0.03348865046668329   -0.0029823639022078623
-0.004913498836423267   -0.021253716245567197   -0.0024374372628479662
-0.010392451937608975   -0.02157048297401229   -0.0024747916825967075
-0.012496743549194162   -0.03360069248628544   -0.002866216153063122
-0.0048989324189264525   -0.021315426208607383   -0.002348071545750473
-0.010373548824629998   -0.02164561893204126   -0.0023179024202032474
-0.012496743549194162   -0.03360069248628544   -0.002866216153063122
-0.006121872571554509   -0.033405668176384275   -0.0027238217809602244
-0.0048989324189264525   -0.021315426208607383   -0.002348071545750473
-0.006098544904472025   -0.03344568075873084   -0.0026642283781368957
-0.010373548824629998   -0.02164561893204126   -0.0023179024202032474
-0.004874645492486511   -0.021334647336941664   -0.0022710670403808014
-0.006098544904472025   -0.03344568075873084   -0.0026642283781368957
-0.0048989324189264525   -0.021315426208607383   -0.002348071545750473
-0.010373548824629998   -0.02164561893204126   -0.0023179024202032474
-0.006098544904472025   -0.03344568075873084   -0.0026642283781368957
-0.012471385787323175   -0.03369269115663213   -0.0027612095907332216
-0.012496743549194162   -0.03360069248628544   -0.002866216153063122
-0.010373548824629998   -0.02164561893204126   -0.0023179024202032474
-0.006098544904472025   -0.03344568075873084   -0.0026642283781368957
-0.012496743549194162   -0.03360069248628544   -0.002866216153063122
-0.0048989324189264525   -0.021315426208607383   -0.002348071545750473
-0.004925287601805427   -0.021148635133395946   -0.0025392026229777514
-0.006148559162412347   -0.033252758504580586   -0.0028813896980005257
0.0003325226859606666   -0.021141017213872567   -0.0023637306239571066
-0.004913498836423267   -0.021253716245567197   -0.0024374372628479662
-0.006148559162412347   -0.033252758504580586   -0.0028813896980005257
1.37724034003717e-06   -0.033236534966408555   -0.0027473687057005727
0.0003325226859606666   -0.021141017213872567   -0.0023637306239571066
2.288261072207816e-05   -0.03327237747165399   -0.002706474620086125
-0.004913498836423267   -0.021253716245567197   -0.0024374372628479662
0.00035464350756978663   -0.021187837516883152   -0.002339930266018281
2.288261072207816e-05   -0.03327237747165399   -0.002706474620086125
0.0003325226859606666   -0.021141017213872567   -0.0023637306239571066
-0.004913498836423267   -0.021253716245567197   -0.0024374372628479662
2.288261072207816e-05   -0.03327237747165399   -0.002706474620086125
-0.006137356768132531   -0.03334150079865917   -0.0027962782137155584
-0.006148559162412347   -0.033252758504580586   -0.0028813896980005257
-0.004913498836423267   -0.021253716245567197   -0.0024374372628479662
2.288261072207816e-05   -0.03327237747165399   -0.002706474620086125
-0.006148559162412347   -0.033252758504580586   -0.0028813896980005257
0.0003325226859606666   -0.021141017213872567   -0.0023637306239571066
-0.004913498836423267   -0.021253716245567197   -0.0024374372628479662
-0.006137356768132531   -0.03334150079865917   -0.0027962782137155584
0.00035464350756978663   -0.021187837516883152   -0.002339930266018281
-0.0048989324189264525   -0.021315426208607383   -0.002348071545750473
-0.006137356768132531   -0.03334150079865917   -0.0027962782137155584
2.288261072207816e-05   -0.03327237747165399   -0.002706474620086125
0.00035464350756978663   -0.021187837516883152   -0.002339930266018281
3.8053195883478305e-05   -0.033283476205648116   -0.0026780735228679126
-0.0048989324189264525   -0.021315426208607383   -0.002348071545750473
0.0003686301296533653   -0.021191461790621636   -0.0023282038809386376
3.8053195883478305e-05   -0.033283476205648116   -0.0026780735228679126
0.00035464350756978663   -0.021187837516883152   -0.002339930266018281
-0.0048989324189264525   -0.021315426208607383   -0.002348071545750473
3.8053195883478305e-05   -0.033283476205648116   -0.0026780735228679126
-0.006121872571554509   -0.033405668176384275   -0.0027238217809602244
-0.006137356768132531   -0.03334150079865917   -0.0027962782137155584
-0.0048989324189264525   -0.021315426208607383   -0.002348071545750473
3.8053195883478305e-05   -0.033283476205648116   -0.0026780735228679126
-0.006137356768132531   -0.03334150079865917   -0.0027962782137155584
0.00035464350756978663   -0.021187837516883152   -0.002339930266018281
-0.0048989324189264525   -0.021315426208607383   -0.002348071545750473
-0.006121872571554509   -0.033405668176384275   -0.0027238217809602244
0.0003686301296533653   -0.021191461790621636   -0.0023282038809386376
-0.004874645492486511   -0.021334647336941664   -0.0022710670403808014
-0.006121872571554509   -0.033405668176384275   -0.0027238217809602244
3.8053195883478305e-05   -0.033283476205648116   -0.0026780735228679126
0.0003686301296533653   -0.021191461790621636   -0.0023282038809386376
4.749955155596217e-05   -0.03326949228246098   -0.002662719667566803
-0.004874645492486511   -0.021334647336941664   -0.0022710670403808014
0.00037859041997561976   -0.021151245319944494   -0.0023292872051899807
4.749955155596217e-05   -0.03326949228246098   -0.002662719667566803
0.0003686301296533653   -0.021191461790621636   -0.0023282038809386376
-0.004874645492486511   -0.021334647336941664   -0.0022710670403808014
4.749955155596217e-05   -0.03326949228246098   -0.002662719667566803
-0.006098544904472025   -0.03344568075873084   -0.0026642283781368957
-0.006121872571554509   -0.033405668176384275   -0.0027238217809602244
-0.004874645492486511   -0.021334647336941664   -0.0022710670403808014
4.749955155596217e-05   -0.03326949228246098   -0.002662719667566803
-0.006121872571554509   -0.033405668176384275   -0.0027238217809602244
0.0003686301296533653   -0.021191461790621636   -0.0023282038809386376
0.0003325226859606666   -0.021141017213872567   -0.0023637306239571066
1.37724034003717e-06   -0.033236534966408555   -0.0027473687057005727
0.0058145889105682075   -0.021260997799846065   -0.002292651566782393
0.00035464350756978663   -0.021187837516883152   -0.002339930266018281
1.37724034003717e-06   -0.033236534966408555   -0.0027473687057005727
0.006362770168692867   -0.033291930026432694   -0.002708736237228002
0.0058145889105682075   -0.021260997799846065   -0.002292651566782393
0.006389156583850788   -0.03327796288970317   -0.0027129952551401834
0.00035464350756978663   -0.021187837516883152   -0.002339930266018281
0.005833789072641931   -0.021254434862753906   -0.002348439535174365
0.006389156583850788   -0.03327796288970317   -0.0027129952551401834
0.0058145889105682075   -0.021260997799846065   -0.002292651566782393
0.00035464350756978663   -0.021187837516883152   -0.002339930266018281
0.006389156583850788   -0.03327796288970317   -0.0027129952551401834
2.288261072207816e-05   -0.03327237747165399   -0.002706474620086125
1.37724034003717e-06   -0.033236534966408555   -0.0027473687057005727
0.00035464350756978663   -0.021187837516883152   -0.002339930266018281
0.006389156583850788   -0.03327796288970317   -0.0027129952551401834
1.37724034003717e-06   -0.033236534966408555   -0.0027473687057005727
0.0058145889105682075   -0.021260997799846065   -0.002292651566782393
0.00035464350756978663   -0.021187837516883152   -0.002339930266018281
2.288261072207816e-05   -0.03327237747165399   -0.002706474620086125
0.005833789072641931   -0.021254434862753906   -0.002348439535174365
0.0003686301296533653   -0.021191461790621636   -0.0023282038809386376
2.288261072207816e-05   -0.03327237747165399   -0.002706474620086125
0.006389156583850788   -0.03327796288970317   -0.0027129952551401834
0.005833789072641931   -0.021254434862753906   -0.002348439535174365
0.006390683979897919   -0.03324112756393583   -0.002729075984862919
0.0003686301296533653   -0.021191461790621636   -0.0023282038809386376
0.005818425318661542   -0.021205586090140123   -0.002415414279724055
0.006390683979897919   -0.03324112756393583   -0.002729075984862919
0.005833789072641931   -0.021254434862753906   -0.002348439535174365
0.0003686301296533653   -0.021191461790621636   -0.0023282038809386376
0.006390683979897919   -0.03324112756393583   -0.002729075984862919
3.8053195883478305e-05   -0.033283476205648116   -0.0026780735228679126
2.288261072207816e-05   -0.03327237747165399   -0.002706474620086125
0.0003686301296533653   -0.021191461790621636   -0.0023282038809386376
0.006390683979897919   -0.03324112756393583   -0.002729075984862919
2.288261072207816e-05   -0.03327237747165399   -0.002706474620086125
0.005833789072641931   -0.021254434862753906   -0.002348439535174365
0.0003686301296533653   -0.021191461790621636   -0.0023282038809386376
3.8053195883478305e-05   -0.033283476205648116   -0.0026780735228679126
0.005818425318661542   -0.021205586090140123   -0.002415414279724055
0.00037859041997561976   -0.021151245319944494   -0.0023292872051899807
3.8053195883478305e-05   -0.033283476205648116   -0.0026780735228679126
0.006390683979897919   -0.03324112756393583   -0.002729075984862919
0.005818425318661542   -0.021205586090140123   -0.002415414279724055
0.006376255856726902   -0.03317218722407903   -0.002757426981076617
0.00037859041997561976   -0.021151245319944494   -0.0023292872051899807
0.0057957419823122195   -0.021103998736348006   -0.0024948995994496003
0.006376255856726902   -0.03317218722407903   -0.002757426981076617
0.005818425318661542   -0.021205586090140123   -0.002415414279724055
0.00037859041997561976   -0.021151245319944494   -0.0023292872051899807
0.006376255856726902   -0.03317218722407903   -0.002757426981076617
4.749955155596217e-05   -0.03326949228246098   -0.002662719667566803
3.8053195883478305e-05   -0.033283476205648116   -0.0026780735228679126
0.00037859041997561976   -0.021151245319944494   -0.0023292872051899807
0.006376255856726902   -0.03317218722407903   -0.002757426981076617
3.8053195883478305e-05   -0.033283476205648116   -0.0026780735228679126
0.005818425318661542   -0.021205586090140123   -0.002415414279724055
0.0058145889105682075   -0.021260997799846065   -0.002292651566782393
0.006362770168692867   -0.033291930026432694   -0.002708736237228002
0.012057536517447065   -0.021478729588410763   -0.0022937140321152632
0.005833789072641931   -0.021254434862753906   -0.002348439535174365
0.006362770168692867   -0.033291930026432694   -0.002708736237228002
0.013387363724103114   -0.033393817599952476   -0.0027445761094540043
0.012057536517447065   -0.021478729588410763   -0.0022937140321152632
0.013374252631417144   -0.033346134912190295   -0.002797610503342885
0.005833789072641931   -0.021254434862753906   -0.002348439535174365
0.011951826821837949   -0.021441435387578645   -0.002439386595244523
0.013374252631417144   -0.033346134912190295   -0.002797610503342885
0.012057536517447065   -0.021478729588410763   -0.0022937140321152632
0.005833789072641931   -0.021254434862753906   -0.002348439535174365
0.013374252631417144   -0.033346134912190295   -0.002797610503342885
0.006389156583850788   -0.03327796288970317   -0.0027129952551401834
0.006362770168692867   -0.033291930026432694   -0.002708736237228002
0.005833789072641931   -0.021254434862753906   -0.002348439535174365
0.013374252631417144   -0.033346134912190295   -0.002797610503342885
0.006362770168692867   -0.033291930026432694   -0.002708736237228002
0.012057536517447065   -0.021478729588410763   -0.0022937140321152632
0.005833789072641931   -0.021254434862753906   -0.002348439535174365
0.006389156583850788   -0.03327796288970317   -0.0027129952551401834
0.011951826821837949   -0.021441435387578645   -0.002439386595244523
0.005818425318661542   -0.021205586090140123   -0.002415414279724055
0.006389156583850788   -0.03327796288970317   -0.0027129952551401834
0.013374252631417144   -0.033346134912190295   -0.002797610503342885
0.011951826821837949   -0.021441435387578645   -0.002439386595244523
0.013340093989983636   -0.03328600419623191   -0.0028698214280320745
0.005818425318661542   -0.021205586090140123   -0.002415414279724055
0.011846421421258715   -0.021366194741372996   -0.0026052312964325534
0.013340093989983636   -0.03328600419623191   -0.0028698214280320745
0.011951826821837949   -0.021441435387578645   -0.002439386595244523
0.005818425318661542   -0.021205586090140123   -0.002415414279724055
0.013340093989983636   -0.03328600419623191   -0.0028698214280320745
0.006390683979897919   -0.03324112756393583   -0.002729075984862919
0.006389156583850788   -0.03327796288970317   -0.0027129952551401834
0.005818425318661542   -0.021205586090140123   -0.002415414279724055
0.013340093989983636   -0.03328600419623191   -0.0028698214280320745
0.006389156583850788   -0.03327796288970317   -0.0027129952551401834
0.011951826821837949   -0.021441435387578645   -0.002439386595244523
0.005818425318661542   -0.021205586090140123   -0.002415414279724055
0.006390683979897919   -0.03324112756393583   -0.002729075984862919
0.011846421421258715   -0.021366194741372996   -0.0026052312964325534
0.0057957419823122195   -0.021103998736348006   -0.0024948995994496003
0.006390683979897919   -0.03324112756393583   -0.002729075984862919
0.013340093989983636   -0.03328600419623191   -0.0028698214280320745
0.011846421421258715   -0.021366194741372996   -0.0026052312964325534
0.013248003640493408   -0.03317123211923618   -0.002961069904744383
0.0057957419823122195   -0.021103998736348006   -0.0024948995994496003
0.011659687416017075   -0.021208201928154414   -0.0027912694000116144
0.013248003640493408   -0.03317123211923618   -0.002961069904744383
0.011846421421258715   -0.021366194741372996   -0.0026052312964325534
0.0057957419823122195   -0.021103998736348006   -0.0024948995994496003
0.013248003640493408   -0.03317123211923618   -0.002961069904744383
0.006376255856726902   -0.03317218722407903   -0.002757426981076617
0.006390683979897919   -0.03324112756393583   -0.002729075984862919
0.0057957419823122195   -0.021103998736348006   -0.0024948995994496003
0.013248003640493408   -0.03317123211923618   -0.002961069904744383
0.006390683979897919   -0.03324112756393583   -0.002729075984862919
0.011846421421258715   -0.021366194741372996   -0.0026052312964325534
-0.01921271151358129   -0.03353025167563748   -0.0034434476913494587
-0.021107119786360436   -0.04654222575788328   -0.0035060427756946795
-0.012470042383608246   -0.033347277548431066   -0.0031113573937217335
-0.01940618327287813   -0.03372148724000585   -0.0032565543455445353
-0.021107119786360436   -0.04654222575788328   -0.0035060427756946795
-0.013867884583604814   -0.04646758089845978   -0.003241395640811473
-0.012470042383608246   -0.033347277548431066   -0.0031113573937217335
-0.01386276417985175   -0.04658821796662677   -0.00316224782399559
-0.01940618327287813   -0.03372148724000585   -0.0032565543455445353
-0.012485534012123815   -0.03348865046668329   -0.0029823639022078623
-0.01386276417985175   -0.04658821796662677   -0.00316224782399559
-0.012470042383608246   -0.033347277548431066   -0.0031113573937217335
-0.01940618327287813   -0.03372148724000585   -0.0032565543455445353
-0.01386276417985175   -0.04658821796662677   -0.00316224782399559
-0.021197771947691693   -0.04670437407578029   -0.0034095726279517085
-0.021107119786360436   -0.04654222575788328   -0.0035060427756946795
-0.01940618327287813   -0.03372148724000585   -0.0032565543455445353
-0.01386276417985175   -0.04658821796662677   -0.00316224782399559
-0.021107119786360436   -0.04654222575788328   -0.0035060427756946795
-0.012470042383608246   -0.033347277548431066   -0.0031113573937217335
-0.01940618327287813   -0.03372148724000585   -0.0032565543455445353
-0.021197771947691693   -0.04670437407578029   -0.0034095726279517085
-0.012485534012123815   -0.03348865046668329   -0.0029823639022078623
-0.019517437923713122   -0.03385674584693623   -0.0030875741909353544
-0.021197771947691693   -0.04670437407578029   -0.0034095726279517085
-0.01386276417985175   -0.04658821796662677   -0.00316224782399559
-0.012485534012123815   -0.03348865046668329   -0.0029823639022078623
-0.013844571669197227   -0.04669946790484613   -0.003096240969821082
-0.019517437923713122   -0.03385674584693623   -0.0030875741909353544
-0.012496743549194162   -0.03360069248628544   -0.002866216153063122
-0.013844571669197227   -0.04669946790484613   -0.003096240969821082
-0.012485534012123815   -0.03348865046668329   -0.0029823639022078623
-0.019517437923713122   -0.03385674584693623   -0.0030875741909353544
-0.013844571669197227   -0.04669946790484613   -0.003096240969821082
-0.021226964078382468   -0.04683658024707775   -0.003332017794924918
-0.021197771947691693   -0.04670437407578029   -0.0034095726279517085
-0.019517437923713122   -0.03385674584693623   -0.0030875741909353544
-0.013844571669197227   -0.04669946790484613   -0.003096240969821082
-0.021197771947691693   -0.04670437407578029   -0.0034095726279517085
-0.012485534012123815   -0.03348865046668329   -0.0029823639022078623
-0.019517437923713122   -0.03385674584693623   -0.0030875741909353544
-0.021226964078382468   -0.04683658024707775   -0.003332017794924918
-0.012496743549194162   -0.03360069248628544   -0.002866216153063122
-0.019632076158832116   -0.03397791484190111   -0.002938633708739732
-0.021226964078382468   -0.04683658024707775   -0.003332017794924918
-0.013844571669197227   -0.04669946790484613   -0.003096240969821082
-0.012496743549194162   -0.03360069248628544   -0.002866216153063122
-0.013799140459817135   -0.0468098072914927   -0.003042457492325546
-0.019632076158832116   -0.03397791484190111   -0.002938633708739732
-0.012471385787323175   -0.03369269115663213   -0.0027612095907332216
-0.013799140459817135   -0.0468098072914927   -0.003042457492325546
-0.012496743549194162   -0.03360069248628544   -0.002866216153063122
-0.019632076158832116   -0.03397791484190111   -0.002938633708739732
-0.013799140459817135   -0.0468098072914927   -0.003042457492325546
-0.021237096000232464   -0.046980106733902904   -0.0032749992906262225
-0.021226964078382468   -0.04683658024707775   -0.003332017794924918
-0.019632076158832116   -0.03397791484190111   -0.002938633708739732
-0.013799140459817135   -0.0468098072914927   -0.003042457492325546
-0.021226964078382468   -0.04683658024707775   -0.003332017794924918
-0.012496743549194162   -0.03360069248628544   -0.002866216153063122
-0.012470042383608246   -0.033347277548431066   -0.0031113573937217335
-0.013867884583604814   -0.04646758089845978   -0.003241395640811473
-0.006148559162412347   -0.033252758504580586   -0.0028813896980005257
-0.012485534012123815   -0.03348865046668329   -0.0029823639022078623
-0.013867884583604814   -0.04646758089845978   -0.003241395640811473
-0.0071430493913998885   -0.0464248195527485   -0.003061213209331984
-0.006148559162412347   -0.033252758504580586   -0.0028813896980005257
-0.007118315074426548   -0.04649786698986269   -0.002992266452304016
-0.012485534012123815   -0.03348865046668329   -0.0029823639022078623
-0.006137356768132531   -0.03334150079865917   -0.0027962782137155584
-0.007118315074426548   -0.04649786698986269   -0.002992266452304016
-0.006148559162412347   -0.033252758504580586   -0.0028813896980005257
-0.012485534012123815   -0.03348865046668329   -0.0029823639022078623
-0.007118315074426548   -0.04649786698986269   -0.002992266452304016
-0.01386276417985175   -0.04658821796662677   -0.00316224782399559
-0.013867884583604814   -0.04646758089845978   -0.003241395640811473
-0.012485534012123815   -0.03348865046668329   -0.0029823639022078623
-0.007118315074426548   -0.04649786698986269   -0.002992266452304016
-0.013867884583604814   -0.04646758089845978   -0.003241395640811473
-0.006148559162412347   -0.033252758504580586   -0.0028813896980005257
-0.012485534012123815   -0.03348865046668329   -0.0029823639022078623
-0.01386276417985175   -0.04658821796662677   -0.00316224782399559
-0.006137356768132531   -0.03334150079865917   -0.0027962782137155584
-0.012496743549194162   -0.03360069248628544   -0.002866216153063122
-0.01386276417985175   -0.04658821796662677   -0.00316224782399559
-0.007118315074426548   -0.04649786698986269   -0.002992266452304016
-0.006137356768132531   -0.03334150079865917   -0.0027962782137155584
-0.0070878910145481585   -0.04656488061101709   -0.0029364732950011795
-0.012496743549194162   -0.03360069248628544   -0.002866216153063122
-0.006121872571554509   -0.033405668176384275   -0.0027238217809602244
-0.0070878910145481585   -0.04656488061101709   -0.0029364732950011795
-0.006137356768132531   -0.03334150079865917   -0.0027962782137155584
-0.012496743549194162   -0.03360069248628544   -0.002866216153063122
-0.0070878910145481585   -0.04656488061101709   -0.0029364732950011795
-0.013844571669197227   -0.04669946790484613   -0.003096240969821082
-0.01386276417985175   -0.04658821796662677   -0.00316224782399559
-0.012496743549194162   -0.03360069248628544   -0.002866216153063122
-0.0070878910145481585   -0.04656488061101709   -0.0029364732950011795
-0.01386276417985175   -0.04658821796662677   -0.00316224782399559
-0.006137356768132531   -0.03334150079865917   -0.0027962782137155584
-0.012496743549194162   -0.03360069248628544   -0.002866216153063122
-0.013844571669197227   -0.04669946790484613   -0.003096240969821082
-0.006121872571554509   -0.033405668176384275   -0.0027238217809602244
-0.012471385787323175   -0.03369269115663213   -0.0027612095907332216
-0.013844571669197227   -0.04669946790484613   -0.003096240969821082
-0.0070878910145481585   -0.04656488061101709   -0.0029364732950011795
-0.006121872571554509   -0.033405668176384275   -0.0027238217809602244
-0.007051263079708239   -0.0466260801019523   -0.0028941482075613223
-0.012471385787323175   -0.03369269115663213   -0.0027612095907332216
-0.006098544904472025   -0.03344568075873084   -0.0026642283781368957
-0.007051263079708239   -0.0466260801019523   -0.0028941482075613223
-0.006121872571554509   -0.033405668176384275   -0.0027238217809602244
-0.012471385787323175   -0.03369269115663213   -0.0027612095907332216
-0.007051263079708239   -0.0466260801019523   -0.0028941482075613223
-0.013799140459817135   -0.0468098072914927   -0.003042457492325546
-0.013844571669197227   -0.04669946790484613   -0.003096240969821082
-0.012471385787323175   -0.03369269115663213   -0.0027612095907332216
-0.007051263079708239   -0.0466260801019523   -0.0028941482075613223
-0.013844571669197227   -0.04669946790484613   -0.003096240969821082
-0.006121872571554509   -0.033405668176384275   -0.0027238217809602244
-0.006148559162412347   -0.033252758504580586   -0.0028813896980005257
-0.0071430493913998885   -0.0464248195527485   -0.003061213209331984
1.37724034003717e-06   -0.033236534966408555   -0.0027473687057005727
-0.006137356768132531   -0.03334150079865917   -0.0027962782137155584
-0.0071430493913998885   -0.0464248195527485   -0.003061213209331984
-0.0006001628599423461   -0.04640037415696467   -0.0029679233585652525
1.37724034003717e-06   -0.033236534966408555   -0.0027473687057005727
-0.0005654611022263424   -0.046424967035172786   -0.0029098625441434755
-0.006137356768132531   -0.03334150079865917   -0.0027962782137155584
2.288261072207816e-05   -0.03327237747165399   -0.002706474620086125
-0.0005654611022263424   -0.046424967035172786   -0.0029098625441434755
1.37724034003717e-06   -0.033236534966408555   -0.0027473687057005727
-0.006137356768132531   -0.03334150079865917   -0.0027962782137155584
-0.0005654611022263424   -0.046424967035172786   -0.0029098625441434755
-0.007118315074426548   -0.04649786698986269   -0.002992266452304016
-0.0071430493913998885   -0.0464248195527485   -0.003061213209331984
-0.006137356768132531   -0.03334150079865917   -0.0027962782137155584
-0.0005654611022263424   -0.046424967035172786   -0.0029098625441434755
-0.0071430493913998885   -0.0464248195527485   -0.003061213209331984
1.37724034003717e-06   -0.033236534966408555   -0.0027473687057005727
-0.006137356768132531   -0.03334150079865917   -0.0027962782137155584
-0.007118315074426548   -0.04649786698986269   -0.002992266452304016
2.288261072207816e-05   -0.03327237747165399   -0.002706474620086125
-0.006121872571554509   -0.033405668176384275   -0.0027238217809602244
-0.007118315074426548   -0.04649786698986269   -0.002992266452304016
-0.0005654611022263424   -0.046424967035172786   -0.0029098625441434755
2.288261072207816e-05   -0.03327237747165399   -0.002706474620086125
-0.0005354586968873602   -0.04644310086463387   -0.002864840370088193
-0.006121872571554509   -0.033405668176384275   -0.0027238217809602244
3.8053195883478305e-05   -0.033283476205648116   -0.0026780735228679126
-0.0005354586968873602   -0.04644310086463387   -0.002864840370088193
2.288261072207816e-05   -0.03327237747165399   -0.002706474620086125
-0.006121872571554509   -0.033405668176384275   -0.0027238217809602244
-0.0005354586968873602   -0.04644310086463387   -0.002864840370088193
-0.0070878910145481585   -0.04656488061101709   -0.0029364732950011795
-0.007118315074426548   -0.04649786698986269   -0.002992266452304016
-0.006121872571554509   -0.033405668176384275   -0.0027238217809602244
-0.0005354586968873602   -0.04644310086463387   -0.002864840370088193
-0.007118315074426548   -0.04649786698986269   -0.002992266452304016
2.288261072207816e-05   -0.03327237747165399   -0.002706474620086125
-0.006121872571554509   -0.033405668176384275   -0.0027238217809602244
-0.0070878910145481585   -0.04656488061101709   -0.0029364732950011795
3.8053195883478305e-05   -0.033283476205648116   -0.0026780735228679126
-0.006098544904472025   -0.03344568075873084   -0.0026642283781368957
-0.0070878910145481585   -0.04656488061101709   -0.0029364732950011795
-0.0005354586968873602   -0.04644310086463387   -0.002864840370088193
3.8053195883478305e-05   -0.033283476205648116   -0.0026780735228679126
-0.0005126827277210239   -0.046454683758022065   -0.002833333157520316
-0.006098544904472025   -0.03344568075873084   -0.0026642283781368957
4.749955155596217e-05   -0.03326949228246098   -0.002662719667566803
-0.0005126827277210239   -0.046454683758022065   -0.002833333157520316
3.8053195883478305e-05   -0.033283476205648116   -0.0026780735228679126
-0.006098544904472025   -0.03344568075873084   -0.0026642283781368957
-0.0005126827277210239   -0.046454683758022065   -0.002833333157520316
-0.007051263079708239   -0.0466260801019523   -0.0028941482075613223
-0.0070878910145481585   -0.04656488061101709   -0.0029364732950011795
-0.006098544904472025   -0.03344568075873084   -0.0026642283781368957
-0.0005126827277210239   -0.046454683758022065   -0.002833333157520316
-0.0070878910145481585   -0.04656488061101709   -0.0029364732950011795
3.8053195883478305e-05   -0.033283476205648116   -0.0026780735228679126
1.37724034003717e-06   -0.033236534966408555   -0.0027473687057005727
-0.0006001628599423461   -0.04640037415696467   -0.0029679233585652525
0.006362770168692867   -0.033291930026432694   -0.002708736237228002
2.288261072207816e-05   -0.03327237747165399   -0.002706474620086125
-0.0006001628599423461   -0.04640037415696467   -0.0029679233585652525
0.006142501436150783   -0.046390036274599214   -0.002962330057139034
0.006362770168692867   -0.033291930026432694   -0.002708736237228002
0.006188568969855682   -0.0463677056365213   -0.002915702972410271
2.288261072207816e-05   -0.03327237747165399   -0.002706474620086125
0.006389156583850788   -0.03327796288970317   -0.0027129952551401834
0.006188568969855682   -0.0463677056365213   -0.002915702972410271
0.006362770168692867   -0.033291930026432694   -0.002708736237228002
2.288261072207816e-05   -0.03327237747165399   -0.002706474620086125
0.006188568969855682   -0.0463677056365213   -0.002915702972410271
-0.0005654611022263424   -0.046424967035172786   -0.0029098625441434755
-0.0006001628599423461   -0.04640037415696467   -0.0029679233585652525
2.288261072207816e-05   -0.03327237747165399   -0.002706474620086125
0.006188568969855682   -0.0463677056365213   -0.002915702972410271
-0.0006001628599423461   -0.04640037415696467   -0.0029679233585652525
0.006362770168692867   -0.033291930026432694   -0.002708736237228002
2.288261072207816e-05   -0.03327237747165399   -0.002706474620086125
-0.0005654611022263424   -0.046424967035172786   -0.0029098625441434755
0.006389156583850788   -0.03327796288970317   -0.0027129952551401834
3.8053195883478305e-05   -0.033283476205648116   -0.0026780735228679126
-0.0005654611022263424   -0.046424967035172786   -0.0029098625441434755
0.006188568969855682   -0.0463677056365213   -0.002915702972410271
0.006389156583850788   -0.03327796288970317   -0.0027129952551401834
0.006219258627381161   -0.04634160849837068   -0.0028817420163475185
3.8053195883478305e-05   -0.033283476205648116   -0.0026780735228679126
0.006390683979897919   -0.03324112756393583   -0.002729075984862919
0.006219258627381161   -0.04634160849837068   -0.0028817420163475185
0.006389156583850788   -0.03327796288970317   -0.0027129952551401834
3.8053195883478305e-05   -0.033283476205648116   -0.0026780735228679126
0.006219258627381161   -0.04634160849837068   -0.0028817420163475185
-0.0005354586968873602   -0.04644310086463387   -0.002864840370088193
-0.0005654611022263424   -0.046424967035172786   -0.0029098625441434755
3.8053195883478305e-05   -0.033283476205648116   -0.0026780735228679126
0.006219258627381161   -0.04634160849837068   -0.0028817420163475185
-0.0005654611022263424   -0.046424967035172786   -0.0029098625441434755
0.006389156583850788   -0.03327796288970317   -0.0027129952551401834
3.8053195883478305e-05   -0.033283476205648116   -0.0026780735228679126
-0.0005354586968873602   -0.04644310086463387   -0.002864840370088193
0.006390683979897919   -0.03324112756393583   -0.002729075984862919
4.749955155596217e-05   -0.03326949228246098   -0.002662719667566803
-0.0005354586968873602   -0.04644310086463387   -0.002864840370088193
0.006219258627381161   -0.04634160849837068   -0.0028817420163475185
0.006390683979897919   -0.03324112756393583   -0.002729075984862919
0.006225201493899143   -0.046303161875940885   -0.002860186554955974
4.749955155596217e-05   -0.03326949228246098   -0.002662719667566803
0.006376255856726902   -0.03317218722407903   -0.002757426981076617
0.006225201493899143   -0.046303161875940885   -0.002860186554955974
0.006390683979897919   -0.03324112756393583   -0.002729075984862919
4.749955155596217e-05   -0.03326949228246098   -0.002662719667566803
0.006225201493899143   -0.046303161875940885   -0.002860186554955974
-0.0005126827277210239   -0.046454683758022065   -0.002833333157520316
-0.0005354586968873602   -0.04644310086463387   -0.002864840370088193
4.749955155596217e-05   -0.03326949228246098   -0.002662719667566803
0.006225201493899143   -0.046303161875940885   -0.002860186554955974
-0.0005354586968873602   -0.04644310086463387   -0.002864840370088193
0.006390683979897919   -0.03324112756393583   -0.002729075984862919
0.006362770168692867   -0.033291930026432694   -0.002708736237228002
0.006142501436150783   -0.046390036274599214   -0.002962330057139034
0.013387363724103114   -0.033393817599952476   -0.0027445761094540043
0.006389156583850788   -0.03327796288970317   -0.0027129952551401834
0.006142501436150783   -0.046390036274599214   -0.002962330057139034
0.013449860831173652   -0.046375825076560434   -0.003035577400961272
0.013387363724103114   -0.033393817599952476   -0.0027445761094540043
0.013540217341087337   -0.04631642251484956   -0.002997508313049807
0.006389156583850788   -0.03327796288970317   -0.0027129952551401834
0.013374252631417144   -0.033346134912190295   -0.002797610503342885
0.013540217341087337   -0.04631642251484956   -0.002997508313049807
0.013387363724103114   -0.033393817599952476   -0.0027445761094540043
0.006389156583850788   -0.03327796288970317   -0.0027129952551401834
0.013540217341087337   -0.04631642251484956   -0.002997508313049807
0.006188568969855682   -0.0463677056365213   -0.002915702972410271
0.006142501436150783   -0.046390036274599214   -0.002962330057139034
0.006389156583850788   -0.03327796288970317   -0.0027129952551401834
0.013540217341087337   -0.04631642251484956   -0.002997508313049807
0.006142501436150783   -0.046390036274599214   -0.002962330057139034
0.013387363724103114   -0.033393817599952476   -0.0027445761094540043
0.006389156583850788   -0.03327796288970317   -0.0027129952551401834
0.006188568969855682   -0.0463677056365213   -0.002915702972410271
0.013374252631417144   -0.033346134912190295   -0.002797610503342885
0.006390683979897919   -0.03324112756393583   -0.002729075984862919
0.006188568969855682   -0.0463677056365213   -0.002915702972410271
0.013540217341087337   -0.04631642251484956   -0.002997508313049807
0.013374252631417144   -0.033346134912190295   -0.002797610503342885
0.013587747577086208   -0.04626946773651716   -0.002978680263649178
0.006390683979897919   -0.03324112756393583   -0.002729075984862919
0.013340093989983636   -0.03328600419623191   -0.0028698214280320745
0.013587747577086208   -0.04626946773651716   -0.002978680263649178
0.013374252631417144   -0.033346134912190295   -0.002797610503342885
0.006390683979897919   -0.03324112756393583   -0.002729075984862919
0.013587747577086208   -0.04626946773651716   -0.002978680263649178
0.006219258627381161   -0.04634160849837068   -0.0028817420163475185
0.006188568969855682   -0.0463677056365213   -0.002915702972410271
0.006390683979897919   -0.03324112756393583   -0.002729075984862919
0.013587747577086208   -0.04626946773651716   -0.002978680263649178
0.006188568969855682   -0.0463677056365213   -0.002915702972410271
0.013374252631417144   -0.033346134912190295   -0.002797610503342885
0.006390683979897919   -0.03324112756393583   -0.002729075984862919
0.006219258627381161   -0.04634160849837068   -0.0028817420163475185
0.013340093989983636   -0.03328600419623191   -0.0028698214280320745
0.006376255856726902   -0.03317218722407903   -0.002757426981076617
0.006219258627381161   -0.04634160849837068   -0.0028817420163475185
0.013587747577086208   -0.04626946773651716   -0.002978680263649178
0.013340093989983636   -0.03328600419623191   -0.0028698214280320745
0.013598678122097776   -0.04619399321621017   -0.0029794209190035837
0.006376255856726902   -0.03317218722407903   -0.002757426981076617
0.013248003640493408   -0.03317123211923618   -0.002961069904744383
0.013598678122097776   -0.04619399321621017   -0.0029794209190035837
0.013340093989983636   -0.03328600419623191   -0.0028698214280320745
0.006376255856726902   -0.03317218722407903   -0.002757426981076617
0.013598678122097776   -0.04619399321621017   -0.0029794209190035837
0.006225201493899143   -0.046303161875940885   -0.002860186554955974
0.006219258627381161   -0.04634160849837068   -0.0028817420163475185
0.006376255856726902   -0.03317218722407903   -0.002757426981076617
0.013598678122097776   -0.04619399321621017   -0.0029794209190035837
0.006219258627381161   -0.04634160849837068   -0.0028817420163475185
0.013340093989983636   -0.03328600419623191   -0.0028698214280320745
-0.021107119786360436   -0.04654222575788328   -0.0035060427756946795
-0.021768870304183553   -0.05979157488067063   -0.0034463883710161096
-0.013867884583604814   -0.04646758089845978   -0.003241395640811473
-0.021197771947691693   -0.04670437407578029   -0.0034095726279517085
-0.021768870304183553   -0.05979157488067063   -0.0034463883710161096
-0.014536818794775492   -0.05982613548109281   -0.003250600290321577
-0.013867884583604814   -0.04646758089845978   -0.003241395640811473
-0.01449809297948116   -0.05992560280050862   -0.0032205654965198434
-0.021197771947691693   -0.04670437407578029   -0.0034095726279517085
-0.01386276417985175   -0.04658821796662677   -0.00316224782399559
-0.01449809297948116   -0.05992560280050862   -0.0032205654965198434
-0.013867884583604814   -0.04646758089845978   -0.003241395640811473
-0.021197771947691693   -0.04670437407578029   -0.0034095726279517085
-0.01449809297948116   -0.05992560280050862   -0.0032205654965198434
-0.021744218103497158   -0.05992464335923999   -0.0034400132564146074
-0.021768870304183553   -0.05979157488067063   -0.0034463883710161096
-0.021197771947691693   -0.04670437407578029   -0.0034095726279517085
-0.01449809297948116   -0.05992560280050862   -0.0032205654965198434
-0.021768870304183553   -0.05979157488067063   -0.0034463883710161096
-0.013867884583604814   -0.04646758089845978   -0.003241395640811473
-0.021197771947691693   -0.04670437407578029   -0.0034095726279517085
-0.021744218103497158   -0.05992464335923999   -0.0034400132564146074
-0.01386276417985175   -0.04658821796662677   -0.00316224782399559
-0.021226964078382468   -0.04683658024707775   -0.003332017794924918
-0.021744218103497158   -0.05992464335923999   -0.0034400132564146074
-0.01449809297948116   -0.05992560280050862   -0.0032205654965198434
-0.01386276417985175   -0.04658821796662677   -0.00316224782399559
-0.01443752982493809   -0.06003576022125292   -0.003204085893677515
-0.021226964078382468   -0.04683658024707775   -0.003332017794924918
-0.013844571669197227   -0.04669946790484613   -0.003096240969821082
-0.01443752982493809   -0.06003576022125292   -0.003204085893677515
-0.01386276417985175   -0.04658821796662677   -0.00316224782399559
-0.021226964078382468   -0.04683658024707775   -0.003332017794924918
-0.01443752982493809   -0.06003576022125292   -0.003204085893677515
-0.021678001706838177   -0.06005378851092188   -0.0034538960168185463
-0.021744218103497158   -0.05992464335923999   -0.0034400132564146074
-0.021226964078382468   -0.04683658024707775   -0.003332017794924918
-0.01443752982493809   -0.06003576022125292   -0.003204085893677515
-0.021744218103497158   -0.05992464335923999   -0.0034400132564146074
-0.01386276417985175   -0.04658821796662677   -0.00316224782399559
-0.021226964078382468   -0.04683658024707775   -0.003332017794924918
-0.021678001706838177   -0.06005378851092188   -0.0034538960168185463
-0.013844571669197227   -0.04669946790484613   -0.003096240969821082
-0.021237096000232464   -0.046980106733902904   -0.0032749992906262225
-0.021678001706838177   -0.06005378851092188   -0.0034538960168185463
-0.01443752982493809   -0.06003576022125292   -0.003204085893677515
-0.013844571669197227   -0.04669946790484613   -0.003096240969821082
-0.014359003162981856   -0.060164189266882974   -0.0032009451732191744
-0.021237096000232464   -0.046980106733902904   -0.0032749992906262225
-0.013799140459817135   -0.0468098072914927   -0.003042457492325546
-0.014359003162981856   -0.060164189266882974   -0.0032009451732191744
-0.013844571669197227   -0.04669946790484613   -0.003096240969821082
-0.021237096000232464   -0.046980106733902904   -0.0032749992906262225
-0.014359003162981856   -0.060164189266882974   -0.0032009451732191744
-0.0215703348177596   -0.06022009427435678   -0.003489056360554688
-0.021678001706838177   -0.06005378851092188   -0.0034538960168185463
-0.021237096000232464   -0.046980106733902904   -0.0032749992906262225
-0.014359003162981856   -0.060164189266882974   -0.0032009451732191744
-0.021678001706838177   -0.06005378851092188   -0.0034538960168185463
-0.013844571669197227   -0.04669946790484613   -0.003096240969821082
-0.013867884583604814   -0.04646758089845978   -0.003241395640811473
-0.014536818794775492   -0.05982613548109281   -0.003250600290321577
-0.0071430493913998885   -0.0464248195527485   -0.003061213209331984
-0.01386276417985175   -0.04658821796662677   -0.00316224782399559
-0.014536818794775492   -0.05982613548109281   -0.003250600290321577
-0.007912472627859777   -0.059833687478410384   -0.0031204528239786944
-0.0071430493913998885   -0.0464248195527485   -0.003061213209331984
-0.00786054846206548   -0.059890771679901963   -0.003067206926447733
-0.01386276417985175   -0.04658821796662677   -0.00316224782399559
-0.007118315074426548   -0.04649786698986269   -0.002992266452304016
-0.00786054846206548   -0.059890771679901963   -0.003067206926447733
-0.0071430493913998885   -0.0464248195527485   -0.003061213209331984
-0.01386276417985175   -0.04658821796662677   -0.00316224782399559
-0.00786054846206548   -0.059890771679901963   -0.003067206926447733
-0.01449809297948116   -0.05992560280050862   -0.0032205654965198434
-0.014536818794775492   -0.05982613548109281   -0.003250600290321577
-0.01386276417985175   -0.04658821796662677   -0.00316224782399559
-0.00786054846206548   -0.059890771679901963   -0.003067206926447733
-0.014536818794775492   -0.05982613548109281   -0.003250600290321577
-0.0071430493913998885   -0.0464248195527485   -0.003061213209331984
-0.01386276417985175   -0.04658821796662677   -0.00316224782399559
-0.01449809297948116   -0.05992560280050862   -0.0032205654965198434
-0.007118315074426548   -0.04649786698986269   -0.002992266452304016
-0.013844571669197227   -0.04669946790484613   -0.003096240969821082
-0.01449809297948116   -0.05992560280050862   -0.0032205654965198434
-0.00786054846206548   -0.059890771679901963   -0.003067206926447733
-0.007118315074426548   -0.04649786698986269   -0.002992266452304016
-0.007801849024647987   -0.05996013681281644   -0.0030275688218698153
-0.013844571669197227   -0.04669946790484613   -0.003096240969821082
-0.0070878910145481585   -0.04656488061101709   -0.0029364732950011795
-0.007801849024647987   -0.05996013681281644   -0.0030275688218698153
-0.007118315074426548   -0.04649786698986269   -0.002992266452304016
-0.013844571669197227   -0.04669946790484613   -0.003096240969821082
-0.007801849024647987   -0.05996013681281644   -0.0030275688218698153
-0.01443752982493809   -0.06003576022125292   -0.003204085893677515
-0.01449809297948116   -0.05992560280050862   -0.0032205654965198434
-0.013844571669197227   -0.04669946790484613   -0.003096240969821082
-0.007801849024647987   -0.05996013681281644   -0.0030275688218698153
-0.01449809297948116   -0.05992560280050862   -0.0032205654965198434
-0.007118315074426548   -0.04649786698986269   -0.002992266452304016
-0.013844571669197227   -0.04669946790484613   -0.003096240969821082
-0.01443752982493809   -0.06003576022125292   -0.003204085893677515
-0.0070878910145481585   -0.04656488061101709   -0.0029364732950011795
-0.013799140459817135   -0.0468098072914927   -0.003042457492325546
-0.01443752982493809   -0.06003576022125292   -0.003204085893677515
-0.007801849024647987   -0.05996013681281644   -0.0030275688218698153
-0.0070878910145481585   -0.04656488061101709   -0.0029364732950011795
-0.007738577748278993   -0.06004199902683559   -0.003001978004939297
-0.013799140459817135   -0.0468098072914927   -0.003042457492325546
-0.007051263079708239   -0.0466260801019523   -0.0028941482075613223
-0.007738577748278993   -0.06004199902683559   -0.003001978004939297
-0.0070878910145481585   -0.04656488061101709   -0.0029364732950011795
-0.013799140459817135   -0.0468098072914927   -0.003042457492325546
-0.007738577748278993   -0.06004199902683559   -0.003001978004939297
-0.014359003162981856   -0.060164189266882974   -0.0032009451732191744
-0.01443752982493809   -0.06003576022125292   -0.003204085893677515
-0.013799140459817135   -0.0468098072914927   -0.003042457492325546
-0.007738577748278993   -0.06004199902683559   -0.003001978004939297
-0.01443752982493809   -0.06003576022125292   -0.003204085893677515
-0.0070878910145481585   -0.04656488061101709   -0.0029364732950011795
-0.0071430493913998885   -0.0464248195527485   -0.003061213209331984
-0.007912472627859777   -0.059833687478410384   -0.0031204528239786944
-0.0006001628599423461   -0.04640037415696467   -0.0029679233585652525
-0.007118315074426548   -0.04649786698986269   -0.002992266452304016
-0.007912472627859777   -0.059833687478410384   -0.0031204528239786944
-0.0014755820769343938   -0.059798630633410225   -0.0030671443977520058
-0.0006001628599423461   -0.04640037415696467   -0.0029679233585652525
-0.0014141503853093579   -0.05981192540797329   -0.0029918420289503853
-0.007118315074426548   -0.04649786698986269   -0.002992266452304016
-0.0005654611022263424   -0.046424967035172786   -0.0029098625441434755
-0.0014141503853093579   -0.05981192540797329   -0.0029918420289503853
-0.0006001628599423461   -0.04640037415696467   -0.0029679233585652525
-0.007118315074426548   -0.04649786698986269   -0.002992266452304016
-0.0014141503853093579   -0.05981192540797329   -0.0029918420289503853
-0.00786054846206548   -0.059890771679901963   -0.003067206926447733
-0.007912472627859777   -0.059833687478410384   -0.0031204528239786944
-0.007118315074426548   -0.04649786698986269   -0.002992266452304016
-0.0014141503853093579   -0.05981192540797329   -0.0029918420289503853
-0.007912472627859777   -0.059833687478410384   -0.0031204528239786944
-0.0006001628599423461   -0.04640037415696467   -0.0029679233585652525
-0.007118315074426548   -0.04649786698986269   -0.002992266452304016
-0.00786054846206548   -0.059890771679901963   -0.003067206926447733
-0.0005654611022263424   -0.046424967035172786   -0.0029098625441434755
-0.0070878910145481585   -0.04656488061101709   -0.0029364732950011795
-0.00786054846206548   -0.059890771679901963   -0.003067206926447733
-0.0014141503853093579   -0.05981192540797329   -0.0029918420289503853
-0.0005654611022263424   -0.046424967035172786   -0.0029098625441434755
-0.0013560472684728667   -0.05983653578359016   -0.002930049788928361
-0.0070878910145481585   -0.04656488061101709   -0.0029364732950011795
-0.0005354586968873602   -0.04644310086463387   -0.002864840370088193
-0.0013560472684728667   -0.05983653578359016   -0.002930049788928361
-0.0005654611022263424   -0.046424967035172786   -0.0029098625441434755
-0.0070878910145481585   -0.04656488061101709   -0.0029364732950011795
-0.0013560472684728667   -0.05983653578359016   -0.002930049788928361
-0.007801849024647987   -0.05996013681281644   -0.0030275688218698153
-0.00786054846206548   -0.059890771679901963   -0.003067206926447733
-0.0070878910145481585   -0.04656488061101709   -0.0029364732950011795
-0.0013560472684728667   -0.05983653578359016   -0.002930049788928361
-0.00786054846206548   -0.059890771679901963   -0.003067206926447733
-0.0005654611022263424   -0.046424967035172786   -0.0029098625441434755
-0.0070878910145481585   -0.04656488061101709   -0.0029364732950011795
-0.007801849024647987   -0.05996013681281644   -0.0030275688218698153
-0.0005354586968873602   -0.04644310086463387   -0.002864840370088193
-0.007051263079708239   -0.0466260801019523   -0.0028941482075613223
-0.007801849024647987   -0.05996013681281644   -0.0030275688218698153
-0.0013560472684728667   -0.05983653578359016   -0.002930049788928361
-0.0005354586968873602   -0.04644310086463387   -0.002864840370088193
-0.0013067650866954701   -0.059873025165705834   -0.0028822403002465476
-0.007051263079708239   -0.0466260801019523   -0.0028941482075613223
-0.0005126827277210239   -0.046454683758022065   -0.002833333157520316
-0.0013067650866954701   -0.059873025165705834   -0.0028822403002465476
-0.0005354586968873602   -0.04644310086463387   -0.002864840370088193
-0.007051263079708239   -0.0466260801019523   -0.0028941482075613223
-0.0013067650866954701   -0.059873025165705834   -0.0028822403002465476
-0.007738577748278993   -0.06004199902683559   -0.003001978004939297
-0.007801849024647987   -0.05996013681281644   -0.0030275688218698153
-0.007051263079708239   -0.0466260801019523   -0.0028941482075613223
-0.0013067650866954701   -0.059873025165705834   -0.0028822403002465476
-0.007801849024647987   -0.05996013681281644   -0.0030275688218698153
-0.0005354586968873602   -0.04644310086463387   -0.002864840370088193
-0.0006001628599423461   -0.04640037415696467   -0.0029679233585652525
-0.0014755820769343938   -0.059798630633410225   -0.0030671443977520058
0.006142501436150783   -0.046390036274599214   -0.002962330057139034
-0.0005654611022263424   -0.046424967035172786   -0.0029098625441434755
-0.0014755820769343938   -0.059798630633410225   -0.0030671443977520058
0.00515528268344991   -0.05972067610547095   -0.003093205334210425
0.006142501436150783   -0.046390036274599214   -0.002962330057139034
0.005233667271931738   -0.05969004263099376   -0.0029962432276785947
-0.0005654611022263424   -0.046424967035172786   -0.0029098625441434755
0.006188568969855682   -0.0463677056365213   -0.002915702972410271
0.005233667271931738   -0.05969004263099376   -0.0029962432276785947
0.006142501436150783   -0.046390036274599214   -0.002962330057139034
-0.0005654611022263424   -0.046424967035172786   -0.0029098625441434755
0.005233667271931738   -0.05969004263099376   -0.0029962432276785947
-0.0014141503853093579   -0.05981192540797329   -0.0029918420289503853
-0.0014755820769343938   -0.059798630633410225   -0.0030671443977520058
-0.0005654611022263424   -0.046424967035172786   -0.0029098625441434755
0.005233667271931738   -0.05969004263099376   -0.0029962432276785947
-0.0014755820769343938   -0.059798630633410225   -0.0030671443977520058
0.006142501436150783   -0.046390036274599214   -0.002962330057139034
-0.0005654611022263424   -0.046424967035172786   -0.0029098625441434755
-0.0014141503853093579   -0.05981192540797329   -0.0029918420289503853
0.006188568969855682   -0.0463677056365213   -0.002915702972410271
-0.0005354586968873602   -0.04644310086463387   -0.002864840370088193
-0.0014141503853093579   -0.05981192540797329   -0.0029918420289503853
0.005233667271931738   -0.05969004263099376   -0.0029962432276785947
0.006188568969855682   -0.0463677056365213   -0.002915702972410271
0.005306061885182892   -0.059674117528652634   -0.002912751709246618
-0.0005354586968873602   -0.04644310086463387   -0.002864840370088193
0.006219258627381161   -0.04634160849837068   -0.0028817420163475185
0.005306061885182892   -0.059674117528652634   -0.002912751709246618
0.006188568969855682   -0.0463677056365213   -0.002915702972410271
-0.0005354586968873602   -0.04644310086463387   -0.002864840370088193
0.005306061885182892   -0.059674117528652634   -0.002912751709246618
-0.0013560472684728667   -0.05983653578359016   -0.002930049788928361
-0.0014141503853093579   -0.05981192540797329   -0.0029918420289503853
-0.0005354586968873602   -0.04644310086463387   -0.002864840370088193
0.005306061885182892   -0.059674117528652634   -0.002912751709246618
-0.0014141503853093579   -0.05981192540797329   -0.0029918420289503853
0.006188568969855682   -0.0463677056365213   -0.002915702972410271
-0.0005354586968873602   -0.04644310086463387   -0.002864840370088193
-0.0013560472684728667   -0.05983653578359016   -0.002930049788928361
0.006219258627381161   -0.04634160849837068   -0.0028817420163475185
-0.0005126827277210239   -0.046454683758022065   -0.002833333157520316
-0.0013560472684728667   -0.05983653578359016   -0.002930049788928361
0.005306061885182892   -0.059674117528652634   -0.002912751709246618
0.006219258627381161   -0.04634160849837068   -0.0028817420163475185
0.00534478273485507   -0.05966516181670142   -0.0028418513745341726
-0.0005126827277210239   -0.046454683758022065   -0.002833333157520316
0.006225201493899143   -0.046303161875940885   -0.002860186554955974
0.00534478273485507   -0.05966516181670142   -0.0028418513745341726
0.006219258627381161   -0.04634160849837068   -0.0028817420163475185
-0.0005126827277210239   -0.046454683758022065   -0.002833333157520316
0.00534478273485507   -0.05966516181670142   -0.0028418513745341726
-0.0013067650866954701   -0.059873025165705834   -0.0028822403002465476
-0.0013560472684728667   -0.05983653578359016   -0.002930049788928361
-0.0005126827277210239   -0.046454683758022065   -0.002833333157520316
0.00534478273485507   -0.05966516181670142   -0.0028418513745341726
-0.0013560472684728667   -0.05983653578359016   -0.002930049788928361
0.006219258627381161   -0.04634160849837068   -0.0028817420163475185
0.006142501436150783   -0.046390036274599214   -0.002962330057139034
0.00515528268344991   -0.05972067610547095   -0.003093205334210425
0.013449860831173652   -0.046375825076560434   -0.003035577400961272
0.006188568969855682   -0.0463677056365213   -0.002915702972410271
0.00515528268344991   -0.05972067610547095   -0.003093205334210425
0.01225532853435239   -0.05958974644320842   -0.003202747390910557
0.013449860831173652   -0.046375825076560434   -0.003035577400961272
0.01246009058709422   -0.05951930302195069   -0.0030755364289834727
0.006188568969855682   -0.0463677056365213   -0.002915702972410271
0.013540217341087337   -0.04631642251484956   -0.002997508313049807
0.01246009058709422   -0.05951930302195069   -0.0030755364289834727
0.013449860831173652   -0.046375825076560434   -0.003035577400961272
0.006188568969855682   -0.0463677056365213   -0.002915702972410271
0.01246009058709422   -0.05951930302195069   -0.0030755364289834727
0.005233667271931738   -0.05969004263099376   -0.0029962432276785947
0.00515528268344991   -0.05972067610547095   -0.003093205334210425
0.006188568969855682   -0.0463677056365213   -0.002915702972410271
0.01246009058709422   -0.05951930302195069   -0.0030755364289834727
0.00515528268344991   -0.05972067610547095   -0.003093205334210425
0.013449860831173652   -0.046375825076560434   -0.003035577400961272
0.006188568969855682   -0.0463677056365213   -0.002915702972410271
0.005233667271931738   -0.05969004263099376   -0.0029962432276785947
0.013540217341087337   -0.04631642251484956   -0.002997508313049807
0.006219258627381161   -0.04634160849837068   -0.0028817420163475185
0.005233667271931738   -0.05969004263099376   -0.0029962432276785947
0.01246009058709422   -0.05951930302195069   -0.0030755364289834727
0.013540217341087337   -0.04631642251484956   -0.002997508313049807
0.012600673767837838   -0.059485148713562225   -0.002967504697954617
0.006219258627381161   -0.04634160849837068   -0.0028817420163475185
0.013587747577086208   -0.04626946773651716   -0.002978680263649178
0.012600673767837838   -0.059485148713562225   -0.002967504697954617
0.013540217341087337   -0.04631642251484956   -0.002997508313049807
0.006219258627381161   -0.04634160849837068   -0.0028817420163475185
0.012600673767837838   -0.059485148713562225   -0.002967504697954617
0.005306061885182892   -0.059674117528652634   -0.002912751709246618
0.005233667271931738   -0.05969004263099376   -0.0029962432276785947
0.006219258627381161   -0.04634160849837068   -0.0028817420163475185
0.012600673767837838   -0.059485148713562225   -0.002967504697954617
0.005233667271931738   -0.05969004263099376   -0.0029962432276785947
0.013540217341087337   -0.04631642251484956   -0.002997508313049807
0.006219258627381161   -0.04634160849837068   -0.0028817420163475185
0.005306061885182892   -0.059674117528652634   -0.002912751709246618
0.013587747577086208   -0.04626946773651716   -0.002978680263649178
0.006225201493899143   -0.046303161875940885   -0.002860186554955974
0.005306061885182892   -0.059674117528652634   -0.002912751709246618
0.012600673767837838   -0.059485148713562225   -0.002967504697954617
0.013587747577086208   -0.04626946773651716   -0.002978680263649178
0.012725349882244804   -0.05944790429950456   -0.002879447235814853
0.006225201493899143   -0.046303161875940885   -0.002860186554955974
0.013598678122097776   -0.04619399321621017   -0.0029794209190035837
0.012725349882244804   -0.05944790429950456   -0.002879447235814853
0.013587747577086208   -0.04626946773651716   -0.002978680263649178
0.006225201493899143   -0.046303161875940885   -0.002860186554955974
0.012725349882244804   -0.05944790429950456   -0.002879447235814853
0.00534478273485507   -0.05966516181670142   -0.0028418513745341726
0.005306061885182892   -0.059674117528652634   -0.002912751709246618
0.006225201493899143   -0.046303161875940885   -0.002860186554955974
0.012725349882244804   -0.05944790429950456   -0.002879447235814853
0.005306061885182892   -0.059674117528652634   -0.002912751709246618
0.013587747577086208   -0.04626946773651716   -0.002978680263649178
-0.021768870304183553   -0.05979157488067063   -0.0034463883710161096
-0.021186980969429517   -0.07244605024793026   -0.0032947178123375414
-0.014536818794775492   -0.05982613548109281   -0.003250600290321577
-0.021744218103497158   -0.05992464335923999   -0.0034400132564146074
-0.021186980969429517   -0.07244605024793026   -0.0032947178123375414
-0.014477429967498824   -0.07259185735039081   -0.0031767108598287175
-0.014536818794775492   -0.05982613548109281   -0.003250600290321577
-0.014392608345314669   -0.07266614393120062   -0.0031945126992095367
-0.021744218103497158   -0.05992464335923999   -0.0034400132564146074
-0.01449809297948116   -0.05992560280050862   -0.0032205654965198434
-0.014392608345314669   -0.07266614393120062   -0.0031945126992095367
-0.014536818794775492   -0.05982613548109281   -0.003250600290321577
-0.021744218103497158   -0.05992464335923999   -0.0034400132564146074
-0.014392608345314669   -0.07266614393120062   -0.0031945126992095367
-0.02103388126356132   -0.07254634717712091   -0.0033786868287880648
-0.021186980969429517   -0.07244605024793026   -0.0032947178123375414
-0.021744218103497158   -0.05992464335923999   -0.0034400132564146074
-0.014392608345314669   -0.07266614393120062   -0.0031945126992095367
-0.021186980969429517   -0.07244605024793026   -0.0032947178123375414
-0.014536818794775492   -0.05982613548109281   -0.003250600290321577
-0.021744218103497158   -0.05992464335923999   -0.0034400132564146074
-0.02103388126356132   -0.07254634717712091   -0.0033786868287880648
-0.01449809297948116   -0.05992560280050862   -0.0032205654965198434
-0.021678001706838177   -0.06005378851092188   -0.0034538960168185463
-0.02103388126356132   -0.07254634717712091   -0.0033786868287880648
-0.014392608345314669   -0.07266614393120062   -0.0031945126992095367
-0.01449809297948116   -0.05992560280050862   -0.0032205654965198434
-0.01427772396019149   -0.07277184015389575   -0.003226223170125874
-0.021678001706838177   -0.06005378851092188   -0.0034538960168185463
-0.01443752982493809   -0.06003576022125292   -0.003204085893677515
-0.01427772396019149   -0.07277184015389575   -0.003226223170125874
-0.01449809297948116   -0.05992560280050862   -0.0032205654965198434
-0.021678001706838177   -0.06005378851092188   -0.0034538960168185463
-0.01427772396019149   -0.07277184015389575   -0.003226223170125874
-0.020859033259486768   -0.07266936046523034   -0.003484532052468024
-0.02103388126356132   -0.07254634717712091   -0.0033786868287880648
-0.021678001706838177   -0.06005378851092188   -0.0034538960168185463
-0.01427772396019149   -0.07277184015389575   -0.003226223170125874
-0.02103388126356132   -0.07254634717712091   -0.0033786868287880648
-0.01449809297948116   -0.05992560280050862   -0.0032205654965198434
-0.021678001706838177   -0.06005378851092188   -0.0034538960168185463
-0.020859033259486768   -0.07266936046523034   -0.003484532052468024
-0.01443752982493809   -0.06003576022125292   -0.003204085893677515
-0.0215703348177596   -0.06022009427435678   -0.003489056360554688
-0.020859033259486768   -0.07266936046523034   -0.003484532052468024
-0.01427772396019149   -0.07277184015389575   -0.003226223170125874
-0.01443752982493809   -0.06003576022125292   -0.003204085893677515
-0.014154434099105925   -0.072915390493144   -0.0032722555808763674
-0.0215703348177596   -0.06022009427435678   -0.003489056360554688
-0.014359003162981856   -0.060164189266882974   -0.0032009451732191744
-0.014154434099105925   -0.072915390493144   -0.0032722555808763674
-0.01443752982493809   -0.06003576022125292   -0.003204085893677515
-0.0215703348177596   -0.06022009427435678   -0.003489056360554688
-0.014154434099105925   -0.072915390493144   -0.0032722555808763674
-0.02062087769822582   -0.07285656849633386   -0.0036126524161186344
-0.020859033259486768   -0.07266936046523034   -0.003484532052468024
-0.0215703348177596   -0.06022009427435678   -0.003489056360554688
-0.014154434099105925   -0.072915390493144   -0.0032722555808763674
-0.020859033259486768   -0.07266936046523034   -0.003484532052468024
-0.01443752982493809   -0.06003576022125292   -0.003204085893677515
-0.014536818794775492   -0.05982613548109281   -0.003250600290321577
-0.014477429967498824   -0.07259185735039081   -0.0031767108598287175
-0.007912472627859777   -0.059833687478410384   -0.0031204528239786944
-0.01449809297948116   -0.05992560280050862   -0.0032205654965198434
-0.014477429967498824   -0.07259185735039081   -0.0031767108598287175
-0.008463570761704065   -0.07264962826309027   -0.003101162066184094
-0.007912472627859777   -0.059833687478410384   -0.0031204528239786944
-0.0083711781424315   -0.07268827973307584   -0.0030623955296947875
-0.01449809297948116   -0.05992560280050862   -0.0032205654965198434
-0.00786054846206548   -0.059890771679901963   -0.003067206926447733
-0.0083711781424315   -0.07268827973307584   -0.0030623955296947875
-0.007912472627859777   -0.059833687478410384   -0.0031204528239786944
-0.01449809297948116   -0.05992560280050862   -0.0032205654965198434
-0.0083711781424315   -0.07268827973307584   -0.0030623955296947875
-0.014392608345314669   -0.07266614393120062   -0.0031945126992095367
-0.014477429967498824   -0.07259185735039081   -0.0031767108598287175
-0.01449809297948116   -0.05992560280050862   -0.0032205654965198434
-0.0083711781424315   -0.07268827973307584   -0.0030623955296947875
-0.014477429967498824   -0.07259185735039081   -0.0031767108598287175
-0.007912472627859777   -0.059833687478410384   -0.0031204528239786944
-0.01449809297948116   -0.05992560280050862   -0.0032205654965198434
-0.014392608345314669   -0.07266614393120062   -0.0031945126992095367
-0.00786054846206548   -0.059890771679901963   -0.003067206926447733
-0.01443752982493809   -0.06003576022125292   -0.003204085893677515
-0.014392608345314669   -0.07266614393120062   -0.0031945126992095367
-0.0083711781424315   -0.07268827973307584   -0.0030623955296947875
-0.00786054846206548   -0.059890771679901963   -0.003067206926447733
-0.008271780884237634   -0.07275713674542135   -0.0030373687510240805
-0.01443752982493809   -0.06003576022125292   -0.003204085893677515
-0.007801849024647987   -0.05996013681281644   -0.0030275688218698153
-0.008271780884237634   -0.07275713674542135   -0.0030373687510240805
-0.00786054846206548   -0.059890771679901963   -0.003067206926447733
-0.01443752982493809   -0.06003576022125292   -0.003204085893677515
-0.008271780884237634   -0.07275713674542135   -0.0030373687510240805
-0.01427772396019149   -0.07277184015389575   -0.003226223170125874
-0.014392608345314669   -0.07266614393120062   -0.0031945126992095367
-0.01443752982493809   -0.06003576022125292   -0.003204085893677515
-0.008271780884237634   -0.07275713674542135   -0.0030373687510240805
-0.014392608345314669   -0.07266614393120062   -0.0031945126992095367
-0.00786054846206548   -0.059890771679901963   -0.003067206926447733
-0.01443752982493809   -0.06003576022125292   -0.003204085893677515
-0.01427772396019149   -0.07277184015389575   -0.003226223170125874
-0.007801849024647987   -0.05996013681281644   -0.0030275688218698153
-0.014359003162981856   -0.060164189266882974   -0.0032009451732191744
-0.01427772396019149   -0.07277184015389575   -0.003226223170125874
-0.008271780884237634   -0.07275713674542135   -0.0030373687510240805
-0.007801849024647987   -0.05996013681281644   -0.0030275688218698153
-0.008169611795061996   -0.07285707282860261   -0.0030267517743493384
-0.014359003162981856   -0.060164189266882974   -0.0032009451732191744
-0.007738577748278993   -0.06004199902683559   -0.003001978004939297
-0.008169611795061996   -0.07285707282860261   -0.0030267517743493384
-0.007801849024647987   -0.05996013681281644   -0.0030275688218698153
-0.014359003162981856   -0.060164189266882974   -0.0032009451732191744
-0.008169611795061996   -0.07285707282860261   -0.0030267517743493384
-0.014154434099105925   -0.072915390493144   -0.0032722555808763674
-0.01427772396019149   -0.07277184015389575   -0.003226223170125874
-0.014359003162981856   -0.060164189266882974   -0.0032009451732191744
-0.008169611795061996   -0.07285707282860261   -0.0030267517743493384
-0.01427772396019149   -0.07277184015389575   -0.003226223170125874
-0.007801849024647987   -0.05996013681281644   -0.0030275688218698153
-0.007912472627859777   -0.059833687478410384   -0.0031204528239786944
-0.008463570761704065   -0.07264962826309027   -0.003101162066184094
-0.0014755820769343938   -0.059798630633410225   -0.0030671443977520058
-0.00786054846206548   -0.059890771679901963   -0.003067206926447733
-0.008463570761704065   -0.07264962826309027   -0.003101162066184094
-0.0026319293460995105   -0.07260543053747337   -0.0030885226641367853
-0.0014755820769343938   -0.059798630633410225   -0.0030671443977520058
-0.002529734037514264   -0.07260639586009189   -0.002995128118003176
-0.00786054846206548   -0.059890771679901963   -0.003067206926447733
-0.0014141503853093579   -0.05981192540797329   -0.0029918420289503853
-0.002529734037514264   -0.07260639586009189   -0.002995128118003176
-0.0014755820769343938   -0.059798630633410225   -0.0030671443977520058
-0.00786054846206548   -0.059890771679901963   -0.003067206926447733
-0.002529734037514264   -0.07260639586009189   -0.002995128118003176
-0.0083711781424315   -0.07268827973307584   -0.0030623955296947875
-0.008463570761704065   -0.07264962826309027   -0.003101162066184094
-0.00786054846206548   -0.059890771679901963   -0.003067206926447733
-0.002529734037514264   -0.07260639586009189   -0.002995128118003176
-0.008463570761704065   -0.07264962826309027   -0.003101162066184094
-0.0014755820769343938   -0.059798630633410225   -0.0030671443977520058
-0.00786054846206548   -0.059890771679901963   -0.003067206926447733
-0.0083711781424315   -0.07268827973307584   -0.0030623955296947875
-0.0014141503853093579   -0.05981192540797329   -0.0029918420289503853
-0.007801849024647987   -0.05996013681281644   -0.0030275688218698153
-0.0083711781424315   -0.07268827973307584   -0.0030623955296947875
-0.002529734037514264   -0.07260639586009189   -0.002995128118003176
-0.0014141503853093579   -0.05981192540797329   -0.0029918420289503853
-0.002430223114090551   -0.07263534610321389   -0.0029155060357908425
-0.007801849024647987   -0.05996013681281644   -0.0030275688218698153
-0.0013560472684728667   -0.05983653578359016   -0.002930049788928361
-0.002430223114090551   -0.07263534610321389   -0.0029155060357908425
-0.0014141503853093579   -0.05981192540797329   -0.0029918420289503853
-0.007801849024647987   -0.05996013681281644   -0.0030275688218698153
-0.002430223114090551   -0.07263534610321389   -0.0029155060357908425
-0.008271780884237634   -0.07275713674542135   -0.0030373687510240805
-0.0083711781424315   -0.07268827973307584   -0.0030623955296947875
-0.007801849024647987   -0.05996013681281644   -0.0030275688218698153
-0.002430223114090551   -0.07263534610321389   -0.0029155060357908425
-0.0083711781424315   -0.07268827973307584   -0.0030623955296947875
-0.0014141503853093579   -0.05981192540797329   -0.0029918420289503853
-0.007801849024647987   -0.05996013681281644   -0.0030275688218698153
-0.008271780884237634   -0.07275713674542135   -0.0030373687510240805
-0.0013560472684728667   -0.05983653578359016   -0.002930049788928361
-0.007738577748278993   -0.06004199902683559   -0.003001978004939297
-0.008271780884237634   -0.07275713674542135   -0.0030373687510240805
-0.002430223114090551   -0.07263534610321389   -0.0029155060357908425
-0.0013560472684728667   -0.05983653578359016   -0.002930049788928361
-0.002341454070866197   -0.07269468649137326   -0.0028501357906669136
-0.007738577748278993   -0.06004199902683559   -0.003001978004939297
-0.0013067650866954701   -0.059873025165705834   -0.0028822403002465476
-0.002341454070866197   -0.07269468649137326   -0.0028501357906669136
-0.0013560472684728667   -0.05983653578359016   -0.002930049788928361
-0.007738577748278993   -0.06004199902683559   -0.003001978004939297
-0.002341454070866197   -0.07269468649137326   -0.0028501357906669136
-0.008169611795061996   -0.07285707282860261   -0.0030267517743493384
-0.008271780884237634   -0.07275713674542135   -0.0030373687510240805
-0.007738577748278993   -0.06004199902683559   -0.003001978004939297
-0.002341454070866197   -0.07269468649137326   -0.0028501357906669136
-0.008271780884237634   -0.07275713674542135   -0.0030373687510240805
-0.0013560472684728667   -0.05983653578359016   -0.002930049788928361
-0.0014755820769343938   -0.059798630633410225   -0.0030671443977520058
-0.0026319293460995105   -0.07260543053747337   -0.0030885226641367853
0.00515528268344991   -0.05972067610547095   -0.003093205334210425
-0.0014141503853093579   -0.05981192540797329   -0.0029918420289503853
-0.0026319293460995105   -0.07260543053747337   -0.0030885226641367853
0.0034011307191482492   -0.07246230504301418   -0.0031437335455147576
0.00515528268344991   -0.05972067610547095   -0.003093205334210425
0.0035260729444593886   -0.07242304538200312   -0.002996232811998615
-0.0014141503853093579   -0.05981192540797329   -0.0029918420289503853
0.005233667271931738   -0.05969004263099376   -0.0029962432276785947
0.0035260729444593886   -0.07242304538200312   -0.002996232811998615
0.00515528268344991   -0.05972067610547095   -0.003093205334210425
-0.0014141503853093579   -0.05981192540797329   -0.0029918420289503853
0.0035260729444593886   -0.07242304538200312   -0.002996232811998615
-0.002529734037514264   -0.07260639586009189   -0.002995128118003176
-0.0026319293460995105   -0.07260543053747337   -0.0030885226641367853
-0.0014141503853093579   -0.05981192540797329   -0.0029918420289503853
0.0035260729444593886   -0.07242304538200312   -0.002996232811998615
-0.0026319293460995105   -0.07260543053747337   -0.0030885226641367853
0.00515528268344991   -0.05972067610547095   -0.003093205334210425
-0.0014141503853093579   -0.05981192540797329   -0.0029918420289503853
-0.002529734037514264   -0.07260639586009189   -0.002995128118003176
0.005233667271931738   -0.05969004263099376   -0.0029962432276785947
-0.0013560472684728667   -0.05983653578359016   -0.002930049788928361
-0.002529734037514264   -0.07260639586009189   -0.002995128118003176
0.0035260729444593886   -0.07242304538200312   -0.002996232811998615
0.005233667271931738   -0.05969004263099376   -0.0029962432276785947
0.0036541586044456084   -0.07241575387672831   -0.002863388593670716
-0.0013560472684728667   -0.05983653578359016   -0.002930049788928361
0.005306061885182892   -0.059674117528652634   -0.002912751709246618
0.0036541586044456084   -0.07241575387672831   -0.002863388593670716
0.005233667271931738   -0.05969004263099376   -0.0029962432276785947
-0.0013560472684728667   -0.05983653578359016   -0.002930049788928361
0.0036541586044456084   -0.07241575387672831   -0.002863388593670716
-0.002430223114090551   -0.07263534610321389   -0.0029155060357908425
-0.002529734037514264   -0.07260639586009189   -0.002995128118003176
-0.0013560472684728667   -0.05983653578359016   -0.002930049788928361
0.0036541586044456084   -0.07241575387672831   -0.002863388593670716
-0.002529734037514264   -0.07260639586009189   -0.002995128118003176
0.005233667271931738   -0.05969004263099376   -0.0029962432276785947
-0.0013560472684728667   -0.05983653578359016   -0.002930049788928361
-0.002430223114090551   -0.07263534610321389   -0.0029155060357908425
0.005306061885182892   -0.059674117528652634   -0.002912751709246618
-0.0013067650866954701   -0.059873025165705834   -0.0028822403002465476
-0.002430223114090551   -0.07263534610321389   -0.0029155060357908425
0.0036541586044456084   -0.07241575387672831   -0.002863388593670716
0.005306061885182892   -0.059674117528652634   -0.002912751709246618
0.003739290710962045   -0.07243452601109887   -0.0027432687361018606
-0.0013067650866954701   -0.059873025165705834   -0.0028822403002465476
0.00534478273485507   -0.05966516181670142   -0.0028418513745341726
0.003739290710962045   -0.07243452601109887   -0.0027432687361018606
0.005306061885182892   -0.059674117528652634   -0.002912751709246618
-0.0013067650866954701   -0.059873025165705834   -0.0028822403002465476
0.003739290710962045   -0.07243452601109887   -0.0027432687361018606
-0.002341454070866197   -0.07269468649137326   -0.0028501357906669136
-0.002430223114090551   -0.07263534610321389   -0.0029155060357908425
-0.0013067650866954701   -0.059873025165705834   -0.0028822403002465476
0.003739290710962045   -0.07243452601109887   -0.0027432687361018606
-0.002430223114090551   -0.07263534610321389   -0.0029155060357908425
0.005306061885182892   -0.059674117528652634   -0.002912751709246618
0.00515528268344991   -0.05972067610547095   -0.003093205334210425
0.0034011307191482492   -0.07246230504301418   -0.0031437335455147576
0.01225532853435239   -0.05958974644320842   -0.003202747390910557
0.005233667271931738   -0.05969004263099376   -0.0029962432276785947
0.0034011307191482492   -0.07246230504301418   -0.0031437335455147576
0.009820122919980533   -0.07221626489148707   -0.003286504934360685
0.01225532853435239   -0.05958974644320842   -0.003202747390910557
0.01015250340997037   -0.07213525881951488   -0.0030719218716136207
0.005233667271931738   -0.05969004263099376   -0.0029962432276785947
0.01246009058709422   -0.05951930302195069   -0.0030755364289834727
0.01015250340997037   -0.07213525881951488   -0.0030719218716136207
0.01225532853435239   -0.05958974644320842   -0.003202747390910557
0.005233667271931738   -0.05969004263099376   -0.0029962432276785947
0.01015250340997037   -0.07213525881951488   -0.0030719218716136207
0.0035260729444593886   -0.07242304538200312   -0.002996232811998615
0.0034011307191482492   -0.07246230504301418   -0.0031437335455147576
0.005233667271931738   -0.05969004263099376   -0.0029962432276785947
0.01015250340997037   -0.07213525881951488   -0.0030719218716136207
0.0034011307191482492   -0.07246230504301418   -0.0031437335455147576
0.01225532853435239   -0.05958974644320842   -0.003202747390910557
0.005233667271931738   -0.05969004263099376   -0.0029962432276785947
0.0035260729444593886   -0.07242304538200312   -0.002996232811998615
0.01246009058709422   -0.05951930302195069   -0.0030755364289834727
0.005306061885182892   -0.059674117528652634   -0.002912751709246618
0.0035260729444593886   -0.07242304538200312   -0.002996232811998615
0.01015250340997037   -0.07213525881951488   -0.0030719218716136207
0.01246009058709422   -0.05951930302195069   -0.0030755364289834727
0.010398566507013846   -0.07211301425072296   -0.002876825781653737
0.005306061885182892   -0.059674117528652634   -0.002912751709246618
0.012600673767837838   -0.059485148713562225   -0.002967504697954617
0.010398566507013846   -0.07211301425072296   -0.002876825781653737
0.01246009058709422   -0.05951930302195069   -0.0030755364289834727
0.005306061885182892   -0.059674117528652634   -0.002912751709246618
0.010398566507013846   -0.07211301425072296   -0.002876825781653737
0.0036541586044456084   -0.07241575387672831   -0.002863388593670716
0.0035260729444593886   -0.07242304538200312   -0.002996232811998615
0.005306061885182892   -0.059674117528652634   -0.002912751709246618
0.010398566507013846   -0.07211301425072296   -0.002876825781653737
0.0035260729444593886   -0.07242304538200312   -0.002996232811998615
0.01246009058709422   -0.05951930302195069   -0.0030755364289834727
0.005306061885182892   -0.059674117528652634   -0.002912751709246618
0.0036541586044456084   -0.07241575387672831   -0.002863388593670716
0.012600673767837838   -0.059485148713562225   -0.002967504697954617
0.00534478273485507   -0.05966516181670142   -0.0028418513745341726
0.0036541586044456084   -0.07241575387672831   -0.002863388593670716
0.010398566507013846   -0.07211301425072296   -0.002876825781653737
0.012600673767837838   -0.059485148713562225   -0.002967504697954617
0.010647914716064095   -0.0721127773251379   -0.002702101541481652
0.00534478273485507   -0.05966516181670142   -0.0028418513745341726
0.012725349882244804   -0.05944790429950456   -0.002879447235814853
0.010647914716064095   -0.0721127773251379   -0.002702101541481652
0.012600673767837838   -0.059485148713562225   -0.002967504697954617
0.00534478273485507   -0.05966516181670142   -0.0028418513745341726
0.010647914716064095   -0.0721127773251379   -0.002702101541481652
0.003739290710962045   -0.07243452601109887   -0.0027432687361018606
0.0036541586044456084   -0.07241575387672831   -0.002863388593670716
0.00534478273485507   -0.05966516181670142   -0.0028418513745341726
0.010647914716064095   -0.0721127773251379   -0.002702101541481652
0.0036541586044456084   -0.07241575387672831   -0.002863388593670716
0.012600673767837838   -0.059485148713562225   -0.002967504697954617
-0.021186980969429517   -0.07244605024793026   -0.0032947178123375414
-0.019335285125662464   -0.08364545638091166   -0.00307217506655252
-0.014477429967498824   -0.07259185735039081   -0.0031767108598287175
-0.02103388126356132   -0.07254634717712091   -0.0033786868287880648
-0.019335285125662464   -0.08364545638091166   -0.00307217506655252
-0.013687774018713437   -0.08390869994709778   -0.0030530858131025858
-0.014477429967498824   -0.07259185735039081   -0.0031767108598287175
-0.013546712029690497   -0.08394678851072138   -0.0031153048074513885
-0.02103388126356132   -0.07254634717712091   -0.0033786868287880648
-0.014392608345314669   -0.07266614393120062   -0.0031945126992095367
-0.013546712029690497   -0.08394678851072138   -0.0031153048074513885
-0.014477429967498824   -0.07259185735039081   -0.0031767108598287175
-0.02103388126356132   -0.07254634717712091   -0.0033786868287880648
-0.013546712029690497   -0.08394678851072138   -0.0031153048074513885
-0.019041625863507036   -0.0837019969461254   -0.003246288589871199
-0.019335285125662464   -0.08364545638091166   -0.00307217506655252
-0.02103388126356132   -0.07254634717712091   -0.0033786868287880648
-0.013546712029690497   -0.08394678851072138   -0.0031153048074513885
-0.019335285125662464   -0.08364545638091166   -0.00307217506655252
-0.014477429967498824   -0.07259185735039081   -0.0031767108598287175
-0.02103388126356132   -0.07254634717712091   -0.0033786868287880648
-0.019041625863507036   -0.0837019969461254   -0.003246288589871199
-0.014392608345314669   -0.07266614393120062   -0.0031945126992095367
-0.020859033259486768   -0.07266936046523034   -0.003484532052468024
-0.019041625863507036   -0.0837019969461254   -0.003246288589871199
-0.013546712029690497   -0.08394678851072138   -0.0031153048074513885
-0.014392608345314669   -0.07266614393120062   -0.0031945126992095367
-0.013369540968471476   -0.08403797311497167   -0.0031916488541768903
-0.020859033259486768   -0.07266936046523034   -0.003484532052468024
-0.01427772396019149   -0.07277184015389575   -0.003226223170125874
-0.013369540968471476   -0.08403797311497167   -0.0031916488541768903
-0.014392608345314669   -0.07266614393120062   -0.0031945126992095367
-0.020859033259486768   -0.07266936046523034   -0.003484532052468024
-0.013369540968471476   -0.08403797311497167   -0.0031916488541768903
-0.018748636926365872   -0.08380900547386162   -0.0034434028687839215
-0.019041625863507036   -0.0837019969461254   -0.003246288589871199
-0.020859033259486768   -0.07266936046523034   -0.003484532052468024
-0.013369540968471476   -0.08403797311497167   -0.0031916488541768903
-0.019041625863507036   -0.0837019969461254   -0.003246288589871199
-0.014392608345314669   -0.07266614393120062   -0.0031945126992095367
-0.020859033259486768   -0.07266936046523034   -0.003484532052468024
-0.018748636926365872   -0.08380900547386162   -0.0034434028687839215
-0.01427772396019149   -0.07277184015389575   -0.003226223170125874
-0.02062087769822582   -0.07285656849633386   -0.0036126524161186344
-0.018748636926365872   -0.08380900547386162   -0.0034434028687839215
-0.013369540968471476   -0.08403797311497167   -0.0031916488541768903
-0.01427772396019149   -0.07277184015389575   -0.003226223170125874
-0.013194715160822885   -0.08418743160332973   -0.0032819855589414962
-0.02062087769822582   -0.07285656849633386   -0.0036126524161186344
-0.014154434099105925   -0.072915390493144   -0.0032722555808763674
-0.013194715160822885   -0.08418743160332973   -0.0032819855589414962
-0.01427772396019149   -0.07277184015389575   -0.003226223170125874
-0.02062087769822582   -0.07285656849633386   -0.0036126524161186344
-0.013194715160822885   -0.08418743160332973   -0.0032819855589414962
-0.01837331548837918   -0.08400854382110928   -0.0036630880233277825
-0.018748636926365872   -0.08380900547386162   -0.0034434028687839215
-0.02062087769822582   -0.07285656849633386   -0.0036126524161186344
-0.013194715160822885   -0.08418743160332973   -0.0032819855589414962
-0.018748636926365872   -0.08380900547386162   -0.0034434028687839215
-0.01427772396019149   -0.07277184015389575   -0.003226223170125874
-0.014477429967498824   -0.07259185735039081   -0.0031767108598287175
-0.013687774018713437   -0.08390869994709778   -0.0030530858131025858
-0.008463570761704065   -0.07264962826309027   -0.003101162066184094
-0.014392608345314669   -0.07266614393120062   -0.0031945126992095367
-0.013687774018713437   -0.08390869994709778   -0.0030530858131025858
-0.008798669638733344   -0.08403215530779748   -0.0030454664293640995
-0.008463570761704065   -0.07264962826309027   -0.003101162066184094
-0.008653914500985065   -0.08404466847154081   -0.003017660007759917
-0.014392608345314669   -0.07266614393120062   -0.0031945126992095367
-0.0083711781424315   -0.07268827973307584   -0.0030623955296947875
-0.008653914500985065   -0.08404466847154081   -0.003017660007759917
-0.008463570761704065   -0.07264962826309027   -0.003101162066184094
-0.014392608345314669   -0.07266614393120062   -0.0031945126992095367
-0.008653914500985065   -0.08404466847154081   -0.003017660007759917
-0.013546712029690497   -0.08394678851072138   -0.0031153048074513885
-0.013687774018713437   -0.08390869994709778   -0.0030530858131025858
-0.014392608345314669   -0.07266614393120062   -0.0031945126992095367
-0.008653914500985065   -0.08404466847154081   -0.003017660007759917
-0.013687774018713437   -0.08390869994709778   -0.0030530858131025858
-0.008463570761704065   -0.07264962826309027   -0.003101162066184094
-0.014392608345314669   -0.07266614393120062   -0.0031945126992095367
-0.013546712029690497   -0.08394678851072138   -0.0031153048074513885
-0.0083711781424315   -0.07268827973307584   -0.0030623955296947875
-0.01427772396019149   -0.07277184015389575   -0.003226223170125874
-0.013546712029690497   -0.08394678851072138   -0.0031153048074513885
-0.008653914500985065   -0.08404466847154081   -0.003017660007759917
-0.0083711781424315   -0.07268827973307584   -0.0030623955296947875
-0.008504520567828982   -0.08410458565729627   -0.003003560591156024
-0.01427772396019149   -0.07277184015389575   -0.003226223170125874
-0.008271780884237634   -0.07275713674542135   -0.0030373687510240805
-0.008504520567828982   -0.08410458565729627   -0.003003560591156024
-0.0083711781424315   -0.07268827973307584   -0.0030623955296947875
-0.01427772396019149   -0.07277184015389575   -0.003226223170125874
-0.008504520567828982   -0.08410458565729627   -0.003003560591156024
-0.013369540968471476   -0.08403797311497167   -0.0031916488541768903
-0.013546712029690497   -0.08394678851072138   -0.0031153048074513885
-0.01427772396019149   -0.07277184015389575   -0.003226223170125874
-0.008504520567828982   -0.08410458565729627   -0.003003560591156024
-0.013546712029690497   -0.08394678851072138   -0.0031153048074513885
-0.0083711781424315   -0.07268827973307584   -0.0030623955296947875
-0.01427772396019149   -0.07277184015389575   -0.003226223170125874
-0.013369540968471476   -0.08403797311497167   -0.0031916488541768903
-0.008271780884237634   -0.07275713674542135   -0.0030373687510240805
-0.014154434099105925   -0.072915390493144   -0.0032722555808763674
-0.013369540968471476   -0.08403797311497167   -0.0031916488541768903
-0.008504520567828982   -0.08410458565729627   -0.003003560591156024
-0.008271780884237634   -0.07275713674542135   -0.0030373687510240805
-0.008355376706371133   -0.08421471406533637   -0.0030029880213963225
-0.014154434099105925   -0.072915390493144   -0.0032722555808763674
-0.008169611795061996   -0.07285707282860261   -0.0030267517743493384
-0.008355376706371133   -0.08421471406533637   -0.0030029880213963225
-0.008271780884237634   -0.07275713674542135   -0.0030373687510240805
-0.014154434099105925   -0.072915390493144   -0.0032722555808763674
-0.008355376706371133   -0.08421471406533637   -0.0030029880213963225
-0.013194715160822885   -0.08418743160332973   -0.0032819855589414962
-0.013369540968471476   -0.08403797311497167   -0.0031916488541768903
-0.014154434099105925   -0.072915390493144   -0.0032722555808763674
-0.008355376706371133   -0.08421471406533637   -0.0030029880213963225
-0.013369540968471476   -0.08403797311497167   -0.0031916488541768903
-0.008271780884237634   -0.07275713674542135   -0.0030373687510240805
-0.008463570761704065   -0.07264962826309027   -0.003101162066184094
-0.008798669638733344   -0.08403215530779748   -0.0030454664293640995
-0.0026319293460995105   -0.07260543053747337   -0.0030885226641367853
-0.0083711781424315   -0.07268827973307584   -0.0030623955296947875
-0.008798669638733344   -0.08403215530779748   -0.0030454664293640995
-0.004071974102933457   -0.08401003332787411   -0.0030804233017250352
-0.0026319293460995105   -0.07260543053747337   -0.0030885226641367853
-0.003913413837734362   -0.08399383388264935   -0.002965753134858003
-0.0083711781424315   -0.07268827973307584   -0.0030623955296947875
-0.002529734037514264   -0.07260639586009189   -0.002995128118003176
-0.003913413837734362   -0.08399383388264935   -0.002965753134858003
-0.0026319293460995105   -0.07260543053747337   -0.0030885226641367853
-0.0083711781424315   -0.07268827973307584   -0.0030623955296947875
-0.003913413837734362   -0.08399383388264935   -0.002965753134858003
-0.008653914500985065   -0.08404466847154081   -0.003017660007759917
-0.008798669638733344   -0.08403215530779748   -0.0030454664293640995
-0.0083711781424315   -0.07268827973307584   -0.0030623955296947875
-0.003913413837734362   -0.08399383388264935   -0.002965753134858003
-0.008798669638733344   -0.08403215530779748   -0.0030454664293640995
-0.0026319293460995105   -0.07260543053747337   -0.0030885226641367853
-0.0083711781424315   -0.07268827973307584   -0.0030623955296947875
-0.008653914500985065   -0.08404466847154081   -0.003017660007759917
-0.002529734037514264   -0.07260639586009189   -0.002995128118003176
-0.008271780884237634   -0.07275713674542135   -0.0030373687510240805
-0.008653914500985065   -0.08404466847154081   -0.003017660007759917
-0.003913413837734362   -0.08399383388264935   -0.002965753134858003
-0.002529734037514264   -0.07260639586009189   -0.002995128118003176
-0.0037595454237808286   -0.08402048311910004   -0.0028656933581554
-0.008271780884237634   -0.07275713674542135   -0.0030373687510240805
-0.002430223114090551   -0.07263534610321389   -0.0029155060357908425
-0.0037595454237808286   -0.08402048311910004   -0.0028656933581554
-0.002529734037514264   -0.07260639586009189   -0.002995128118003176
-0.008271780884237634   -0.07275713674542135   -0.0030373687510240805
-0.0037595454237808286   -0.08402048311910004   -0.0028656933581554
-0.008504520567828982   -0.08410458565729627   -0.003003560591156024
-0.008653914500985065   -0.08404466847154081   -0.003017660007759917
-0.008271780884237634   -0.07275713674542135   -0.0030373687510240805
-0.0037595454237808286   -0.08402048311910004   -0.0028656933581554
-0.008653914500985065   -0.08404466847154081   -0.003017660007759917
-0.002529734037514264   -0.07260639586009189   -0.002995128118003176
-0.008271780884237634   -0.07275713674542135   -0.0030373687510240805
-0.008504520567828982   -0.08410458565729627   -0.003003560591156024
-0.002430223114090551   -0.07263534610321389   -0.0029155060357908425
-0.008169611795061996   -0.07285707282860261   -0.0030267517743493384
-0.008504520567828982   -0.08410458565729627   -0.003003560591156024
-0.0037595454237808286   -0.08402048311910004   -0.0028656933581554
-0.002430223114090551   -0.07263534610321389   -0.0029155060357908425
-0.0036205458419261813   -0.08409622676311858   -0.0027789763880158758
-0.008169611795061996   -0.07285707282860261   -0.0030267517743493384
-0.002341454070866197   -0.07269468649137326   -0.0028501357906669136
-0.0036205458419261813   -0.08409622676311858   -0.0027789763880158758
-0.002430223114090551   -0.07263534610321389   -0.0029155060357908425
-0.008169611795061996   -0.07285707282860261   -0.0030267517743493384
-0.0036205458419261813   -0.08409622676311858   -0.0027789763880158758
-0.008355376706371133   -0.08421471406533637   -0.0030029880213963225
-0.008504520567828982   -0.08410458565729627   -0.003003560591156024
-0.008169611795061996   -0.07285707282860261   -0.0030267517743493384
-0.0036205458419261813   -0.08409622676311858   -0.0027789763880158758
-0.008504520567828982   -0.08410458565729627   -0.003003560591156024
-0.002430223114090551   -0.07263534610321389   -0.0029155060357908425
-0.0026319293460995105   -0.07260543053747337   -0.0030885226641367853
-0.004071974102933457   -0.08401003332787411   -0.0030804233017250352
0.0034011307191482492   -0.07246230504301418   -0.0031437335455147576
-0.002529734037514264   -0.07260639586009189   -0.002995128118003176
-0.004071974102933457   -0.08401003332787411   -0.0030804233017250352
0.0008769380350046156   -0.08383713198753168   -0.003165676133481222
0.0034011307191482492   -0.07246230504301418   -0.0031437335455147576
0.001069796896930346   -0.08378444794733189   -0.002964449129399347
-0.002529734037514264   -0.07260639586009189   -0.002995128118003176
0.0035260729444593886   -0.07242304538200312   -0.002996232811998615
0.001069796896930346   -0.08378444794733189   -0.002964449129399347
0.0034011307191482492   -0.07246230504301418   -0.0031437335455147576
-0.002529734037514264   -0.07260639586009189   -0.002995128118003176
0.001069796896930346   -0.08378444794733189   -0.002964449129399347
-0.003913413837734362   -0.08399383388264935   -0.002965753134858003
-0.004071974102933457   -0.08401003332787411   -0.0030804233017250352
-0.002529734037514264   -0.07260639586009189   -0.002995128118003176
0.001069796896930346   -0.08378444794733189   -0.002964449129399347
-0.004071974102933457   -0.08401003332787411   -0.0030804233017250352
0.0034011307191482492   -0.07246230504301418   -0.0031437335455147576
-0.002529734037514264   -0.07260639586009189   -0.002995128118003176
-0.003913413837734362   -0.08399383388264935   -0.002965753134858003
0.0035260729444593886   -0.07242304538200312   -0.002996232811998615
-0.002430223114090551   -0.07263534610321389   -0.0029155060357908425
-0.003913413837734362   -0.08399383388264935   -0.002965753134858003
0.001069796896930346   -0.08378444794733189   -0.002964449129399347
0.0035260729444593886   -0.07242304538200312   -0.002996232811998615
0.0012729896771142704   -0.08377967323418839   -0.0027817467618614345
-0.002430223114090551   -0.07263534610321389   -0.0029155060357908425
0.0036541586044456084   -0.07241575387672831   -0.002863388593670716
0.0012729896771142704   -0.08377967323418839   -0.0027817467618614345
0.0035260729444593886   -0.07242304538200312   -0.002996232811998615
-0.002430223114090551   -0.07263534610321389   -0.0029155060357908425
0.0012729896771142704   -0.08377967323418839   -0.0027817467618614345
-0.0037595454237808286   -0.08402048311910004   -0.0028656933581554
-0.003913413837734362   -0.08399383388264935   -0.002965753134858003
-0.002430223114090551   -0.07263534610321389   -0.0029155060357908425
0.0012729896771142704   -0.08377967323418839   -0.0027817467618614345
-0.003913413837734362   -0.08399383388264935   -0.002965753134858003
0.0035260729444593886   -0.07242304538200312   -0.002996232811998615
-0.002430223114090551   -0.07263534610321389   -0.0029155060357908425
-0.0037595454237808286   -0.08402048311910004   -0.0028656933581554
0.0036541586044456084   -0.07241575387672831   -0.002863388593670716
-0.002341454070866197   -0.07269468649137326   -0.0028501357906669136
-0.0037595454237808286   -0.08402048311910004   -0.0028656933581554
0.0012729896771142704   -0.08377967323418839   -0.0027817467618614345
0.0036541586044456084   -0.07241575387672831   -0.002863388593670716
0.0014215992091393688   -0.08382063516865035   -0.002611801538039579
-0.002341454070866197   -0.07269468649137326   -0.0028501357906669136
0.003739290710962045   -0.07243452601109887   -0.0027432687361018606
0.0014215992091393688   -0.08382063516865035   -0.002611801538039579
0.0036541586044456084   -0.07241575387672831   -0.002863388593670716
-0.002341454070866197   -0.07269468649137326   -0.0028501357906669136
0.0014215992091393688   -0.08382063516865035   -0.002611801538039579
-0.0036205458419261813   -0.08409622676311858   -0.0027789763880158758
-0.0037595454237808286   -0.08402048311910004   -0.0028656933581554
-0.002341454070866197   -0.07269468649137326   -0.0028501357906669136
0.0014215992091393688   -0.08382063516865035   -0.002611801538039579
-0.0037595454237808286   -0.08402048311910004   -0.0028656933581554
0.0036541586044456084   -0.07241575387672831   -0.002863388593670716
0.0034011307191482492   -0.07246230504301418   -0.0031437335455147576
0.0008769380350046156   -0.08383713198753168   -0.003165676133481222
0.009820122919980533   -0.07221626489148707   -0.003286504934360685
0.0035260729444593886   -0.07242304538200312   -0.002996232811998615
0.0008769380350046156   -0.08383713198753168   -0.003165676133481222
0.006154429664492679   -0.08349703522620211   -0.0033481984561146657
0.009820122919980533   -0.07221626489148707   -0.003286504934360685
0.006642487436633682   -0.08339587828847313   -0.003040249833385249
0.0035260729444593886   -0.07242304538200312   -0.002996232811998615
0.01015250340997037   -0.07213525881951488   -0.0030719218716136207
0.006642487436633682   -0.08339587828847313   -0.003040249833385249
0.009820122919980533   -0.07221626489148707   -0.003286504934360685
0.0035260729444593886   -0.07242304538200312   -0.002996232811998615
0.006642487436633682   -0.08339587828847313   -0.003040249833385249
0.001069796896930346   -0.08378444794733189   -0.002964449129399347
0.0008769380350046156   -0.08383713198753168   -0.003165676133481222
0.0035260729444593886   -0.07242304538200312   -0.002996232811998615
0.006642487436633682   -0.08339587828847313   -0.003040249833385249
0.0008769380350046156   -0.08383713198753168   -0.003165676133481222
0.009820122919980533   -0.07221626489148707   -0.003286504934360685
0.0035260729444593886   -0.07242304538200312   -0.002996232811998615
0.001069796896930346   -0.08378444794733189   -0.002964449129399347
0.01015250340997037   -0.07213525881951488   -0.0030719218716136207
0.0036541586044456084   -0.07241575387672831   -0.002863388593670716
0.001069796896930346   -0.08378444794733189   -0.002964449129399347
0.006642487436633682   -0.08339587828847313   -0.003040249833385249
0.01015250340997037   -0.07213525881951488   -0.0030719218716136207
0.007016662414421012   -0.08337836391654757   -0.0027552717929736448
0.0036541586044456084   -0.07241575387672831   -0.002863388593670716
0.010398566507013846   -0.07211301425072296   -0.002876825781653737
0.007016662414421012   -0.08337836391654757   -0.0027552717929736448
0.01015250340997037   -0.07213525881951488   -0.0030719218716136207
0.0036541586044456084   -0.07241575387672831   -0.002863388593670716
0.007016662414421012   -0.08337836391654757   -0.0027552717929736448
0.0012729896771142704   -0.08377967323418839   -0.0027817467618614345
0.001069796896930346   -0.08378444794733189   -0.002964449129399347
0.0036541586044456084   -0.07241575387672831   -0.002863388593670716
0.007016662414421012   -0.08337836391654757   -0.0027552717929736448
0.001069796896930346   -0.08378444794733189   -0.002964449129399347
0.01015250340997037   -0.07213525881951488   -0.0030719218716136207
0.0036541586044456084   -0.07241575387672831   -0.002863388593670716
0.0012729896771142704   -0.08377967323418839   -0.0027817467618614345
0.010398566507013846   -0.07211301425072296   -0.002876825781653737
0.003739290710962045   -0.07243452601109887   -0.0027432687361018606
0.0012729896771142704   -0.08377967323418839   -0.0027817467618614345
0.007016662414421012   -0.08337836391654757   -0.0027552717929736448
0.010398566507013846   -0.07211301425072296   -0.002876825781653737
0.007404141870180586   -0.0834082968910285   -0.002495595936107807
0.003739290710962045   -0.07243452601109887   -0.0027432687361018606
0.010647914716064095   -0.0721127773251379   -0.002702101541481652
0.007404141870180586   -0.0834082968910285   -0.002495595936107807
0.010398566507013846   -0.07211301425072296   -0.002876825781653737
0.003739290710962045   -0.07243452601109887   -0.0027432687361018606
0.007404141870180586   -0.0834082968910285   -0.002495595936107807
0.0014215992091393688   -0.08382063516865035   -0.002611801538039579
0.0012729896771142704   -0.08377967323418839   -0.0027817467618614345
0.003739290710962045   -0.07243452601109887   -0.0027432687361018606
0.007404141870180586   -0.0834082968910285   -0.002495595936107807
0.0012729896771142704   -0.08377967323418839   -0.0027817467618614345
0.010398566507013846   -0.07211301425072296   -0.002876825781653737
-0.019335285125662464   -0.08364545638091166   -0.00307217506655252
-0.016190107825314458   -0.09243734439365128   -0.002787080914015878
-0.013687774018713437   -0.08390869994709778   -0.0030530858131025858
-0.019041625863507036   -0.0837019969461254   -0.003246288589871199
-0.016190107825314458   -0.09243734439365128   -0.002787080914015878
-0.01217141164382004   -0.09282739660734579   -0.00290412527991875
-0.013687774018713437   -0.08390869994709778   -0.0030530858131025858
-0.011968002797388964   -0.09280722265282972   -0.002999891733348199
-0.019041625863507036   -0.0837019969461254   -0.003246288589871199
-0.013546712029690497   -0.08394678851072138   -0.0031153048074513885
-0.011968002797388964   -0.09280722265282972   -0.002999891733348199
-0.013687774018713437   -0.08390869994709778   -0.0030530858131025858
-0.019041625863507036   -0.0837019969461254   -0.003246288589871199
-0.011968002797388964   -0.09280722265282972   -0.002999891733348199
-0.01575196728463495   -0.09242631090023085   -0.003045306086839493
-0.016190107825314458   -0.09243734439365128   -0.002787080914015878
-0.019041625863507036   -0.0837019969461254   -0.003246288589871199
-0.011968002797388964   -0.09280722265282972   -0.002999891733348199
-0.016190107825314458   -0.09243734439365128   -0.002787080914015878
-0.013687774018713437   -0.08390869994709778   -0.0030530858131025858
-0.019041625863507036   -0.0837019969461254   -0.003246288589871199
-0.01575196728463495   -0.09242631090023085   -0.003045306086839493
-0.013546712029690497   -0.08394678851072138   -0.0031153048074513885
-0.018748636926365872   -0.08380900547386162   -0.0034434028687839215
-0.01575196728463495   -0.09242631090023085   -0.003045306086839493
-0.011968002797388964   -0.09280722265282972   -0.002999891733348199
-0.013546712029690497   -0.08394678851072138   -0.0031153048074513885
-0.01172881722017523   -0.09286321845070943   -0.003110099802705896
-0.018748636926365872   -0.08380900547386162   -0.0034434028687839215
-0.013369540968471476   -0.08403797311497167   -0.0031916488541768903
-0.01172881722017523   -0.09286321845070943   -0.003110099802705896
-0.013546712029690497   -0.08394678851072138   -0.0031153048074513885
-0.018748636926365872   -0.08380900547386162   -0.0034434028687839215
-0.01172881722017523   -0.09286321845070943   -0.003110099802705896
-0.015348037815988985   -0.09249552031419016   -0.0033238661138886272
-0.01575196728463495   -0.09242631090023085   -0.003045306086839493
-0.018748636926365872   -0.08380900547386162   -0.0034434028687839215
-0.01172881722017523   -0.09286321845070943   -0.003110099802705896
-0.01575196728463495   -0.09242631090023085   -0.003045306086839493
-0.013546712029690497   -0.08394678851072138   -0.0031153048074513885
-0.018748636926365872   -0.08380900547386162   -0.0034434028687839215
-0.015348037815988985   -0.09249552031419016   -0.0033238661138886272
-0.013369540968471476   -0.08403797311497167   -0.0031916488541768903
-0.01837331548837918   -0.08400854382110928   -0.0036630880233277825
-0.015348037815988985   -0.09249552031419016   -0.0033238661138886272
-0.01172881722017523   -0.09286321845070943   -0.003110099802705896
-0.013369540968471476   -0.08403797311497167   -0.0031916488541768903
-0.011511825941902748   -0.09299665147652389   -0.0032338246518904185
-0.01837331548837918   -0.08400854382110928   -0.0036630880233277825
-0.013194715160822885   -0.08418743160332973   -0.0032819855589414962
-0.011511825941902748   -0.09299665147652389   -0.0032338246518904185
-0.013369540968471476   -0.08403797311497167   -0.0031916488541768903
-0.01837331548837918   -0.08400854382110928   -0.0036630880233277825
-0.011511825941902748   -0.09299665147652389   -0.0032338246518904185
-0.014855418826751001   -0.09268053097613019   -0.003621556714694907
-0.015348037815988985   -0.09249552031419016   -0.0033238661138886272
-0.01837331548837918   -0.08400854382110928   -0.0036630880233277825
-0.011511825941902748   -0.09299665147652389   -0.0032338246518904185
-0.015348037815988985   -0.09249552031419016   -0.0033238661138886272
-0.013369540968471476   -0.08403797311497167   -0.0031916488541768903
-0.013687774018713437   -0.08390869994709778   -0.0030530858131025858
-0.01217141164382004   -0.09282739660734579   -0.00290412527991875
-0.008798669638733344   -0.08403215530779748   -0.0030454664293640995
-0.013546712029690497   -0.08394678851072138   -0.0031153048074513885
-0.01217141164382004   -0.09282739660734579   -0.00290412527991875
-0.008889230640867858   -0.09308061303707797   -0.002995710253669866
-0.008798669638733344   -0.08403215530779748   -0.0030454664293640995
-0.008680450306849738   -0.09304837882564707   -0.002966406114636605
-0.013546712029690497   -0.08394678851072138   -0.0031153048074513885
-0.008653914500985065   -0.08404466847154081   -0.003017660007759917
-0.008680450306849738   -0.09304837882564707   -0.002966406114636605
-0.008798669638733344   -0.08403215530779748   -0.0030454664293640995
-0.013546712029690497   -0.08394678851072138   -0.0031153048074513885
-0.008680450306849738   -0.09304837882564707   -0.002966406114636605
-0.011968002797388964   -0.09280722265282972   -0.002999891733348199
-0.01217141164382004   -0.09282739660734579   -0.00290412527991875
-0.013546712029690497   -0.08394678851072138   -0.0031153048074513885
-0.008680450306849738   -0.09304837882564707   -0.002966406114636605
-0.01217141164382004   -0.09282739660734579   -0.00290412527991875
-0.008798669638733344   -0.08403215530779748   -0.0030454664293640995
-0.013546712029690497   -0.08394678851072138   -0.0031153048074513885
-0.011968002797388964   -0.09280722265282972   -0.002999891733348199
-0.008653914500985065   -0.08404466847154081   -0.003017660007759917
-0.013369540968471476   -0.08403797311497167   -0.0031916488541768903
-0.011968002797388964   -0.09280722265282972   -0.002999891733348199
-0.008680450306849738   -0.09304837882564707   -0.002966406114636605
-0.008653914500985065   -0.08404466847154081   -0.003017660007759917
-0.008474638776525741   -0.0930818753702985   -0.0029511248845236274
-0.013369540968471476   -0.08403797311497167   -0.0031916488541768903
-0.008504520567828982   -0.08410458565729627   -0.003003560591156024
-0.008474638776525741   -0.0930818753702985   -0.0029511248845236274
-0.008653914500985065   -0.08404466847154081   -0.003017660007759917
-0.013369540968471476   -0.08403797311497167   -0.0031916488541768903
-0.008474638776525741   -0.0930818753702985   -0.0029511248845236274
-0.01172881722017523   -0.09286321845070943   -0.003110099802705896
-0.011968002797388964   -0.09280722265282972   -0.002999891733348199
-0.013369540968471476   -0.08403797311497167   -0.0031916488541768903
-0.008474638776525741   -0.0930818753702985   -0.0029511248845236274
-0.011968002797388964   -0.09280722265282972   -0.002999891733348199
-0.008653914500985065   -0.08404466847154081   -0.003017660007759917
-0.013369540968471476   -0.08403797311497167   -0.0031916488541768903
-0.01172881722017523   -0.09286321845070943   -0.003110099802705896
-0.008504520567828982   -0.08410458565729627   -0.003003560591156024
-0.013194715160822885   -0.08418743160332973   -0.0032819855589414962
-0.01172881722017523   -0.09286321845070943   -0.003110099802705896
-0.008474638776525741   -0.0930818753702985   -0.0029511248845236274
-0.008504520567828982   -0.08410458565729627   -0.003003560591156024
-0.008285302043855974   -0.09318330060206312   -0.0029528098662228693
-0.013194715160822885   -0.08418743160332973   -0.0032819855589414962
-0.008355376706371133   -0.08421471406533637   -0.0030029880213963225
-0.008285302043855974   -0.09318330060206312   -0.0029528098662228693
-0.008504520567828982   -0.08410458565729627   -0.003003560591156024
-0.013194715160822885   -0.08418743160332973   -0.0032819855589414962
-0.008285302043855974   -0.09318330060206312   -0.0029528098662228693
-0.011511825941902748   -0.09299665147652389   -0.0032338246518904185
-0.01172881722017523   -0.09286321845070943   -0.003110099802705896
-0.013194715160822885   -0.08418743160332973   -0.0032819855589414962
-0.008285302043855974   -0.09318330060206312   -0.0029528098662228693
-0.01172881722017523   -0.09286321845070943   -0.003110099802705896
-0.008504520567828982   -0.08410458565729627   -0.003003560591156024
-0.008798669638733344   -0.08403215530779748   -0.0030454664293640995
-0.008889230640867858   -0.09308061303707797   -0.002995710253669866
-0.004071974102933457   -0.08401003332787411   -0.0030804233017250352
-0.008653914500985065   -0.08404466847154081   -0.003017660007759917
-0.008889230640867858   -0.09308061303707797   -0.002995710253669866
-0.005745716925321882   -0.09321427344380684   -0.0031037994684433856
-0.004071974102933457   -0.08401003332787411   -0.0030804233017250352
-0.005510348412429398   -0.09316784876927299   -0.002956569948938649
-0.008653914500985065   -0.08404466847154081   -0.003017660007759917
-0.003913413837734362   -0.08399383388264935   -0.002965753134858003
-0.005510348412429398   -0.09316784876927299   -0.002956569948938649
-0.004071974102933457   -0.08401003332787411   -0.0030804233017250352
-0.008653914500985065   -0.08404466847154081   -0.003017660007759917
-0.005510348412429398   -0.09316784876927299   -0.002956569948938649
-0.008680450306849738   -0.09304837882564707   -0.002966406114636605
-0.008889230640867858   -0.09308061303707797   -0.002995710253669866
-0.008653914500985065   -0.08404466847154081   -0.003017660007759917
-0.005510348412429398   -0.09316784876927299   -0.002956569948938649
-0.008889230640867858   -0.09308061303707797   -0.002995710253669866
-0.004071974102933457   -0.08401003332787411   -0.0030804233017250352
-0.008653914500985065   -0.08404466847154081   -0.003017660007759917
-0.008680450306849738   -0.09304837882564707   -0.002966406114636605
-0.003913413837734362   -0.08399383388264935   -0.002965753134858003
-0.008504520567828982   -0.08410458565729627   -0.003003560591156024
-0.008680450306849738   -0.09304837882564707   -0.002966406114636605
-0.005510348412429398   -0.09316784876927299   -0.002956569948938649
-0.003913413837734362   -0.08399383388264935   -0.002965753134858003
-0.005286011148789129   -0.09317918830632849   -0.0028217209233913146
-0.008504520567828982   -0.08410458565729627   -0.003003560591156024
-0.0037595454237808286   -0.08402048311910004   -0.0028656933581554
-0.005286011148789129   -0.09317918830632849   -0.0028217209233913146
-0.003913413837734362   -0.08399383388264935   -0.002965753134858003
-0.008504520567828982   -0.08410458565729627   -0.003003560591156024
-0.005286011148789129   -0.09317918830632849   -0.0028217209233913146
-0.008474638776525741   -0.0930818753702985   -0.0029511248845236274
-0.008680450306849738   -0.09304837882564707   -0.002966406114636605
-0.008504520567828982   -0.08410458565729627   -0.003003560591156024
-0.005286011148789129   -0.09317918830632849   -0.0028217209233913146
-0.008680450306849738   -0.09304837882564707   -0.002966406114636605
-0.003913413837734362   -0.08399383388264935   -0.002965753134858003
-0.008504520567828982   -0.08410458565729627   -0.003003560591156024
-0.008474638776525741   -0.0930818753702985   -0.0029511248845236274
-0.0037595454237808286   -0.08402048311910004   -0.0028656933581554
-0.008355376706371133   -0.08421471406533637   -0.0030029880213963225
-0.008474638776525741   -0.0930818753702985   -0.0029511248845236274
-0.005286011148789129   -0.09317918830632849   -0.0028217209233913146
-0.0037595454237808286   -0.08402048311910004   -0.0028656933581554
-0.005099488317516646   -0.0932596115450478   -0.0027070223274273074
-0.008355376706371133   -0.08421471406533637   -0.0030029880213963225
-0.0036205458419261813   -0.08409622676311858   -0.0027789763880158758
-0.005099488317516646   -0.0932596115450478   -0.0027070223274273074
-0.0037595454237808286   -0.08402048311910004   -0.0028656933581554
-0.008355376706371133   -0.08421471406533637   -0.0030029880213963225
-0.005099488317516646   -0.0932596115450478   -0.0027070223274273074
-0.008285302043855974   -0.09318330060206312   -0.0029528098662228693
-0.008474638776525741   -0.0930818753702985   -0.0029511248845236274
-0.008355376706371133   -0.08421471406533637   -0.0030029880213963225
-0.005099488317516646   -0.0932596115450478   -0.0027070223274273074
-0.008474638776525741   -0.0930818753702985   -0.0029511248845236274
-0.0037595454237808286   -0.08402048311910004   -0.0028656933581554
-0.004071974102933457   -0.08401003332787411   -0.0030804233017250352
-0.005745716925321882   -0.09321427344380684   -0.0031037994684433856
0.0008769380350046156   -0.08383713198753168   -0.003165676133481222
-0.003913413837734362   -0.08399383388264935   -0.002965753134858003
-0.005745716925321882   -0.09321427344380684   -0.0031037994684433856
-0.0024019072428963055   -0.0931818435452917   -0.0032310053675098853
0.0008769380350046156   -0.08383713198753168   -0.003165676133481222
-0.0020997155160021323   -0.09310908577423199   -0.002970994216286771
-0.003913413837734362   -0.08399383388264935   -0.002965753134858003
0.001069796896930346   -0.08378444794733189   -0.002964449129399347
-0.0020997155160021323   -0.09310908577423199   -0.002970994216286771
0.0008769380350046156   -0.08383713198753168   -0.003165676133481222
-0.003913413837734362   -0.08399383388264935   -0.002965753134858003
-0.0020997155160021323   -0.09310908577423199   -0.002970994216286771
-0.005510348412429398   -0.09316784876927299   -0.002956569948938649
-0.005745716925321882   -0.09321427344380684   -0.0031037994684433856
-0.003913413837734362   -0.08399383388264935   -0.002965753134858003
-0.0020997155160021323   -0.09310908577423199   -0.002970994216286771
-0.005745716925321882   -0.09321427344380684   -0.0031037994684433856
0.0008769380350046156   -0.08383713198753168   -0.003165676133481222
-0.003913413837734362   -0.08399383388264935   -0.002965753134858003
-0.005510348412429398   -0.09316784876927299   -0.002956569948938649
0.001069796896930346   -0.08378444794733189   -0.002964449129399347
-0.0037595454237808286   -0.08402048311910004   -0.0028656933581554
-0.005510348412429398   -0.09316784876927299   -0.002956569948938649
-0.0020997155160021323   -0.09310908577423199   -0.002970994216286771
0.001069796896930346   -0.08378444794733189   -0.002964449129399347
-0.001790883236986233   -0.09309617423139609   -0.002724236263776428
-0.0037595454237808286   -0.08402048311910004   -0.0028656933581554
0.0012729896771142704   -0.08377967323418839   -0.0027817467618614345
-0.001790883236986233   -0.09309617423139609   -0.002724236263776428
0.001069796896930346   -0.08378444794733189   -0.002964449129399347
-0.0037595454237808286   -0.08402048311910004   -0.0028656933581554
-0.001790883236986233   -0.09309617423139609   -0.002724236263776428
-0.005286011148789129   -0.09317918830632849   -0.0028217209233913146
-0.005510348412429398   -0.09316784876927299   -0.002956569948938649
-0.0037595454237808286   -0.08402048311910004   -0.0028656933581554
-0.001790883236986233   -0.09309617423139609   -0.002724236263776428
-0.005510348412429398   -0.09316784876927299   -0.002956569948938649
0.001069796896930346   -0.08378444794733189   -0.002964449129399347
-0.0037595454237808286   -0.08402048311910004   -0.0028656933581554
-0.005286011148789129   -0.09317918830632849   -0.0028217209233913146
0.0012729896771142704   -0.08377967323418839   -0.0027817467618614345
-0.0036205458419261813   -0.08409622676311858   -0.0027789763880158758
-0.005286011148789129   -0.09317918830632849   -0.0028217209233913146
-0.001790883236986233   -0.09309617423139609   -0.002724236263776428
0.0012729896771142704   -0.08377967323418839   -0.0027817467618614345
-0.0015620632390249915   -0.09315606260918756   -0.0025001906855440467
-0.0036205458419261813   -0.08409622676311858   -0.0027789763880158758
0.0014215992091393688   -0.08382063516865035   -0.002611801538039579
-0.0015620632390249915   -0.09315606260918756   -0.0025001906855440467
0.0012729896771142704   -0.08377967323418839   -0.0027817467618614345
-0.0036205458419261813   -0.08409622676311858   -0.0027789763880158758
-0.0015620632390249915   -0.09315606260918756   -0.0025001906855440467
-0.005099488317516646   -0.0932596115450478   -0.0027070223274273074
-0.005286011148789129   -0.09317918830632849   -0.0028217209233913146
-0.0036205458419261813   -0.08409622676311858   -0.0027789763880158758
-0.0015620632390249915   -0.09315606260918756   -0.0025001906855440467
-0.005286011148789129   -0.09317918830632849   -0.0028217209233913146
0.0012729896771142704   -0.08377967323418839   -0.0027817467618614345
0.0008769380350046156   -0.08383713198753168   -0.003165676133481222
-0.0024019072428963055   -0.0931818435452917   -0.0032310053675098853
0.006154429664492679   -0.08349703522620211   -0.0033481984561146657
0.001069796896930346   -0.08378444794733189   -0.002964449129399347
-0.0024019072428963055   -0.0931818435452917   -0.0032310053675098853
0.00119904039787171   -0.09286105525001499   -0.0034920942752654327
0.006154429664492679   -0.08349703522620211   -0.0033481984561146657
0.001902371064223715   -0.09270259841844779   -0.0030667022907620296
0.001069796896930346   -0.08378444794733189   -0.002964449129399347
0.006642487436633682   -0.08339587828847313   -0.003040249833385249
0.001902371064223715   -0.09270259841844779   -0.0030667022907620296
0.006154429664492679   -0.08349703522620211   -0.0033481984561146657
0.001069796896930346   -0.08378444794733189   -0.002964449129399347
0.001902371064223715   -0.09270259841844779   -0.0030667022907620296
-0.0020997155160021323   -0.09310908577423199   -0.002970994216286771
-0.0024019072428963055   -0.0931818435452917   -0.0032310053675098853
0.001069796896930346   -0.08378444794733189   -0.002964449129399347
0.001902371064223715   -0.09270259841844779   -0.0030667022907620296
-0.0024019072428963055   -0.0931818435452917   -0.0032310053675098853
0.006154429664492679   -0.08349703522620211   -0.0033481984561146657
0.001069796896930346   -0.08378444794733189   -0.002964449129399347
-0.0020997155160021323   -0.09310908577423199   -0.002970994216286771
0.006642487436633682   -0.08339587828847313   -0.003040249833385249
0.0012729896771142704   -0.08377967323418839   -0.0027817467618614345
-0.0020997155160021323   -0.09310908577423199   -0.002970994216286771
0.001902371064223715   -0.09270259841844779   -0.0030667022907620296
0.006642487436633682   -0.08339587828847313   -0.003040249833385249
0.0024551544044216947   -0.09267044466620841   -0.002667366979459031
0.0012729896771142704   -0.08377967323418839   -0.0027817467618614345
0.007016662414421012   -0.08337836391654757   -0.0027552717929736448
0.0024551544044216947   -0.09267044466620841   -0.002667366979459031
0.006642487436633682   -0.08339587828847313   -0.003040249833385249
0.0012729896771142704   -0.08377967323418839   -0.0027817467618614345
0.0024551544044216947   -0.09267044466620841   -0.002667366979459031
-0.001790883236986233   -0.09309617423139609   -0.002724236263776428
-0.0020997155160021323   -0.09310908577423199   -0.002970994216286771
0.0012729896771142704   -0.08377967323418839   -0.0027817467618614345
0.0024551544044216947   -0.09267044466620841   -0.002667366979459031
-0.0020997155160021323   -0.09310908577423199   -0.002970994216286771
0.006642487436633682   -0.08339587828847313   -0.003040249833385249
0.0012729896771142704   -0.08377967323418839   -0.0027817467618614345
-0.001790883236986233   -0.09309617423139609   -0.002724236263776428
0.007016662414421012   -0.08337836391654757   -0.0027552717929736448
0.0014215992091393688   -0.08382063516865035   -0.002611801538039579
-0.001790883236986233   -0.09309617423139609   -0.002724236263776428
0.0024551544044216947   -0.09267044466620841   -0.002667366979459031
0.007016662414421012   -0.08337836391654757   -0.0027552717929736448
0.003029366353290238   -0.09269716834758887   -0.0023027613176203037
0.0014215992091393688   -0.08382063516865035   -0.002611801538039579
0.007404141870180586   -0.0834082968910285   -0.002495595936107807
0.003029366353290238   -0.09269716834758887   -0.0023027613176203037
0.007016662414421012   -0.08337836391654757   -0.0027552717929736448
0.0014215992091393688   -0.08382063516865035   -0.002611801538039579
0.003029366353290238   -0.09269716834758887   -0.0023027613176203037
-0.0015620632390249915   -0.09315606260918756   -0.0025001906855440467
-0.001790883236986233   -0.09309617423139609   -0.002724236263776428
0.0014215992091393688   -0.08382063516865035   -0.002611801538039579
0.003029366353290238   -0.09269716834758887   -0.0023027613176203037
-0.001790883236986233   -0.09309617423139609   -0.002724236263776428
0.007016662414421012   -0.08337836391654757   -0.0027552717929736448
-0.016190107825314458   -0.09243734439365128   -0.002787080914015878
-0.011864054594668714   -0.09766165523468626   -0.0024523619442741013
-0.01217141164382004   -0.09282739660734579   -0.00290412527991875
-0.01575196728463495   -0.09242631090023085   -0.003045306086839493
-0.011864054594668714   -0.09766165523468626   -0.0024523619442741013
-0.009996166096146706   -0.09815514762451372   -0.002749184146054734
-0.01217141164382004   -0.09282739660734579   -0.00290412527991875
-0.009739372447409902   -0.09805744129336073   -0.00285101401383908
-0.01575196728463495   -0.09242631090023085   -0.003045306086839493
-0.011968002797388964   -0.09280722265282972   -0.002999891733348199
-0.009739372447409902   -0.09805744129336073   -0.00285101401383908
-0.01217141164382004   -0.09282739660734579   -0.00290412527991875
-0.01575196728463495   -0.09242631090023085   -0.003045306086839493
-0.009739372447409902   -0.09805744129336073   -0.00285101401383908
-0.011317806460286845   -0.0975516051140661   -0.002762209684957904
-0.011864054594668714   -0.09766165523468626   -0.0024523619442741013
-0.01575196728463495   -0.09242631090023085   -0.003045306086839493
-0.009739372447409902   -0.09805744129336073   -0.00285101401383908
-0.011864054594668714   -0.09766165523468626   -0.0024523619442741013
-0.01217141164382004   -0.09282739660734579   -0.00290412527991875
-0.01575196728463495   -0.09242631090023085   -0.003045306086839493
-0.011317806460286845   -0.0975516051140661   -0.002762209684957904
-0.011968002797388964   -0.09280722265282972   -0.002999891733348199
-0.015348037815988985   -0.09249552031419016   -0.0033238661138886272
-0.011317806460286845   -0.0975516051140661   -0.002762209684957904
-0.009739372447409902   -0.09805744129336073   -0.00285101401383908
-0.011968002797388964   -0.09280722265282972   -0.002999891733348199
-0.009455057978238809   -0.09806201258209804   -0.0029538714372792487
-0.015348037815988985   -0.09249552031419016   -0.0033238661138886272
-0.01172881722017523   -0.09286321845070943   -0.003110099802705896
-0.009455057978238809   -0.09806201258209804   -0.0029538714372792487
-0.011968002797388964   -0.09280722265282972   -0.002999891733348199
-0.015348037815988985   -0.09249552031419016   -0.0033238661138886272
-0.009455057978238809   -0.09806201258209804   -0.0029538714372792487
-0.010846479111713577   -0.09756073122009071   -0.003070841426681378
-0.011317806460286845   -0.0975516051140661   -0.002762209684957904
-0.015348037815988985   -0.09249552031419016   -0.0033238661138886272
-0.009455057978238809   -0.09806201258209804   -0.0029538714372792487
-0.011317806460286845   -0.0975516051140661   -0.002762209684957904
-0.011968002797388964   -0.09280722265282972   -0.002999891733348199
-0.015348037815988985   -0.09249552031419016   -0.0033238661138886272
-0.010846479111713577   -0.09756073122009071   -0.003070841426681378
-0.01172881722017523   -0.09286321845070943   -0.003110099802705896
-0.014855418826751001   -0.09268053097613019   -0.003621556714694907
-0.010846479111713577   -0.09756073122009071   -0.003070841426681378
-0.009455057978238809   -0.09806201258209804   -0.0029538714372792487
-0.01172881722017523   -0.09286321845070943   -0.003110099802705896
-0.009190882532605384   -0.09816932444578158   -0.003058187682229669
-0.014855418826751001   -0.09268053097613019   -0.003621556714694907
-0.011511825941902748   -0.09299665147652389   -0.0032338246518904185
-0.009190882532605384   -0.09816932444578158   -0.003058187682229669
-0.01172881722017523   -0.09286321845070943   -0.003110099802705896
-0.014855418826751001   -0.09268053097613019   -0.003621556714694907
-0.009190882532605384   -0.09816932444578158   -0.003058187682229669
-0.01028749925001328   -0.09769584912527529   -0.0033861281910283997
-0.010846479111713577   -0.09756073122009071   -0.003070841426681378
-0.014855418826751001   -0.09268053097613019   -0.003621556714694907
-0.009190882532605384   -0.09816932444578158   -0.003058187682229669
-0.010846479111713577   -0.09756073122009071   -0.003070841426681378
-0.01172881722017523   -0.09286321845070943   -0.003110099802705896
-0.01217141164382004   -0.09282739660734579   -0.00290412527991875
-0.009996166096146706   -0.09815514762451372   -0.002749184146054734
-0.008889230640867858   -0.09308061303707797   -0.002995710253669866
-0.011968002797388964   -0.09280722265282972   -0.002999891733348199
-0.009996166096146706   -0.09815514762451372   -0.002749184146054734
-0.008629211159268619   -0.09865133089382709   -0.0030115796946440635
-0.008889230640867858   -0.09308061303707797   -0.002995710253669866
-0.00835818826011468   -0.09855112906452271   -0.0029399721406806155
-0.011968002797388964   -0.09280722265282972   -0.002999891733348199
-0.008680450306849738   -0.09304837882564707   -0.002966406114636605
-0.00835818826011468   -0.09855112906452271   -0.0029399721406806155
-0.008889230640867858   -0.09308061303707797   -0.002995710253669866
-0.011968002797388964   -0.09280722265282972   -0.002999891733348199
-0.00835818826011468   -0.09855112906452271   -0.0029399721406806155
-0.009739372447409902   -0.09805744129336073   -0.00285101401383908
-0.009996166096146706   -0.09815514762451372   -0.002749184146054734
-0.011968002797388964   -0.09280722265282972   -0.002999891733348199
-0.00835818826011468   -0.09855112906452271   -0.0029399721406806155
-0.009996166096146706   -0.09815514762451372   -0.002749184146054734
-0.008889230640867858   -0.09308061303707797   -0.002995710253669866
-0.011968002797388964   -0.09280722265282972   -0.002999891733348199
-0.009739372447409902   -0.09805744129336073   -0.00285101401383908
-0.008680450306849738   -0.09304837882564707   -0.002966406114636605
-0.01172881722017523   -0.09286321845070943   -0.003110099802705896
-0.009739372447409902   -0.09805744129336073   -0.00285101401383908
-0.00835818826011468   -0.09855112906452271   -0.0029399721406806155
-0.008680450306849738   -0.09304837882564707   -0.002966406114636605
-0.00809618968734518   -0.09854914079806468   -0.0028674679319567564
-0.01172881722017523   -0.09286321845070943   -0.003110099802705896
-0.008474638776525741   -0.0930818753702985   -0.0029511248845236274
-0.00809618968734518   -0.09854914079806468   -0.0028674679319567564
-0.008680450306849738   -0.09304837882564707   -0.002966406114636605
-0.01172881722017523   -0.09286321845070943   -0.003110099802705896
-0.00809618968734518   -0.09854914079806468   -0.0028674679319567564
-0.009455057978238809   -0.09806201258209804   -0.0029538714372792487
-0.009739372447409902   -0.09805744129336073   -0.00285101401383908
-0.01172881722017523   -0.09286321845070943   -0.003110099802705896
-0.00809618968734518   -0.09854914079806468   -0.0028674679319567564
-0.009739372447409902   -0.09805744129336073   -0.00285101401383908
-0.008680450306849738   -0.09304837882564707   -0.002966406114636605
-0.01172881722017523   -0.09286321845070943   -0.003110099802705896
-0.009455057978238809   -0.09806201258209804   -0.0029538714372792487
-0.008474638776525741   -0.0930818753702985   -0.0029511248845236274
-0.011511825941902748   -0.09299665147652389   -0.0032338246518904185
-0.009455057978238809   -0.09806201258209804   -0.0029538714372792487
-0.00809618968734518   -0.09854914079806468   -0.0028674679319567564
-0.008474638776525741   -0.0930818753702985   -0.0029511248845236274
-0.007823014465195033   -0.09864330409499696   -0.002797812008658998
-0.011511825941902748   -0.09299665147652389   -0.0032338246518904185
-0.008285302043855974   -0.09318330060206312   -0.0029528098662228693
-0.007823014465195033   -0.09864330409499696   -0.002797812008658998
-0.008474638776525741   -0.0930818753702985   -0.0029511248845236274
-0.011511825941902748   -0.09299665147652389   -0.0032338246518904185
-0.007823014465195033   -0.09864330409499696   -0.002797812008658998
-0.009190882532605384   -0.09816932444578158   -0.003058187682229669
-0.009455057978238809   -0.09806201258209804   -0.0029538714372792487
-0.011511825941902748   -0.09299665147652389   -0.0032338246518904185
-0.007823014465195033   -0.09864330409499696   -0.002797812008658998
-0.009455057978238809   -0.09806201258209804   -0.0029538714372792487
-0.008474638776525741   -0.0930818753702985   -0.0029511248845236274
-0.008889230640867858   -0.09308061303707797   -0.002995710253669866
-0.008629211159268619   -0.09865133089382709   -0.0030115796946440635
-0.005745716925321882   -0.09321427344380684   -0.0031037994684433856
-0.008680450306849738   -0.09304837882564707   -0.002966406114636605
-0.008629211159268619   -0.09865133089382709   -0.0030115796946440635
-0.0073812006242752895   -0.09925107163766225   -0.003300405265805743
-0.005745716925321882   -0.09321427344380684   -0.0031037994684433856
-0.007048898287095633   -0.09916421278507424   -0.003045612119371613
-0.008680450306849738   -0.09304837882564707   -0.002966406114636605
-0.005510348412429398   -0.09316784876927299   -0.002956569948938649
-0.007048898287095633   -0.09916421278507424   -0.003045612119371613
-0.005745716925321882   -0.09321427344380684   -0.0031037994684433856
-0.008680450306849738   -0.09304837882564707   -0.002966406114636605
-0.007048898287095633   -0.09916421278507424   -0.003045612119371613
-0.00835818826011468   -0.09855112906452271   -0.0029399721406806155
-0.008629211159268619   -0.09865133089382709   -0.0030115796946440635
-0.008680450306849738   -0.09304837882564707   -0.002966406114636605
-0.007048898287095633   -0.09916421278507424   -0.003045612119371613
-0.008629211159268619   -0.09865133089382709   -0.0030115796946440635
-0.005745716925321882   -0.09321427344380684   -0.0031037994684433856
-0.008680450306849738   -0.09304837882564707   -0.002966406114636605
-0.00835818826011468   -0.09855112906452271   -0.0029399721406806155
-0.005510348412429398   -0.09316784876927299   -0.002956569948938649
-0.008474638776525741   -0.0930818753702985   -0.0029511248845236274
-0.00835818826011468   -0.09855112906452271   -0.0029399721406806155
-0.007048898287095633   -0.09916421278507424   -0.003045612119371613
-0.005510348412429398   -0.09316784876927299   -0.002956569948938649
-0.0067410549220906675   -0.0991594523446145   -0.002791718368440361
-0.008474638776525741   -0.0930818753702985   -0.0029511248845236274
-0.005286011148789129   -0.09317918830632849   -0.0028217209233913146
-0.0067410549220906675   -0.0991594523446145   -0.002791718368440361
-0.005510348412429398   -0.09316784876927299   -0.002956569948938649
-0.008474638776525741   -0.0930818753702985   -0.0029511248845236274
-0.0067410549220906675   -0.0991594523446145   -0.002791718368440361
-0.00809618968734518   -0.09854914079806468   -0.0028674679319567564
-0.00835818826011468   -0.09855112906452271   -0.0029399721406806155
-0.008474638776525741   -0.0930818753702985   -0.0029511248845236274
-0.0067410549220906675   -0.0991594523446145   -0.002791718368440361
-0.00835818826011468   -0.09855112906452271   -0.0029399721406806155
-0.005510348412429398   -0.09316784876927299   -0.002956569948938649
-0.008474638776525741   -0.0930818753702985   -0.0029511248845236274
-0.00809618968734518   -0.09854914079806468   -0.0028674679319567564
-0.005286011148789129   -0.09317918830632849   -0.0028217209233913146
-0.008285302043855974   -0.09318330060206312   -0.0029528098662228693
-0.00809618968734518   -0.09854914079806468   -0.0028674679319567564
-0.0067410549220906675   -0.0991594523446145   -0.002791718368440361
-0.005286011148789129   -0.09317918830632849   -0.0028217209233913146
-0.006410468414819821   -0.09923232726953361   -0.0025371936820808637
-0.008285302043855974   -0.09318330060206312   -0.0029528098662228693
-0.005099488317516646   -0.0932596115450478   -0.0027070223274273074
-0.006410468414819821   -0.09923232726953361   -0.0025371936820808637
-0.005286011148789129   -0.09317918830632849   -0.0028217209233913146
-0.008285302043855974   -0.09318330060206312   -0.0029528098662228693
-0.006410468414819821   -0.09923232726953361   -0.0025371936820808637
-0.007823014465195033   -0.09864330409499696   -0.002797812008658998
-0.00809618968734518   -0.09854914079806468   -0.0028674679319567564
-0.008285302043855974   -0.09318330060206312   -0.0029528098662228693
-0.006410468414819821   -0.09923232726953361   -0.0025371936820808637
-0.00809618968734518   -0.09854914079806468   -0.0028674679319567564
-0.005286011148789129   -0.09317918830632849   -0.0028217209233913146
-0.005745716925321882   -0.09321427344380684   -0.0031037994684433856
-0.0073812006242752895   -0.09925107163766225   -0.003300405265805743
-0.0024019072428963055   -0.0931818435452917   -0.0032310053675098853
-0.005510348412429398   -0.09316784876927299   -0.002956569948938649
-0.0073812006242752895   -0.09925107163766225   -0.003300405265805743
-0.006152941450582133   -0.1   -0.0035217850809899955
-0.0024019072428963055   -0.0931818435452917   -0.0032310053675098853
-0.005735135306632284   -0.1   -0.0031352001257355343
-0.005510348412429398   -0.09316784876927299   -0.002956569948938649
-0.0020997155160021323   -0.09310908577423199   -0.002970994216286771
-0.005735135306632284   -0.1   -0.0031352001257355343
-0.0024019072428963055   -0.0931818435452917   -0.0032310053675098853
-0.005510348412429398   -0.09316784876927299   -0.002956569948938649
-0.005735135306632284   -0.1   -0.0031352001257355343
-0.007048898287095633   -0.09916421278507424   -0.003045612119371613
-0.0073812006242752895   -0.09925107163766225   -0.003300405265805743
-0.005510348412429398   -0.09316784876927299   -0.002956569948938649
-0.005735135306632284   -0.1   -0.0031352001257355343
-0.0073812006242752895   -0.09925107163766225   -0.003300405265805743
-0.0024019072428963055   -0.0931818435452917   -0.0032310053675098853
-0.005510348412429398   -0.09316784876927299   -0.002956569948938649
-0.007048898287095633   -0.09916421278507424   -0.003045612119371613
-0.0020997155160021323   -0.09310908577423199   -0.002970994216286771
-0.005286011148789129   -0.09317918830632849   -0.0028217209233913146
-0.007048898287095633   -0.09916421278507424   -0.003045612119371613
-0.005735135306632284   -0.1   -0.0031352001257355343
-0.0020997155160021323   -0.09310908577423199   -0.002970994216286771
-0.005315459444772753   -0.1   -0.0027440266409376824
-0.005286011148789129   -0.09317918830632849   -0.0028217209233913146
-0.001790883236986233   -0.09309617423139609   -0.002724236263776428
-0.005315459444772753   -0.1   -0.0027440266409376824
-0.0020997155160021323   -0.09310908577423199   -0.002970994216286771
-0.005286011148789129   -0.09317918830632849   -0.0028217209233913146
-0.005315459444772753   -0.1   -0.0027440266409376824
-0.0067410549220906675   -0.0991594523446145   -0.002791718368440361
-0.007048898287095633   -0.09916421278507424   -0.003045612119371613
-0.005286011148789129   -0.09317918830632849   -0.0028217209233913146
-0.005315459444772753   -0.1   -0.0027440266409376824
-0.007048898287095633   -0.09916421278507424   -0.003045612119371613
-0.0020997155160021323   -0.09310908577423199   -0.002970994216286771
-0.005286011148789129   -0.09317918830632849   -0.0028217209233913146
-0.0067410549220906675   -0.0991594523446145   -0.002791718368440361
-0.001790883236986233   -0.09309617423139609   -0.002724236263776428
-0.005099488317516646   -0.0932596115450478   -0.0027070223274273074
-0.0067410549220906675   -0.0991594523446145   -0.002791718368440361
-0.005315459444772753   -0.1   -0.0027440266409376824
-0.001790883236986233   -0.09309617423139609   -0.002724236263776428
-0.00490507066400764   -0.1   -0.002358014632975686
-0.005099488317516646   -0.0932596115450478   -0.0027070223274273074
-0.0015620632390249915   -0.09315606260918756   -0.0025001906855440467
-0.00490507066400764   -0.1   -0.002358014632975686
-0.001790883236986233   -0.09309617423139609   -0.002724236263776428
-0.005099488317516646   -0.0932596115450478   -0.0027070223274273074
-0.00490507066400764   -0.1   -0.002358014632975686
-0.006410468414819821   -0.09923232726953361   -0.0025371936820808637
-0.0067410549220906675   -0.0991594523446145   -0.002791718368440361
-0.005099488317516646   -0.0932596115450478   -0.0027070223274273074
-0.00490507066400764   -0.1   -0.002358014632975686
-0.0067410549220906675   -0.0991594523446145   -0.002791718368440361
-0.001790883236986233   -0.09309617423139609   -0.002724236263776428
-0.0024019072428963055   -0.0931818435452917   -0.0032310053675098853
-0.006152941450582133   -0.1   -0.0035217850809899955
0.00119904039787171   -0.09286105525001499   -0.0034920942752654327
-0.0020997155160021323   -0.09310908577423199   -0.002970994216286771
-0.006152941450582133   -0.1   -0.0035217850809899955
-0.005263253417689647   -0.1   -0.0037899016957279544
0.00119904039787171   -0.09286105525001499   -0.0034920942752654327
-0.004390626558328187   -0.1   -0.0032308427643945193
-0.0020997155160021323   -0.09310908577423199   -0.002970994216286771
0.001902371064223715   -0.09270259841844779   -0.0030667022907620296
-0.004390626558328187   -0.1   -0.0032308427643945193
0.00119904039787171   -0.09286105525001499   -0.0034920942752654327
-0.0020997155160021323   -0.09310908577423199   -0.002970994216286771
-0.004390626558328187   -0.1   -0.0032308427643945193
-0.005735135306632284   -0.1   -0.0031352001257355343
-0.006152941450582133   -0.1   -0.0035217850809899955
-0.0020997155160021323   -0.09310908577423199   -0.002970994216286771
-0.004390626558328187   -0.1   -0.0032308427643945193
-0.006152941450582133   -0.1   -0.0035217850809899955
0.00119904039787171   -0.09286105525001499   -0.0034920942752654327
-0.0020997155160021323   -0.09310908577423199   -0.002970994216286771
-0.005735135306632284   -0.1   -0.0031352001257355343
0.001902371064223715   -0.09270259841844779   -0.0030667022907620296
-0.001790883236986233   -0.09309617423139609   -0.002724236263776428
-0.005735135306632284   -0.1   -0.0031352001257355343
-0.004390626558328187   -0.1   -0.0032308427643945193
0.001902371064223715   -0.09270259841844779   -0.0030667022907620296
-0.0036947099341390443   -0.1   -0.002696020989837373
-0.001790883236986233   -0.09309617423139609   -0.002724236263776428
0.0024551544044216947   -0.09267044466620841   -0.002667366979459031
-0.0036947099341390443   -0.1   -0.002696020989837373
0.001902371064223715   -0.09270259841844779   -0.0030667022907620296
-0.001790883236986233   -0.09309617423139609   -0.002724236263776428
-0.0036947099341390443   -0.1   -0.002696020989837373
-0.005315459444772753   -0.1   -0.0027440266409376824
-0.005735135306632284   -0.1   -0.0031352001257355343
-0.001790883236986233   -0.09309617423139609   -0.002724236263776428
-0.0036947099341390443   -0.1   -0.002696020989837373
-0.005735135306632284   -0.1   -0.0031352001257355343
0.001902371064223715   -0.09270259841844779   -0.0030667022907620296
-0.001790883236986233   -0.09309617423139609   -0.002724236263776428
-0.005315459444772753   -0.1   -0.0027440266409376824
0.0024551544044216947   -0.09267044466620841   -0.002667366979459031
-0.0015620632390249915   -0.09315606260918756   -0.0025001906855440467
-0.005315459444772753   -0.1   -0.0027440266409376824
-0.0036947099341390443   -0.1   -0.002696020989837373
0.0024551544044216947   -0.09267044466620841   -0.002667366979459031
-0.002835002528099697   -0.1   -0.0021408264538171923
-0.0015620632390249915   -0.09315606260918756   -0.0025001906855440467
0.003029366353290238   -0.09269716834758887   -0.0023027613176203037
-0.002835002528099697   -0.1   -0.0021408264538171923
0.0024551544044216947   -0.09267044466620841   -0.002667366979459031
-0.0015620632390249915   -0.09315606260918756   -0.0025001906855440467
-0.002835002528099697   -0.1   -0.0021408264538171923
-0.00490507066400764   -0.1   -0.002358014632975686
-0.005315459444772753   -0.1   -0.0027440266409376824
-0.0015620632390249915   -0.09315606260918756   -0.0025001906855440467
-0.002835002528099697   -0.1   -0.0021408264538171923
-0.005315459444772753   -0.1   -0.0027440266409376824
0.0024551544044216947   -0.09267044466620841   -0.002667366979459031
-0.011864054594668714   -0.09766165523468626   -0.0024523619442741013
-0.007077913418855505   -0.09791667929618791   -0.0020988234396003775
-0.009996166096146706   -0.09815514762451372   -0.002749184146054734
-0.011317806460286845   -0.0975516051140661   -0.002762209684957904
-0.007077913418855505   -0.09791667929618791   -0.0020988234396003775
-0.007512160621322358   -0.09829659047059222   -0.0024809798642898865
-0.009996166096146706   -0.09815514762451372   -0.002749184146054734
-0.007318020083041817   -0.09816320430582025   -0.0026200482157946216
-0.011317806460286845   -0.0975516051140661   -0.002762209684957904
-0.009739372447409902   -0.09805744129336073   -0.00285101401383908
-0.007318020083041817   -0.09816320430582025   -0.0026200482157946216
-0.009996166096146706   -0.09815514762451372   -0.002749184146054734
-0.011317806460286845   -0.0975516051140661   -0.002762209684957904
-0.007318020083041817   -0.09816320430582025   -0.0026200482157946216
-0.0065830784867413495   -0.09774543792917295   -0.0024243434305986173
-0.007077913418855505   -0.09791667929618791   -0.0020988234396003775
-0.011317806460286845   -0.0975516051140661   -0.002762209684957904
-0.007318020083041817   -0.09816320430582025   -0.0026200482157946216
-0.007077913418855505   -0.09791667929618791   -0.0020988234396003775
-0.009996166096146706   -0.09815514762451372   -0.002749184146054734
-0.011317806460286845   -0.0975516051140661   -0.002762209684957904
-0.0065830784867413495   -0.09774543792917295   -0.0024243434305986173
-0.009739372447409902   -0.09805744129336073   -0.00285101401383908
-0.010846479111713577   -0.09756073122009071   -0.003070841426681378
-0.0065830784867413495   -0.09774543792917295   -0.0024243434305986173
-0.007318020083041817   -0.09816320430582025   -0.0026200482157946216
-0.009739372447409902   -0.09805744129336073   -0.00285101401383908
-0.007090368122631078   -0.09811370203689428   -0.0027483091995144674
-0.010846479111713577   -0.09756073122009071   -0.003070841426681378
-0.009455057978238809   -0.09806201258209804   -0.0029538714372792487
-0.007090368122631078   -0.09811370203689428   -0.0027483091995144674
-0.009739372447409902   -0.09805744129336073   -0.00285101401383908
-0.010846479111713577   -0.09756073122009071   -0.003070841426681378
-0.007090368122631078   -0.09811370203689428   -0.0027483091995144674
-0.006171154308592041   -0.09769242563551943   -0.002736449722112526
-0.0065830784867413495   -0.09774543792917295   -0.0024243434305986173
-0.010846479111713577   -0.09756073122009071   -0.003070841426681378
-0.007090368122631078   -0.09811370203689428   -0.0027483091995144674
-0.0065830784867413495   -0.09774543792917295   -0.0024243434305986173
-0.009739372447409902   -0.09805744129336073   -0.00285101401383908
-0.010846479111713577   -0.09756073122009071   -0.003070841426681378
-0.006171154308592041   -0.09769242563551943   -0.002736449722112526
-0.009455057978238809   -0.09806201258209804   -0.0029538714372792487
-0.01028749925001328   -0.09769584912527529   -0.0033861281910283997
-0.006171154308592041   -0.09769242563551943   -0.002736449722112526
-0.007090368122631078   -0.09811370203689428   -0.0027483091995144674
-0.009455057978238809   -0.09806201258209804   -0.0029538714372792487
-0.006895314357908101   -0.09814878727001075   -0.002865087265385453
-0.01028749925001328   -0.09769584912527529   -0.0033861281910283997
-0.009190882532605384   -0.09816932444578158   -0.003058187682229669
-0.006895314357908101   -0.09814878727001075   -0.002865087265385453
-0.009455057978238809   -0.09806201258209804   -0.0029538714372792487
-0.01028749925001328   -0.09769584912527529   -0.0033861281910283997
-0.006895314357908101   -0.09814878727001075   -0.002865087265385453
-0.005705243428105843   -0.09773621031133937   -0.0030337458627621833
-0.006171154308592041   -0.09769242563551943   -0.002736449722112526
-0.01028749925001328   -0.09769584912527529   -0.0033861281910283997
-0.006895314357908101   -0.09814878727001075   -0.002865087265385453
-0.006171154308592041   -0.09769242563551943   -0.002736449722112526
-0.009455057978238809   -0.09806201258209804   -0.0029538714372792487
-0.009996166096146706   -0.09815514762451372   -0.002749184146054734
-0.007512160621322358   -0.09829659047059222   -0.0024809798642898865
-0.008629211159268619   -0.09865133089382709   -0.0030115796946440635
-0.009739372447409902   -0.09805744129336073   -0.00285101401383908
-0.007512160621322358   -0.09829659047059222   -0.0024809798642898865
-0.008097873422648822   -0.09853191452942892   -0.002786600993011739
-0.008629211159268619   -0.09865133089382709   -0.0030115796946440635
-0.00792601117007441   -0.09841282748357635   -0.0027903063637835556
-0.009739372447409902   -0.09805744129336073   -0.00285101401383908
-0.00835818826011468   -0.09855112906452271   -0.0029399721406806155
-0.00792601117007441   -0.09841282748357635   -0.0027903063637835556
-0.008629211159268619   -0.09865133089382709   -0.0030115796946440635
-0.009739372447409902   -0.09805744129336073   -0.00285101401383908
-0.00792601117007441   -0.09841282748357635   -0.0027903063637835556
-0.007318020083041817   -0.09816320430582025   -0.0026200482157946216
-0.007512160621322358   -0.09829659047059222   -0.0024809798642898865
-0.009739372447409902   -0.09805744129336073   -0.00285101401383908
-0.00792601117007441   -0.09841282748357635   -0.0027903063637835556
-0.007512160621322358   -0.09829659047059222   -0.0024809798642898865
-0.008629211159268619   -0.09865133089382709   -0.0030115796946440635
-0.009739372447409902   -0.09805744129336073   -0.00285101401383908
-0.007318020083041817   -0.09816320430582025   -0.0026200482157946216
-0.00835818826011468   -0.09855112906452271   -0.0029399721406806155
-0.009455057978238809   -0.09806201258209804   -0.0029538714372792487
-0.007318020083041817   -0.09816320430582025   -0.0026200482157946216
-0.00792601117007441   -0.09841282748357635   -0.0027903063637835556
-0.00835818826011468   -0.09855112906452271   -0.0029399721406806155
-0.007734700701021212   -0.0983697184745538   -0.0027799996482545586
-0.009455057978238809   -0.09806201258209804   -0.0029538714372792487
-0.00809618968734518   -0.09854914079806468   -0.0028674679319567564
-0.007734700701021212   -0.0983697184745538   -0.0027799996482545586
-0.00835818826011468   -0.09855112906452271   -0.0029399721406806155
-0.009455057978238809   -0.09806201258209804   -0.0029538714372792487
-0.007734700701021212   -0.0983697184745538   -0.0027799996482545586
-0.007090368122631078   -0.09811370203689428   -0.0027483091995144674
-0.007318020083041817   -0.09816320430582025   -0.0026200482157946216
-0.009455057978238809   -0.09806201258209804   -0.0029538714372792487
-0.007734700701021212   -0.0983697184745538   -0.0027799996482545586
-0.007318020083041817   -0.09816320430582025   -0.0026200482157946216
-0.00835818826011468   -0.09855112906452271   -0.0029399721406806155
-0.009455057978238809   -0.09806201258209804   -0.0029538714372792487
-0.007090368122631078   -0.09811370203689428   -0.0027483091995144674
-0.00809618968734518   -0.09854914079806468   -0.0028674679319567564
-0.009190882532605384   -0.09816932444578158   -0.003058187682229669
-0.007090368122631078   -0.09811370203689428   -0.0027483091995144674
-0.007734700701021212   -0.0983697184745538   -0.0027799996482545586
-0.00809618968734518   -0.09854914079806468   -0.0028674679319567564
-0.007540169252931358   -0.09839909304456308   -0.0027586988252824175
-0.009190882532605384   -0.09816932444578158   -0.003058187682229669
-0.007823014465195033   -0.09864330409499696   -0.002797812008658998
-0.007540169252931358   -0.09839909304456308   -0.0027586988252824175
-0.00809618968734518   -0.09854914079806468   -0.0028674679319567564
-0.009190882532605384   -0.09816932444578158   -0.003058187682229669
-0.007540169252931358   -0.09839909304456308   -0.0027586988252824175
-0.006895314357908101   -0.09814878727001075   -0.002865087265385453
-0.007090368122631078   -0.09811370203689428   -0.0027483091995144674
-0.009190882532605384   -0.09816932444578158   -0.003058187682229669
-0.007540169252931358   -0.09839909304456308   -0.0027586988252824175
-0.007090368122631078   -0.09811370203689428   -0.0027483091995144674
-0.00809618968734518   -0.09854914079806468   -0.0028674679319567564
-0.008629211159268619   -0.09865133089382709   -0.0030115796946440635
-0.008097873422648822   -0.09853191452942892   -0.002786600993011739
-0.0073812006242752895   -0.09925107163766225   -0.003300405265805743
-0.00835818826011468   -0.09855112906452271   -0.0029399721406806155
-0.008097873422648822   -0.09853191452942892   -0.002786600993011739
-0.008725486789540058   -0.09863151148539182   -0.0030873306983709168
-0.0073812006242752895   -0.09925107163766225   -0.003300405265805743
-0.0085474587521902   -0.09851801685253642   -0.0029608820530224126
-0.00835818826011468   -0.09855112906452271   -0.0029399721406806155
-0.007048898287095633   -0.09916421278507424   -0.003045612119371613
-0.0085474587521902   -0.09851801685253642   -0.0029608820530224126
-0.0073812006242752895   -0.09925107163766225   -0.003300405265805743
-0.00835818826011468   -0.09855112906452271   -0.0029399721406806155
-0.0085474587521902   -0.09851801685253642   -0.0029608820530224126
-0.00792601117007441   -0.09841282748357635   -0.0027903063637835556
-0.008097873422648822   -0.09853191452942892   -0.002786600993011739
-0.00835818826011468   -0.09855112906452271   -0.0029399721406806155
-0.0085474587521902   -0.09851801685253642   -0.0029608820530224126
-0.008097873422648822   -0.09853191452942892   -0.002786600993011739
-0.0073812006242752895   -0.09925107163766225   -0.003300405265805743
-0.00835818826011468   -0.09855112906452271   -0.0029399721406806155
-0.00792601117007441   -0.09841282748357635   -0.0027903063637835556
-0.007048898287095633   -0.09916421278507424   -0.003045612119371613
-0.00809618968734518   -0.09854914079806468   -0.0028674679319567564
-0.00792601117007441   -0.09841282748357635   -0.0027903063637835556
-0.0085474587521902   -0.09851801685253642   -0.0029608820530224126
-0.007048898287095633   -0.09916421278507424   -0.003045612119371613
-0.008333868591791598   -0.09848174808838962   -0.0028173697210239386
-0.00809618968734518   -0.09854914079806468   -0.0028674679319567564
-0.0067410549220906675   -0.0991594523446145   -0.002791718368440361
-0.008333868591791598   -0.09848174808838962   -0.0028173697210239386
-0.007048898287095633   -0.09916421278507424   -0.003045612119371613
-0.00809618968734518   -0.09854914079806468   -0.0028674679319567564
-0.008333868591791598   -0.09848174808838962   -0.0028173697210239386
-0.007734700701021212   -0.0983697184745538   -0.0027799996482545586
-0.00792601117007441   -0.09841282748357635   -0.0027903063637835556
-0.00809618968734518   -0.09854914079806468   -0.0028674679319567564
-0.008333868591791598   -0.09848174808838962   -0.0028173697210239386
-0.00792601117007441   -0.09841282748357635   -0.0027903063637835556
-0.007048898287095633   -0.09916421278507424   -0.003045612119371613
-0.00809618968734518   -0.09854914079806468   -0.0028674679319567564
-0.007734700701021212   -0.0983697184745538   -0.0027799996482545586
-0.0067410549220906675   -0.0991594523446145   -0.002791718368440361
-0.007823014465195033   -0.09864330409499696   -0.002797812008658998
-0.007734700701021212   -0.0983697184745538   -0.0027799996482545586
-0.008333868591791598   -0.09848174808838962   -0.0028173697210239386
-0.0067410549220906675   -0.0991594523446145   -0.002791718368440361
-0.008114184854988753   -0.09851051222098435   -0.0026644812053107413
-0.007823014465195033   -0.09864330409499696   -0.002797812008658998
-0.006410468414819821   -0.09923232726953361   -0.0025371936820808637
-0.008114184854988753   -0.09851051222098435   -0.0026644812053107413
-0.0067410549220906675   -0.0991594523446145   -0.002791718368440361
-0.007823014465195033   -0.09864330409499696   -0.002797812008658998
-0.008114184854988753   -0.09851051222098435   -0.0026644812053107413
-0.007540169252931358   -0.09839909304456308   -0.0027586988252824175
-0.007734700701021212   -0.0983697184745538   -0.0027799996482545586
-0.007823014465195033   -0.09864330409499696   -0.002797812008658998
-0.008114184854988753   -0.09851051222098435   -0.0026644812053107413
-0.007734700701021212   -0.0983697184745538   -0.0027799996482545586
-0.0067410549220906675   -0.0991594523446145   -0.002791718368440361
-0.0073812006242752895   -0.09925107163766225   -0.003300405265805743
-0.008725486789540058   -0.09863151148539182   -0.0030873306983709168
-0.006152941450582133   -0.1   -0.0035217850809899955
-0.007048898287095633   -0.09916421278507424   -0.003045612119371613
-0.008725486789540058   -0.09863151148539182   -0.0030873306983709168
-0.009634257798730221   -0.09852624403985961   -0.0033728637586449713
-0.006152941450582133   -0.1   -0.0035217850809899955
-0.009401691761894683   -0.09841920127021   -0.003122541508889595
-0.007048898287095633   -0.09916421278507424   -0.003045612119371613
-0.005735135306632284   -0.1   -0.0031352001257355343
-0.009401691761894683   -0.09841920127021   -0.003122541508889595
-0.006152941450582133   -0.1   -0.0035217850809899955
-0.007048898287095633   -0.09916421278507424   -0.003045612119371613
-0.009401691761894683   -0.09841920127021   -0.003122541508889595
-0.0085474587521902   -0.09851801685253642   -0.0029608820530224126
-0.008725486789540058   -0.09863151148539182   -0.0030873306983709168
-0.007048898287095633   -0.09916421278507424   -0.003045612119371613
-0.009401691761894683   -0.09841920127021   -0.003122541508889595
-0.008725486789540058   -0.09863151148539182   -0.0030873306983709168
-0.006152941450582133   -0.1   -0.0035217850809899955
-0.007048898287095633   -0.09916421278507424   -0.003045612119371613
-0.0085474587521902   -0.09851801685253642   -0.0029608820530224126
-0.005735135306632284   -0.1   -0.0031352001257355343
-0.0067410549220906675   -0.0991594523446145   -0.002791718368440361
-0.0085474587521902   -0.09851801685253642   -0.0029608820530224126
-0.009401691761894683   -0.09841920127021   -0.003122541508889595
-0.005735135306632284   -0.1   -0.0031352001257355343
-0.00909495143555158   -0.09839470974126725   -0.0028532364973884294
-0.0067410549220906675   -0.0991594523446145   -0.002791718368440361
-0.005315459444772753   -0.1   -0.0027440266409376824
-0.00909495143555158   -0.09839470974126725   -0.0028532364973884294
-0.005735135306632284   -0.1   -0.0031352001257355343
-0.0067410549220906675   -0.0991594523446145   -0.002791718368440361
-0.00909495143555158   -0.09839470974126725   -0.0028532364973884294
-0.008333868591791598   -0.09848174808838962   -0.0028173697210239386
-0.0085474587521902   -0.09851801685253642   -0.0029608820530224126
-0.0067410549220906675   -0.0991594523446145   -0.002791718368440361
-0.00909495143555158   -0.09839470974126725   -0.0028532364973884294
-0.0085474587521902   -0.09851801685253642   -0.0029608820530224126
-0.005735135306632284   -0.1   -0.0031352001257355343
-0.0067410549220906675   -0.0991594523446145   -0.002791718368440361
-0.008333868591791598   -0.09848174808838962   -0.0028173697210239386
-0.005315459444772753   -0.1   -0.0027440266409376824
-0.006410468414819821   -0.09923232726953361   -0.0025371936820808637
-0.008333868591791598   -0.09848174808838962   -0.0028173697210239386
-0.00909495143555158   -0.09839470974126725   -0.0028532364973884294
-0.005315459444772753   -0.1   -0.0027440266409376824
-0.008806211367015038   -0.09843679327209347   -0.0025734917029766958
-0.006410468414819821   -0.09923232726953361   -0.0025371936820808637
-0.00490507066400764   -0.1   -0.002358014632975686
-0.008806211367015038   -0.09843679327209347   -0.0025734917029766958
-0.005315459444772753   -0.1   -0.0027440266409376824
-0.006410468414819821   -0.09923232726953361   -0.0025371936820808637
-0.008806211367015038   -0.09843679327209347   -0.0025734917029766958
-0.008114184854988753   -0.09851051222098435   -0.0026644812053107413
-0.008333868591791598   -0.09848174808838962   -0.0028173697210239386
-0.006410468414819821   -0.09923232726953361   -0.0025371936820808637
-0.008806211367015038   -0.09843679327209347   -0.0025734917029766958
-0.008333868591791598   -0.09848174808838962   -0.0028173697210239386
-0.005315459444772753   -0.1   -0.0027440266409376824
-0.006152941450582133   -0.1   -0.0035217850809899955
-0.009634257798730221   -0.09852624403985961   -0.0033728637586449713
-0.005263253417689647   -0.1   -0.0037899016957279544
-0.005735135306632284   -0.1   -0.0031352001257355343
-0.009634257798730221   -0.09852624403985961   -0.0033728637586449713
-0.011398168059914195   -0.09804384312905634   -0.003675264335125817
-0.005263253417689647   -0.1   -0.0037899016957279544
-0.010781288631802489   -0.09795380723450771   -0.003264549877302687
-0.005735135306632284   -0.1   -0.0031352001257355343
-0.004390626558328187   -0.1   -0.0032308427643945193
-0.010781288631802489   -0.09795380723450771   -0.003264549877302687
-0.005263253417689647   -0.1   -0.0037899016957279544
-0.005735135306632284   -0.1   -0.0031352001257355343
-0.010781288631802489   -0.09795380723450771   -0.003264549877302687
-0.009401691761894683   -0.09841920127021   -0.003122541508889595
-0.009634257798730221   -0.09852624403985961   -0.0033728637586449713
-0.005735135306632284   -0.1   -0.0031352001257355343
-0.010781288631802489   -0.09795380723450771   -0.003264549877302687
-0.009634257798730221   -0.09852624403985961   -0.0033728637586449713
-0.005263253417689647   -0.1   -0.0037899016957279544
-0.005735135306632284   -0.1   -0.0031352001257355343
-0.009401691761894683   -0.09841920127021   -0.003122541508889595
-0.004390626558328187   -0.1   -0.0032308427643945193
-0.005315459444772753   -0.1   -0.0027440266409376824
-0.009401691761894683   -0.09841920127021   -0.003122541508889595
-0.010781288631802489   -0.09795380723450771   -0.003264549877302687
-0.004390626558328187   -0.1   -0.0032308427643945193
-0.01021420924877193   -0.09794132496481348   -0.0028260270162649946
-0.005315459444772753   -0.1   -0.0027440266409376824
-0.0036947099341390443   -0.1   -0.002696020989837373
-0.01021420924877193   -0.09794132496481348   -0.0028260270162649946
-0.004390626558328187   -0.1   -0.0032308427643945193
-0.005315459444772753   -0.1   -0.0027440266409376824
-0.01021420924877193   -0.09794132496481348   -0.0028260270162649946
-0.00909495143555158   -0.09839470974126725   -0.0028532364973884294
-0.009401691761894683   -0.09841920127021   -0.003122541508889595
-0.005315459444772753   -0.1   -0.0027440266409376824
-0.01021420924877193   -0.09794132496481348   -0.0028260270162649946
-0.009401691761894683   -0.09841920127021   -0.003122541508889595
-0.004390626558328187   -0.1   -0.0032308427643945193
-0.005315459444772753   -0.1   -0.0027440266409376824
-0.00909495143555158   -0.09839470974126725   -0.0028532364973884294
-0.0036947099341390443   -0.1   -0.002696020989837373
-0.00490507066400764   -0.1   -0.002358014632975686
-0.00909495143555158   -0.09839470974126725   -0.0028532364973884294
-0.01021420924877193   -0.09794132496481348   -0.0028260270162649946
-0.0036947099341390443   -0.1   -0.002696020989837373
-0.009498102817817747   -0.09805953786087236   -0.0023672855432560727
-0.00490507066400764   -0.1   -0.002358014632975686
-0.002835002528099697   -0.1   -0.0021408264538171923
-0.009498102817817747   -0.09805953786087236   -0.0023672855432560727
-0.0036947099341390443   -0.1   -0.002696020989837373
-0.00490507066400764   -0.1   -0.002358014632975686
-0.009498102817817747   -0.09805953786087236   -0.0023672855432560727
-0.008806211367015038   -0.09843679327209347   -0.0025734917029766958
-0.00909495143555158   -0.09839470974126725   -0.0028532364973884294
-0.00490507066400764   -0.1   -0.002358014632975686
-0.009498102817817747   -0.09805953786087236   -0.0023672855432560727
-0.00909495143555158   -0.09839470974126725   -0.0028532364973884294
-0.0036947099341390443   -0.1   -0.002696020989837373
-0.007077913418855505   -0.09791667929618791   -0.0020988234396003775
-0.0028708924129762915   -0.09420380920993124   -0.001814031965483669
-0.007512160621322358   -0.09829659047059222   -0.0024809798642898865
-0.0065830784867413495   -0.09774543792917295   -0.0024243434305986173
-0.0028708924129762915   -0.09420380920993124   -0.001814031965483669
-0.00538387041979903   -0.09449004055241493   -0.0022198545487425135
-0.007512160621322358   -0.09829659047059222   -0.0024809798642898865
-0.005246049526401909   -0.09432866234869121   -0.0023437631028825553
-0.0065830784867413495   -0.09774543792917295   -0.0024243434305986173
-0.007318020083041817   -0.09816320430582025   -0.0026200482157946216
-0.005246049526401909   -0.09432866234869121   -0.0023437631028825553
-0.007512160621322358   -0.09829659047059222   -0.0024809798642898865
-0.0065830784867413495   -0.09774543792917295   -0.0024243434305986173
-0.005246049526401909   -0.09432866234869121   -0.0023437631028825553
-0.0024766759631075475   -0.0940041722726315   -0.0020951415383890543
-0.0028708924129762915   -0.09420380920993124   -0.001814031965483669
-0.0065830784867413495   -0.09774543792917295   -0.0024243434305986173
-0.005246049526401909   -0.09432866234869121   -0.0023437631028825553
-0.0028708924129762915   -0.09420380920993124   -0.001814031965483669
-0.007512160621322358   -0.09829659047059222   -0.0024809798642898865
-0.0065830784867413495   -0.09774543792917295   -0.0024243434305986173
-0.0024766759631075475   -0.0940041722726315   -0.0020951415383890543
-0.007318020083041817   -0.09816320430582025   -0.0026200482157946216
-0.006171154308592041   -0.09769242563551943   -0.002736449722112526
-0.0024766759631075475   -0.0940041722726315   -0.0020951415383890543
-0.005246049526401909   -0.09432866234869121   -0.0023437631028825553
-0.007318020083041817   -0.09816320430582025   -0.0026200482157946216
-0.005090971859788577   -0.09423895539756501   -0.002456456579437398
-0.006171154308592041   -0.09769242563551943   -0.002736449722112526
-0.007090368122631078   -0.09811370203689428   -0.0027483091995144674
-0.005090971859788577   -0.09423895539756501   -0.002456456579437398
-0.007318020083041817   -0.09816320430582025   -0.0026200482157946216
-0.006171154308592041   -0.09769242563551943   -0.002736449722112526
-0.005090971859788577   -0.09423895539756501   -0.002456456579437398
-0.0021664823679421966   -0.09390875894673655   -0.0023596247254290045
-0.0024766759631075475   -0.0940041722726315   -0.0020951415383890543
-0.006171154308592041   -0.09769242563551943   -0.002736449722112526
-0.005090971859788577   -0.09423895539756501   -0.002456456579437398
-0.0024766759631075475   -0.0940041722726315   -0.0020951415383890543
-0.007318020083041817   -0.09816320430582025   -0.0026200482157946216
-0.006171154308592041   -0.09769242563551943   -0.002736449722112526
-0.0021664823679421966   -0.09390875894673655   -0.0023596247254290045
-0.007090368122631078   -0.09811370203689428   -0.0027483091995144674
-0.005705243428105843   -0.09773621031133937   -0.0030337458627621833
-0.0021664823679421966   -0.09390875894673655   -0.0023596247254290045
-0.005090971859788577   -0.09423895539756501   -0.002456456579437398
-0.007090368122631078   -0.09811370203689428   -0.0027483091995144674
-0.004972049706078727   -0.09421841734335136   -0.0025582904737912675
-0.005705243428105843   -0.09773621031133937   -0.0030337458627621833
-0.006895314357908101   -0.09814878727001075   -0.002865087265385453
-0.004972049706078727   -0.09421841734335136   -0.0025582904737912675
-0.007090368122631078   -0.09811370203689428   -0.0027483091995144674
-0.005705243428105843   -0.09773621031133937   -0.0030337458627621833
-0.004972049706078727   -0.09421841734335136   -0.0025582904737912675
-0.0018279066895871966   -0.09389022240718928   -0.0026067751315365087
-0.0021664823679421966   -0.09390875894673655   -0.0023596247254290045
-0.005705243428105843   -0.09773621031133937   -0.0030337458627621833
-0.004972049706078727   -0.09421841734335136   -0.0025582904737912675
-0.0021664823679421966   -0.09390875894673655   -0.0023596247254290045
-0.007090368122631078   -0.09811370203689428   -0.0027483091995144674
-0.007512160621322358   -0.09829659047059222   -0.0024809798642898865
-0.00538387041979903   -0.09449004055241493   -0.0022198545487425135
-0.008097873422648822   -0.09853191452942892   -0.002786600993011739
-0.007318020083041817   -0.09816320430582025   -0.0026200482157946216
-0.00538387041979903   -0.09449004055241493   -0.0022198545487425135
-0.007863201693642453   -0.09459113923842784   -0.0025509995089232295
-0.008097873422648822   -0.09853191452942892   -0.002786600993011739
-0.007747270891140733   -0.09445033884042447   -0.0025578964251265247
-0.007318020083041817   -0.09816320430582025   -0.0026200482157946216
-0.00792601117007441   -0.09841282748357635   -0.0027903063637835556
-0.007747270891140733   -0.09445033884042447   -0.0025578964251265247
-0.008097873422648822   -0.09853191452942892   -0.002786600993011739
-0.007318020083041817   -0.09816320430582025   -0.0026200482157946216
-0.007747270891140733   -0.09445033884042447   -0.0025578964251265247
-0.005246049526401909   -0.09432866234869121   -0.0023437631028825553
-0.00538387041979903   -0.09449004055241493   -0.0022198545487425135
-0.007318020083041817   -0.09816320430582025   -0.0026200482157946216
-0.007747270891140733   -0.09445033884042447   -0.0025578964251265247
-0.00538387041979903   -0.09449004055241493   -0.0022198545487425135
-0.008097873422648822   -0.09853191452942892   -0.002786600993011739
-0.007318020083041817   -0.09816320430582025   -0.0026200482157946216
-0.005246049526401909   -0.09432866234869121   -0.0023437631028825553
-0.00792601117007441   -0.09841282748357635   -0.0027903063637835556
-0.007090368122631078   -0.09811370203689428   -0.0027483091995144674
-0.005246049526401909   -0.09432866234869121   -0.0023437631028825553
-0.007747270891140733   -0.09445033884042447   -0.0025578964251265247
-0.00792601117007441   -0.09841282748357635   -0.0027903063637835556
-0.007627375529172349   -0.09437415109546653   -0.0025544080904958853
-0.007090368122631078   -0.09811370203689428   -0.0027483091995144674
-0.007734700701021212   -0.0983697184745538   -0.0027799996482545586
-0.007627375529172349   -0.09437415109546653   -0.0025544080904958853
-0.00792601117007441   -0.09841282748357635   -0.0027903063637835556
-0.007090368122631078   -0.09811370203689428   -0.0027483091995144674
-0.007627375529172349   -0.09437415109546653   -0.0025544080904958853
-0.005090971859788577   -0.09423895539756501   -0.002456456579437398
-0.005246049526401909   -0.09432866234869121   -0.0023437631028825553
-0.007090368122631078   -0.09811370203689428   -0.0027483091995144674
-0.007627375529172349   -0.09437415109546653   -0.0025544080904958853
-0.005246049526401909   -0.09432866234869121   -0.0023437631028825553
-0.00792601117007441   -0.09841282748357635   -0.0027903063637835556
-0.007090368122631078   -0.09811370203689428   -0.0027483091995144674
-0.005090971859788577   -0.09423895539756501   -0.002456456579437398
-0.007734700701021212   -0.0983697184745538   -0.0027799996482545586
-0.006895314357908101   -0.09814878727001075   -0.002865087265385453
-0.005090971859788577   -0.09423895539756501   -0.002456456579437398
-0.007627375529172349   -0.09437415109546653   -0.0025544080904958853
-0.007734700701021212   -0.0983697184745538   -0.0027799996482545586
-0.007511737326985138   -0.09435944195955469   -0.002540431571374972
-0.006895314357908101   -0.09814878727001075   -0.002865087265385453
-0.007540169252931358   -0.09839909304456308   -0.0027586988252824175
-0.007511737326985138   -0.09435944195955469   -0.002540431571374972
-0.007734700701021212   -0.0983697184745538   -0.0027799996482545586
-0.006895314357908101   -0.09814878727001075   -0.002865087265385453
-0.007511737326985138   -0.09435944195955469   -0.002540431571374972
-0.004972049706078727   -0.09421841734335136   -0.0025582904737912675
-0.005090971859788577   -0.09423895539756501   -0.002456456579437398
-0.006895314357908101   -0.09814878727001075   -0.002865087265385453
-0.007511737326985138   -0.09435944195955469   -0.002540431571374972
-0.005090971859788577   -0.09423895539756501   -0.002456456579437398
-0.007734700701021212   -0.0983697184745538   -0.0027799996482545586
-0.008097873422648822   -0.09853191452942892   -0.002786600993011739
-0.007863201693642453   -0.09459113923842784   -0.0025509995089232295
-0.008725486789540058   -0.09863151148539182   -0.0030873306983709168
-0.00792601117007441   -0.09841282748357635   -0.0027903063637835556
-0.007863201693642453   -0.09459113923842784   -0.0025509995089232295
-0.010325188526695688   -0.09450151190300352   -0.0028608855930939547
-0.008725486789540058   -0.09863151148539182   -0.0030873306983709168
-0.010210173083542629   -0.09437649294936612   -0.0027555966334683792
-0.00792601117007441   -0.09841282748357635   -0.0027903063637835556
-0.0085474587521902   -0.09851801685253642   -0.0029608820530224126
-0.010210173083542629   -0.09437649294936612   -0.0027555966334683792
-0.008725486789540058   -0.09863151148539182   -0.0030873306983709168
-0.00792601117007441   -0.09841282748357635   -0.0027903063637835556
-0.010210173083542629   -0.09437649294936612   -0.0027555966334683792
-0.007747270891140733   -0.09445033884042447   -0.0025578964251265247
-0.007863201693642453   -0.09459113923842784   -0.0025509995089232295
-0.00792601117007441   -0.09841282748357635   -0.0027903063637835556
-0.010210173083542629   -0.09437649294936612   -0.0027555966334683792
-0.007863201693642453   -0.09459113923842784   -0.0025509995089232295
-0.008725486789540058   -0.09863151148539182   -0.0030873306983709168
-0.00792601117007441   -0.09841282748357635   -0.0027903063637835556
-0.007747270891140733   -0.09445033884042447   -0.0025578964251265247
-0.0085474587521902   -0.09851801685253642   -0.0029608820530224126
-0.007734700701021212   -0.0983697184745538   -0.0027799996482545586
-0.007747270891140733   -0.09445033884042447   -0.0025578964251265247
-0.010210173083542629   -0.09437649294936612   -0.0027555966334683792
-0.0085474587521902   -0.09851801685253642   -0.0029608820530224126
-0.010081097896424395   -0.09431499617968694   -0.0026400736779384052
-0.007734700701021212   -0.0983697184745538   -0.0027799996482545586
-0.008333868591791598   -0.09848174808838962   -0.0028173697210239386
-0.010081097896424395   -0.09431499617968694   -0.0026400736779384052
-0.0085474587521902   -0.09851801685253642   -0.0029608820530224126
-0.007734700701021212   -0.0983697184745538   -0.0027799996482545586
-0.010081097896424395   -0.09431499617968694   -0.0026400736779384052
-0.007627375529172349   -0.09437415109546653   -0.0025544080904958853
-0.007747270891140733   -0.09445033884042447   -0.0025578964251265247
-0.007734700701021212   -0.0983697184745538   -0.0027799996482545586
-0.010081097896424395   -0.09431499617968694   -0.0026400736779384052
-0.007747270891140733   -0.09445033884042447   -0.0025578964251265247
-0.0085474587521902   -0.09851801685253642   -0.0029608820530224126
-0.007734700701021212   -0.0983697184745538   -0.0027799996482545586
-0.007627375529172349   -0.09437415109546653   -0.0025544080904958853
-0.008333868591791598   -0.09848174808838962   -0.0028173697210239386
-0.007540169252931358   -0.09839909304456308   -0.0027586988252824175
-0.007627375529172349   -0.09437415109546653   -0.0025544080904958853
-0.010081097896424395   -0.09431499617968694   -0.0026400736779384052
-0.008333868591791598   -0.09848174808838962   -0.0028173697210239386
-0.009951459707625796   -0.09431087669383986   -0.0025130693969187133
-0.007540169252931358   -0.09839909304456308   -0.0027586988252824175
-0.008114184854988753   -0.09851051222098435   -0.0026644812053107413
-0.009951459707625796   -0.09431087669383986   -0.0025130693969187133
-0.008333868591791598   -0.09848174808838962   -0.0028173697210239386
-0.007540169252931358   -0.09839909304456308   -0.0027586988252824175
-0.009951459707625796   -0.09431087669383986   -0.0025130693969187133
-0.007511737326985138   -0.09435944195955469   -0.002540431571374972
-0.007627375529172349   -0.09437415109546653   -0.0025544080904958853
-0.007540169252931358   -0.09839909304456308   -0.0027586988252824175
-0.009951459707625796   -0.09431087669383986   -0.0025130693969187133
-0.007627375529172349   -0.09437415109546653   -0.0025544080904958853
-0.008333868591791598   -0.09848174808838962   -0.0028173697210239386
-0.008725486789540058   -0.09863151148539182   -0.0030873306983709168
-0.010325188526695688   -0.09450151190300352   -0.0028608855930939547
-0.009634257798730221   -0.09852624403985961   -0.0033728637586449713
-0.0085474587521902   -0.09851801685253642   -0.0029608820530224126
-0.010325188526695688   -0.09450151190300352   -0.0028608855930939547
-0.01303061627728393   -0.09420924381607437   -0.003145415432867225
-0.009634257798730221   -0.09852624403985961   -0.0033728637586449713
-0.012889901676355776   -0.09410006353920808   -0.0029304698038035417
-0.0085474587521902   -0.09851801685253642   -0.0029608820530224126
-0.009401691761894683   -0.09841920127021   -0.003122541508889595
-0.012889901676355776   -0.09410006353920808   -0.0029304698038035417
-0.009634257798730221   -0.09852624403985961   -0.0033728637586449713
-0.0085474587521902   -0.09851801685253642   -0.0029608820530224126
-0.012889901676355776   -0.09410006353920808   -0.0029304698038035417
-0.010210173083542629   -0.09437649294936612   -0.0027555966334683792
-0.010325188526695688   -0.09450151190300352   -0.0028608855930939547
-0.0085474587521902   -0.09851801685253642   -0.0029608820530224126
-0.012889901676355776   -0.09410006353920808   -0.0029304698038035417
-0.010325188526695688   -0.09450151190300352   -0.0028608855930939547
-0.009634257798730221   -0.09852624403985961   -0.0033728637586449713
-0.0085474587521902   -0.09851801685253642   -0.0029608820530224126
-0.010210173083542629   -0.09437649294936612   -0.0027555966334683792
-0.009401691761894683   -0.09841920127021   -0.003122541508889595
-0.008333868591791598   -0.09848174808838962   -0.0028173697210239386
-0.010210173083542629   -0.09437649294936612   -0.0027555966334683792
-0.012889901676355776   -0.09410006353920808   -0.0029304698038035417
-0.009401691761894683   -0.09841920127021   -0.003122541508889595
-0.012695698987618898   -0.09405319900413357   -0.002706033290599028
-0.008333868591791598   -0.09848174808838962   -0.0028173697210239386
-0.00909495143555158   -0.09839470974126725   -0.0028532364973884294
-0.012695698987618898   -0.09405319900413357   -0.002706033290599028
-0.009401691761894683   -0.09841920127021   -0.003122541508889595
-0.008333868591791598   -0.09848174808838962   -0.0028173697210239386
-0.012695698987618898   -0.09405319900413357   -0.002706033290599028
-0.010081097896424395   -0.09431499617968694   -0.0026400736779384052
-0.010210173083542629   -0.09437649294936612   -0.0027555966334683792
-0.008333868591791598   -0.09848174808838962   -0.0028173697210239386
-0.012695698987618898   -0.09405319900413357   -0.002706033290599028
-0.010210173083542629   -0.09437649294936612   -0.0027555966334683792
-0.009401691761894683   -0.09841920127021   -0.003122541508889595
-0.008333868591791598   -0.09848174808838962   -0.0028173697210239386
-0.010081097896424395   -0.09431499617968694   -0.0026400736779384052
-0.00909495143555158   -0.09839470974126725   -0.0028532364973884294
-0.008114184854988753   -0.09851051222098435   -0.0026644812053107413
-0.010081097896424395   -0.09431499617968694   -0.0026400736779384052
-0.012695698987618898   -0.09405319900413357   -0.002706033290599028
-0.00909495143555158   -0.09839470974126725   -0.0028532364973884294
-0.012526063191702802   -0.09406873133233042   -0.0024658310127688558
-0.008114184854988753   -0.09851051222098435   -0.0026644812053107413
-0.008806211367015038   -0.09843679327209347   -0.0025734917029766958
-0.012526063191702802   -0.09406873133233042   -0.0024658310127688558
-0.00909495143555158   -0.09839470974126725   -0.0028532364973884294
-0.008114184854988753   -0.09851051222098435   -0.0026644812053107413
-0.012526063191702802   -0.09406873133233042   -0.0024658310127688558
-0.009951459707625796   -0.09431087669383986   -0.0025130693969187133
-0.010081097896424395   -0.09431499617968694   -0.0026400736779384052
-0.008114184854988753   -0.09851051222098435   -0.0026644812053107413
-0.012526063191702802   -0.09406873133233042   -0.0024658310127688558
-0.010081097896424395   -0.09431499617968694   -0.0026400736779384052
-0.00909495143555158   -0.09839470974126725   -0.0028532364973884294
-0.009634257798730221   -0.09852624403985961   -0.0033728637586449713
-0.01303061627728393   -0.09420924381607437   -0.003145415432867225
-0.011398168059914195   -0.09804384312905634   -0.003675264335125817
-0.009401691761894683   -0.09841920127021   -0.003122541508889595
-0.01303061627728393   -0.09420924381607437   -0.003145415432867225
-0.01651467285324978   -0.09373392191523011   -0.003418155047854776
-0.011398168059914195   -0.09804384312905634   -0.003675264335125817
-0.016062632445287963   -0.09361570502484602   -0.0030788305696091652
-0.009401691761894683   -0.09841920127021   -0.003122541508889595
-0.010781288631802489   -0.09795380723450771   -0.003264549877302687
-0.016062632445287963   -0.09361570502484602   -0.0030788305696091652
-0.011398168059914195   -0.09804384312905634   -0.003675264335125817
-0.009401691761894683   -0.09841920127021   -0.003122541508889595
-0.016062632445287963   -0.09361570502484602   -0.0030788305696091652
-0.012889901676355776   -0.09410006353920808   -0.0029304698038035417
-0.01303061627728393   -0.09420924381607437   -0.003145415432867225
-0.009401691761894683   -0.09841920127021   -0.003122541508889595
-0.016062632445287963   -0.09361570502484602   -0.0030788305696091652
-0.01303061627728393   -0.09420924381607437   -0.003145415432867225
-0.011398168059914195   -0.09804384312905634   -0.003675264335125817
-0.009401691761894683   -0.09841920127021   -0.003122541508889595
-0.012889901676355776   -0.09410006353920808   -0.0029304698038035417
-0.010781288631802489   -0.09795380723450771   -0.003264549877302687
-0.00909495143555158   -0.09839470974126725   -0.0028532364973884294
-0.012889901676355776   -0.09410006353920808   -0.0029304698038035417
-0.016062632445287963   -0.09361570502484602   -0.0030788305696091652
-0.010781288631802489   -0.09795380723450771   -0.003264549877302687
-0.01565720561518729   -0.0935723567185167   -0.0027196207980389334
-0.00909495143555158   -0.09839470974126725   -0.0028532364973884294
-0.01021420924877193   -0.09794132496481348   -0.0028260270162649946
-0.01565720561518729   -0.0935723567185167   -0.0027196207980389334
-0.010781288631802489   -0.09795380723450771   -0.003264549877302687
-0.00909495143555158   -0.09839470974126725   -0.0028532364973884294
-0.01565720561518729   -0.0935723567185167   -0.0027196207980389334
-0.012695698987618898   -0.09405319900413357   -0.002706033290599028
-0.012889901676355776   -0.09410006353920808   -0.0029304698038035417
-0.00909495143555158   -0.09839470974126725   -0.0028532364973884294
-0.01565720561518729   -0.0935723567185167   -0.0027196207980389334
-0.012889901676355776   -0.09410006353920808   -0.0029304698038035417
-0.010781288631802489   -0.09795380723450771   -0.003264549877302687
-0.00909495143555158   -0.09839470974126725   -0.0028532364973884294
-0.012695698987618898   -0.09405319900413357   -0.002706033290599028
-0.01021420924877193   -0.09794132496481348   -0.0028260270162649946
-0.008806211367015038   -0.09843679327209347   -0.0025734917029766958
-0.012695698987618898   -0.09405319900413357   -0.002706033290599028
-0.01565720561518729   -0.0935723567185167   -0.0027196207980389334
-0.01021420924877193   -0.09794132496481348   -0.0028260270162649946
-0.015131721708811672   -0.09362616475755407   -0.002343948338327414
-0.008806211367015038   -0.09843679327209347   -0.0025734917029766958
-0.009498102817817747   -0.09805953786087236   -0.0023672855432560727
-0.015131721708811672   -0.09362616475755407   -0.002343948338327414
-0.01021420924877193   -0.09794132496481348   -0.0028260270162649946
-0.008806211367015038   -0.09843679327209347   -0.0025734917029766958
-0.015131721708811672   -0.09362616475755407   -0.002343948338327414
-0.012526063191702802   -0.09406873133233042   -0.0024658310127688558
-0.012695698987618898   -0.09405319900413357   -0.002706033290599028
-0.008806211367015038   -0.09843679327209347   -0.0025734917029766958
-0.015131721708811672   -0.09362616475755407   -0.002343948338327414
-0.012695698987618898   -0.09405319900413357   -0.002706033290599028
-0.01021420924877193   -0.09794132496481348   -0.0028260270162649946
-0.0028708924129762915   -0.09420380920993124   -0.001814031965483669
0.0005381750449695233   -0.08738248988303075   -0.0015010152925677177
-0.00538387041979903   -0.09449004055241493   -0.0022198545487425135
-0.0024766759631075475   -0.0940041722726315   -0.0020951415383890543
0.0005381750449695233   -0.08738248988303075   -0.0015010152925677177
-0.003695610287736959   -0.0875921135379814   -0.0018993461780427525
-0.00538387041979903   -0.09449004055241493   -0.0022198545487425135
-0.0036226564847635745   -0.08742300980468402   -0.001997542657893281
-0.0024766759631075475   -0.0940041722726315   -0.0020951415383890543
-0.005246049526401909   -0.09432866234869121   -0.0023437631028825553
-0.0036226564847635745   -0.08742300980468402   -0.001997542657893281
-0.00538387041979903   -0.09449004055241493   -0.0022198545487425135
-0.0024766759631075475   -0.0940041722726315   -0.0020951415383890543
-0.0036226564847635745   -0.08742300980468402   -0.001997542657893281
0.000813071862395459   -0.08717971514544685   -0.001724599623644357
0.0005381750449695233   -0.08738248988303075   -0.0015010152925677177
-0.0024766759631075475   -0.0940041722726315   -0.0020951415383890543
-0.0036226564847635745   -0.08742300980468402   -0.001997542657893281
0.0005381750449695233   -0.08738248988303075   -0.0015010152925677177
-0.00538387041979903   -0.09449004055241493   -0.0022198545487425135
-0.0024766759631075475   -0.0940041722726315   -0.0020951415383890543
0.000813071862395459   -0.08717971514544685   -0.001724599623644357
-0.005246049526401909   -0.09432866234869121   -0.0023437631028825553
-0.0021664823679421966   -0.09390875894673655   -0.0023596247254290045
0.000813071862395459   -0.08717971514544685   -0.001724599623644357
-0.0036226564847635745   -0.08742300980468402   -0.001997542657893281
-0.005246049526401909   -0.09432866234869121   -0.0023437631028825553
-0.0035396450079907696   -0.08731228551553084   -0.0020842542656323536
-0.0021664823679421966   -0.09390875894673655   -0.0023596247254290045
-0.005090971859788577   -0.09423895539756501   -0.002456456579437398
-0.0035396450079907696   -0.08731228551553084   -0.0020842542656323536
-0.005246049526401909   -0.09432866234869121   -0.0023437631028825553
-0.0021664823679421966   -0.09390875894673655   -0.0023596247254290045
-0.0035396450079907696   -0.08731228551553084   -0.0020842542656323536
0.0010152460057130564   -0.08706221277623058   -0.001932109287721558
0.000813071862395459   -0.08717971514544685   -0.001724599623644357
-0.0021664823679421966   -0.09390875894673655   -0.0023596247254290045
-0.0035396450079907696   -0.08731228551553084   -0.0020842542656323536
0.000813071862395459   -0.08717971514544685   -0.001724599623644357
-0.005246049526401909   -0.09432866234869121   -0.0023437631028825553
-0.0021664823679421966   -0.09390875894673655   -0.0023596247254290045
0.0010152460057130564   -0.08706221277623058   -0.001932109287721558
-0.005090971859788577   -0.09423895539756501   -0.002456456579437398
-0.0018279066895871966   -0.09389022240718928   -0.0026067751315365087
0.0010152460057130564   -0.08706221277623058   -0.001932109287721558
-0.0035396450079907696   -0.08731228551553084   -0.0020842542656323536
-0.005090971859788577   -0.09423895539756501   -0.002456456579437398
-0.0034900234928843233   -0.08725667395617276   -0.002160614507180648
-0.0018279066895871966   -0.09389022240718928   -0.0026067751315365087
-0.004972049706078727   -0.09421841734335136   -0.0025582904737912675
-0.0034900234928843233   -0.08725667395617276   -0.002160614507180648
-0.005090971859788577   -0.09423895539756501   -0.002456456579437398
-0.0018279066895871966   -0.09389022240718928   -0.0026067751315365087
-0.0034900234928843233   -0.08725667395617276   -0.002160614507180648
0.0012315072902158942   -0.08700379147816868   -0.002123462834363226
0.0010152460057130564   -0.08706221277623058   -0.001932109287721558
-0.0018279066895871966   -0.09389022240718928   -0.0026067751315365087
-0.0034900234928843233   -0.08725667395617276   -0.002160614507180648
0.0010152460057130564   -0.08706221277623058   -0.001932109287721558
-0.005090971859788577   -0.09423895539756501   -0.002456456579437398
-0.00538387041979903   -0.09449004055241493   -0.0022198545487425135
-0.003695610287736959   -0.0875921135379814   -0.0018993461780427525
-0.007863201693642453   -0.09459113923842784   -0.0025509995089232295
-0.005246049526401909   -0.09432866234869121   -0.0023437631028825553
-0.003695610287736959   -0.0875921135379814   -0.0018993461780427525
-0.007790156689543141   -0.08763218042650212   -0.0022277525978717095
-0.007863201693642453   -0.09459113923842784   -0.0025509995089232295
-0.007736482121266691   -0.08748696996583329   -0.002230332859265709
-0.005246049526401909   -0.09432866234869121   -0.0023437631028825553
-0.007747270891140733   -0.09445033884042447   -0.0025578964251265247
-0.007736482121266691   -0.08748696996583329   -0.002230332859265709
-0.007863201693642453   -0.09459113923842784   -0.0025509995089232295
-0.005246049526401909   -0.09432866234869121   -0.0023437631028825553
-0.007736482121266691   -0.08748696996583329   -0.002230332859265709
-0.0036226564847635745   -0.08742300980468402   -0.001997542657893281
-0.003695610287736959   -0.0875921135379814   -0.0018993461780427525
-0.005246049526401909   -0.09432866234869121   -0.0023437631028825553
-0.007736482121266691   -0.08748696996583329   -0.002230332859265709
-0.003695610287736959   -0.0875921135379814   -0.0018993461780427525
-0.007863201693642453   -0.09459113923842784   -0.0025509995089232295
-0.005246049526401909   -0.09432866234869121   -0.0023437631028825553
-0.0036226564847635745   -0.08742300980468402   -0.001997542657893281
-0.007747270891140733   -0.09445033884042447   -0.0025578964251265247
-0.005090971859788577   -0.09423895539756501   -0.002456456579437398
-0.0036226564847635745   -0.08742300980468402   -0.001997542657893281
-0.007736482121266691   -0.08748696996583329   -0.002230332859265709
-0.007747270891140733   -0.09445033884042447   -0.0025578964251265247
-0.00768129709444079   -0.08739401679969765   -0.002221912346953963
-0.005090971859788577   -0.09423895539756501   -0.002456456579437398
-0.007627375529172349   -0.09437415109546653   -0.0025544080904958853
-0.00768129709444079   -0.08739401679969765   -0.002221912346953963
-0.007747270891140733   -0.09445033884042447   -0.0025578964251265247
-0.005090971859788577   -0.09423895539756501   -0.002456456579437398
-0.00768129709444079   -0.08739401679969765   -0.002221912346953963
-0.0035396450079907696   -0.08731228551553084   -0.0020842542656323536
-0.0036226564847635745   -0.08742300980468402   -0.001997542657893281
-0.005090971859788577   -0.09423895539756501   -0.002456456579437398
-0.00768129709444079   -0.08739401679969765   -0.002221912346953963
-0.0036226564847635745   -0.08742300980468402   -0.001997542657893281
-0.007747270891140733   -0.09445033884042447   -0.0025578964251265247
-0.005090971859788577   -0.09423895539756501   -0.002456456579437398
-0.0035396450079907696   -0.08731228551553084   -0.0020842542656323536
-0.007627375529172349   -0.09437415109546653   -0.0025544080904958853
-0.004972049706078727   -0.09421841734335136   -0.0025582904737912675
-0.0035396450079907696   -0.08731228551553084   -0.0020842542656323536
-0.00768129709444079   -0.08739401679969765   -0.002221912346953963
-0.007627375529172349   -0.09437415109546653   -0.0025544080904958853
-0.007633026480237938   -0.087352450549407   -0.0022032191022896734
-0.004972049706078727   -0.09421841734335136   -0.0025582904737912675
-0.007511737326985138   -0.09435944195955469   -0.002540431571374972
-0.007633026480237938   -0.087352450549407   -0.0022032191022896734
-0.007627375529172349   -0.09437415109546653   -0.0025544080904958853
-0.004972049706078727   -0.09421841734335136   -0.0025582904737912675
-0.007633026480237938   -0.087352450549407   -0.0022032191022896734
-0.0034900234928843233   -0.08725667395617276   -0.002160614507180648
-0.0035396450079907696   -0.08731228551553084   -0.0020842542656323536
-0.004972049706078727   -0.09421841734335136   -0.0025582904737912675
-0.007633026480237938   -0.087352450549407   -0.0022032191022896734
-0.0035396450079907696   -0.08731228551553084   -0.0020842542656323536
-0.007627375529172349   -0.09437415109546653   -0.0025544080904958853
-0.007863201693642453   -0.09459113923842784   -0.0025509995089232295
-0.007790156689543141   -0.08763218042650212   -0.0022277525978717095
-0.010325188526695688   -0.09450151190300352   -0.0028608855930939547
-0.007747270891140733   -0.09445033884042447   -0.0025578964251265247
-0.007790156689543141   -0.08763218042650212   -0.0022277525978717095
-0.011820082204431507   -0.08750190700110837   -0.0025242145227531133
-0.010325188526695688   -0.09450151190300352   -0.0028608855930939547
-0.011770106520527443   -0.08737660409898003   -0.0024334877897933633
-0.007747270891140733   -0.09445033884042447   -0.0025578964251265247
-0.010210173083542629   -0.09437649294936612   -0.0027555966334683792
-0.011770106520527443   -0.08737660409898003   -0.0024334877897933633
-0.010325188526695688   -0.09450151190300352   -0.0028608855930939547
-0.007747270891140733   -0.09445033884042447   -0.0025578964251265247
-0.011770106520527443   -0.08737660409898003   -0.0024334877897933633
-0.007736482121266691   -0.08748696996583329   -0.002230332859265709
-0.007790156689543141   -0.08763218042650212   -0.0022277525978717095
-0.007747270891140733   -0.09445033884042447   -0.0025578964251265247
-0.011770106520527443   -0.08737660409898003   -0.0024334877897933633
-0.007790156689543141   -0.08763218042650212   -0.0022277525978717095
-0.010325188526695688   -0.09450151190300352   -0.0028608855930939547
-0.007747270891140733   -0.09445033884042447   -0.0025578964251265247
-0.007736482121266691   -0.08748696996583329   -0.002230332859265709
-0.010210173083542629   -0.09437649294936612   -0.0027555966334683792
-0.007627375529172349   -0.09437415109546653   -0.0025544080904958853
-0.007736482121266691   -0.08748696996583329   -0.002230332859265709
-0.011770106520527443   -0.08737660409898003   -0.0024334877897933633
-0.010210173083542629   -0.09437649294936612   -0.0027555966334683792
-0.011709722695672487   -0.08730298230347143   -0.0023319964980813425
-0.007627375529172349   -0.09437415109546653   -0.0025544080904958853
-0.010081097896424395   -0.09431499617968694   -0.0026400736779384052
-0.011709722695672487   -0.08730298230347143   -0.0023319964980813425
-0.010210173083542629   -0.09437649294936612   -0.0027555966334683792
-0.007627375529172349   -0.09437415109546653   -0.0025544080904958853
-0.011709722695672487   -0.08730298230347143   -0.0023319964980813425
-0.00768129709444079   -0.08739401679969765   -0.002221912346953963
-0.007736482121266691   -0.08748696996583329   -0.002230332859265709
-0.007627375529172349   -0.09437415109546653   -0.0025544080904958853
-0.011709722695672487   -0.08730298230347143   -0.0023319964980813425
-0.007736482121266691   -0.08748696996583329   -0.002230332859265709
-0.010210173083542629   -0.09437649294936612   -0.0027555966334683792
-0.007627375529172349   -0.09437415109546653   -0.0025544080904958853
-0.00768129709444079   -0.08739401679969765   -0.002221912346953963
-0.010081097896424395   -0.09431499617968694   -0.0026400736779384052
-0.007511737326985138   -0.09435944195955469   -0.002540431571374972
-0.00768129709444079   -0.08739401679969765   -0.002221912346953963
-0.011709722695672487   -0.08730298230347143   -0.0023319964980813425
-0.010081097896424395   -0.09431499617968694   -0.0026400736779384052
-0.011650974530017323   -0.08727862487648141   -0.0022200727407255313
-0.007511737326985138   -0.09435944195955469   -0.002540431571374972
-0.009951459707625796   -0.09431087669383986   -0.0025130693969187133
-0.011650974530017323   -0.08727862487648141   -0.0022200727407255313
-0.010081097896424395   -0.09431499617968694   -0.0026400736779384052
-0.007511737326985138   -0.09435944195955469   -0.002540431571374972
-0.011650974530017323   -0.08727862487648141   -0.0022200727407255313
-0.007633026480237938   -0.087352450549407   -0.0022032191022896734
-0.00768129709444079   -0.08739401679969765   -0.002221912346953963
-0.007511737326985138   -0.09435944195955469   -0.002540431571374972
-0.011650974530017323   -0.08727862487648141   -0.0022200727407255313
-0.00768129709444079   -0.08739401679969765   -0.002221912346953963
-0.010081097896424395   -0.09431499617968694   -0.0026400736779384052
-0.010325188526695688   -0.09450151190300352   -0.0028608855930939547
-0.011820082204431507   -0.08750190700110837   -0.0025242145227531133
-0.01303061627728393   -0.09420924381607437   -0.003145415432867225
-0.010210173083542629   -0.09437649294936612   -0.0027555966334683792
-0.011820082204431507   -0.08750190700110837   -0.0025242145227531133
-0.016043633046312993   -0.08720594581671141   -0.002787546919787965
-0.01303061627728393   -0.09420924381607437   -0.003145415432867225
-0.015978430739416467   -0.087099676059955   -0.0026034087655788392
-0.010210173083542629   -0.09437649294936612   -0.0027555966334683792
-0.012889901676355776   -0.09410006353920808   -0.0029304698038035417
-0.015978430739416467   -0.087099676059955   -0.0026034087655788392
-0.01303061627728393   -0.09420924381607437   -0.003145415432867225
-0.010210173083542629   -0.09437649294936612   -0.0027555966334683792
-0.015978430739416467   -0.087099676059955   -0.0026034087655788392
-0.011770106520527443   -0.08737660409898003   -0.0024334877897933633
-0.011820082204431507   -0.08750190700110837   -0.0025242145227531133
-0.010210173083542629   -0.09437649294936612   -0.0027555966334683792
-0.015978430739416467   -0.087099676059955   -0.0026034087655788392
-0.011820082204431507   -0.08750190700110837   -0.0025242145227531133
-0.01303061627728393   -0.09420924381607437   -0.003145415432867225
-0.010210173083542629   -0.09437649294936612   -0.0027555966334683792
-0.011770106520527443   -0.08737660409898003   -0.0024334877897933633
-0.012889901676355776   -0.09410006353920808   -0.0029304698038035417
-0.010081097896424395   -0.09431499617968694   -0.0026400736779384052
-0.011770106520527443   -0.08737660409898003   -0.0024334877897933633
-0.015978430739416467   -0.087099676059955   -0.0026034087655788392
-0.012889901676355776   -0.09410006353920808   -0.0029304698038035417
-0.015867940300157948   -0.08704358095547175   -0.0024101563779552306
-0.010081097896424395   -0.09431499617968694   -0.0026400736779384052
-0.012695698987618898   -0.09405319900413357   -0.002706033290599028
-0.015867940300157948   -0.08704358095547175   -0.0024101563779552306
-0.012889901676355776   -0.09410006353920808   -0.0029304698038035417
-0.010081097896424395   -0.09431499617968694   -0.0026400736779384052
-0.015867940300157948   -0.08704358095547175   -0.0024101563779552306
-0.011709722695672487   -0.08730298230347143   -0.0023319964980813425
-0.011770106520527443   -0.08737660409898003   -0.0024334877897933633
-0.010081097896424395   -0.09431499617968694   -0.0026400736779384052
-0.015867940300157948   -0.08704358095547175   -0.0024101563779552306
-0.011770106520527443   -0.08737660409898003   -0.0024334877897933633
-0.012889901676355776   -0.09410006353920808   -0.0029304698038035417
-0.010081097896424395   -0.09431499617968694   -0.0026400736779384052
-0.011709722695672487   -0.08730298230347143   -0.0023319964980813425
-0.012695698987618898   -0.09405319900413357   -0.002706033290599028
-0.009951459707625796   -0.09431087669383986   -0.0025130693969187133
-0.011709722695672487   -0.08730298230347143   -0.0023319964980813425
-0.015867940300157948   -0.08704358095547175   -0.0024101563779552306
-0.012695698987618898   -0.09405319900413357   -0.002706033290599028
-0.015778098327698203   -0.08704060978931216   -0.0022049559452627537
-0.009951459707625796   -0.09431087669383986   -0.0025130693969187133
-0.012526063191702802   -0.09406873133233042   -0.0024658310127688558
-0.015778098327698203   -0.08704060978931216   -0.0022049559452627537
-0.012695698987618898   -0.09405319900413357   -0.002706033290599028
-0.009951459707625796   -0.09431087669383986   -0.0025130693969187133
-0.015778098327698203   -0.08704060978931216   -0.0022049559452627537
-0.011650974530017323   -0.08727862487648141   -0.0022200727407255313
-0.011709722695672487   -0.08730298230347143   -0.0023319964980813425
-0.009951459707625796   -0.09431087669383986   -0.0025130693969187133
-0.015778098327698203   -0.08704060978931216   -0.0022049559452627537
-0.011709722695672487   -0.08730298230347143   -0.0023319964980813425
-0.012695698987618898   -0.09405319900413357   -0.002706033290599028
-0.01303061627728393   -0.09420924381607437   -0.003145415432867225
-0.016043633046312993   -0.08720594581671141   -0.002787546919787965
-0.01651467285324978   -0.09373392191523011   -0.003418155047854776
-0.012889901676355776   -0.09410006353920808   -0.0029304698038035417
-0.016043633046312993   -0.08720594581671141   -0.002787546919787965
-0.0209694448760764   -0.08678006244184899   -0.0030328175430640934
-0.01651467285324978   -0.09373392191523011   -0.003418155047854776
-0.02063631011032816   -0.08666935016355354   -0.00274465462470926
-0.012889901676355776   -0.09410006353920808   -0.0029304698038035417
-0.016062632445287963   -0.09361570502484602   -0.0030788305696091652
-0.02063631011032816   -0.08666935016355354   -0.00274465462470926
-0.01651467285324978   -0.09373392191523011   -0.003418155047854776
-0.012889901676355776   -0.09410006353920808   -0.0029304698038035417
-0.02063631011032816   -0.08666935016355354   -0.00274465462470926
-0.015978430739416467   -0.087099676059955   -0.0026034087655788392
-0.016043633046312993   -0.08720594581671141   -0.002787546919787965
-0.012889901676355776   -0.09410006353920808   -0.0029304698038035417
-0.02063631011032816   -0.08666935016355354   -0.00274465462470926
-0.016043633046312993   -0.08720594581671141   -0.002787546919787965
-0.01651467285324978   -0.09373392191523011   -0.003418155047854776
-0.012889901676355776   -0.09410006353920808   -0.0029304698038035417
-0.015978430739416467   -0.087099676059955   -0.0026034087655788392
-0.016062632445287963   -0.09361570502484602   -0.0030788305696091652
-0.012695698987618898   -0.09405319900413357   -0.002706033290599028
-0.015978430739416467   -0.087099676059955   -0.0026034087655788392
-0.02063631011032816   -0.08666935016355354   -0.00274465462470926
-0.016062632445287963   -0.09361570502484602   -0.0030788305696091652
-0.02034701939208862   -0.08661801224454699   -0.002441475568510491
-0.012695698987618898   -0.09405319900413357   -0.002706033290599028
-0.01565720561518729   -0.0935723567185167   -0.0027196207980389334
-0.02034701939208862   -0.08661801224454699   -0.002441475568510491
-0.016062632445287963   -0.09361570502484602   -0.0030788305696091652
-0.012695698987618898   -0.09405319900413357   -0.002706033290599028
-0.02034701939208862   -0.08661801224454699   -0.002441475568510491
-0.015867940300157948   -0.08704358095547175   -0.0024101563779552306
-0.015978430739416467   -0.087099676059955   -0.0026034087655788392
-0.012695698987618898   -0.09405319900413357   -0.002706033290599028
-0.02034701939208862   -0.08661801224454699   -0.002441475568510491
-0.015978430739416467   -0.087099676059955   -0.0026034087655788392
-0.016062632445287963   -0.09361570502484602   -0.0030788305696091652
-0.012695698987618898   -0.09405319900413357   -0.002706033290599028
-0.015867940300157948   -0.08704358095547175   -0.0024101563779552306
-0.01565720561518729   -0.0935723567185167   -0.0027196207980389334
-0.012526063191702802   -0.09406873133233042   -0.0024658310127688558
-0.015867940300157948   -0.08704358095547175   -0.0024101563779552306
-0.02034701939208862   -0.08661801224454699   -0.002441475568510491
-0.01565720561518729   -0.0935723567185167   -0.0027196207980389334
-0.019957199549294983   -0.08664790901325002   -0.0021252144665885714
-0.012526063191702802   -0.09406873133233042   -0.0024658310127688558
-0.015131721708811672   -0.09362616475755407   -0.002343948338327414
-0.019957199549294983   -0.08664790901325002   -0.0021252144665885714
-0.01565720561518729   -0.0935723567185167   -0.0027196207980389334
-0.012526063191702802   -0.09406873133233042   -0.0024658310127688558
-0.019957199549294983   -0.08664790901325002   -0.0021252144665885714
-0.015778098327698203   -0.08704060978931216   -0.0022049559452627537
-0.015867940300157948   -0.08704358095547175   -0.0024101563779552306
-0.012526063191702802   -0.09406873133233042   -0.0024658310127688558
-0.019957199549294983   -0.08664790901325002   -0.0021252144665885714
-0.015867940300157948   -0.08704358095547175   -0.0024101563779552306
-0.01565720561518729   -0.0935723567185167   -0.0027196207980389334
0.0005381750449695233   -0.08738248988303075   -0.0015010152925677177
0.003123195446098294   -0.07812992996394158   -0.0011439961564340933
-0.003695610287736959   -0.0875921135379814   -0.0018993461780427525
0.000813071862395459   -0.08717971514544685   -0.001724599623644357
0.003123195446098294   -0.07812992996394158   -0.0011439961564340933
-0.00247838065209355   -0.07826824677655861   -0.0015241630506741158
-0.003695610287736959   -0.0875921135379814   -0.0018993461780427525
-0.0024633364154307926   -0.07810005282123049   -0.0015921290390400304
0.000813071862395459   -0.08717971514544685   -0.001724599623644357
-0.0036226564847635745   -0.08742300980468402   -0.001997542657893281
-0.0024633364154307926   -0.07810005282123049   -0.0015921290390400304
-0.003695610287736959   -0.0875921135379814   -0.0018993461780427525
0.000813071862395459   -0.08717971514544685   -0.001724599623644357
-0.0024633364154307926   -0.07810005282123049   -0.0015921290390400304
0.003286070786333069   -0.07793209211190825   -0.0013091258722350882
0.003123195446098294   -0.07812992996394158   -0.0011439961564340933
0.000813071862395459   -0.08717971514544685   -0.001724599623644357
-0.0024633364154307926   -0.07810005282123049   -0.0015921290390400304
0.003123195446098294   -0.07812992996394158   -0.0011439961564340933
-0.003695610287736959   -0.0875921135379814   -0.0018993461780427525
0.000813071862395459   -0.08717971514544685   -0.001724599623644357
0.003286070786333069   -0.07793209211190825   -0.0013091258722350882
-0.0036226564847635745   -0.08742300980468402   -0.001997542657893281
0.0010152460057130564   -0.08706221277623058   -0.001932109287721558
0.003286070786333069   -0.07793209211190825   -0.0013091258722350882
-0.0024633364154307926   -0.07810005282123049   -0.0015921290390400304
-0.0036226564847635745   -0.08742300980468402   -0.001997542657893281
-0.002444221422445491   -0.07797785714143611   -0.0016496113027840487
0.0010152460057130564   -0.08706221277623058   -0.001932109287721558
-0.0035396450079907696   -0.08731228551553084   -0.0020842542656323536
-0.002444221422445491   -0.07797785714143611   -0.0016496113027840487
-0.0036226564847635745   -0.08742300980468402   -0.001997542657893281
0.0010152460057130564   -0.08706221277623058   -0.001932109287721558
-0.002444221422445491   -0.07797785714143611   -0.0016496113027840487
0.0033900973224988877   -0.07780196485791892   -0.0014594432092040822
0.003286070786333069   -0.07793209211190825   -0.0013091258722350882
0.0010152460057130564   -0.08706221277623058   -0.001932109287721558
-0.002444221422445491   -0.07797785714143611   -0.0016496113027840487
0.003286070786333069   -0.07793209211190825   -0.0013091258722350882
-0.0036226564847635745   -0.08742300980468402   -0.001997542657893281
0.0010152460057130564   -0.08706221277623058   -0.001932109287721558
0.0033900973224988877   -0.07780196485791892   -0.0014594432092040822
-0.0035396450079907696   -0.08731228551553084   -0.0020842542656323536
0.0012315072902158942   -0.08700379147816868   -0.002123462834363226
0.0033900973224988877   -0.07780196485791892   -0.0014594432092040822
-0.002444221422445491   -0.07797785714143611   -0.0016496113027840487
-0.0035396450079907696   -0.08731228551553084   -0.0020842542656323536
-0.002453587548988139   -0.0778977643578263   -0.0016973750231273283
0.0012315072902158942   -0.08700379147816868   -0.002123462834363226
-0.0034900234928843233   -0.08725667395617276   -0.002160614507180648
-0.002453587548988139   -0.0778977643578263   -0.0016973750231273283
-0.0035396450079907696   -0.08731228551553084   -0.0020842542656323536
0.0012315072902158942   -0.08700379147816868   -0.002123462834363226
-0.002453587548988139   -0.0778977643578263   -0.0016973750231273283
0.003496738764412132   -0.07771440278515108   -0.001595256223855569
0.0033900973224988877   -0.07780196485791892   -0.0014594432092040822
0.0012315072902158942   -0.08700379147816868   -0.002123462834363226
-0.002453587548988139   -0.0778977643578263   -0.0016973750231273283
0.0033900973224988877   -0.07780196485791892   -0.0014594432092040822
-0.0035396450079907696   -0.08731228551553084   -0.0020842542656323536
-0.003695610287736959   -0.0875921135379814   -0.0018993461780427525
-0.00247838065209355   -0.07826824677655861   -0.0015241630506741158
-0.007790156689543141   -0.08763218042650212   -0.0022277525978717095
-0.0036226564847635745   -0.08742300980468402   -0.001997542657893281
-0.00247838065209355   -0.07826824677655861   -0.0015241630506741158
-0.007867717839437629   -0.07826883982354432   -0.0018379522945765467
-0.007790156689543141   -0.08763218042650212   -0.0022277525978717095
-0.007868474273803234   -0.0781264525638705   -0.0018315443349032111
-0.0036226564847635745   -0.08742300980468402   -0.001997542657893281
-0.007736482121266691   -0.08748696996583329   -0.002230332859265709
-0.007868474273803234   -0.0781264525638705   -0.0018315443349032111
-0.007790156689543141   -0.08763218042650212   -0.0022277525978717095
-0.0036226564847635745   -0.08742300980468402   -0.001997542657893281
-0.007868474273803234   -0.0781264525638705   -0.0018315443349032111
-0.0024633364154307926   -0.07810005282123049   -0.0015921290390400304
-0.00247838065209355   -0.07826824677655861   -0.0015241630506741158
-0.0036226564847635745   -0.08742300980468402   -0.001997542657893281
-0.007868474273803234   -0.0781264525638705   -0.0018315443349032111
-0.00247838065209355   -0.07826824677655861   -0.0015241630506741158
-0.007790156689543141   -0.08763218042650212   -0.0022277525978717095
-0.0036226564847635745   -0.08742300980468402   -0.001997542657893281
-0.0024633364154307926   -0.07810005282123049   -0.0015921290390400304
-0.007736482121266691   -0.08748696996583329   -0.002230332859265709
-0.0035396450079907696   -0.08731228551553084   -0.0020842542656323536
-0.0024633364154307926   -0.07810005282123049   -0.0015921290390400304
-0.007868474273803234   -0.0781264525638705   -0.0018315443349032111
-0.007736482121266691   -0.08748696996583329   -0.002230332859265709
-0.007868873392232004   -0.07802462026829246   -0.0018146966392388491
-0.0035396450079907696   -0.08731228551553084   -0.0020842542656323536
-0.00768129709444079   -0.08739401679969765   -0.002221912346953963
-0.007868873392232004   -0.07802462026829246   -0.0018146966392388491
-0.007736482121266691   -0.08748696996583329   -0.002230332859265709
-0.0035396450079907696   -0.08731228551553084   -0.0020842542656323536
-0.007868873392232004   -0.07802462026829246   -0.0018146966392388491
-0.002444221422445491   -0.07797785714143611   -0.0016496113027840487
-0.0024633364154307926   -0.07810005282123049   -0.0015921290390400304
-0.0035396450079907696   -0.08731228551553084   -0.0020842542656323536
-0.007868873392232004   -0.07802462026829246   -0.0018146966392388491
-0.0024633364154307926   -0.07810005282123049   -0.0015921290390400304
-0.007736482121266691   -0.08748696996583329   -0.002230332859265709
-0.0035396450079907696   -0.08731228551553084   -0.0020842542656323536
-0.002444221422445491   -0.07797785714143611   -0.0016496113027840487
-0.00768129709444079   -0.08739401679969765   -0.002221912346953963
-0.0034900234928843233   -0.08725667395617276   -0.002160614507180648
-0.002444221422445491   -0.07797785714143611   -0.0016496113027840487
-0.007868873392232004   -0.07802462026829246   -0.0018146966392388491
-0.00768129709444079   -0.08739401679969765   -0.002221912346953963
-0.007876485451617227   -0.07796341327656975   -0.001787946655357646
-0.0034900234928843233   -0.08725667395617276   -0.002160614507180648
-0.007633026480237938   -0.087352450549407   -0.0022032191022896734
-0.007876485451617227   -0.07796341327656975   -0.001787946655357646
-0.00768129709444079   -0.08739401679969765   -0.002221912346953963
-0.0034900234928843233   -0.08725667395617276   -0.002160614507180648
-0.007876485451617227   -0.07796341327656975   -0.001787946655357646
-0.002453587548988139   -0.0778977643578263   -0.0016973750231273283
-0.002444221422445491   -0.07797785714143611   -0.0016496113027840487
-0.0034900234928843233   -0.08725667395617276   -0.002160614507180648
-0.007876485451617227   -0.07796341327656975   -0.001787946655357646
-0.002444221422445491   -0.07797785714143611   -0.0016496113027840487
-0.00768129709444079   -0.08739401679969765   -0.002221912346953963
-0.007790156689543141   -0.08763218042650212   -0.0022277525978717095
-0.007867717839437629   -0.07826883982354432   -0.0018379522945765467
-0.011820082204431507   -0.08750190700110837   -0.0025242145227531133
-0.007736482121266691   -0.08748696996583329   -0.002230332859265709
-0.007867717839437629   -0.07826883982354432   -0.0018379522945765467
-0.013165273828560543   -0.07813479709202098   -0.0021129029315762977
-0.011820082204431507   -0.08750190700110837   -0.0025242145227531133
-0.013170010093273891   -0.07801510965300126   -0.0020330150095843238
-0.007736482121266691   -0.08748696996583329   -0.002230332859265709
-0.011770106520527443   -0.08737660409898003   -0.0024334877897933633
-0.013170010093273891   -0.07801510965300126   -0.0020330150095843238
-0.011820082204431507   -0.08750190700110837   -0.0025242145227531133
-0.007736482121266691   -0.08748696996583329   -0.002230332859265709
-0.013170010093273891   -0.07801510965300126   -0.0020330150095843238
-0.007868474273803234   -0.0781264525638705   -0.0018315443349032111
-0.007867717839437629   -0.07826883982354432   -0.0018379522945765467
-0.007736482121266691   -0.08748696996583329   -0.002230332859265709
-0.013170010093273891   -0.07801510965300126   -0.0020330150095843238
-0.007867717839437629   -0.07826883982354432   -0.0018379522945765467
-0.011820082204431507   -0.08750190700110837   -0.0025242145227531133
-0.007736482121266691   -0.08748696996583329   -0.002230332859265709
-0.007868474273803234   -0.0781264525638705   -0.0018315443349032111
-0.011770106520527443   -0.08737660409898003   -0.0024334877897933633
-0.00768129709444079   -0.08739401679969765   -0.002221912346953963
-0.007868474273803234   -0.0781264525638705   -0.0018315443349032111
-0.013170010093273891   -0.07801510965300126   -0.0020330150095843238
-0.011770106520527443   -0.08737660409898003   -0.0024334877897933633
-0.01316571104126169   -0.07793561802123455   -0.0019428877873545792
-0.00768129709444079   -0.08739401679969765   -0.002221912346953963
-0.011709722695672487   -0.08730298230347143   -0.0023319964980813425
-0.01316571104126169   -0.07793561802123455   -0.0019428877873545792
-0.011770106520527443   -0.08737660409898003   -0.0024334877897933633
-0.00768129709444079   -0.08739401679969765   -0.002221912346953963
-0.01316571104126169   -0.07793561802123455   -0.0019428877873545792
-0.007868873392232004   -0.07802462026829246   -0.0018146966392388491
-0.007868474273803234   -0.0781264525638705   -0.0018315443349032111
-0.00768129709444079   -0.08739401679969765   -0.002221912346953963
-0.01316571104126169   -0.07793561802123455   -0.0019428877873545792
-0.007868474273803234   -0.0781264525638705   -0.0018315443349032111
-0.011770106520527443   -0.08737660409898003   -0.0024334877897933633
-0.00768129709444079   -0.08739401679969765   -0.002221912346953963
-0.007868873392232004   -0.07802462026829246   -0.0018146966392388491
-0.011709722695672487   -0.08730298230347143   -0.0023319964980813425
-0.007633026480237938   -0.087352450549407   -0.0022032191022896734
-0.007868873392232004   -0.07802462026829246   -0.0018146966392388491
-0.01316571104126169   -0.07793561802123455   -0.0019428877873545792
-0.011709722695672487   -0.08730298230347143   -0.0023319964980813425
-0.013163031327377304   -0.0778956123015629   -0.0018428209060442832
-0.007633026480237938   -0.087352450549407   -0.0022032191022896734
-0.011650974530017323   -0.08727862487648141   -0.0022200727407255313
-0.013163031327377304   -0.0778956123015629   -0.0018428209060442832
-0.011709722695672487   -0.08730298230347143   -0.0023319964980813425
-0.007633026480237938   -0.087352450549407   -0.0022032191022896734
-0.013163031327377304   -0.0778956123015629   -0.0018428209060442832
-0.007876485451617227   -0.07796341327656975   -0.001787946655357646
-0.007868873392232004   -0.07802462026829246   -0.0018146966392388491
-0.007633026480237938   -0.087352450549407   -0.0022032191022896734
-0.013163031327377304   -0.0778956123015629   -0.0018428209060442832
-0.007868873392232004   -0.07802462026829246   -0.0018146966392388491
-0.011709722695672487   -0.08730298230347143   -0.0023319964980813425
-0.011820082204431507   -0.08750190700110837   -0.0025242145227531133
-0.013165273828560543   -0.07813479709202098   -0.0021129029315762977
-0.016043633046312993   -0.08720594581671141   -0.002787546919787965
-0.011770106520527443   -0.08737660409898003   -0.0024334877897933633
-0.013165273828560543   -0.07813479709202098   -0.0021129029315762977
-0.01862811416443297   -0.07787122429659106   -0.0023494935097865786
-0.016043633046312993   -0.08720594581671141   -0.002787546919787965
-0.018621772804271946   -0.07777329743813254   -0.0021952617783737196
-0.011770106520527443   -0.08737660409898003   -0.0024334877897933633
-0.015978430739416467   -0.087099676059955   -0.0026034087655788392
-0.018621772804271946   -0.07777329743813254   -0.0021952617783737196
-0.016043633046312993   -0.08720594581671141   -0.002787546919787965
-0.011770106520527443   -0.08737660409898003   -0.0024334877897933633
-0.018621772804271946   -0.07777329743813254   -0.0021952617783737196
-0.013170010093273891   -0.07801510965300126   -0.0020330150095843238
-0.013165273828560543   -0.07813479709202098   -0.0021129029315762977
-0.011770106520527443   -0.08737660409898003   -0.0024334877897933633
-0.018621772804271946   -0.07777329743813254   -0.0021952617783737196
-0.013165273828560543   -0.07813479709202098   -0.0021129029315762977
-0.016043633046312993   -0.08720594581671141   -0.002787546919787965
-0.011770106520527443   -0.08737660409898003   -0.0024334877897933633
-0.013170010093273891   -0.07801510965300126   -0.0020330150095843238
-0.015978430739416467   -0.087099676059955   -0.0026034087655788392
-0.011709722695672487   -0.08730298230347143   -0.0023319964980813425
-0.013170010093273891   -0.07801510965300126   -0.0020330150095843238
-0.018621772804271946   -0.07777329743813254   -0.0021952617783737196
-0.015978430739416467   -0.087099676059955   -0.0026034087655788392
-0.01857609593569289   -0.07771406144309405   -0.002032332768123488
-0.011709722695672487   -0.08730298230347143   -0.0023319964980813425
-0.015867940300157948   -0.08704358095547175   -0.0024101563779552306
-0.01857609593569289   -0.07771406144309405   -0.002032332768123488
-0.015978430739416467   -0.087099676059955   -0.0026034087655788392
-0.011709722695672487   -0.08730298230347143   -0.0023319964980813425
-0.01857609593569289   -0.07771406144309405   -0.002032332768123488
-0.01316571104126169   -0.07793561802123455   -0.0019428877873545792
-0.013170010093273891   -0.07801510965300126   -0.0020330150095843238
-0.011709722695672487   -0.08730298230347143   -0.0023319964980813425
-0.01857609593569289   -0.07771406144309405   -0.002032332768123488
-0.013170010093273891   -0.07801510965300126   -0.0020330150095843238
-0.015978430739416467   -0.087099676059955   -0.0026034087655788392
-0.011709722695672487   -0.08730298230347143   -0.0023319964980813425
-0.01316571104126169   -0.07793561802123455   -0.0019428877873545792
-0.015867940300157948   -0.08704358095547175   -0.0024101563779552306
-0.011650974530017323   -0.08727862487648141   -0.0022200727407255313
-0.01316571104126169   -0.07793561802123455   -0.0019428877873545792
-0.01857609593569289   -0.07771406144309405   -0.002032332768123488
-0.015867940300157948   -0.08704358095547175   -0.0024101563779552306
-0.018545536585625758   -0.07769762534317759   -0.0018586677370211757
-0.011650974530017323   -0.08727862487648141   -0.0022200727407255313
-0.015778098327698203   -0.08704060978931216   -0.0022049559452627537
-0.018545536585625758   -0.07769762534317759   -0.0018586677370211757
-0.015867940300157948   -0.08704358095547175   -0.0024101563779552306
-0.011650974530017323   -0.08727862487648141   -0.0022200727407255313
-0.018545536585625758   -0.07769762534317759   -0.0018586677370211757
-0.013163031327377304   -0.0778956123015629   -0.0018428209060442832
-0.01316571104126169   -0.07793561802123455   -0.0019428877873545792
-0.011650974530017323   -0.08727862487648141   -0.0022200727407255313
-0.018545536585625758   -0.07769762534317759   -0.0018586677370211757
-0.01316571104126169   -0.07793561802123455   -0.0019428877873545792
-0.015867940300157948   -0.08704358095547175   -0.0024101563779552306
-0.016043633046312993   -0.08720594581671141   -0.002787546919787965
-0.01862811416443297   -0.07787122429659106   -0.0023494935097865786
-0.0209694448760764   -0.08678006244184899   -0.0030328175430640934
-0.015978430739416467   -0.087099676059955   -0.0026034087655788392
-0.01862811416443297   -0.07787122429659106   -0.0023494935097865786
-0.024729960860743663   -0.07750824204023958   -0.0025626879303703195
-0.0209694448760764   -0.08678006244184899   -0.0030328175430640934
-0.024502569839098237   -0.07741220810255976   -0.0023268331324005943
-0.015978430739416467   -0.087099676059955   -0.0026034087655788392
-0.02063631011032816   -0.08666935016355354   -0.00274465462470926
-0.024502569839098237   -0.07741220810255976   -0.0023268331324005943
-0.0209694448760764   -0.08678006244184899   -0.0030328175430640934
-0.015978430739416467   -0.087099676059955   -0.0026034087655788392
-0.024502569839098237   -0.07741220810255976   -0.0023268331324005943
-0.018621772804271946   -0.07777329743813254   -0.0021952617783737196
-0.01862811416443297   -0.07787122429659106   -0.0023494935097865786
-0.015978430739416467   -0.087099676059955   -0.0026034087655788392
-0.024502569839098237   -0.07741220810255976   -0.0023268331324005943
-0.01862811416443297   -0.07787122429659106   -0.0023494935097865786
-0.0209694448760764   -0.08678006244184899   -0.0030328175430640934
-0.015978430739416467   -0.087099676059955   -0.0026034087655788392
-0.018621772804271946   -0.07777329743813254   -0.0021952617783737196
-0.02063631011032816   -0.08666935016355354   -0.00274465462470926
-0.015867940300157948   -0.08704358095547175   -0.0024101563779552306
-0.018621772804271946   -0.07777329743813254   -0.0021952617783737196
-0.024502569839098237   -0.07741220810255976   -0.0023268331324005943
-0.02063631011032816   -0.08666935016355354   -0.00274465462470926
-0.02430799438831215   -0.0773603563424193   -0.0020763698045804997
-0.015867940300157948   -0.08704358095547175   -0.0024101563779552306
-0.02034701939208862   -0.08661801224454699   -0.002441475568510491
-0.02430799438831215   -0.0773603563424193   -0.0020763698045804997
-0.02063631011032816   -0.08666935016355354   -0.00274465462470926
-0.015867940300157948   -0.08704358095547175   -0.0024101563779552306
-0.02430799438831215   -0.0773603563424193   -0.0020763698045804997
-0.01857609593569289   -0.07771406144309405   -0.002032332768123488
-0.018621772804271946   -0.07777329743813254   -0.0021952617783737196
-0.015867940300157948   -0.08704358095547175   -0.0024101563779552306
-0.02430799438831215   -0.0773603563424193   -0.0020763698045804997
-0.018621772804271946   -0.07777329743813254   -0.0021952617783737196
-0.02063631011032816   -0.08666935016355354   -0.00274465462470926
-0.015867940300157948   -0.08704358095547175   -0.0024101563779552306
-0.01857609593569289   -0.07771406144309405   -0.002032332768123488
-0.02034701939208862   -0.08661801224454699   -0.002441475568510491
-0.015778098327698203   -0.08704060978931216   -0.0022049559452627537
-0.01857609593569289   -0.07771406144309405   -0.002032332768123488
-0.02430799438831215   -0.0773603563424193   -0.0020763698045804997
-0.02034701939208862   -0.08661801224454699   -0.002441475568510491
-0.024027042929422895   -0.07737643115968158   -0.0018132956825360994
-0.015778098327698203   -0.08704060978931216   -0.0022049559452627537
-0.019957199549294983   -0.08664790901325002   -0.0021252144665885714
-0.024027042929422895   -0.07737643115968158   -0.0018132956825360994
-0.02034701939208862   -0.08661801224454699   -0.002441475568510491
-0.015778098327698203   -0.08704060978931216   -0.0022049559452627537
-0.024027042929422895   -0.07737643115968158   -0.0018132956825360994
-0.018545536585625758   -0.07769762534317759   -0.0018586677370211757
-0.01857609593569289   -0.07771406144309405   -0.002032332768123488
-0.015778098327698203   -0.08704060978931216   -0.0022049559452627537
-0.024027042929422895   -0.07737643115968158   -0.0018132956825360994
-0.01857609593569289   -0.07771406144309405   -0.002032332768123488
-0.02034701939208862   -0.08661801224454699   -0.002441475568510491
0.003123195446098294   -0.07812992996394158   -0.0011439961564340933
0.004901376656776581   -0.06700798661682662   -0.000761911035929803
-0.00247838065209355   -0.07826824677655861   -0.0015241630506741158
0.003286070786333069   -0.07793209211190825   -0.0013091258722350882
0.004901376656776581   -0.06700798661682662   -0.000761911035929803
-0.0017407210869371096   -0.0670757358253851   -0.0011196065636902375
-0.00247838065209355   -0.07826824677655861   -0.0015241630506741158
-0.0017722160431087413   -0.06691162172910152   -0.0011561155233956394
0.003286070786333069   -0.07793209211190825   -0.0013091258722350882
-0.0024633364154307926   -0.07810005282123049   -0.0015921290390400304
-0.0017722160431087413   -0.06691162172910152   -0.0011561155233956394
-0.00247838065209355   -0.07826824677655861   -0.0015241630506741158
0.003286070786333069   -0.07793209211190825   -0.0013091258722350882
-0.0017722160431087413   -0.06691162172910152   -0.0011561155233956394
0.004965235888515338   -0.06681738608407953   -0.0008698605826310793
0.004901376656776581   -0.06700798661682662   -0.000761911035929803
0.003286070786333069   -0.07793209211190825   -0.0013091258722350882
-0.0017722160431087413   -0.06691162172910152   -0.0011561155233956394
0.004901376656776581   -0.06700798661682662   -0.000761911035929803
-0.00247838065209355   -0.07826824677655861   -0.0015241630506741158
0.003286070786333069   -0.07793209211190825   -0.0013091258722350882
0.004965235888515338   -0.06681738608407953   -0.0008698605826310793
-0.0024633364154307926   -0.07810005282123049   -0.0015921290390400304
0.0033900973224988877   -0.07780196485791892   -0.0014594432092040822
0.004965235888515338   -0.06681738608407953   -0.0008698605826310793
-0.0017722160431087413   -0.06691162172910152   -0.0011561155233956394
-0.0024633364154307926   -0.07810005282123049   -0.0015921290390400304
-0.001805346692656821   -0.06678154565664889   -0.001183278041064602
0.0033900973224988877   -0.07780196485791892   -0.0014594432092040822
-0.002444221422445491   -0.07797785714143611   -0.0016496113027840487
-0.001805346692656821   -0.06678154565664889   -0.001183278041064602
-0.0024633364154307926   -0.07810005282123049   -0.0015921290390400304
0.0033900973224988877   -0.07780196485791892   -0.0014594432092040822
-0.001805346692656821   -0.06678154565664889   -0.001183278041064602
0.0049842891526159965   -0.06667817604169246   -0.000964024392994575
0.004965235888515338   -0.06681738608407953   -0.0008698605826310793
0.0033900973224988877   -0.07780196485791892   -0.0014594432092040822
-0.001805346692656821   -0.06678154565664889   -0.001183278041064602
0.004965235888515338   -0.06681738608407953   -0.0008698605826310793
-0.0024633364154307926   -0.07810005282123049   -0.0015921290390400304
0.0033900973224988877   -0.07780196485791892   -0.0014594432092040822
0.0049842891526159965   -0.06667817604169246   -0.000964024392994575
-0.002444221422445491   -0.07797785714143611   -0.0016496113027840487
0.003496738764412132   -0.07771440278515108   -0.001595256223855569
0.0049842891526159965   -0.06667817604169246   -0.000964024392994575
-0.001805346692656821   -0.06678154565664889   -0.001183278041064602
-0.002444221422445491   -0.07797785714143611   -0.0016496113027840487
-0.0018615352017456155   -0.06668144080366481   -0.0012014108443214478
0.003496738764412132   -0.07771440278515108   -0.001595256223855569
-0.002453587548988139   -0.0778977643578263   -0.0016973750231273283
-0.0018615352017456155   -0.06668144080366481   -0.0012014108443214478
-0.002444221422445491   -0.07797785714143611   -0.0016496113027840487
0.003496738764412132   -0.07771440278515108   -0.001595256223855569
-0.0018615352017456155   -0.06668144080366481   -0.0012014108443214478
0.0049945959511080345   -0.06656594524718953   -0.001045053283999112
0.0049842891526159965   -0.06667817604169246   -0.000964024392994575
0.003496738764412132   -0.07771440278515108   -0.001595256223855569
-0.0018615352017456155   -0.06668144080366481   -0.0012014108443214478
0.0049842891526159965   -0.06667817604169246   -0.000964024392994575
-0.002444221422445491   -0.07797785714143611   -0.0016496113027840487
-0.00247838065209355   -0.07826824677655861   -0.0015241630506741158
-0.0017407210869371096   -0.0670757358253851   -0.0011196065636902375
-0.007867717839437629   -0.07826883982354432   -0.0018379522945765467
-0.0024633364154307926   -0.07810005282123049   -0.0015921290390400304
-0.0017407210869371096   -0.0670757358253851   -0.0011196065636902375
-0.008106700047482167   -0.06704054727323035   -0.0014144619921528307
-0.007867717839437629   -0.07826883982354432   -0.0018379522945765467
-0.008150208740180128   -0.06690327541011894   -0.0013972881020485335
-0.0024633364154307926   -0.07810005282123049   -0.0015921290390400304
-0.007868474273803234   -0.0781264525638705   -0.0018315443349032111
-0.008150208740180128   -0.06690327541011894   -0.0013972881020485335
-0.007867717839437629   -0.07826883982354432   -0.0018379522945765467
-0.0024633364154307926   -0.07810005282123049   -0.0015921290390400304
-0.008150208740180128   -0.06690327541011894   -0.0013972881020485335
-0.0017722160431087413   -0.06691162172910152   -0.0011561155233956394
-0.0017407210869371096   -0.0670757358253851   -0.0011196065636902375
-0.0024633364154307926   -0.07810005282123049   -0.0015921290390400304
-0.008150208740180128   -0.06690327541011894   -0.0013972881020485335
-0.0017407210869371096   -0.0670757358253851   -0.0011196065636902375
-0.007867717839437629   -0.07826883982354432   -0.0018379522945765467
-0.0024633364154307926   -0.07810005282123049   -0.0015921290390400304
-0.0017722160431087413   -0.06691162172910152   -0.0011561155233956394
-0.007868474273803234   -0.0781264525638705   -0.0018315443349032111
-0.002444221422445491   -0.07797785714143611   -0.0016496113027840487
-0.0017722160431087413   -0.06691162172910152   -0.0011561155233956394
-0.008150208740180128   -0.06690327541011894   -0.0013972881020485335
-0.007868474273803234   -0.0781264525638705   -0.0018315443349032111
-0.00819431331724784   -0.06679518435235003   -0.0013704953481683362
-0.002444221422445491   -0.07797785714143611   -0.0016496113027840487
-0.007868873392232004   -0.07802462026829246   -0.0018146966392388491
-0.00819431331724784   -0.06679518435235003   -0.0013704953481683362
-0.007868474273803234   -0.0781264525638705   -0.0018315443349032111
-0.002444221422445491   -0.07797785714143611   -0.0016496113027840487
-0.00819431331724784   -0.06679518435235003   -0.0013704953481683362
-0.001805346692656821   -0.06678154565664889   -0.001183278041064602
-0.0017722160431087413   -0.06691162172910152   -0.0011561155233956394
-0.002444221422445491   -0.07797785714143611   -0.0016496113027840487
-0.00819431331724784   -0.06679518435235003   -0.0013704953481683362
-0.0017722160431087413   -0.06691162172910152   -0.0011561155233956394
-0.007868474273803234   -0.0781264525638705   -0.0018315443349032111
-0.002444221422445491   -0.07797785714143611   -0.0016496113027840487
-0.001805346692656821   -0.06678154565664889   -0.001183278041064602
-0.007868873392232004   -0.07802462026829246   -0.0018146966392388491
-0.002453587548988139   -0.0778977643578263   -0.0016973750231273283
-0.001805346692656821   -0.06678154565664889   -0.001183278041064602
-0.00819431331724784   -0.06679518435235003   -0.0013704953481683362
-0.007868873392232004   -0.07802462026829246   -0.0018146966392388491
-0.008245259365965898   -0.06671677123915715   -0.00133454358681966
-0.002453587548988139   -0.0778977643578263   -0.0016973750231273283
-0.007876485451617227   -0.07796341327656975   -0.001787946655357646
-0.008245259365965898   -0.06671677123915715   -0.00133454358681966
-0.007868873392232004   -0.07802462026829246   -0.0018146966392388491
-0.002453587548988139   -0.0778977643578263   -0.0016973750231273283
-0.008245259365965898   -0.06671677123915715   -0.00133454358681966
-0.0018615352017456155   -0.06668144080366481   -0.0012014108443214478
-0.001805346692656821   -0.06678154565664889   -0.001183278041064602
-0.002453587548988139   -0.0778977643578263   -0.0016973750231273283
-0.008245259365965898   -0.06671677123915715   -0.00133454358681966
-0.001805346692656821   -0.06678154565664889   -0.001183278041064602
-0.007868873392232004   -0.07802462026829246   -0.0018146966392388491
-0.007867717839437629   -0.07826883982354432   -0.0018379522945765467
-0.008106700047482167   -0.06704054727323035   -0.0014144619921528307
-0.013165273828560543   -0.07813479709202098   -0.0021129029315762977
-0.007868474273803234   -0.0781264525638705   -0.0018315443349032111
-0.008106700047482167   -0.06704054727323035   -0.0014144619921528307
-0.014364896850902963   -0.06690870887100198   -0.0016668968851985247
-0.013165273828560543   -0.07813479709202098   -0.0021129029315762977
-0.01441179940725593   -0.06679585170991788   -0.0015962919525118718
-0.007868474273803234   -0.0781264525638705   -0.0018315443349032111
-0.013170010093273891   -0.07801510965300126   -0.0020330150095843238
-0.01441179940725593   -0.06679585170991788   -0.0015962919525118718
-0.013165273828560543   -0.07813479709202098   -0.0021129029315762977
-0.007868474273803234   -0.0781264525638705   -0.0018315443349032111
-0.01441179940725593   -0.06679585170991788   -0.0015962919525118718
-0.008150208740180128   -0.06690327541011894   -0.0013972881020485335
-0.008106700047482167   -0.06704054727323035   -0.0014144619921528307
-0.007868474273803234   -0.0781264525638705   -0.0018315443349032111
-0.01441179940725593   -0.06679585170991788   -0.0015962919525118718
-0.008106700047482167   -0.06704054727323035   -0.0014144619921528307
-0.013165273828560543   -0.07813479709202098   -0.0021129029315762977
-0.007868474273803234   -0.0781264525638705   -0.0018315443349032111
-0.008150208740180128   -0.06690327541011894   -0.0013972881020485335
-0.013170010093273891   -0.07801510965300126   -0.0020330150095843238
-0.007868873392232004   -0.07802462026829246   -0.0018146966392388491
-0.008150208740180128   -0.06690327541011894   -0.0013972881020485335
-0.01441179940725593   -0.06679585170991788   -0.0015962919525118718
-0.013170010093273891   -0.07801510965300126   -0.0020330150095843238
-0.014450685885396353   -0.06671189603128899   -0.0015162364097265977
-0.007868873392232004   -0.07802462026829246   -0.0018146966392388491
-0.01316571104126169   -0.07793561802123455   -0.0019428877873545792
-0.014450685885396353   -0.06671189603128899   -0.0015162364097265977
-0.013170010093273891   -0.07801510965300126   -0.0020330150095843238
-0.007868873392232004   -0.07802462026829246   -0.0018146966392388491
-0.014450685885396353   -0.06671189603128899   -0.0015162364097265977
-0.00819431331724784   -0.06679518435235003   -0.0013704953481683362
-0.008150208740180128   -0.06690327541011894   -0.0013972881020485335
-0.007868873392232004   -0.07802462026829246   -0.0018146966392388491
-0.014450685885396353   -0.06671189603128899   -0.0015162364097265977
-0.008150208740180128   -0.06690327541011894   -0.0013972881020485335
-0.013170010093273891   -0.07801510965300126   -0.0020330150095843238
-0.007868873392232004   -0.07802462026829246   -0.0018146966392388491
-0.00819431331724784   -0.06679518435235003   -0.0013704953481683362
-0.01316571104126169   -0.07793561802123455   -0.0019428877873545792
-0.007876485451617227   -0.07796341327656975   -0.001787946655357646
-0.00819431331724784   -0.06679518435235003   -0.0013704953481683362
-0.014450685885396353   -0.06671189603128899   -0.0015162364097265977
-0.01316571104126169   -0.07793561802123455   -0.0019428877873545792
-0.014490694060383318   -0.06665672217763367   -0.001427009738227057
-0.007876485451617227   -0.07796341327656975   -0.001787946655357646
-0.013163031327377304   -0.0778956123015629   -0.0018428209060442832
-0.014490694060383318   -0.06665672217763367   -0.001427009738227057
-0.01316571104126169   -0.07793561802123455   -0.0019428877873545792
-0.007876485451617227   -0.07796341327656975   -0.001787946655357646
-0.014490694060383318   -0.06665672217763367   -0.001427009738227057
-0.008245259365965898   -0.06671677123915715   -0.00133454358681966
-0.00819431331724784   -0.06679518435235003   -0.0013704953481683362
-0.007876485451617227   -0.07796341327656975   -0.001787946655357646
-0.014490694060383318   -0.06665672217763367   -0.001427009738227057
-0.00819431331724784   -0.06679518435235003   -0.0013704953481683362
-0.01316571104126169   -0.07793561802123455   -0.0019428877873545792
-0.013165273828560543   -0.07813479709202098   -0.0021129029315762977
-0.014364896850902963   -0.06690870887100198   -0.0016668968851985247
-0.01862811416443297   -0.07787122429659106   -0.0023494935097865786
-0.013170010093273891   -0.07801510965300126   -0.0020330150095843238
-0.014364896850902963   -0.06690870887100198   -0.0016668968851985247
-0.020771966443055255   -0.0666828639353729   -0.0018778401749537754
-0.01862811416443297   -0.07787122429659106   -0.0023494935097865786
-0.020810840846932674   -0.06659387411722836   -0.0017530805877452717
-0.013170010093273891   -0.07801510965300126   -0.0020330150095843238
-0.018621772804271946   -0.07777329743813254   -0.0021952617783737196
-0.020810840846932674   -0.06659387411722836   -0.0017530805877452717
-0.01862811416443297   -0.07787122429659106   -0.0023494935097865786
-0.013170010093273891   -0.07801510965300126   -0.0020330150095843238
-0.020810840846932674   -0.06659387411722836   -0.0017530805877452717
-0.01441179940725593   -0.06679585170991788   -0.0015962919525118718
-0.014364896850902963   -0.06690870887100198   -0.0016668968851985247
-0.013170010093273891   -0.07801510965300126   -0.0020330150095843238
-0.020810840846932674   -0.06659387411722836   -0.0017530805877452717
-0.014364896850902963   -0.06690870887100198   -0.0016668968851985247
-0.01862811416443297   -0.07787122429659106   -0.0023494935097865786
-0.013170010093273891   -0.07801510965300126   -0.0020330150095843238
-0.01441179940725593   -0.06679585170991788   -0.0015962919525118718
-0.018621772804271946   -0.07777329743813254   -0.0021952617783737196
-0.01316571104126169   -0.07793561802123455   -0.0019428877873545792
-0.01441179940725593   -0.06679585170991788   -0.0015962919525118718
-0.020810840846932674   -0.06659387411722836   -0.0017530805877452717
-0.018621772804271946   -0.07777329743813254   -0.0021952617783737196
-0.02081606510995624   -0.06653198466367864   -0.0016201787633929711
-0.01316571104126169   -0.07793561802123455   -0.0019428877873545792
-0.01857609593569289   -0.07771406144309405   -0.002032332768123488
-0.02081606510995624   -0.06653198466367864   -0.0016201787633929711
-0.018621772804271946   -0.07777329743813254   -0.0021952617783737196
-0.01316571104126169   -0.07793561802123455   -0.0019428877873545792
-0.02081606510995624   -0.06653198466367864   -0.0016201787633929711
-0.014450685885396353   -0.06671189603128899   -0.0015162364097265977
-0.01441179940725593   -0.06679585170991788   -0.0015962919525118718
-0.01316571104126169   -0.07793561802123455   -0.0019428877873545792
-0.02081606510995624   -0.06653198466367864   -0.0016201787633929711
-0.01441179940725593   -0.06679585170991788   -0.0015962919525118718
-0.018621772804271946   -0.07777329743813254   -0.0021952617783737196
-0.01316571104126169   -0.07793561802123455   -0.0019428877873545792
-0.014450685885396353   -0.06671189603128899   -0.0015162364097265977
-0.01857609593569289   -0.07771406144309405   -0.002032332768123488
-0.013163031327377304   -0.0778956123015629   -0.0018428209060442832
-0.014450685885396353   -0.06671189603128899   -0.0015162364097265977
-0.02081606510995624   -0.06653198466367864   -0.0016201787633929711
-0.01857609593569289   -0.07771406144309405   -0.002032332768123488
-0.020830783929101565   -0.06650146008056237   -0.0014774122921514111
-0.013163031327377304   -0.0778956123015629   -0.0018428209060442832
-0.018545536585625758   -0.07769762534317759   -0.0018586677370211757
-0.020830783929101565   -0.06650146008056237   -0.0014774122921514111
-0.01857609593569289   -0.07771406144309405   -0.002032332768123488
-0.013163031327377304   -0.0778956123015629   -0.0018428209060442832
-0.020830783929101565   -0.06650146008056237   -0.0014774122921514111
-0.014490694060383318   -0.06665672217763367   -0.001427009738227057
-0.014450685885396353   -0.06671189603128899   -0.0015162364097265977
-0.013163031327377304   -0.0778956123015629   -0.0018428209060442832
-0.020830783929101565   -0.06650146008056237   -0.0014774122921514111
-0.014450685885396353   -0.06671189603128899   -0.0015162364097265977
-0.01857609593569289   -0.07771406144309405   -0.002032332768123488
-0.01862811416443297   -0.07787122429659106   -0.0023494935097865786
-0.020771966443055255   -0.0666828639353729   -0.0018778401749537754
-0.024729960860743663   -0.07750824204023958   -0.0025626879303703195
-0.018621772804271946   -0.07777329743813254   -0.0021952617783737196
-0.020771966443055255   -0.0666828639353729   -0.0018778401749537754
-0.027758353953834806   -0.06638689055889921   -0.0020580209250703834
-0.024729960860743663   -0.07750824204023958   -0.0025626879303703195
-0.027625443271980552   -0.06630560494070019   -0.0018760849653518066
-0.018621772804271946   -0.07777329743813254   -0.0021952617783737196
-0.024502569839098237   -0.07741220810255976   -0.0023268331324005943
-0.027625443271980552   -0.06630560494070019   -0.0018760849653518066
-0.024729960860743663   -0.07750824204023958   -0.0025626879303703195
-0.018621772804271946   -0.07777329743813254   -0.0021952617783737196
-0.027625443271980552   -0.06630560494070019   -0.0018760849653518066
-0.020810840846932674   -0.06659387411722836   -0.0017530805877452717
-0.020771966443055255   -0.0666828639353729   -0.0018778401749537754
-0.018621772804271946   -0.07777329743813254   -0.0021952617783737196
-0.027625443271980552   -0.06630560494070019   -0.0018760849653518066
-0.020771966443055255   -0.0666828639353729   -0.0018778401749537754
-0.024729960860743663   -0.07750824204023958   -0.0025626879303703195
-0.018621772804271946   -0.07777329743813254   -0.0021952617783737196
-0.020810840846932674   -0.06659387411722836   -0.0017530805877452717
-0.024502569839098237   -0.07741220810255976   -0.0023268331324005943
-0.01857609593569289   -0.07771406144309405   -0.002032332768123488
-0.020810840846932674   -0.06659387411722836   -0.0017530805877452717
-0.027625443271980552   -0.06630560494070019   -0.0018760849653518066
-0.024502569839098237   -0.07741220810255976   -0.0023268331324005943
-0.027513339929685795   -0.06625306601122259   -0.001679938949581086
-0.01857609593569289   -0.07771406144309405   -0.002032332768123488
-0.02430799438831215   -0.0773603563424193   -0.0020763698045804997
-0.027513339929685795   -0.06625306601122259   -0.001679938949581086
-0.024502569839098237   -0.07741220810255976   -0.0023268331324005943
-0.01857609593569289   -0.07771406144309405   -0.002032332768123488
-0.027513339929685795   -0.06625306601122259   -0.001679938949581086
-0.02081606510995624   -0.06653198466367864   -0.0016201787633929711
-0.020810840846932674   -0.06659387411722836   -0.0017530805877452717
-0.01857609593569289   -0.07771406144309405   -0.002032332768123488
-0.027513339929685795   -0.06625306601122259   -0.001679938949581086
-0.020810840846932674   -0.06659387411722836   -0.0017530805877452717
-0.024502569839098237   -0.07741220810255976   -0.0023268331324005943
-0.01857609593569289   -0.07771406144309405   -0.002032332768123488
-0.02081606510995624   -0.06653198466367864   -0.0016201787633929711
-0.02430799438831215   -0.0773603563424193   -0.0020763698045804997
-0.018545536585625758   -0.07769762534317759   -0.0018586677370211757
-0.02081606510995624   -0.06653198466367864   -0.0016201787633929711
-0.027513339929685795   -0.06625306601122259   -0.001679938949581086
-0.02430799438831215   -0.0773603563424193   -0.0020763698045804997
-0.027328090549430438   -0.06625386761087067   -0.0014713525350516874
-0.018545536585625758   -0.07769762534317759   -0.0018586677370211757
-0.024027042929422895   -0.07737643115968158   -0.0018132956825360994
-0.027328090549430438   -0.06625386761087067   -0.0014713525350516874
-0.02430799438831215   -0.0773603563424193   -0.0020763698045804997
-0.018545536585625758   -0.07769762534317759   -0.0018586677370211757
-0.027328090549430438   -0.06625386761087067   -0.0014713525350516874
-0.020830783929101565   -0.06650146008056237   -0.0014774122921514111
-0.02081606510995624   -0.06653198466367864   -0.0016201787633929711
-0.018545536585625758   -0.07769762534317759   -0.0018586677370211757
-0.027328090549430438   -0.06625386761087067   -0.0014713525350516874
-0.02081606510995624   -0.06653198466367864   -0.0016201787633929711
-0.02430799438831215   -0.0773603563424193   -0.0020763698045804997
0.004901376656776581   -0.06700798661682662   -0.000761911035929803
0.00588568933048259   -0.05453438875650144   -0.000387604910633533
-0.0017407210869371096   -0.0670757358253851   -0.0011196065636902375
0.004965235888515338   -0.06681738608407953   -0.0008698605826310793
0.00588568933048259   -0.05453438875650144   -0.000387604910633533
-0.0014845817750417647   -0.054532383184658584   -0.0007194020656785301
-0.0017407210869371096   -0.0670757358253851   -0.0011196065636902375
-0.001550835859012412   -0.054373598477119256   -0.0007240972556564027
0.004965235888515338   -0.06681738608407953   -0.0008698605826310793
-0.0017722160431087413   -0.06691162172910152   -0.0011561155233956394
-0.001550835859012412   -0.054373598477119256   -0.0007240972556564027
-0.0017407210869371096   -0.0670757358253851   -0.0011196065636902375
0.004965235888515338   -0.06681738608407953   -0.0008698605826310793
-0.001550835859012412   -0.054373598477119256   -0.0007240972556564027
0.005863667594427414   -0.05435188885145031   -0.00043908974091338325
0.00588568933048259   -0.05453438875650144   -0.000387604910633533
0.004965235888515338   -0.06681738608407953   -0.0008698605826310793
-0.001550835859012412   -0.054373598477119256   -0.0007240972556564027
0.00588568933048259   -0.05453438875650144   -0.000387604910633533
-0.0017407210869371096   -0.0670757358253851   -0.0011196065636902375
0.004965235888515338   -0.06681738608407953   -0.0008698605826310793
0.005863667594427414   -0.05435188885145031   -0.00043908974091338325
-0.0017722160431087413   -0.06691162172910152   -0.0011561155233956394
0.0049842891526159965   -0.06667817604169246   -0.000964024392994575
0.005863667594427414   -0.05435188885145031   -0.00043908974091338325
-0.001550835859012412   -0.054373598477119256   -0.0007240972556564027
-0.0017722160431087413   -0.06691162172910152   -0.0011561155233956394
-0.001624449914009497   -0.054236701613965   -0.0007205173453419452
0.0049842891526159965   -0.06667817604169246   -0.000964024392994575
-0.001805346692656821   -0.06678154565664889   -0.001183278041064602
-0.001624449914009497   -0.054236701613965   -0.0007205173453419452
-0.0017722160431087413   -0.06691162172910152   -0.0011561155233956394
0.0049842891526159965   -0.06667817604169246   -0.000964024392994575
-0.001624449914009497   -0.054236701613965   -0.0007205173453419452
0.005810036005261388   -0.05420474372978067   -0.00047731113795317217
0.005863667594427414   -0.05435188885145031   -0.00043908974091338325
0.0049842891526159965   -0.06667817604169246   -0.000964024392994575
-0.001624449914009497   -0.054236701613965   -0.0007205173453419452
0.005863667594427414   -0.05435188885145031   -0.00043908974091338325
-0.0017722160431087413   -0.06691162172910152   -0.0011561155233956394
0.0049842891526159965   -0.06667817604169246   -0.000964024392994575
0.005810036005261388   -0.05420474372978067   -0.00047731113795317217
-0.001805346692656821   -0.06678154565664889   -0.001183278041064602
0.0049945959511080345   -0.06656594524718953   -0.001045053283999112
0.005810036005261388   -0.05420474372978067   -0.00047731113795317217
-0.001624449914009497   -0.054236701613965   -0.0007205173453419452
-0.001805346692656821   -0.06678154565664889   -0.001183278041064602
-0.0017157005013135776   -0.054118164855320935   -0.0007083361051313695
0.0049945959511080345   -0.06656594524718953   -0.001045053283999112
-0.0018615352017456155   -0.06668144080366481   -0.0012014108443214478
-0.0017157005013135776   -0.054118164855320935   -0.0007083361051313695
-0.001805346692656821   -0.06678154565664889   -0.001183278041064602
0.0049945959511080345   -0.06656594524718953   -0.001045053283999112
-0.0017157005013135776   -0.054118164855320935   -0.0007083361051313695
0.005735271375524496   -0.05406909231366055   -0.0005031952298302067
0.005810036005261388   -0.05420474372978067   -0.00047731113795317217
0.0049945959511080345   -0.06656594524718953   -0.001045053283999112
-0.0017157005013135776   -0.054118164855320935   -0.0007083361051313695
0.005810036005261388   -0.05420474372978067   -0.00047731113795317217
-0.001805346692656821   -0.06678154565664889   -0.001183278041064602
-0.0017407210869371096   -0.0670757358253851   -0.0011196065636902375
-0.0014845817750417647   -0.054532383184658584   -0.0007194020656785301
-0.008106700047482167   -0.06704054727323035   -0.0014144619921528307
-0.0017722160431087413   -0.06691162172910152   -0.0011561155233956394
-0.0014845817750417647   -0.054532383184658584   -0.0007194020656785301
-0.008514167941679739   -0.05446565726557723   -0.0009935877651740012
-0.008106700047482167   -0.06704054727323035   -0.0014144619921528307
-0.008588197455067859   -0.05433370177093867   -0.0009647667383904801
-0.0017722160431087413   -0.06691162172910152   -0.0011561155233956394
-0.008150208740180128   -0.06690327541011894   -0.0013972881020485335
-0.008588197455067859   -0.05433370177093867   -0.0009647667383904801
-0.008106700047482167   -0.06704054727323035   -0.0014144619921528307
-0.0017722160431087413   -0.06691162172910152   -0.0011561155233956394
-0.008588197455067859   -0.05433370177093867   -0.0009647667383904801
-0.001550835859012412   -0.054373598477119256   -0.0007240972556564027
-0.0014845817750417647   -0.054532383184658584   -0.0007194020656785301
-0.0017722160431087413   -0.06691162172910152   -0.0011561155233956394
-0.008588197455067859   -0.05433370177093867   -0.0009647667383904801
-0.0014845817750417647   -0.054532383184658584   -0.0007194020656785301
-0.008106700047482167   -0.06704054727323035   -0.0014144619921528307
-0.0017722160431087413   -0.06691162172910152   -0.0011561155233956394
-0.001550835859012412   -0.054373598477119256   -0.0007240972556564027
-0.008150208740180128   -0.06690327541011894   -0.0013972881020485335
-0.001805346692656821   -0.06678154565664889   -0.001183278041064602
-0.001550835859012412   -0.054373598477119256   -0.0007240972556564027
-0.008588197455067859   -0.05433370177093867   -0.0009647667383904801
-0.008150208740180128   -0.06690327541011894   -0.0013972881020485335
-0.0086637081191389   -0.05421956537674892   -0.0009273292191805669
-0.001805346692656821   -0.06678154565664889   -0.001183278041064602
-0.00819431331724784   -0.06679518435235003   -0.0013704953481683362
-0.0086637081191389   -0.05421956537674892   -0.0009273292191805669
-0.008150208740180128   -0.06690327541011894   -0.0013972881020485335
-0.001805346692656821   -0.06678154565664889   -0.001183278041064602
-0.0086637081191389   -0.05421956537674892   -0.0009273292191805669
-0.001624449914009497   -0.054236701613965   -0.0007205173453419452
-0.001550835859012412   -0.054373598477119256   -0.0007240972556564027
-0.001805346692656821   -0.06678154565664889   -0.001183278041064602
-0.0086637081191389   -0.05421956537674892   -0.0009273292191805669
-0.001550835859012412   -0.054373598477119256   -0.0007240972556564027
-0.008150208740180128   -0.06690327541011894   -0.0013972881020485335
-0.001805346692656821   -0.06678154565664889   -0.001183278041064602
-0.001624449914009497   -0.054236701613965   -0.0007205173453419452
-0.00819431331724784   -0.06679518435235003   -0.0013704953481683362
-0.0018615352017456155   -0.06668144080366481   -0.0012014108443214478
-0.001624449914009497   -0.054236701613965   -0.0007205173453419452
-0.0086637081191389   -0.05421956537674892   -0.0009273292191805669
-0.00819431331724784   -0.06679518435235003   -0.0013704953481683362
-0.008745584873558664   -0.054124315888288144   -0.0008816754137492318
-0.0018615352017456155   -0.06668144080366481   -0.0012014108443214478
-0.008245259365965898   -0.06671677123915715   -0.00133454358681966
-0.008745584873558664   -0.054124315888288144   -0.0008816754137492318
-0.00819431331724784   -0.06679518435235003   -0.0013704953481683362
-0.0018615352017456155   -0.06668144080366481   -0.0012014108443214478
-0.008745584873558664   -0.054124315888288144   -0.0008816754137492318
-0.0017157005013135776   -0.054118164855320935   -0.0007083361051313695
-0.001624449914009497   -0.054236701613965   -0.0007205173453419452
-0.0018615352017456155   -0.06668144080366481   -0.0012014108443214478
-0.008745584873558664   -0.054124315888288144   -0.0008816754137492318
-0.001624449914009497   -0.054236701613965   -0.0007205173453419452
-0.00819431331724784   -0.06679518435235003   -0.0013704953481683362
-0.008106700047482167   -0.06704054727323035   -0.0014144619921528307
-0.008514167941679739   -0.05446565726557723   -0.0009935877651740012
-0.014364896850902963   -0.06690870887100198   -0.0016668968851985247
-0.008150208740180128   -0.06690327541011894   -0.0013972881020485335
-0.008514167941679739   -0.05446565726557723   -0.0009935877651740012
-0.015424876839434578   -0.054341449292109704   -0.0012250966274955856
-0.014364896850902963   -0.06690870887100198   -0.0016668968851985247
-0.015501050999687512   -0.05423425169721239   -0.0011628085199563748
-0.008150208740180128   -0.06690327541011894   -0.0013972881020485335
-0.01441179940725593   -0.06679585170991788   -0.0015962919525118718
-0.015501050999687512   -0.05423425169721239   -0.0011628085199563748
-0.014364896850902963   -0.06690870887100198   -0.0016668968851985247
-0.008150208740180128   -0.06690327541011894   -0.0013972881020485335
-0.015501050999687512   -0.05423425169721239   -0.0011628085199563748
-0.008588197455067859   -0.05433370177093867   -0.0009647667383904801
-0.008514167941679739   -0.05446565726557723   -0.0009935877651740012
-0.008150208740180128   -0.06690327541011894   -0.0013972881020485335
-0.015501050999687512   -0.05423425169721239   -0.0011628085199563748
-0.008514167941679739   -0.05446565726557723   -0.0009935877651740012
-0.014364896850902963   -0.06690870887100198   -0.0016668968851985247
-0.008150208740180128   -0.06690327541011894   -0.0013972881020485335
-0.008588197455067859   -0.05433370177093867   -0.0009647667383904801
-0.01441179940725593   -0.06679585170991788   -0.0015962919525118718
-0.00819431331724784   -0.06679518435235003   -0.0013704953481683362
-0.008588197455067859   -0.05433370177093867   -0.0009647667383904801
-0.015501050999687512   -0.05423425169721239   -0.0011628085199563748
-0.01441179940725593   -0.06679585170991788   -0.0015962919525118718
-0.015570173776447102   -0.05414474711997369   -0.0010921035155800774
-0.00819431331724784   -0.06679518435235003   -0.0013704953481683362
-0.014450685885396353   -0.06671189603128899   -0.0015162364097265977
-0.015570173776447102   -0.05414474711997369   -0.0010921035155800774
-0.01441179940725593   -0.06679585170991788   -0.0015962919525118718
-0.00819431331724784   -0.06679518435235003   -0.0013704953481683362
-0.015570173776447102   -0.05414474711997369   -0.0010921035155800774
-0.0086637081191389   -0.05421956537674892   -0.0009273292191805669
-0.008588197455067859   -0.05433370177093867   -0.0009647667383904801
-0.00819431331724784   -0.06679518435235003   -0.0013704953481683362
-0.015570173776447102   -0.05414474711997369   -0.0010921035155800774
-0.008588197455067859   -0.05433370177093867   -0.0009647667383904801
-0.01441179940725593   -0.06679585170991788   -0.0015962919525118718
-0.00819431331724784   -0.06679518435235003   -0.0013704953481683362
-0.0086637081191389   -0.05421956537674892   -0.0009273292191805669
-0.014450685885396353   -0.06671189603128899   -0.0015162364097265977
-0.008245259365965898   -0.06671677123915715   -0.00133454358681966
-0.0086637081191389   -0.05421956537674892   -0.0009273292191805669
-0.015570173776447102   -0.05414474711997369   -0.0010921035155800774
-0.014450685885396353   -0.06671189603128899   -0.0015162364097265977
-0.01563994939230758   -0.05407308945032006   -0.0010133040076376095
-0.008245259365965898   -0.06671677123915715   -0.00133454358681966
-0.014490694060383318   -0.06665672217763367   -0.001427009738227057
-0.01563994939230758   -0.05407308945032006   -0.0010133040076376095
-0.014450685885396353   -0.06671189603128899   -0.0015162364097265977
-0.008245259365965898   -0.06671677123915715   -0.00133454358681966
-0.01563994939230758   -0.05407308945032006   -0.0010133040076376095
-0.008745584873558664   -0.054124315888288144   -0.0008816754137492318
-0.0086637081191389   -0.05421956537674892   -0.0009273292191805669
-0.008245259365965898   -0.06671677123915715   -0.00133454358681966
-0.01563994939230758   -0.05407308945032006   -0.0010133040076376095
-0.0086637081191389   -0.05421956537674892   -0.0009273292191805669
-0.014450685885396353   -0.06671189603128899   -0.0015162364097265977
-0.014364896850902963   -0.06690870887100198   -0.0016668968851985247
-0.015424876839434578   -0.054341449292109704   -0.0012250966274955856
-0.020771966443055255   -0.0666828639353729   -0.0018778401749537754
-0.01441179940725593   -0.06679585170991788   -0.0015962919525118718
-0.015424876839434578   -0.054341449292109704   -0.0012250966274955856
-0.022472373747557024   -0.05415711106206583   -0.0014144256942357249
-0.020771966443055255   -0.0666828639353729   -0.0018778401749537754
-0.02254313917079411   -0.054074892479310493   -0.0013184167022919897
-0.01441179940725593   -0.06679585170991788   -0.0015962919525118718
-0.020810840846932674   -0.06659387411722836   -0.0017530805877452717
-0.02254313917079411   -0.054074892479310493   -0.0013184167022919897
-0.020771966443055255   -0.0666828639353729   -0.0018778401749537754
-0.01441179940725593   -0.06679585170991788   -0.0015962919525118718
-0.02254313917079411   -0.054074892479310493   -0.0013184167022919897
-0.015501050999687512   -0.05423425169721239   -0.0011628085199563748
-0.015424876839434578   -0.054341449292109704   -0.0012250966274955856
-0.01441179940725593   -0.06679585170991788   -0.0015962919525118718
-0.02254313917079411   -0.054074892479310493   -0.0013184167022919897
-0.015424876839434578   -0.054341449292109704   -0.0012250966274955856
-0.020771966443055255   -0.0666828639353729   -0.0018778401749537754
-0.01441179940725593   -0.06679585170991788   -0.0015962919525118718
-0.015501050999687512   -0.05423425169721239   -0.0011628085199563748
-0.020810840846932674   -0.06659387411722836   -0.0017530805877452717
-0.014450685885396353   -0.06671189603128899   -0.0015162364097265977
-0.015501050999687512   -0.05423425169721239   -0.0011628085199563748
-0.02254313917079411   -0.054074892479310493   -0.0013184167022919897
-0.020810840846932674   -0.06659387411722836   -0.0017530805877452717
-0.022586148745847096   -0.054008081480893214   -0.0012151298465535333
-0.014450685885396353   -0.06671189603128899   -0.0015162364097265977
-0.02081606510995624   -0.06653198466367864   -0.0016201787633929711
-0.022586148745847096   -0.054008081480893214   -0.0012151298465535333
-0.020810840846932674   -0.06659387411722836   -0.0017530805877452717
-0.014450685885396353   -0.06671189603128899   -0.0015162364097265977
-0.022586148745847096   -0.054008081480893214   -0.0012151298465535333
-0.015570173776447102   -0.05414474711997369   -0.0010921035155800774
-0.015501050999687512   -0.05423425169721239   -0.0011628085199563748
-0.014450685885396353   -0.06671189603128899   -0.0015162364097265977
-0.022586148745847096   -0.054008081480893214   -0.0012151298465535333
-0.015501050999687512   -0.05423425169721239   -0.0011628085199563748
-0.020810840846932674   -0.06659387411722836   -0.0017530805877452717
-0.014450685885396353   -0.06671189603128899   -0.0015162364097265977
-0.015570173776447102   -0.05414474711997369   -0.0010921035155800774
-0.02081606510995624   -0.06653198466367864   -0.0016201787633929711
-0.014490694060383318   -0.06665672217763367   -0.001427009738227057
-0.015570173776447102   -0.05414474711997369   -0.0010921035155800774
-0.022586148745847096   -0.054008081480893214   -0.0012151298465535333
-0.02081606510995624   -0.06653198466367864   -0.0016201787633929711
-0.0226333139555843   -0.05396065808646921   -0.0011030587670566466
-0.014490694060383318   -0.06665672217763367   -0.001427009738227057
-0.020830783929101565   -0.06650146008056237   -0.0014774122921514111
-0.0226333139555843   -0.05396065808646921   -0.0011030587670566466
-0.02081606510995624   -0.06653198466367864   -0.0016201787633929711
-0.014490694060383318   -0.06665672217763367   -0.001427009738227057
-0.0226333139555843   -0.05396065808646921   -0.0011030587670566466
-0.01563994939230758   -0.05407308945032006   -0.0010133040076376095
-0.015570173776447102   -0.05414474711997369   -0.0010921035155800774
-0.014490694060383318   -0.06665672217763367   -0.001427009738227057
-0.0226333139555843   -0.05396065808646921   -0.0011030587670566466
-0.015570173776447102   -0.05414474711997369   -0.0010921035155800774
-0.02081606510995624   -0.06653198466367864   -0.0016201787633929711
-0.020771966443055255   -0.0666828639353729   -0.0018778401749537754
-0.022472373747557024   -0.05415711106206583   -0.0014144256942357249
-0.027758353953834806   -0.06638689055889921   -0.0020580209250703834
-0.020810840846932674   -0.06659387411722836   -0.0017530805877452717
-0.022472373747557024   -0.05415711106206583   -0.0014144256942357249
-0.030035441921428176   -0.0539305906364568   -0.0015650846097904694
-0.027758353953834806   -0.06638689055889921   -0.0020580209250703834
-0.029984247955226948   -0.05386120472925806   -0.0014373364114553385
-0.020810840846932674   -0.06659387411722836   -0.0017530805877452717
-0.027625443271980552   -0.06630560494070019   -0.0018760849653518066
-0.029984247955226948   -0.05386120472925806   -0.0014373364114553385
-0.027758353953834806   -0.06638689055889921   -0.0020580209250703834
-0.020810840846932674   -0.06659387411722836   -0.0017530805877452717
-0.029984247955226948   -0.05386120472925806   -0.0014373364114553385
-0.02254313917079411   -0.054074892479310493   -0.0013184167022919897
-0.022472373747557024   -0.05415711106206583   -0.0014144256942357249
-0.020810840846932674   -0.06659387411722836   -0.0017530805877452717
-0.029984247955226948   -0.05386120472925806   -0.0014373364114553385
-0.022472373747557024   -0.05415711106206583   -0.0014144256942357249
-0.027758353953834806   -0.06638689055889921   -0.0020580209250703834
-0.020810840846932674   -0.06659387411722836   -0.0017530805877452717
-0.02254313917079411   -0.054074892479310493   -0.0013184167022919897
-0.027625443271980552   -0.06630560494070019   -0.0018760849653518066
-0.02081606510995624   -0.06653198466367864   -0.0016201787633929711
-0.02254313917079411   -0.054074892479310493   -0.0013184167022919897
-0.029984247955226948   -0.05386120472925806   -0.0014373364114553385
-0.027625443271980552   -0.06630560494070019   -0.0018760849653518066
-0.029942540461218078   -0.05380508144005688   -0.0012962342947151653
-0.02081606510995624   -0.06653198466367864   -0.0016201787633929711
-0.027513339929685795   -0.06625306601122259   -0.001679938949581086
-0.029942540461218078   -0.05380508144005688   -0.0012962342947151653
-0.027625443271980552   -0.06630560494070019   -0.0018760849653518066
-0.02081606510995624   -0.06653198466367864   -0.0016201787633929711
-0.029942540461218078   -0.05380508144005688   -0.0012962342947151653
-0.022586148745847096   -0.054008081480893214   -0.0012151298465535333
-0.02254313917079411   -0.054074892479310493   -0.0013184167022919897
-0.02081606510995624   -0.06653198466367864   -0.0016201787633929711
-0.029942540461218078   -0.05380508144005688   -0.0012962342947151653
-0.02254313917079411   -0.054074892479310493   -0.0013184167022919897
-0.027625443271980552   -0.06630560494070019   -0.0018760849653518066
-0.02081606510995624   -0.06653198466367864   -0.0016201787633929711
-0.022586148745847096   -0.054008081480893214   -0.0012151298465535333
-0.027513339929685795   -0.06625306601122259   -0.001679938949581086
-0.020830783929101565   -0.06650146008056237   -0.0014774122921514111
-0.022586148745847096   -0.054008081480893214   -0.0012151298465535333
-0.029942540461218078   -0.05380508144005688   -0.0012962342947151653
-0.027513339929685795   -0.06625306601122259   -0.001679938949581086
-0.029841586843032834   -0.05378667171304888   -0.0011433024191319298
-0.020830783929101565   -0.06650146008056237   -0.0014774122921514111
-0.027328090549430438   -0.06625386761087067   -0.0014713525350516874
-0.029841586843032834   -0.05378667171304888   -0.0011433024191319298
-0.027513339929685795   -0.06625306601122259   -0.001679938949581086
-0.020830783929101565   -0.06650146008056237   -0.0014774122921514111
-0.029841586843032834   -0.05378667171304888   -0.0011433024191319298
-0.0226333139555843   -0.05396065808646921   -0.0011030587670566466
-0.022586148745847096   -0.054008081480893214   -0.0012151298465535333
-0.020830783929101565   -0.06650146008056237   -0.0014774122921514111
-0.029841586843032834   -0.05378667171304888   -0.0011433024191319298
-0.022586148745847096   -0.054008081480893214   -0.0012151298465535333
-0.027513339929685795   -0.06625306601122259   -0.001679938949581086
0.00588568933048259   -0.05453438875650144   -0.000387604910633533
0.006077506864644943   -0.0412051539269933   -5.969104872859434e-05
-0.0014845817750417647   -0.054532383184658584   -0.0007194020656785301
0.005863667594427414   -0.05435188885145031   -0.00043908974091338325
0.006077506864644943   -0.0412051539269933   -5.969104872859434e-05
-0.0017078138826390147   -0.041136258528563924   -0.00035820102853578246
-0.0014845817750417647   -0.054532383184658584   -0.0007194020656785301
-0.0017986021399764376   -0.04098422542271087   -0.00033113692775434497
0.005863667594427414   -0.05435188885145031   -0.00043908974091338325
-0.001550835859012412   -0.054373598477119256   -0.0007240972556564027
-0.0017986021399764376   -0.04098422542271087   -0.00033113692775434497
-0.0014845817750417647   -0.054532383184658584   -0.0007194020656785301
0.005863667594427414   -0.05435188885145031   -0.00043908974091338325
-0.0017986021399764376   -0.04098422542271087   -0.00033113692775434497
0.005980749610689498   -0.041031000959769685   -5.3796571108305305e-05
0.006077506864644943   -0.0412051539269933   -5.969104872859434e-05
0.005863667594427414   -0.05435188885145031   -0.00043908974091338325
-0.0017986021399764376   -0.04098422542271087   -0.00033113692775434497
0.006077506864644943   -0.0412051539269933   -5.969104872859434e-05
-0.0014845817750417647   -0.054532383184658584   -0.0007194020656785301
0.005863667594427414   -0.05435188885145031   -0.00043908974091338325
0.005980749610689498   -0.041031000959769685   -5.3796571108305305e-05
-0.001550835859012412   -0.054373598477119256   -0.0007240972556564027
0.005810036005261388   -0.05420474372978067   -0.00047731113795317217
0.005980749610689498   -0.041031000959769685   -5.3796571108305305e-05
-0.0017986021399764376   -0.04098422542271087   -0.00033113692775434497
-0.001550835859012412   -0.054373598477119256   -0.0007240972556564027
-0.0019025097630296906   -0.040840567805470414   -0.0002965808199474031
0.005810036005261388   -0.05420474372978067   -0.00047731113795317217
-0.001624449914009497   -0.054236701613965   -0.0007205173453419452
-0.0019025097630296906   -0.040840567805470414   -0.0002965808199474031
-0.001550835859012412   -0.054373598477119256   -0.0007240972556564027
0.005810036005261388   -0.05420474372978067   -0.00047731113795317217
-0.0019025097630296906   -0.040840567805470414   -0.0002965808199474031
0.005862303215608676   -0.0408751338172693   -3.258604667667307e-05
0.005980749610689498   -0.041031000959769685   -5.3796571108305305e-05
0.005810036005261388   -0.05420474372978067   -0.00047731113795317217
-0.0019025097630296906   -0.040840567805470414   -0.0002965808199474031
0.005980749610689498   -0.041031000959769685   -5.3796571108305305e-05
-0.001550835859012412   -0.054373598477119256   -0.0007240972556564027
0.005810036005261388   -0.05420474372978067   -0.00047731113795317217
0.005862303215608676   -0.0408751338172693   -3.258604667667307e-05
-0.001624449914009497   -0.054236701613965   -0.0007205173453419452
0.005735271375524496   -0.05406909231366055   -0.0005031952298302067
0.005862303215608676   -0.0408751338172693   -3.258604667667307e-05
-0.0019025097630296906   -0.040840567805470414   -0.0002965808199474031
-0.001624449914009497   -0.054236701613965   -0.0007205173453419452
-0.0020190548585759622   -0.040703328056274   -0.0002526531202070064
0.005735271375524496   -0.05406909231366055   -0.0005031952298302067
-0.0017157005013135776   -0.054118164855320935   -0.0007083361051313695
-0.0020190548585759622   -0.040703328056274   -0.0002526531202070064
-0.001624449914009497   -0.054236701613965   -0.0007205173453419452
0.005735271375524496   -0.05406909231366055   -0.0005031952298302067
-0.0020190548585759622   -0.040703328056274   -0.0002526531202070064
0.00570625298380105   -0.04071196588924783   3.2450309374637964e-06
0.005862303215608676   -0.0408751338172693   -3.258604667667307e-05
0.005735271375524496   -0.05406909231366055   -0.0005031952298302067
-0.0020190548585759622   -0.040703328056274   -0.0002526531202070064
0.005862303215608676   -0.0408751338172693   -3.258604667667307e-05
-0.001624449914009497   -0.054236701613965   -0.0007205173453419452
-0.0014845817750417647   -0.054532383184658584   -0.0007194020656785301
-0.0017078138826390147   -0.041136258528563924   -0.00035820102853578246
-0.008514167941679739   -0.05446565726557723   -0.0009935877651740012
-0.001550835859012412   -0.054373598477119256   -0.0007240972556564027
-0.0017078138826390147   -0.041136258528563924   -0.00035820102853578246
-0.009084911894229497   -0.041056398972561546   -0.0006111817548714802
-0.008514167941679739   -0.05446565726557723   -0.0009935877651740012
-0.009177414586156302   -0.04092908607743214   -0.0005699982108447811
-0.001550835859012412   -0.054373598477119256   -0.0007240972556564027
-0.008588197455067859   -0.05433370177093867   -0.0009647667383904801
-0.009177414586156302   -0.04092908607743214   -0.0005699982108447811
-0.008514167941679739   -0.05446565726557723   -0.0009935877651740012
-0.001550835859012412   -0.054373598477119256   -0.0007240972556564027
-0.009177414586156302   -0.04092908607743214   -0.0005699982108447811
-0.0017986021399764376   -0.04098422542271087   -0.00033113692775434497
-0.0017078138826390147   -0.041136258528563924   -0.00035820102853578246
-0.001550835859012412   -0.054373598477119256   -0.0007240972556564027
-0.009177414586156302   -0.04092908607743214   -0.0005699982108447811
-0.0017078138826390147   -0.041136258528563924   -0.00035820102853578246
-0.008514167941679739   -0.05446565726557723   -0.0009935877651740012
-0.001550835859012412   -0.054373598477119256   -0.0007240972556564027
-0.0017986021399764376   -0.04098422542271087   -0.00033113692775434497
-0.008588197455067859   -0.05433370177093867   -0.0009647667383904801
-0.001624449914009497   -0.054236701613965   -0.0007205173453419452
-0.0017986021399764376   -0.04098422542271087   -0.00033113692775434497
-0.009177414586156302   -0.04092908607743214   -0.0005699982108447811
-0.008588197455067859   -0.05433370177093867   -0.0009647667383904801
-0.009271975072165088   -0.040808278075088536   -0.00052168144957821
-0.001624449914009497   -0.054236701613965   -0.0007205173453419452
-0.0086637081191389   -0.05421956537674892   -0.0009273292191805669
-0.009271975072165088   -0.040808278075088536   -0.00052168144957821
-0.008588197455067859   -0.05433370177093867   -0.0009647667383904801
-0.001624449914009497   -0.054236701613965   -0.0007205173453419452
-0.009271975072165088   -0.040808278075088536   -0.00052168144957821
-0.0019025097630296906   -0.040840567805470414   -0.0002965808199474031
-0.0017986021399764376   -0.04098422542271087   -0.00033113692775434497
-0.001624449914009497   -0.054236701613965   -0.0007205173453419452
-0.009271975072165088   -0.040808278075088536   -0.00052168144957821
-0.0017986021399764376   -0.04098422542271087   -0.00033113692775434497
-0.008588197455067859   -0.05433370177093867   -0.0009647667383904801
-0.001624449914009497   -0.054236701613965   -0.0007205173453419452
-0.0019025097630296906   -0.040840567805470414   -0.0002965808199474031
-0.0086637081191389   -0.05421956537674892   -0.0009273292191805669
-0.0017157005013135776   -0.054118164855320935   -0.0007083361051313695
-0.0019025097630296906   -0.040840567805470414   -0.0002965808199474031
-0.009271975072165088   -0.040808278075088536   -0.00052168144957821
-0.0086637081191389   -0.05421956537674892   -0.0009273292191805669
-0.009372527531561418   -0.040695825672797996   -0.0004661493337517811
-0.0017157005013135776   -0.054118164855320935   -0.0007083361051313695
-0.008745584873558664   -0.054124315888288144   -0.0008816754137492318
-0.009372527531561418   -0.040695825672797996   -0.0004661493337517811
-0.0086637081191389   -0.05421956537674892   -0.0009273292191805669
-0.0017157005013135776   -0.054118164855320935   -0.0007083361051313695
-0.009372527531561418   -0.040695825672797996   -0.0004661493337517811
-0.0020190548585759622   -0.040703328056274   -0.0002526531202070064
-0.0019025097630296906   -0.040840567805470414   -0.0002965808199474031
-0.0017157005013135776   -0.054118164855320935   -0.0007083361051313695
-0.009372527531561418   -0.040695825672797996   -0.0004661493337517811
-0.0019025097630296906   -0.040840567805470414   -0.0002965808199474031
-0.0086637081191389   -0.05421956537674892   -0.0009273292191805669
-0.008514167941679739   -0.05446565726557723   -0.0009935877651740012
-0.009084911894229497   -0.041056398972561546   -0.0006111817548714802
-0.015424876839434578   -0.054341449292109704   -0.0012250966274955856
-0.008588197455067859   -0.05433370177093867   -0.0009647667383904801
-0.009084911894229497   -0.041056398972561546   -0.0006111817548714802
-0.016342226271615547   -0.04096083359261595   -0.0008262344595337799
-0.015424876839434578   -0.054341449292109704   -0.0012250966274955856
-0.016434015732628694   -0.040856453085103356   -0.0007709241206053417
-0.008588197455067859   -0.05433370177093867   -0.0009647667383904801
-0.015501050999687512   -0.05423425169721239   -0.0011628085199563748
-0.016434015732628694   -0.040856453085103356   -0.0007709241206053417
-0.015424876839434578   -0.054341449292109704   -0.0012250966274955856
-0.008588197455067859   -0.05433370177093867   -0.0009647667383904801
-0.016434015732628694   -0.040856453085103356   -0.0007709241206053417
-0.009177414586156302   -0.04092908607743214   -0.0005699982108447811
-0.009084911894229497   -0.041056398972561546   -0.0006111817548714802
-0.008588197455067859   -0.05433370177093867   -0.0009647667383904801
-0.016434015732628694   -0.040856453085103356   -0.0007709241206053417
-0.009084911894229497   -0.041056398972561546   -0.0006111817548714802
-0.015424876839434578   -0.054341449292109704   -0.0012250966274955856
-0.008588197455067859   -0.05433370177093867   -0.0009647667383904801
-0.009177414586156302   -0.04092908607743214   -0.0005699982108447811
-0.015501050999687512   -0.05423425169721239   -0.0011628085199563748
-0.0086637081191389   -0.05421956537674892   -0.0009273292191805669
-0.009177414586156302   -0.04092908607743214   -0.0005699982108447811
-0.016434015732628694   -0.040856453085103356   -0.0007709241206053417
-0.015501050999687512   -0.05423425169721239   -0.0011628085199563748
-0.016519878871297376   -0.04075895488418766   -0.0007087247669110971
-0.0086637081191389   -0.05421956537674892   -0.0009273292191805669
-0.015570173776447102   -0.05414474711997369   -0.0010921035155800774
-0.016519878871297376   -0.04075895488418766   -0.0007087247669110971
-0.015501050999687512   -0.05423425169721239   -0.0011628085199563748
-0.0086637081191389   -0.05421956537674892   -0.0009273292191805669
-0.016519878871297376   -0.04075895488418766   -0.0007087247669110971
-0.009271975072165088   -0.040808278075088536   -0.00052168144957821
-0.009177414586156302   -0.04092908607743214   -0.0005699982108447811
-0.0086637081191389   -0.05421956537674892   -0.0009273292191805669
-0.016519878871297376   -0.04075895488418766   -0.0007087247669110971
-0.009177414586156302   -0.04092908607743214   -0.0005699982108447811
-0.015501050999687512   -0.05423425169721239   -0.0011628085199563748
-0.0086637081191389   -0.05421956537674892   -0.0009273292191805669
-0.009271975072165088   -0.040808278075088536   -0.00052168144957821
-0.015570173776447102   -0.05414474711997369   -0.0010921035155800774
-0.008745584873558664   -0.054124315888288144   -0.0008816754137492318
-0.009271975072165088   -0.040808278075088536   -0.00052168144957821
-0.016519878871297376   -0.04075895488418766   -0.0007087247669110971
-0.015570173776447102   -0.05414474711997369   -0.0010921035155800774
-0.01660604873008321   -0.04066861225038077   -0.0006399791226527499
-0.008745584873558664   -0.054124315888288144   -0.0008816754137492318
-0.01563994939230758   -0.05407308945032006   -0.0010133040076376095
-0.01660604873008321   -0.04066861225038077   -0.0006399791226527499
-0.015570173776447102   -0.05414474711997369   -0.0010921035155800774
-0.008745584873558664   -0.054124315888288144   -0.0008816754137492318
-0.01660604873008321   -0.04066861225038077   -0.0006399791226527499
-0.009372527531561418   -0.040695825672797996   -0.0004661493337517811
-0.009271975072165088   -0.040808278075088536   -0.00052168144957821
-0.008745584873558664   -0.054124315888288144   -0.0008816754137492318
-0.01660604873008321   -0.04066861225038077   -0.0006399791226527499
-0.009271975072165088   -0.040808278075088536   -0.00052168144957821
-0.015570173776447102   -0.05414474711997369   -0.0010921035155800774
-0.015424876839434578   -0.054341449292109704   -0.0012250966274955856
-0.016342226271615547   -0.04096083359261595   -0.0008262344595337799
-0.022472373747557024   -0.05415711106206583   -0.0014144256942357249
-0.015501050999687512   -0.05423425169721239   -0.0011628085199563748
-0.016342226271615547   -0.04096083359261595   -0.0008262344595337799
-0.023730488165975137   -0.040831769475314875   -0.0010015245535211085
-0.022472373747557024   -0.05415711106206583   -0.0014144256942357249
-0.023818404697781327   -0.04075151872267561   -0.0009322544237020398
-0.015501050999687512   -0.05423425169721239   -0.0011628085199563748
-0.02254313917079411   -0.054074892479310493   -0.0013184167022919897
-0.023818404697781327   -0.04075151872267561   -0.0009322544237020398
-0.022472373747557024   -0.05415711106206583   -0.0014144256942357249
-0.015501050999687512   -0.05423425169721239   -0.0011628085199563748
-0.023818404697781327   -0.04075151872267561   -0.0009322544237020398
-0.016434015732628694   -0.040856453085103356   -0.0007709241206053417
-0.016342226271615547   -0.04096083359261595   -0.0008262344595337799
-0.015501050999687512   -0.05423425169721239   -0.0011628085199563748
-0.023818404697781327   -0.04075151872267561   -0.0009322544237020398
-0.016342226271615547   -0.04096083359261595   -0.0008262344595337799
-0.022472373747557024   -0.05415711106206583   -0.0014144256942357249
-0.015501050999687512   -0.05423425169721239   -0.0011628085199563748
-0.016434015732628694   -0.040856453085103356   -0.0007709241206053417
-0.02254313917079411   -0.054074892479310493   -0.0013184167022919897
-0.015570173776447102   -0.05414474711997369   -0.0010921035155800774
-0.016434015732628694   -0.040856453085103356   -0.0007709241206053417
-0.023818404697781327   -0.04075151872267561   -0.0009322544237020398
-0.02254313917079411   -0.054074892479310493   -0.0013184167022919897
-0.023885155494171105   -0.04067547440009023   -0.0008572392588804154
-0.015570173776447102   -0.05414474711997369   -0.0010921035155800774
-0.022586148745847096   -0.054008081480893214   -0.0012151298465535333
-0.023885155494171105   -0.04067547440009023   -0.0008572392588804154
-0.02254313917079411   -0.054074892479310493   -0.0013184167022919897
-0.015570173776447102   -0.05414474711997369   -0.0010921035155800774
-0.023885155494171105   -0.04067547440009023   -0.0008572392588804154
-0.016519878871297376   -0.04075895488418766   -0.0007087247669110971
-0.016434015732628694   -0.040856453085103356   -0.0007709241206053417
-0.015570173776447102   -0.05414474711997369   -0.0010921035155800774
-0.023885155494171105   -0.04067547440009023   -0.0008572392588804154
-0.016434015732628694   -0.040856453085103356   -0.0007709241206053417
-0.02254313917079411   -0.054074892479310493   -0.0013184167022919897
-0.015570173776447102   -0.05414474711997369   -0.0010921035155800774
-0.016519878871297376   -0.04075895488418766   -0.0007087247669110971
-0.022586148745847096   -0.054008081480893214   -0.0012151298465535333
-0.01563994939230758   -0.05407308945032006   -0.0010133040076376095
-0.016519878871297376   -0.04075895488418766   -0.0007087247669110971
-0.023885155494171105   -0.04067547440009023   -0.0008572392588804154
-0.022586148745847096   -0.054008081480893214   -0.0012151298465535333
-0.023951362488147093   -0.04060697329701062   -0.0007749739707791056
-0.01563994939230758   -0.05407308945032006   -0.0010133040076376095
-0.0226333139555843   -0.05396065808646921   -0.0011030587670566466
-0.023951362488147093   -0.04060697329701062   -0.0007749739707791056
-0.022586148745847096   -0.054008081480893214   -0.0012151298465535333
-0.01563994939230758   -0.05407308945032006   -0.0010133040076376095
-0.023951362488147093   -0.04060697329701062   -0.0007749739707791056
-0.01660604873008321   -0.04066861225038077   -0.0006399791226527499
-0.016519878871297376   -0.04075895488418766   -0.0007087247669110971
-0.01563994939230758   -0.05407308945032006   -0.0010133040076376095
-0.023951362488147093   -0.04060697329701062   -0.0007749739707791056
-0.016519878871297376   -0.04075895488418766   -0.0007087247669110971
-0.022586148745847096   -0.054008081480893214   -0.0012151298465535333
-0.022472373747557024   -0.05415711106206583   -0.0014144256942357249
-0.023730488165975137   -0.040831769475314875   -0.0010015245535211085
-0.030035441921428176   -0.0539305906364568   -0.0015650846097904694
-0.02254313917079411   -0.054074892479310493   -0.0013184167022919897
-0.023730488165975137   -0.040831769475314875   -0.0010015245535211085
-0.03156003829053751   -0.0406795113722397   -0.0011318645687886165
-0.030035441921428176   -0.0539305906364568   -0.0015650846097904694
-0.031574058164141286   -0.040615320671684774   -0.0010555195458546202
-0.02254313917079411   -0.054074892479310493   -0.0013184167022919897
-0.029984247955226948   -0.05386120472925806   -0.0014373364114553385
-0.031574058164141286   -0.040615320671684774   -0.0010555195458546202
-0.030035441921428176   -0.0539305906364568   -0.0015650846097904694
-0.02254313917079411   -0.054074892479310493   -0.0013184167022919897
-0.031574058164141286   -0.040615320671684774   -0.0010555195458546202
-0.023818404697781327   -0.04075151872267561   -0.0009322544237020398
-0.023730488165975137   -0.040831769475314875   -0.0010015245535211085
-0.02254313917079411   -0.054074892479310493   -0.0013184167022919897
-0.031574058164141286   -0.040615320671684774   -0.0010555195458546202
-0.023730488165975137   -0.040831769475314875   -0.0010015245535211085
-0.030035441921428176   -0.0539305906364568   -0.0015650846097904694
-0.02254313917079411   -0.054074892479310493   -0.0013184167022919897
-0.023818404697781327   -0.04075151872267561   -0.0009322544237020398
-0.029984247955226948   -0.05386120472925806   -0.0014373364114553385
-0.022586148745847096   -0.054008081480893214   -0.0012151298465535333
-0.023818404697781327   -0.04075151872267561   -0.0009322544237020398
-0.031574058164141286   -0.040615320671684774   -0.0010555195458546202
-0.029984247955226948   -0.05386120472925806   -0.0014373364114553385
-0.03158836917173069   -0.04055029295832079   -0.0009675992118639603
-0.022586148745847096   -0.054008081480893214   -0.0012151298465535333
-0.029942540461218078   -0.05380508144005688   -0.0012962342947151653
-0.03158836917173069   -0.04055029295832079   -0.0009675992118639603
-0.029984247955226948   -0.05386120472925806   -0.0014373364114553385
-0.022586148745847096   -0.054008081480893214   -0.0012151298465535333
-0.03158836917173069   -0.04055029295832079   -0.0009675992118639603
-0.023885155494171105   -0.04067547440009023   -0.0008572392588804154
-0.023818404697781327   -0.04075151872267561   -0.0009322544237020398
-0.022586148745847096   -0.054008081480893214   -0.0012151298465535333
-0.03158836917173069   -0.04055029295832079   -0.0009675992118639603
-0.023818404697781327   -0.04075151872267561   -0.0009322544237020398
-0.029984247955226948   -0.05386120472925806   -0.0014373364114553385
-0.022586148745847096   -0.054008081480893214   -0.0012151298465535333
-0.023885155494171105   -0.04067547440009023   -0.0008572392588804154
-0.029942540461218078   -0.05380508144005688   -0.0012962342947151653
-0.0226333139555843   -0.05396065808646921   -0.0011030587670566466
-0.023885155494171105   -0.04067547440009023   -0.0008572392588804154
-0.03158836917173069   -0.04055029295832079   -0.0009675992118639603
-0.029942540461218078   -0.05380508144005688   -0.0012962342947151653
-0.031558811390120324   -0.040507025149840566   -0.0008694814386251291
-0.0226333139555843   -0.05396065808646921   -0.0011030587670566466
-0.029841586843032834   -0.05378667171304888   -0.0011433024191319298
-0.031558811390120324   -0.040507025149840566   -0.0008694814386251291
-0.029942540461218078   -0.05380508144005688   -0.0012962342947151653
-0.0226333139555843   -0.05396065808646921   -0.0011030587670566466
-0.031558811390120324   -0.040507025149840566   -0.0008694814386251291
-0.023951362488147093   -0.04060697329701062   -0.0007749739707791056
-0.023885155494171105   -0.04067547440009023   -0.0008572392588804154
-0.0226333139555843   -0.05396065808646921   -0.0011030587670566466
-0.031558811390120324   -0.040507025149840566   -0.0008694814386251291
-0.023885155494171105   -0.04067547440009023   -0.0008572392588804154
-0.029942540461218078   -0.05380508144005688   -0.0012962342947151653
0.006077506864644943   -0.0412051539269933   -5.969104872859434e-05
0.005443432770397289   -0.027485567277258094   0.00016657689135573817
-0.0017078138826390147   -0.041136258528563924   -0.00035820102853578246
0.005980749610689498   -0.041031000959769685   -5.3796571108305305e-05
0.005443432770397289   -0.027485567277258094   0.00016657689135573817
-0.002396893545806349   -0.027355912845775848   -7.103436465926993e-05
-0.0017078138826390147   -0.041136258528563924   -0.00035820102853578246
-0.0025051855650480817   -0.027218175776549867   -1.4793944747077055e-05
0.005980749610689498   -0.041031000959769685   -5.3796571108305305e-05
-0.0017986021399764376   -0.04098422542271087   -0.00033113692775434497
-0.0025051855650480817   -0.027218175776549867   -1.4793944747077055e-05
-0.0017078138826390147   -0.041136258528563924   -0.00035820102853578246
0.005980749610689498   -0.041031000959769685   -5.3796571108305305e-05
-0.0025051855650480817   -0.027218175776549867   -1.4793944747077055e-05
0.00527258342601642   -0.027319564999412783   0.000236818319098863
0.005443432770397289   -0.027485567277258094   0.00016657689135573817
0.005980749610689498   -0.041031000959769685   -5.3796571108305305e-05
-0.0025051855650480817   -0.027218175776549867   -1.4793944747077055e-05
0.005443432770397289   -0.027485567277258094   0.00016657689135573817
-0.0017078138826390147   -0.041136258528563924   -0.00035820102853578246
0.005980749610689498   -0.041031000959769685   -5.3796571108305305e-05
0.00527258342601642   -0.027319564999412783   0.000236818319098863
-0.0017986021399764376   -0.04098422542271087   -0.00033113692775434497
0.005862303215608676   -0.0408751338172693   -3.258604667667307e-05
0.00527258342601642   -0.027319564999412783   0.000236818319098863
-0.0025051855650480817   -0.027218175776549867   -1.4793944747077055e-05
-0.0017986021399764376   -0.04098422542271087   -0.00033113692775434497
-0.002631819714791195   -0.027072744559133877   5.141390497235947e-05
0.005862303215608676   -0.0408751338172693   -3.258604667667307e-05
-0.0019025097630296906   -0.040840567805470414   -0.0002965808199474031
-0.002631819714791195   -0.027072744559133877   5.141390497235947e-05
-0.0017986021399764376   -0.04098422542271087   -0.00033113692775434497
0.005862303215608676   -0.0408751338172693   -3.258604667667307e-05
-0.002631819714791195   -0.027072744559133877   5.141390497235947e-05
0.005082125966073646   -0.027154556875766525   0.0003374891884941994
0.00527258342601642   -0.027319564999412783   0.000236818319098863
0.005862303215608676   -0.0408751338172693   -3.258604667667307e-05
-0.002631819714791195   -0.027072744559133877   5.141390497235947e-05
0.00527258342601642   -0.027319564999412783   0.000236818319098863
-0.0017986021399764376   -0.04098422542271087   -0.00033113692775434497
0.005862303215608676   -0.0408751338172693   -3.258604667667307e-05
0.005082125966073646   -0.027154556875766525   0.0003374891884941994
-0.0019025097630296906   -0.040840567805470414   -0.0002965808199474031
0.00570625298380105   -0.04071196588924783   3.2450309374637964e-06
0.005082125966073646   -0.027154556875766525   0.0003374891884941994
-0.002631819714791195   -0.027072744559133877   5.141390497235947e-05
-0.0019025097630296906   -0.040840567805470414   -0.0002965808199474031
-0.0027627503184024355   -0.026918271861981376   0.00012744837440254657
0.00570625298380105   -0.04071196588924783   3.2450309374637964e-06
-0.0020190548585759622   -0.040703328056274   -0.0002526531202070064
-0.0027627503184024355   -0.026918271861981376   0.00012744837440254657
-0.0019025097630296906   -0.040840567805470414   -0.0002965808199474031
0.00570625298380105   -0.04071196588924783   3.2450309374637964e-06
-0.0027627503184024355   -0.026918271861981376   0.00012744837440254657
0.0048494356003130935   -0.026951912397564164   0.0004482261105775665
0.005082125966073646   -0.027154556875766525   0.0003374891884941994
0.00570625298380105   -0.04071196588924783   3.2450309374637964e-06
-0.0027627503184024355   -0.026918271861981376   0.00012744837440254657
0.005082125966073646   -0.027154556875766525   0.0003374891884941994
-0.0019025097630296906   -0.040840567805470414   -0.0002965808199474031
-0.0017078138826390147   -0.041136258528563924   -0.00035820102853578246
-0.002396893545806349   -0.027355912845775848   -7.103436465926993e-05
-0.009084911894229497   -0.041056398972561546   -0.0006111817548714802
-0.0017986021399764376   -0.04098422542271087   -0.00033113692775434497
-0.002396893545806349   -0.027355912845775848   -7.103436465926993e-05
-0.009780735211950106   -0.027322377197012526   -0.00030023336206243034
-0.009084911894229497   -0.041056398972561546   -0.0006111817548714802
-0.00987853137760036   -0.02720203195936245   -0.00024802365272451213
-0.0017986021399764376   -0.04098422542271087   -0.00033113692775434497
-0.009177414586156302   -0.04092908607743214   -0.0005699982108447811
-0.00987853137760036   -0.02720203195936245   -0.00024802365272451213
-0.009084911894229497   -0.041056398972561546   -0.0006111817548714802
-0.0017986021399764376   -0.04098422542271087   -0.00033113692775434497
-0.00987853137760036   -0.02720203195936245   -0.00024802365272451213
-0.0025051855650480817   -0.027218175776549867   -1.4793944747077055e-05
-0.002396893545806349   -0.027355912845775848   -7.103436465926993e-05
-0.0017986021399764376   -0.04098422542271087   -0.00033113692775434497
-0.00987853137760036   -0.02720203195936245   -0.00024802365272451213
-0.002396893545806349   -0.027355912845775848   -7.103436465926993e-05
-0.009084911894229497   -0.041056398972561546   -0.0006111817548714802
-0.0017986021399764376   -0.04098422542271087   -0.00033113692775434497
-0.0025051855650480817   -0.027218175776549867   -1.4793944747077055e-05
-0.009177414586156302   -0.04092908607743214   -0.0005699982108447811
-0.0019025097630296906   -0.040840567805470414   -0.0002965808199474031
-0.0025051855650480817   -0.027218175776549867   -1.4793944747077055e-05
-0.00987853137760036   -0.02720203195936245   -0.00024802365272451213
-0.009177414586156302   -0.04092908607743214   -0.0005699982108447811
-0.009979673556936287   -0.027076826258593024   -0.00019065693603138693
-0.0019025097630296906   -0.040840567805470414   -0.0002965808199474031
-0.009271975072165088   -0.040808278075088536   -0.00052168144957821
-0.009979673556936287   -0.027076826258593024   -0.00019065693603138693
-0.009177414586156302   -0.04092908607743214   -0.0005699982108447811
-0.0019025097630296906   -0.040840567805470414   -0.0002965808199474031
-0.009979673556936287   -0.027076826258593024   -0.00019065693603138693
-0.002631819714791195   -0.027072744559133877   5.141390497235947e-05
-0.0025051855650480817   -0.027218175776549867   -1.4793944747077055e-05
-0.0019025097630296906   -0.040840567805470414   -0.0002965808199474031
-0.009979673556936287   -0.027076826258593024   -0.00019065693603138693
-0.0025051855650480817   -0.027218175776549867   -1.4793944747077055e-05
-0.009177414586156302   -0.04092908607743214   -0.0005699982108447811
-0.0019025097630296906   -0.040840567805470414   -0.0002965808199474031
-0.002631819714791195   -0.027072744559133877   5.141390497235947e-05
-0.009271975072165088   -0.040808278075088536   -0.00052168144957821
-0.0020190548585759622   -0.040703328056274   -0.0002526531202070064
-0.002631819714791195   -0.027072744559133877   5.141390497235947e-05
-0.009979673556936287   -0.027076826258593024   -0.00019065693603138693
-0.009271975072165088   -0.040808278075088536   -0.00052168144957821
-0.010084947482242184   -0.02694896755238069   -0.00012709735685531004
-0.0020190548585759622   -0.040703328056274   -0.0002526531202070064
-0.009372527531561418   -0.040695825672797996   -0.0004661493337517811
-0.010084947482242184   -0.02694896755238069   -0.00012709735685531004
-0.009271975072165088   -0.040808278075088536   -0.00052168144957821
-0.0020190548585759622   -0.040703328056274   -0.0002526531202070064
-0.010084947482242184   -0.02694896755238069   -0.00012709735685531004
-0.0027627503184024355   -0.026918271861981376   0.00012744837440254657
-0.002631819714791195   -0.027072744559133877   5.141390497235947e-05
-0.0020190548585759622   -0.040703328056274   -0.0002526531202070064
-0.010084947482242184   -0.02694896755238069   -0.00012709735685531004
-0.002631819714791195   -0.027072744559133877   5.141390497235947e-05
-0.009271975072165088   -0.040808278075088536   -0.00052168144957821
-0.009084911894229497   -0.041056398972561546   -0.0006111817548714802
-0.009780735211950106   -0.027322377197012526   -0.00030023336206243034
-0.016342226271615547   -0.04096083359261595   -0.0008262344595337799
-0.009177414586156302   -0.04092908607743214   -0.0005699982108447811
-0.009780735211950106   -0.027322377197012526   -0.00030023336206243034
-0.01708942946187427   -0.027313081111454342   -0.0005075106927915735
-0.016342226271615547   -0.04096083359261595   -0.0008262344595337799
-0.017182877406926183   -0.027207463047382547   -0.00045780450820489903
-0.009177414586156302   -0.04092908607743214   -0.0005699982108447811
-0.016434015732628694   -0.040856453085103356   -0.0007709241206053417
-0.017182877406926183   -0.027207463047382547   -0.00045780450820489903
-0.016342226271615547   -0.04096083359261595   -0.0008262344595337799
-0.009177414586156302   -0.04092908607743214   -0.0005699982108447811
-0.017182877406926183   -0.027207463047382547   -0.00045780450820489903
-0.00987853137760036   -0.02720203195936245   -0.00024802365272451213
-0.009780735211950106   -0.027322377197012526   -0.00030023336206243034
-0.009177414586156302   -0.04092908607743214   -0.0005699982108447811
-0.017182877406926183   -0.027207463047382547   -0.00045780450820489903
-0.009780735211950106   -0.027322377197012526   -0.00030023336206243034
-0.016342226271615547   -0.04096083359261595   -0.0008262344595337799
-0.009177414586156302   -0.04092908607743214   -0.0005699982108447811
-0.00987853137760036   -0.02720203195936245   -0.00024802365272451213
-0.016434015732628694   -0.040856453085103356   -0.0007709241206053417
-0.009271975072165088   -0.040808278075088536   -0.00052168144957821
-0.00987853137760036   -0.02720203195936245   -0.00024802365272451213
-0.017182877406926183   -0.027207463047382547   -0.00045780450820489903
-0.016434015732628694   -0.040856453085103356   -0.0007709241206053417
-0.017271893828313616   -0.027099895410827385   -0.00040359278718488047
-0.009271975072165088   -0.040808278075088536   -0.00052168144957821
-0.016519878871297376   -0.04075895488418766   -0.0007087247669110971
-0.017271893828313616   -0.027099895410827385   -0.00040359278718488047
-0.016434015732628694   -0.040856453085103356   -0.0007709241206053417
-0.009271975072165088   -0.040808278075088536   -0.00052168144957821
-0.017271893828313616   -0.027099895410827385   -0.00040359278718488047
-0.009979673556936287   -0.027076826258593024   -0.00019065693603138693
-0.00987853137760036   -0.02720203195936245   -0.00024802365272451213
-0.009271975072165088   -0.040808278075088536   -0.00052168144957821
-0.017271893828313616   -0.027099895410827385   -0.00040359278718488047
-0.00987853137760036   -0.02720203195936245   -0.00024802365272451213
-0.016434015732628694   -0.040856453085103356   -0.0007709241206053417
-0.009271975072165088   -0.040808278075088536   -0.00052168144957821
-0.009979673556936287   -0.027076826258593024   -0.00019065693603138693
-0.016519878871297376   -0.04075895488418766   -0.0007087247669110971
-0.009372527531561418   -0.040695825672797996   -0.0004661493337517811
-0.009979673556936287   -0.027076826258593024   -0.00019065693603138693
-0.017271893828313616   -0.027099895410827385   -0.00040359278718488047
-0.016519878871297376   -0.04075895488418766   -0.0007087247669110971
-0.017360012234751525   -0.026989770761947706   -0.00034513459089468846
-0.009372527531561418   -0.040695825672797996   -0.0004661493337517811
-0.01660604873008321   -0.04066861225038077   -0.0006399791226527499
-0.017360012234751525   -0.026989770761947706   -0.00034513459089468846
-0.016519878871297376   -0.04075895488418766   -0.0007087247669110971
-0.009372527531561418   -0.040695825672797996   -0.0004661493337517811
-0.017360012234751525   -0.026989770761947706   -0.00034513459089468846
-0.010084947482242184   -0.02694896755238069   -0.00012709735685531004
-0.009979673556936287   -0.027076826258593024   -0.00019065693603138693
-0.009372527531561418   -0.040695825672797996   -0.0004661493337517811
-0.017360012234751525   -0.026989770761947706   -0.00034513459089468846
-0.009979673556936287   -0.027076826258593024   -0.00019065693603138693
-0.016519878871297376   -0.04075895488418766   -0.0007087247669110971
-0.016342226271615547   -0.04096083359261595   -0.0008262344595337799
-0.01708942946187427   -0.027313081111454342   -0.0005075106927915735
-0.023730488165975137   -0.040831769475314875   -0.0010015245535211085
-0.016434015732628694   -0.040856453085103356   -0.0007709241206053417
-0.01708942946187427   -0.027313081111454342   -0.0005075106927915735
-0.024552866321897345   -0.02727076125642125   -0.0006818264272231024
-0.023730488165975137   -0.040831769475314875   -0.0010015245535211085
-0.024641953896632478   -0.027184533518681074   -0.0006348618370238992
-0.016434015732628694   -0.040856453085103356   -0.0007709241206053417
-0.023818404697781327   -0.04075151872267561   -0.0009322544237020398
-0.024641953896632478   -0.027184533518681074   -0.0006348618370238992
-0.023730488165975137   -0.040831769475314875   -0.0010015245535211085
-0.016434015732628694   -0.040856453085103356   -0.0007709241206053417
-0.024641953896632478   -0.027184533518681074   -0.0006348618370238992
-0.017182877406926183   -0.027207463047382547   -0.00045780450820489903
-0.01708942946187427   -0.027313081111454342   -0.0005075106927915735
-0.016434015732628694   -0.040856453085103356   -0.0007709241206053417
-0.024641953896632478   -0.027184533518681074   -0.0006348618370238992
-0.01708942946187427   -0.027313081111454342   -0.0005075106927915735
-0.023730488165975137   -0.040831769475314875   -0.0010015245535211085
-0.016434015732628694   -0.040856453085103356   -0.0007709241206053417
-0.017182877406926183   -0.027207463047382547   -0.00045780450820489903
-0.023818404697781327   -0.04075151872267561   -0.0009322544237020398
-0.016519878871297376   -0.04075895488418766   -0.0007087247669110971
-0.017182877406926183   -0.027207463047382547   -0.00045780450820489903
-0.024641953896632478   -0.027184533518681074   -0.0006348618370238992
-0.023818404697781327   -0.04075151872267561   -0.0009322544237020398
-0.024717489091081755   -0.027093562280165337   -0.0005847092324893032
-0.016519878871297376   -0.04075895488418766   -0.0007087247669110971
-0.023885155494171105   -0.04067547440009023   -0.0008572392588804154
-0.024717489091081755   -0.027093562280165337   -0.0005847092324893032
-0.023818404697781327   -0.04075151872267561   -0.0009322544237020398
-0.016519878871297376   -0.04075895488418766   -0.0007087247669110971
-0.024717489091081755   -0.027093562280165337   -0.0005847092324893032
-0.017271893828313616   -0.027099895410827385   -0.00040359278718488047
-0.017182877406926183   -0.027207463047382547   -0.00045780450820489903
-0.016519878871297376   -0.04075895488418766   -0.0007087247669110971
-0.024717489091081755   -0.027093562280165337   -0.0005847092324893032
-0.017182877406926183   -0.027207463047382547   -0.00045780450820489903
-0.023818404697781327   -0.04075151872267561   -0.0009322544237020398
-0.016519878871297376   -0.04075895488418766   -0.0007087247669110971
-0.017271893828313616   -0.027099895410827385   -0.00040359278718488047
-0.023885155494171105   -0.04067547440009023   -0.0008572392588804154
-0.01660604873008321   -0.04066861225038077   -0.0006399791226527499
-0.017271893828313616   -0.027099895410827385   -0.00040359278718488047
-0.024717489091081755   -0.027093562280165337   -0.0005847092324893032
-0.023885155494171105   -0.04067547440009023   -0.0008572392588804154
-0.02478888387419621   -0.02700016316633992   -0.0005299691317716897
-0.01660604873008321   -0.04066861225038077   -0.0006399791226527499
-0.023951362488147093   -0.04060697329701062   -0.0007749739707791056
-0.02478888387419621   -0.02700016316633992   -0.0005299691317716897
-0.023885155494171105   -0.04067547440009023   -0.0008572392588804154
-0.01660604873008321   -0.04066861225038077   -0.0006399791226527499
-0.02478888387419621   -0.02700016316633992   -0.0005299691317716897
-0.017360012234751525   -0.026989770761947706   -0.00034513459089468846
-0.017271893828313616   -0.027099895410827385   -0.00040359278718488047
-0.01660604873008321   -0.04066861225038077   -0.0006399791226527499
-0.02478888387419621   -0.02700016316633992   -0.0005299691317716897
-0.017271893828313616   -0.027099895410827385   -0.00040359278718488047
-0.023885155494171105   -0.04067547440009023   -0.0008572392588804154
-0.023730488165975137   -0.040831769475314875   -0.0010015245535211085
-0.024552866321897345   -0.02727076125642125   -0.0006818264272231024
-0.03156003829053751   -0.0406795113722397   -0.0011318645687886165
-0.023818404697781327   -0.04075151872267561   -0.0009322544237020398
-0.024552866321897345   -0.02727076125642125   -0.0006818264272231024
-0.032369721650897215   -0.027201188380325605   -0.0008111310288559338
-0.03156003829053751   -0.0406795113722397   -0.0011318645687886165
-0.03242536469472382   -0.027128660608866633   -0.0007760693042447013
-0.023818404697781327   -0.04075151872267561   -0.0009322544237020398
-0.031574058164141286   -0.040615320671684774   -0.0010555195458546202
-0.03242536469472382   -0.027128660608866633   -0.0007760693042447013
-0.03156003829053751   -0.0406795113722397   -0.0011318645687886165
-0.023818404697781327   -0.04075151872267561   -0.0009322544237020398
-0.03242536469472382   -0.027128660608866633   -0.0007760693042447013
-0.024641953896632478   -0.027184533518681074   -0.0006348618370238992
-0.024552866321897345   -0.02727076125642125   -0.0006818264272231024
-0.023818404697781327   -0.04075151872267561   -0.0009322544237020398
-0.03242536469472382   -0.027128660608866633   -0.0007760693042447013
-0.024552866321897345   -0.02727076125642125   -0.0006818264272231024
-0.03156003829053751   -0.0406795113722397   -0.0011318645687886165
-0.023818404697781327   -0.04075151872267561   -0.0009322544237020398
-0.024641953896632478   -0.027184533518681074   -0.0006348618370238992
-0.031574058164141286   -0.040615320671684774   -0.0010555195458546202
-0.023885155494171105   -0.04067547440009023   -0.0008572392588804154
-0.024641953896632478   -0.027184533518681074   -0.0006348618370238992
-0.03242536469472382   -0.027128660608866633   -0.0007760693042447013
-0.031574058164141286   -0.040615320671684774   -0.0010555195458546202
-0.032476243664641406   -0.027046653118627622   -0.0007331633926968737
-0.023885155494171105   -0.04067547440009023   -0.0008572392588804154
-0.03158836917173069   -0.04055029295832079   -0.0009675992118639603
-0.032476243664641406   -0.027046653118627622   -0.0007331633926968737
-0.031574058164141286   -0.040615320671684774   -0.0010555195458546202
-0.023885155494171105   -0.04067547440009023   -0.0008572392588804154
-0.032476243664641406   -0.027046653118627622   -0.0007331633926968737
-0.024717489091081755   -0.027093562280165337   -0.0005847092324893032
-0.024641953896632478   -0.027184533518681074   -0.0006348618370238992
-0.023885155494171105   -0.04067547440009023   -0.0008572392588804154
-0.032476243664641406   -0.027046653118627622   -0.0007331633926968737
-0.024641953896632478   -0.027184533518681074   -0.0006348618370238992
-0.031574058164141286   -0.040615320671684774   -0.0010555195458546202
-0.023885155494171105   -0.04067547440009023   -0.0008572392588804154
-0.024717489091081755   -0.027093562280165337   -0.0005847092324893032
-0.03158836917173069   -0.04055029295832079   -0.0009675992118639603
-0.023951362488147093   -0.04060697329701062   -0.0007749739707791056
-0.024717489091081755   -0.027093562280165337   -0.0005847092324893032
-0.032476243664641406   -0.027046653118627622   -0.0007331633926968737
-0.03158836917173069   -0.04055029295832079   -0.0009675992118639603
-0.032501209976212427   -0.026971216888459167   -0.0006843872898019615
-0.023951362488147093   -0.04060697329701062   -0.0007749739707791056
-0.031558811390120324   -0.040507025149840566   -0.0008694814386251291
-0.032501209976212427   -0.026971216888459167   -0.0006843872898019615
-0.03158836917173069   -0.04055029295832079   -0.0009675992118639603
-0.023951362488147093   -0.04060697329701062   -0.0007749739707791056
-0.032501209976212427   -0.026971216888459167   -0.0006843872898019615
-0.02478888387419621   -0.02700016316633992   -0.0005299691317716897
-0.024717489091081755   -0.027093562280165337   -0.0005847092324893032
-0.023951362488147093   -0.04060697329701062   -0.0007749739707791056
-0.032501209976212427   -0.026971216888459167   -0.0006843872898019615
-0.024717489091081755   -0.027093562280165337   -0.0005847092324893032
-0.03158836917173069   -0.04055029295832079   -0.0009675992118639603
0.005443432770397289   -0.027485567277258094   0.00016657689135573817
0.00381112021272455   -0.013797603758863705   0.00017864543013882664
-0.002396893545806349   -0.027355912845775848   -7.103436465926993e-05
0.00527258342601642   -0.027319564999412783   0.000236818319098863
0.00381112021272455   -0.013797603758863705   0.00017864543013882664
-0.003496673068357266   -0.013617909851353745   8.955530836272315e-05
-0.002396893545806349   -0.027355912845775848   -7.103436465926993e-05
-0.0036042829764975793   -0.013547970581000155   0.0001675234792802355
0.00527258342601642   -0.027319564999412783   0.000236818319098863
-0.0025051855650480817   -0.027218175776549867   -1.4793944747077055e-05
-0.0036042829764975793   -0.013547970581000155   0.0001675234792802355
-0.002396893545806349   -0.027355912845775848   -7.103436465926993e-05
0.00527258342601642   -0.027319564999412783   0.000236818319098863
-0.0036042829764975793   -0.013547970581000155   0.0001675234792802355
0.003475839582650002   -0.013621449986285655   0.00037181801378928427
0.00381112021272455   -0.013797603758863705   0.00017864543013882664
0.00527258342601642   -0.027319564999412783   0.000236818319098863
-0.0036042829764975793   -0.013547970581000155   0.0001675234792802355
0.00381112021272455   -0.013797603758863705   0.00017864543013882664
-0.002396893545806349   -0.027355912845775848   -7.103436465926993e-05
0.00527258342601642   -0.027319564999412783   0.000236818319098863
0.003475839582650002   -0.013621449986285655   0.00037181801378928427
-0.0025051855650480817   -0.027218175776549867   -1.4793944747077055e-05
0.005082125966073646   -0.027154556875766525   0.0003374891884941994
0.003475839582650002   -0.013621449986285655   0.00037181801378928427
-0.0036042829764975793   -0.013547970581000155   0.0001675234792802355
-0.0025051855650480817   -0.027218175776549867   -1.4793944747077055e-05
-0.003745513044051887   -0.013424078876507062   0.0002621425082370671
0.005082125966073646   -0.027154556875766525   0.0003374891884941994
-0.002631819714791195   -0.027072744559133877   5.141390497235947e-05
-0.003745513044051887   -0.013424078876507062   0.0002621425082370671
-0.0025051855650480817   -0.027218175776549867   -1.4793944747077055e-05
0.005082125966073646   -0.027154556875766525   0.0003374891884941994
-0.003745513044051887   -0.013424078876507062   0.0002621425082370671
0.0032794186973946144   -0.013477049082491227   0.0005160852303086838
0.003475839582650002   -0.013621449986285655   0.00037181801378928427
0.005082125966073646   -0.027154556875766525   0.0003374891884941994
-0.003745513044051887   -0.013424078876507062   0.0002621425082370671
0.003475839582650002   -0.013621449986285655   0.00037181801378928427
-0.0025051855650480817   -0.027218175776549867   -1.4793944747077055e-05
0.005082125966073646   -0.027154556875766525   0.0003374891884941994
0.0032794186973946144   -0.013477049082491227   0.0005160852303086838
-0.002631819714791195   -0.027072744559133877   5.141390497235947e-05
0.0048494356003130935   -0.026951912397564164   0.0004482261105775665
0.0032794186973946144   -0.013477049082491227   0.0005160852303086838
-0.003745513044051887   -0.013424078876507062   0.0002621425082370671
-0.002631819714791195   -0.027072744559133877   5.141390497235947e-05
-0.003864163925131808   -0.013290748254129644   0.0003454464088817343
0.0048494356003130935   -0.026951912397564164   0.0004482261105775665
-0.0027627503184024355   -0.026918271861981376   0.00012744837440254657
-0.003864163925131808   -0.013290748254129644   0.0003454464088817343
-0.002631819714791195   -0.027072744559133877   5.141390497235947e-05
0.0048494356003130935   -0.026951912397564164   0.0004482261105775665
-0.003864163925131808   -0.013290748254129644   0.0003454464088817343
0.003027839435971278   -0.013256644073104533   0.0006812253735743768
0.0032794186973946144   -0.013477049082491227   0.0005160852303086838
0.0048494356003130935   -0.026951912397564164   0.0004482261105775665
-0.003864163925131808   -0.013290748254129644   0.0003454464088817343
0.0032794186973946144   -0.013477049082491227   0.0005160852303086838
-0.002631819714791195   -0.027072744559133877   5.141390497235947e-05
-0.002396893545806349   -0.027355912845775848   -7.103436465926993e-05
-0.003496673068357266   -0.013617909851353745   8.955530836272315e-05
-0.009780735211950106   -0.027322377197012526   -0.00030023336206243034
-0.0025051855650480817   -0.027218175776549867   -1.4793944747077055e-05
-0.003496673068357266   -0.013617909851353745   8.955530836272315e-05
-0.01045448249733312   -0.013818623036335794   -9.324354528320184e-05
-0.009780735211950106   -0.027322377197012526   -0.00030023336206243034
-0.010553393491984503   -0.013712139819697683   -3.808639779669493e-05
-0.0025051855650480817   -0.027218175776549867   -1.4793944747077055e-05
-0.00987853137760036   -0.02720203195936245   -0.00024802365272451213
-0.010553393491984503   -0.013712139819697683   -3.808639779669493e-05
-0.009780735211950106   -0.027322377197012526   -0.00030023336206243034
-0.0025051855650480817   -0.027218175776549867   -1.4793944747077055e-05
-0.010553393491984503   -0.013712139819697683   -3.808639779669493e-05
-0.0036042829764975793   -0.013547970581000155   0.0001675234792802355
-0.003496673068357266   -0.013617909851353745   8.955530836272315e-05
-0.0025051855650480817   -0.027218175776549867   -1.4793944747077055e-05
-0.010553393491984503   -0.013712139819697683   -3.808639779669493e-05
-0.003496673068357266   -0.013617909851353745   8.955530836272315e-05
-0.009780735211950106   -0.027322377197012526   -0.00030023336206243034
-0.0025051855650480817   -0.027218175776549867   -1.4793944747077055e-05
-0.0036042829764975793   -0.013547970581000155   0.0001675234792802355
-0.00987853137760036   -0.02720203195936245   -0.00024802365272451213
-0.002631819714791195   -0.027072744559133877   5.141390497235947e-05
-0.0036042829764975793   -0.013547970581000155   0.0001675234792802355
-0.010553393491984503   -0.013712139819697683   -3.808639779669493e-05
-0.00987853137760036   -0.02720203195936245   -0.00024802365272451213
-0.010656831610904468   -0.013592031354618665   2.0239650654226587e-05
-0.002631819714791195   -0.027072744559133877   5.141390497235947e-05
-0.009979673556936287   -0.027076826258593024   -0.00019065693603138693
-0.010656831610904468   -0.013592031354618665   2.0239650654226587e-05
-0.00987853137760036   -0.02720203195936245   -0.00024802365272451213
-0.002631819714791195   -0.027072744559133877   5.141390497235947e-05
-0.010656831610904468   -0.013592031354618665   2.0239650654226587e-05
-0.003745513044051887   -0.013424078876507062   0.0002621425082370671
-0.0036042829764975793   -0.013547970581000155   0.0001675234792802355
-0.002631819714791195   -0.027072744559133877   5.141390497235947e-05
-0.010656831610904468   -0.013592031354618665   2.0239650654226587e-05
-0.0036042829764975793   -0.013547970581000155   0.0001675234792802355
-0.00987853137760036   -0.02720203195936245   -0.00024802365272451213
-0.002631819714791195   -0.027072744559133877   5.141390497235947e-05
-0.003745513044051887   -0.013424078876507062   0.0002621425082370671
-0.009979673556936287   -0.027076826258593024   -0.00019065693603138693
-0.0027627503184024355   -0.026918271861981376   0.00012744837440254657
-0.003745513044051887   -0.013424078876507062   0.0002621425082370671
-0.010656831610904468   -0.013592031354618665   2.0239650654226587e-05
-0.009979673556936287   -0.027076826258593024   -0.00019065693603138693
-0.010755069865982571   -0.013460393971433966   8.453583116663293e-05
-0.0027627503184024355   -0.026918271861981376   0.00012744837440254657
-0.010084947482242184   -0.02694896755238069   -0.00012709735685531004
-0.010755069865982571   -0.013460393971433966   8.453583116663293e-05
-0.009979673556936287   -0.027076826258593024   -0.00019065693603138693
-0.0027627503184024355   -0.026918271861981376   0.00012744837440254657
-0.010755069865982571   -0.013460393971433966   8.453583116663293e-05
-0.003864163925131808   -0.013290748254129644   0.0003454464088817343
-0.003745513044051887   -0.013424078876507062   0.0002621425082370671
-0.0027627503184024355   -0.026918271861981376   0.00012744837440254657
-0.010755069865982571   -0.013460393971433966   8.453583116663293e-05
-0.003745513044051887   -0.013424078876507062   0.0002621425082370671
-0.009979673556936287   -0.027076826258593024   -0.00019065693603138693
-0.009780735211950106   -0.027322377197012526   -0.00030023336206243034
-0.01045448249733312   -0.013818623036335794   -9.324354528320184e-05
-0.01708942946187427   -0.027313081111454342   -0.0005075106927915735
-0.00987853137760036   -0.02720203195936245   -0.00024802365272451213
-0.01045448249733312   -0.013818623036335794   -9.324354528320184e-05
-0.017584013696100412   -0.013975399508119732   -0.0002955387006240447
-0.01708942946187427   -0.027313081111454342   -0.0005075106927915735
-0.017672773307808462   -0.013866111778335685   -0.00025285832955015535
-0.00987853137760036   -0.02720203195936245   -0.00024802365272451213
-0.017182877406926183   -0.027207463047382547   -0.00045780450820489903
-0.017672773307808462   -0.013866111778335685   -0.00025285832955015535
-0.01708942946187427   -0.027313081111454342   -0.0005075106927915735
-0.00987853137760036   -0.02720203195936245   -0.00024802365272451213
-0.017672773307808462   -0.013866111778335685   -0.00025285832955015535
-0.010553393491984503   -0.013712139819697683   -3.808639779669493e-05
-0.01045448249733312   -0.013818623036335794   -9.324354528320184e-05
-0.00987853137760036   -0.02720203195936245   -0.00024802365272451213
-0.017672773307808462   -0.013866111778335685   -0.00025285832955015535
-0.01045448249733312   -0.013818623036335794   -9.324354528320184e-05
-0.01708942946187427   -0.027313081111454342   -0.0005075106927915735
-0.00987853137760036   -0.02720203195936245   -0.00024802365272451213
-0.010553393491984503   -0.013712139819697683   -3.808639779669493e-05
-0.017182877406926183   -0.027207463047382547   -0.00045780450820489903
-0.009979673556936287   -0.027076826258593024   -0.00019065693603138693
-0.010553393491984503   -0.013712139819697683   -3.808639779669493e-05
-0.017672773307808462   -0.013866111778335685   -0.00025285832955015535
-0.017182877406926183   -0.027207463047382547   -0.00045780450820489903
-0.017757677407272524   -0.013750739393922243   -0.00021035162385603062
-0.009979673556936287   -0.027076826258593024   -0.00019065693603138693
-0.017271893828313616   -0.027099895410827385   -0.00040359278718488047
-0.017757677407272524   -0.013750739393922243   -0.00021035162385603062
-0.017182877406926183   -0.027207463047382547   -0.00045780450820489903
-0.009979673556936287   -0.027076826258593024   -0.00019065693603138693
-0.017757677407272524   -0.013750739393922243   -0.00021035162385603062
-0.010656831610904468   -0.013592031354618665   2.0239650654226587e-05
-0.010553393491984503   -0.013712139819697683   -3.808639779669493e-05
-0.009979673556936287   -0.027076826258593024   -0.00019065693603138693
-0.017757677407272524   -0.013750739393922243   -0.00021035162385603062
-0.010553393491984503   -0.013712139819697683   -3.808639779669493e-05
-0.017182877406926183   -0.027207463047382547   -0.00045780450820489903
-0.009979673556936287   -0.027076826258593024   -0.00019065693603138693
-0.010656831610904468   -0.013592031354618665   2.0239650654226587e-05
-0.017271893828313616   -0.027099895410827385   -0.00040359278718488047
-0.010084947482242184   -0.02694896755238069   -0.00012709735685531004
-0.010656831610904468   -0.013592031354618665   2.0239650654226587e-05
-0.017757677407272524   -0.013750739393922243   -0.00021035162385603062
-0.017271893828313616   -0.027099895410827385   -0.00040359278718488047
-0.0178358926464836   -0.013625868011878468   -0.00016411165667560735
-0.010084947482242184   -0.02694896755238069   -0.00012709735685531004
-0.017360012234751525   -0.026989770761947706   -0.00034513459089468846
-0.0178358926464836   -0.013625868011878468   -0.00016411165667560735
-0.017271893828313616   -0.027099895410827385   -0.00040359278718488047
-0.010084947482242184   -0.02694896755238069   -0.00012709735685531004
-0.0178358926464836   -0.013625868011878468   -0.00016411165667560735
-0.010755069865982571   -0.013460393971433966   8.453583116663293e-05
-0.010656831610904468   -0.013592031354618665   2.0239650654226587e-05
-0.010084947482242184   -0.02694896755238069   -0.00012709735685531004
-0.0178358926464836   -0.013625868011878468   -0.00016411165667560735
-0.010656831610904468   -0.013592031354618665   2.0239650654226587e-05
-0.017271893828313616   -0.027099895410827385   -0.00040359278718488047
-0.01708942946187427   -0.027313081111454342   -0.0005075106927915735
-0.017584013696100412   -0.013975399508119732   -0.0002955387006240447
-0.024552866321897345   -0.02727076125642125   -0.0006818264272231024
-0.017182877406926183   -0.027207463047382547   -0.00045780450820489903
-0.017584013696100412   -0.013975399508119732   -0.0002955387006240447
-0.024963943262830735   -0.014039664292194413   -0.0004823682267058701
-0.024552866321897345   -0.02727076125642125   -0.0006818264272231024
-0.02504389130844172   -0.013941401525320175   -0.00045130818755051763
-0.017182877406926183   -0.027207463047382547   -0.00045780450820489903
-0.024641953896632478   -0.027184533518681074   -0.0006348618370238992
-0.02504389130844172   -0.013941401525320175   -0.00045130818755051763
-0.024552866321897345   -0.02727076125642125   -0.0006818264272231024
-0.017182877406926183   -0.027207463047382547   -0.00045780450820489903
-0.02504389130844172   -0.013941401525320175   -0.00045130818755051763
-0.017672773307808462   -0.013866111778335685   -0.00025285832955015535
-0.017584013696100412   -0.013975399508119732   -0.0002955387006240447
-0.017182877406926183   -0.027207463047382547   -0.00045780450820489903
-0.02504389130844172   -0.013941401525320175   -0.00045130818755051763
-0.017584013696100412   -0.013975399508119732   -0.0002955387006240447
-0.024552866321897345   -0.02727076125642125   -0.0006818264272231024
-0.017182877406926183   -0.027207463047382547   -0.00045780450820489903
-0.017672773307808462   -0.013866111778335685   -0.00025285832955015535
-0.024641953896632478   -0.027184533518681074   -0.0006348618370238992
-0.017271893828313616   -0.027099895410827385   -0.00040359278718488047
-0.017672773307808462   -0.013866111778335685   -0.00025285832955015535
-0.02504389130844172   -0.013941401525320175   -0.00045130818755051763
-0.024641953896632478   -0.027184533518681074   -0.0006348618370238992
-0.0251151301909311   -0.013834453698616064   -0.0004211663986085154
-0.017271893828313616   -0.027099895410827385   -0.00040359278718488047
-0.024717489091081755   -0.027093562280165337   -0.0005847092324893032
-0.0251151301909311   -0.013834453698616064   -0.0004211663986085154
-0.024641953896632478   -0.027184533518681074   -0.0006348618370238992
-0.017271893828313616   -0.027099895410827385   -0.00040359278718488047
-0.0251151301909311   -0.013834453698616064   -0.0004211663986085154
-0.017757677407272524   -0.013750739393922243   -0.00021035162385603062
-0.017672773307808462   -0.013866111778335685   -0.00025285832955015535
-0.017271893828313616   -0.027099895410827385   -0.00040359278718488047
-0.0251151301909311   -0.013834453698616064   -0.0004211663986085154
-0.017672773307808462   -0.013866111778335685   -0.00025285832955015535
-0.024641953896632478   -0.027184533518681074   -0.0006348618370238992
-0.017271893828313616   -0.027099895410827385   -0.00040359278718488047
-0.017757677407272524   -0.013750739393922243   -0.00021035162385603062
-0.024717489091081755   -0.027093562280165337   -0.0005847092324893032
-0.017360012234751525   -0.026989770761947706   -0.00034513459089468846
-0.017757677407272524   -0.013750739393922243   -0.00021035162385603062
-0.0251151301909311   -0.013834453698616064   -0.0004211663986085154
-0.024717489091081755   -0.027093562280165337   -0.0005847092324893032
-0.02517962504067563   -0.013720646724753165   -0.0003901679343751023
-0.017360012234751525   -0.026989770761947706   -0.00034513459089468846
-0.02478888387419621   -0.02700016316633992   -0.0005299691317716897
-0.02517962504067563   -0.013720646724753165   -0.0003901679343751023
-0.024717489091081755   -0.027093562280165337   -0.0005847092324893032
-0.017360012234751525   -0.026989770761947706   -0.00034513459089468846
-0.02517962504067563   -0.013720646724753165   -0.0003901679343751023
-0.0178358926464836   -0.013625868011878468   -0.00016411165667560735
-0.017757677407272524   -0.013750739393922243   -0.00021035162385603062
-0.017360012234751525   -0.026989770761947706   -0.00034513459089468846
-0.02517962504067563   -0.013720646724753165   -0.0003901679343751023
-0.017757677407272524   -0.013750739393922243   -0.00021035162385603062
-0.024717489091081755   -0.027093562280165337   -0.0005847092324893032
-0.024552866321897345   -0.02727076125642125   -0.0006818264272231024
-0.024963943262830735   -0.014039664292194413   -0.0004823682267058701
-0.032369721650897215   -0.027201188380325605   -0.0008111310288559338
-0.024641953896632478   -0.027184533518681074   -0.0006348618370238992
-0.024963943262830735   -0.014039664292194413   -0.0004823682267058701
-0.03260548190573929   -0.014046963666793434   -0.0006377271515066758
-0.032369721650897215   -0.027201188380325605   -0.0008111310288559338
-0.03267427250428658   -0.013951533431194105   -0.0006244961209763448
-0.024641953896632478   -0.027184533518681074   -0.0006348618370238992
-0.03242536469472382   -0.027128660608866633   -0.0007760693042447013
-0.03267427250428658   -0.013951533431194105   -0.0006244961209763448
-0.032369721650897215   -0.027201188380325605   -0.0008111310288559338
-0.024641953896632478   -0.027184533518681074   -0.0006348618370238992
-0.03267427250428658   -0.013951533431194105   -0.0006244961209763448
-0.02504389130844172   -0.013941401525320175   -0.00045130818755051763
-0.024963943262830735   -0.014039664292194413   -0.0004823682267058701
-0.024641953896632478   -0.027184533518681074   -0.0006348618370238992
-0.03267427250428658   -0.013951533431194105   -0.0006244961209763448
-0.024963943262830735   -0.014039664292194413   -0.0004823682267058701
-0.032369721650897215   -0.027201188380325605   -0.0008111310288559338
-0.024641953896632478   -0.027184533518681074   -0.0006348618370238992
-0.02504389130844172   -0.013941401525320175   -0.00045130818755051763
-0.03242536469472382   -0.027128660608866633   -0.0007760693042447013
-0.024717489091081755   -0.027093562280165337   -0.0005847092324893032
-0.02504389130844172   -0.013941401525320175   -0.00045130818755051763
-0.03267427250428658   -0.013951533431194105   -0.0006244961209763448
-0.03242536469472382   -0.027128660608866633   -0.0007760693042447013
-0.032735902731288784   -0.013848435133015057   -0.0006090409385216552
-0.024717489091081755   -0.027093562280165337   -0.0005847092324893032
-0.032476243664641406   -0.027046653118627622   -0.0007331633926968737
-0.032735902731288784   -0.013848435133015057   -0.0006090409385216552
-0.03242536469472382   -0.027128660608866633   -0.0007760693042447013
-0.024717489091081755   -0.027093562280165337   -0.0005847092324893032
-0.032735902731288784   -0.013848435133015057   -0.0006090409385216552
-0.0251151301909311   -0.013834453698616064   -0.0004211663986085154
-0.02504389130844172   -0.013941401525320175   -0.00045130818755051763
-0.024717489091081755   -0.027093562280165337   -0.0005847092324893032
-0.032735902731288784   -0.013848435133015057   -0.0006090409385216552
-0.02504389130844172   -0.013941401525320175   -0.00045130818755051763
-0.03242536469472382   -0.027128660608866633   -0.0007760693042447013
-0.024717489091081755   -0.027093562280165337   -0.0005847092324893032
-0.0251151301909311   -0.013834453698616064   -0.0004211663986085154
-0.032476243664641406   -0.027046653118627622   -0.0007331633926968737
-0.02478888387419621   -0.02700016316633992   -0.0005299691317716897
-0.0251151301909311   -0.013834453698616064   -0.0004211663986085154
-0.032735902731288784   -0.013848435133015057   -0.0006090409385216552
-0.032476243664641406   -0.027046653118627622   -0.0007331633926968737
-0.03278785672122402   -0.013739248534363802   -0.0005947329971068177
-0.02478888387419621   -0.02700016316633992   -0.0005299691317716897
-0.032501209976212427   -0.026971216888459167   -0.0006843872898019615
-0.03278785672122402   -0.013739248534363802   -0.0005947329971068177
-0.032476243664641406   -0.027046653118627622   -0.0007331633926968737
-0.02478888387419621   -0.02700016316633992   -0.0005299691317716897
-0.03278785672122402   -0.013739248534363802   -0.0005947329971068177
-0.02517962504067563   -0.013720646724753165   -0.0003901679343751023
-0.0251151301909311   -0.013834453698616064   -0.0004211663986085154
-0.02478888387419621   -0.02700016316633992   -0.0005299691317716897
-0.03278785672122402   -0.013739248534363802   -0.0005947329971068177
-0.0251151301909311   -0.013834453698616064   -0.0004211663986085154
-0.032476243664641406   -0.027046653118627622   -0.0007331633926968737
0.00381112021272455   -0.013797603758863705   0.00017864543013882664
0.0   0.0   0.0
-0.003496673068357266   -0.013617909851353745   8.955530836272315e-05
0.003475839582650002   -0.013621449986285655   0.00037181801378928427
0.0   0.0   0.0
-0.004394380192575694   -0.0011061876909768615   -3.891984914073447e-05
-0.003496673068357266   -0.013617909851353745   8.955530836272315e-05
-0.004656762235991747   -0.0008580917393165035   0.0001116414551690673
0.003475839582650002   -0.013621449986285655   0.00037181801378928427
-0.0036042829764975793   -0.013547970581000155   0.0001675234792802355
-0.004656762235991747   -0.0008580917393165035   0.0001116414551690673
-0.003496673068357266   -0.013617909851353745   8.955530836272315e-05
0.003475839582650002   -0.013621449986285655   0.00037181801378928427
-0.004656762235991747   -0.0008580917393165035   0.0001116414551690673
0.0   0.0   0.0
0.0   0.0   0.0
0.003475839582650002   -0.013621449986285655   0.00037181801378928427
-0.004656762235991747   -0.0008580917393165035   0.0001116414551690673
0.0   0.0   0.0
-0.003496673068357266   -0.013617909851353745   8.955530836272315e-05
0.003475839582650002   -0.013621449986285655   0.00037181801378928427
0.0   0.0   0.0
-0.0036042829764975793   -0.013547970581000155   0.0001675234792802355
0.0032794186973946144   -0.013477049082491227   0.0005160852303086838
0.0   0.0   0.0
-0.004656762235991747   -0.0008580917393165035   0.0001116414551690673
-0.0036042829764975793   -0.013547970581000155   0.0001675234792802355
-0.00482119128572273   -0.0007383196864949589   0.00019828681208812596
0.0032794186973946144   -0.013477049082491227   0.0005160852303086838
-0.003745513044051887   -0.013424078876507062   0.0002621425082370671
-0.00482119128572273   -0.0007383196864949589   0.00019828681208812596
-0.0036042829764975793   -0.013547970581000155   0.0001675234792802355
0.0032794186973946144   -0.013477049082491227   0.0005160852303086838
-0.00482119128572273   -0.0007383196864949589   0.00019828681208812596
0.0   0.0   0.0
0.0   0.0   0.0
0.0032794186973946144   -0.013477049082491227   0.0005160852303086838
-0.00482119128572273   -0.0007383196864949589   0.00019828681208812596
0.0   0.0   0.0
-0.0036042829764975793   -0.013547970581000155   0.0001675234792802355
0.0032794186973946144   -0.013477049082491227   0.0005160852303086838
0.0   0.0   0.0
-0.003745513044051887   -0.013424078876507062   0.0002621425082370671
0.003027839435971278   -0.013256644073104533   0.0006812253735743768
0.0   0.0   0.0
-0.00482119128572273   -0.0007383196864949589   0.00019828681208812596
-0.003745513044051887   -0.013424078876507062   0.0002621425082370671
-0.005041226132521684   -0.000579407933318757   0.00029769012849883275
0.003027839435971278   -0.013256644073104533   0.0006812253735743768
-0.003864163925131808   -0.013290748254129644   0.0003454464088817343
-0.005041226132521684   -0.000579407933318757   0.00029769012849883275
-0.003745513044051887   -0.013424078876507062   0.0002621425082370671
0.003027839435971278   -0.013256644073104533   0.0006812253735743768
-0.005041226132521684   -0.000579407933318757   0.00029769012849883275
0.0   0.0   0.0
0.0   0.0   0.0
0.003027839435971278   -0.013256644073104533   0.0006812253735743768
-0.005041226132521684   -0.000579407933318757   0.00029769012849883275
0.0   0.0   0.0
-0.003745513044051887   -0.013424078876507062   0.0002621425082370671
-0.003496673068357266   -0.013617909851353745   8.955530836272315e-05
-0.004394380192575694   -0.0011061876909768615   -3.891984914073447e-05
-0.01045448249733312   -0.013818623036335794   -9.324354528320184e-05
-0.0036042829764975793   -0.013547970581000155   0.0001675234792802355
-0.004394380192575694   -0.0011061876909768615   -3.891984914073447e-05
-0.01076770393994911   -0.0014460093793989776   -3.9500213513914554e-05
-0.01045448249733312   -0.013818623036335794   -9.324354528320184e-05
-0.010902588697971921   -0.0013099299705535777   -1.2911144102004647e-06
-0.0036042829764975793   -0.013547970581000155   0.0001675234792802355
-0.010553393491984503   -0.013712139819697683   -3.808639779669493e-05
-0.010902588697971921   -0.0013099299705535777   -1.2911144102004647e-06
-0.01045448249733312   -0.013818623036335794   -9.324354528320184e-05
-0.0036042829764975793   -0.013547970581000155   0.0001675234792802355
-0.010902588697971921   -0.0013099299705535777   -1.2911144102004647e-06
-0.004656762235991747   -0.0008580917393165035   0.0001116414551690673
-0.004394380192575694   -0.0011061876909768615   -3.891984914073447e-05
-0.0036042829764975793   -0.013547970581000155   0.0001675234792802355
-0.010902588697971921   -0.0013099299705535777   -1.2911144102004647e-06
-0.004394380192575694   -0.0011061876909768615   -3.891984914073447e-05
-0.01045448249733312   -0.013818623036335794   -9.324354528320184e-05
-0.0036042829764975793   -0.013547970581000155   0.0001675234792802355
-0.004656762235991747   -0.0008580917393165035   0.0001116414551690673
-0.010553393491984503   -0.013712139819697683   -3.808639779669493e-05
-0.003745513044051887   -0.013424078876507062   0.0002621425082370671
-0.004656762235991747   -0.0008580917393165035   0.0001116414551690673
-0.010902588697971921   -0.0013099299705535777   -1.2911144102004647e-06
-0.010553393491984503   -0.013712139819697683   -3.808639779669493e-05
-0.011036793214910287   -0.0011508417264229592   6.744434038254302e-05
-0.003745513044051887   -0.013424078876507062   0.0002621425082370671
-0.010656831610904468   -0.013592031354618665   2.0239650654226587e-05
-0.011036793214910287   -0.0011508417264229592   6.744434038254302e-05
-0.010553393491984503   -0.013712139819697683   -3.808639779669493e-05
-0.003745513044051887   -0.013424078876507062   0.0002621425082370671
-0.011036793214910287   -0.0011508417264229592   6.744434038254302e-05
-0.00482119128572273   -0.0007383196864949589   0.00019828681208812596
-0.004656762235991747   -0.0008580917393165035   0.0001116414551690673
-0.003745513044051887   -0.013424078876507062   0.0002621425082370671
-0.011036793214910287   -0.0011508417264229592   6.744434038254302e-05
-0.004656762235991747   -0.0008580917393165035   0.0001116414551690673
-0.010553393491984503   -0.013712139819697683   -3.808639779669493e-05
-0.003745513044051887   -0.013424078876507062   0.0002621425082370671
-0.00482119128572273   -0.0007383196864949589   0.00019828681208812596
-0.010656831610904468   -0.013592031354618665   2.0239650654226587e-05
-0.003864163925131808   -0.013290748254129644   0.0003454464088817343
-0.00482119128572273   -0.0007383196864949589   0.00019828681208812596
-0.011036793214910287   -0.0011508417264229592   6.744434038254302e-05
-0.010656831610904468   -0.013592031354618665   2.0239650654226587e-05
-0.011184960300037568   -0.0009672080423790278   0.00013307525213391056
-0.003864163925131808   -0.013290748254129644   0.0003454464088817343
-0.010755069865982571   -0.013460393971433966   8.453583116663293e-05
-0.011184960300037568   -0.0009672080423790278   0.00013307525213391056
-0.010656831610904468   -0.013592031354618665   2.0239650654226587e-05
-0.003864163925131808   -0.013290748254129644   0.0003454464088817343
-0.011184960300037568   -0.0009672080423790278   0.00013307525213391056
-0.005041226132521684   -0.000579407933318757   0.00029769012849883275
-0.00482119128572273   -0.0007383196864949589   0.00019828681208812596
-0.003864163925131808   -0.013290748254129644   0.0003454464088817343
-0.011184960300037568   -0.0009672080423790278   0.00013307525213391056
-0.00482119128572273   -0.0007383196864949589   0.00019828681208812596
-0.010656831610904468   -0.013592031354618665   2.0239650654226587e-05
-0.01045448249733312   -0.013818623036335794   -9.324354528320184e-05
-0.01076770393994911   -0.0014460093793989776   -3.9500213513914554e-05
-0.017584013696100412   -0.013975399508119732   -0.0002955387006240447
-0.010553393491984503   -0.013712139819697683   -3.808639779669493e-05
-0.01076770393994911   -0.0014460093793989776   -3.9500213513914554e-05
-0.01775845043474668   -0.0015391995696666127   -0.00016861176475225562
-0.017584013696100412   -0.013975399508119732   -0.0002955387006240447
-0.017840078187785924   -0.0014324867408457985   -0.00015824627036881524
-0.010553393491984503   -0.013712139819697683   -3.808639779669493e-05
-0.017672773307808462   -0.013866111778335685   -0.00025285832955015535
-0.017840078187785924   -0.0014324867408457985   -0.00015824627036881524
-0.017584013696100412   -0.013975399508119732   -0.0002955387006240447
-0.010553393491984503   -0.013712139819697683   -3.808639779669493e-05
-0.017840078187785924   -0.0014324867408457985   -0.00015824627036881524
-0.010902588697971921   -0.0013099299705535777   -1.2911144102004647e-06
-0.01076770393994911   -0.0014460093793989776   -3.9500213513914554e-05
-0.010553393491984503   -0.013712139819697683   -3.808639779669493e-05
-0.017840078187785924   -0.0014324867408457985   -0.00015824627036881524
-0.01076770393994911   -0.0014460093793989776   -3.9500213513914554e-05
-0.017584013696100412   -0.013975399508119732   -0.0002955387006240447
-0.010553393491984503   -0.013712139819697683   -3.808639779669493e-05
-0.010902588697971921   -0.0013099299705535777   -1.2911144102004647e-06
-0.017672773307808462   -0.013866111778335685   -0.00025285832955015535
-0.010656831610904468   -0.013592031354618665   2.0239650654226587e-05
-0.010902588697971921   -0.0013099299705535777   -1.2911144102004647e-06
-0.017840078187785924   -0.0014324867408457985   -0.00015824627036881524
-0.017672773307808462   -0.013866111778335685   -0.00025285832955015535
-0.017924917337287464   -0.0013089293301008294   -0.0001399299956949148
-0.010656831610904468   -0.013592031354618665   2.0239650654226587e-05
-0.017757677407272524   -0.013750739393922243   -0.00021035162385603062
-0.017924917337287464   -0.0013089293301008294   -0.0001399299956949148
-0.017672773307808462   -0.013866111778335685   -0.00025285832955015535
-0.010656831610904468   -0.013592031354618665   2.0239650654226587e-05
-0.017924917337287464   -0.0013089293301008294   -0.0001399299956949148
-0.011036793214910287   -0.0011508417264229592   6.744434038254302e-05
-0.010902588697971921   -0.0013099299705535777   -1.2911144102004647e-06
-0.010656831610904468   -0.013592031354618665   2.0239650654226587e-05
-0.017924917337287464   -0.0013089293301008294   -0.0001399299956949148
-0.010902588697971921   -0.0013099299705535777   -1.2911144102004647e-06
-0.017672773307808462   -0.013866111778335685   -0.00025285832955015535
-0.010656831610904468   -0.013592031354618665   2.0239650654226587e-05
-0.011036793214910287   -0.0011508417264229592   6.744434038254302e-05
-0.017757677407272524   -0.013750739393922243   -0.00021035162385603062
-0.010755069865982571   -0.013460393971433966   8.453583116663293e-05
-0.011036793214910287   -0.0011508417264229592   6.744434038254302e-05
-0.017924917337287464   -0.0013089293301008294   -0.0001399299956949148
-0.017757677407272524   -0.013750739393922243   -0.00021035162385603062
-0.018005048691739352   -0.0011590944267176188   -0.00011569662627794224
-0.010755069865982571   -0.013460393971433966   8.453583116663293e-05
-0.0178358926464836   -0.013625868011878468   -0.00016411165667560735
-0.018005048691739352   -0.0011590944267176188   -0.00011569662627794224
-0.017757677407272524   -0.013750739393922243   -0.00021035162385603062
-0.010755069865982571   -0.013460393971433966   8.453583116663293e-05
-0.018005048691739352   -0.0011590944267176188   -0.00011569662627794224
-0.011184960300037568   -0.0009672080423790278   0.00013307525213391056
-0.011036793214910287   -0.0011508417264229592   6.744434038254302e-05
-0.010755069865982571   -0.013460393971433966   8.453583116663293e-05
-0.018005048691739352   -0.0011590944267176188   -0.00011569662627794224
-0.011036793214910287   -0.0011508417264229592   6.744434038254302e-05
-0.017757677407272524   -0.013750739393922243   -0.00021035162385603062
-0.017584013696100412   -0.013975399508119732   -0.0002955387006240447
-0.01775845043474668   -0.0015391995696666127   -0.00016861176475225562
-0.024963943262830735   -0.014039664292194413   -0.0004823682267058701
-0.017672773307808462   -0.013866111778335685   -0.00025285832955015535
-0.01775845043474668   -0.0015391995696666127   -0.00016861176475225562
-0.025092814883720806   -0.0015211658226665658   -0.00035277072768399636
-0.024963943262830735   -0.014039664292194413   -0.0004823682267058701
-0.025147892600892806   -0.0014248247251407548   -0.00034836589190944604
-0.017672773307808462   -0.013866111778335685   -0.00025285832955015535
-0.02504389130844172   -0.013941401525320175   -0.00045130818755051763
-0.025147892600892806   -0.0014248247251407548   -0.00034836589190944604
-0.024963943262830735   -0.014039664292194413   -0.0004823682267058701
-0.017672773307808462   -0.013866111778335685   -0.00025285832955015535
-0.025147892600892806   -0.0014248247251407548   -0.00034836589190944604
-0.017840078187785924   -0.0014324867408457985   -0.00015824627036881524
-0.01775845043474668   -0.0015391995696666127   -0.00016861176475225562
-0.017672773307808462   -0.013866111778335685   -0.00025285832955015535
-0.025147892600892806   -0.0014248247251407548   -0.00034836589190944604
-0.01775845043474668   -0.0015391995696666127   -0.00016861176475225562
-0.024963943262830735   -0.014039664292194413   -0.0004823682267058701
-0.017672773307808462   -0.013866111778335685   -0.00025285832955015535
-0.017840078187785924   -0.0014324867408457985   -0.00015824627036881524
-0.02504389130844172   -0.013941401525320175   -0.00045130818755051763
-0.017757677407272524   -0.013750739393922243   -0.00021035162385603062
-0.017840078187785924   -0.0014324867408457985   -0.00015824627036881524
-0.025147892600892806   -0.0014248247251407548   -0.00034836589190944604
-0.02504389130844172   -0.013941401525320175   -0.00045130818755051763
-0.025205367690965298   -0.0013178800052980836   -0.0003454859766519496
-0.017757677407272524   -0.013750739393922243   -0.00021035162385603062
-0.0251151301909311   -0.013834453698616064   -0.0004211663986085154
-0.025205367690965298   -0.0013178800052980836   -0.0003454859766519496
-0.02504389130844172   -0.013941401525320175   -0.00045130818755051763
-0.017757677407272524   -0.013750739393922243   -0.00021035162385603062
-0.025205367690965298   -0.0013178800052980836   -0.0003454859766519496
-0.017924917337287464   -0.0013089293301008294   -0.0001399299956949148
-0.017840078187785924   -0.0014324867408457985   -0.00015824627036881524
-0.017757677407272524   -0.013750739393922243   -0.00021035162385603062
-0.025205367690965298   -0.0013178800052980836   -0.0003454859766519496
-0.017840078187785924   -0.0014324867408457985   -0.00015824627036881524
-0.02504389130844172   -0.013941401525320175   -0.00045130818755051763
-0.017757677407272524   -0.013750739393922243   -0.00021035162385603062
-0.017924917337287464   -0.0013089293301008294   -0.0001399299956949148
-0.0251151301909311   -0.013834453698616064   -0.0004211663986085154
-0.0178358926464836   -0.013625868011878468   -0.00016411165667560735
-0.017924917337287464   -0.0013089293301008294   -0.0001399299956949148
-0.025205367690965298   -0.0013178800052980836   -0.0003454859766519496
-0.0251151301909311   -0.013834453698616064   -0.0004211663986085154
-0.025248733679525563   -0.0012023793667731975   -0.0003443930567226412
-0.0178358926464836   -0.013625868011878468   -0.00016411165667560735
-0.02517962504067563   -0.013720646724753165   -0.0003901679343751023
-0.025248733679525563   -0.0012023793667731975   -0.0003443930567226412
-0.0251151301909311   -0.013834453698616064   -0.0004211663986085154
-0.0178358926464836   -0.013625868011878468   -0.00016411165667560735
-0.025248733679525563   -0.0012023793667731975   -0.0003443930567226412
-0.018005048691739352   -0.0011590944267176188   -0.00011569662627794224
-0.017924917337287464   -0.0013089293301008294   -0.0001399299956949148
-0.0178358926464836   -0.013625868011878468   -0.00016411165667560735
-0.025248733679525563   -0.0012023793667731975   -0.0003443930567226412
-0.017924917337287464   -0.0013089293301008294   -0.0001399299956949148
-0.0251151301909311   -0.013834453698616064   -0.0004211663986085154
-0.024963943262830735   -0.014039664292194413   -0.0004823682267058701
-0.025092814883720806   -0.0015211658226665658   -0.00035277072768399636
-0.03260548190573929   -0.014046963666793434   -0.0006377271515066758
-0.02504389130844172   -0.013941401525320175   -0.00045130818755051763
-0.025092814883720806   -0.0015211658226665658   -0.00035277072768399636
-0.03262875057694537   -0.0015099245475204376   -0.0005339234956256232
-0.03260548190573929   -0.014046963666793434   -0.0006377271515066758
-0.032673093228780245   -0.0014053099302355973   -0.000533935450671963
-0.02504389130844172   -0.013941401525320175   -0.00045130818755051763
-0.03267427250428658   -0.013951533431194105   -0.0006244961209763448
-0.032673093228780245   -0.0014053099302355973   -0.000533935450671963
-0.03260548190573929   -0.014046963666793434   -0.0006377271515066758
-0.02504389130844172   -0.013941401525320175   -0.00045130818755051763
-0.032673093228780245   -0.0014053099302355973   -0.000533935450671963
-0.025147892600892806   -0.0014248247251407548   -0.00034836589190944604
-0.025092814883720806   -0.0015211658226665658   -0.00035277072768399636
-0.02504389130844172   -0.013941401525320175   -0.00045130818755051763
-0.032673093228780245   -0.0014053099302355973   -0.000533935450671963
-0.025092814883720806   -0.0015211658226665658   -0.00035277072768399636
-0.03260548190573929   -0.014046963666793434   -0.0006377271515066758
-0.02504389130844172   -0.013941401525320175   -0.00045130818755051763
-0.025147892600892806   -0.0014248247251407548   -0.00034836589190944604
-0.03267427250428658   -0.013951533431194105   -0.0006244961209763448
-0.0251151301909311   -0.013834453698616064   -0.0004211663986085154
-0.025147892600892806   -0.0014248247251407548   -0.00034836589190944604
-0.032673093228780245   -0.0014053099302355973   -0.000533935450671963
-0.03267427250428658   -0.013951533431194105   -0.0006244961209763448
-0.03272179515380713   -0.0013009931701672152   -0.0005421001489708085
-0.0251151301909311   -0.013834453698616064   -0.0004211663986085154
-0.032735902731288784   -0.013848435133015057   -0.0006090409385216552
-0.03272179515380713   -0.0013009931701672152   -0.0005421001489708085
-0.03267427250428658   -0.013951533431194105   -0.0006244961209763448
-0.0251151301909311   -0.013834453698616064   -0.0004211663986085154
-0.03272179515380713   -0.0013009931701672152   -0.0005421001489708085
-0.025205367690965298   -0.0013178800052980836   -0.0003454859766519496
-0.025147892600892806   -0.0014248247251407548   -0.00034836589190944604
-0.0251151301909311   -0.013834453698616064   -0.0004211663986085154
-0.03272179515380713   -0.0013009931701672152   -0.0005421001489708085
-0.025147892600892806   -0.0014248247251407548   -0.00034836589190944604
-0.03267427250428658   -0.013951533431194105   -0.0006244961209763448
-0.0251151301909311   -0.013834453698616064   -0.0004211663986085154
-0.025205367690965298   -0.0013178800052980836   -0.0003454859766519496
-0.032735902731288784   -0.013848435133015057   -0.0006090409385216552
-0.02517962504067563   -0.013720646724753165   -0.0003901679343751023
-0.025205367690965298   -0.0013178800052980836   -0.0003454859766519496
-0.03272179515380713   -0.0013009931701672152   -0.0005421001489708085
-0.032735902731288784   -0.013848435133015057   -0.0006090409385216552
-0.032757581094644564   -0.0011875577427911406   -0.0005508270127896449
-0.02517962504067563   -0.013720646724753165   -0.0003901679343751023
-0.03278785672122402   -0.013739248534363802   -0.0005947329971068177
-0.032757581094644564   -0.0011875577427911406   -0.0005508270127896449
-0.032735902731288784   -0.013848435133015057   -0.0006090409385216552
-0.02517962504067563   -0.013720646724753165   -0.0003901679343751023
-0.032757581094644564   -0.0011875577427911406   -0.0005508270127896449
-0.025248733679525563   -0.0012023793667731975   -0.0003443930567226412
-0.025205367690965298   -0.0013178800052980836   -0.0003454859766519496
-0.02517962504067563   -0.013720646724753165   -0.0003901679343751023
-0.032757581094644564   -0.0011875577427911406   -0.0005508270127896449
-0.025205367690965298   -0.0013178800052980836   -0.0003454859766519496
-0.032735902731288784   -0.013848435133015057   -0.0006090409385216552
              </DataArray>   
          </PointData>  
       </Piece>  
   </UnstructuredGrid> 
</VTKFile> 
