<?xml version="1.0"?> 
<VTKFile type="UnstructuredGrid"> 
   <UnstructuredGrid> 
      <Piece NumberOfPoints="6000"  NumberOfCells="1500">  
          <Points>  
             <DataArray type="Float64" NumberOfComponents="3" format="ascii">   
-500.0   0.0   0.0
-450.0   0.0   0.0
-500.0   30.0   0.0
-500.0   0.0   16.666666666666668
-450.0   0.0   0.0
-450.0   30.0   0.0
-500.0   30.0   0.0
-450.0   30.0   16.666666666666668
-500.0   0.0   16.666666666666668
-500.0   30.0   16.666666666666668
-450.0   30.0   16.666666666666668
-500.0   30.0   0.0
-500.0   0.0   16.666666666666668
-450.0   30.0   16.666666666666668
-450.0   0.0   16.666666666666668
-450.0   0.0   0.0
-500.0   0.0   16.666666666666668
-450.0   30.0   16.666666666666668
-450.0   0.0   0.0
-500.0   30.0   0.0
-500.0   0.0   16.666666666666668
-450.0   0.0   16.666666666666668
-500.0   30.0   16.666666666666668
-500.0   0.0   33.333333333333336
-450.0   0.0   16.666666666666668
-450.0   30.0   16.666666666666668
-500.0   30.0   16.666666666666668
-450.0   30.0   33.333333333333336
-500.0   0.0   33.333333333333336
-500.0   30.0   33.333333333333336
-450.0   30.0   33.333333333333336
-500.0   30.0   16.666666666666668
-500.0   0.0   33.333333333333336
-450.0   30.0   33.333333333333336
-450.0   0.0   33.333333333333336
-450.0   0.0   16.666666666666668
-500.0   0.0   33.333333333333336
-450.0   30.0   33.333333333333336
-450.0   0.0   16.666666666666668
-500.0   30.0   16.666666666666668
-500.0   0.0   33.333333333333336
-450.0   0.0   33.333333333333336
-500.0   30.0   33.333333333333336
-500.0   0.0   50.0
-450.0   0.0   33.333333333333336
-450.0   30.0   33.333333333333336
-500.0   30.0   33.333333333333336
-450.0   30.0   50.0
-500.0   0.0   50.0
-500.0   30.0   50.0
-450.0   30.0   50.0
-500.0   30.0   33.333333333333336
-500.0   0.0   50.0
-450.0   30.0   50.0
-450.0   0.0   50.0
-450.0   0.0   33.333333333333336
-500.0   0.0   50.0
-450.0   30.0   50.0
-450.0   0.0   33.333333333333336
-500.0   30.0   33.333333333333336
-500.0   30.0   0.0
-450.0   30.0   0.0
-500.0   60.0   0.0
-500.0   30.0   16.666666666666668
-450.0   30.0   0.0
-450.0   60.0   0.0
-500.0   60.0   0.0
-450.0   60.0   16.666666666666668
-500.0   30.0   16.666666666666668
-500.0   60.0   16.666666666666668
-450.0   60.0   16.666666666666668
-500.0   60.0   0.0
-500.0   30.0   16.666666666666668
-450.0   60.0   16.666666666666668
-450.0   30.0   16.666666666666668
-450.0   30.0   0.0
-500.0   30.0   16.666666666666668
-450.0   60.0   16.666666666666668
-450.0   30.0   0.0
-500.0   60.0   0.0
-500.0   30.0   16.666666666666668
-450.0   30.0   16.666666666666668
-500.0   60.0   16.666666666666668
-500.0   30.0   33.333333333333336
-450.0   30.0   16.666666666666668
-450.0   60.0   16.666666666666668
-500.0   60.0   16.666666666666668
-450.0   60.0   33.333333333333336
-500.0   30.0   33.333333333333336
-500.0   60.0   33.333333333333336
-450.0   60.0   33.333333333333336
-500.0   60.0   16.666666666666668
-500.0   30.0   33.333333333333336
-450.0   60.0   33.333333333333336
-450.0   30.0   33.333333333333336
-450.0   30.0   16.666666666666668
-500.0   30.0   33.333333333333336
-450.0   60.0   33.333333333333336
-450.0   30.0   16.666666666666668
-500.0   60.0   16.666666666666668
-500.0   30.0   33.333333333333336
-450.0   30.0   33.333333333333336
-500.0   60.0   33.333333333333336
-500.0   30.0   50.0
-450.0   30.0   33.333333333333336
-450.0   60.0   33.333333333333336
-500.0   60.0   33.333333333333336
-450.0   60.0   50.0
-500.0   30.0   50.0
-500.0   60.0   50.0
-450.0   60.0   50.0
-500.0   60.0   33.333333333333336
-500.0   30.0   50.0
-450.0   60.0   50.0
-450.0   30.0   50.0
-450.0   30.0   33.333333333333336
-500.0   30.0   50.0
-450.0   60.0   50.0
-450.0   30.0   33.333333333333336
-500.0   60.0   33.333333333333336
-500.0   60.0   0.0
-450.0   60.0   0.0
-500.0   90.0   0.0
-500.0   60.0   16.666666666666668
-450.0   60.0   0.0
-450.0   90.0   0.0
-500.0   90.0   0.0
-450.0   90.0   16.666666666666668
-500.0   60.0   16.666666666666668
-500.0   90.0   16.666666666666668
-450.0   90.0   16.666666666666668
-500.0   90.0   0.0
-500.0   60.0   16.666666666666668
-450.0   90.0   16.666666666666668
-450.0   60.0   16.666666666666668
-450.0   60.0   0.0
-500.0   60.0   16.666666666666668
-450.0   90.0   16.666666666666668
-450.0   60.0   0.0
-500.0   90.0   0.0
-500.0   60.0   16.666666666666668
-450.0   60.0   16.666666666666668
-500.0   90.0   16.666666666666668
-500.0   60.0   33.333333333333336
-450.0   60.0   16.666666666666668
-450.0   90.0   16.666666666666668
-500.0   90.0   16.666666666666668
-450.0   90.0   33.333333333333336
-500.0   60.0   33.333333333333336
-500.0   90.0   33.333333333333336
-450.0   90.0   33.333333333333336
-500.0   90.0   16.666666666666668
-500.0   60.0   33.333333333333336
-450.0   90.0   33.333333333333336
-450.0   60.0   33.333333333333336
-450.0   60.0   16.666666666666668
-500.0   60.0   33.333333333333336
-450.0   90.0   33.333333333333336
-450.0   60.0   16.666666666666668
-500.0   90.0   16.666666666666668
-500.0   60.0   33.333333333333336
-450.0   60.0   33.333333333333336
-500.0   90.0   33.333333333333336
-500.0   60.0   50.0
-450.0   60.0   33.333333333333336
-450.0   90.0   33.333333333333336
-500.0   90.0   33.333333333333336
-450.0   90.0   50.0
-500.0   60.0   50.0
-500.0   90.0   50.0
-450.0   90.0   50.0
-500.0   90.0   33.333333333333336
-500.0   60.0   50.0
-450.0   90.0   50.0
-450.0   60.0   50.0
-450.0   60.0   33.333333333333336
-500.0   60.0   50.0
-450.0   90.0   50.0
-450.0   60.0   33.333333333333336
-500.0   90.0   33.333333333333336
-500.0   90.0   0.0
-450.0   90.0   0.0
-500.0   120.0   0.0
-500.0   90.0   16.666666666666668
-450.0   90.0   0.0
-450.0   120.0   0.0
-500.0   120.0   0.0
-450.0   120.0   16.666666666666668
-500.0   90.0   16.666666666666668
-500.0   120.0   16.666666666666668
-450.0   120.0   16.666666666666668
-500.0   120.0   0.0
-500.0   90.0   16.666666666666668
-450.0   120.0   16.666666666666668
-450.0   90.0   16.666666666666668
-450.0   90.0   0.0
-500.0   90.0   16.666666666666668
-450.0   120.0   16.666666666666668
-450.0   90.0   0.0
-500.0   120.0   0.0
-500.0   90.0   16.666666666666668
-450.0   90.0   16.666666666666668
-500.0   120.0   16.666666666666668
-500.0   90.0   33.333333333333336
-450.0   90.0   16.666666666666668
-450.0   120.0   16.666666666666668
-500.0   120.0   16.666666666666668
-450.0   120.0   33.333333333333336
-500.0   90.0   33.333333333333336
-500.0   120.0   33.333333333333336
-450.0   120.0   33.333333333333336
-500.0   120.0   16.666666666666668
-500.0   90.0   33.333333333333336
-450.0   120.0   33.333333333333336
-450.0   90.0   33.333333333333336
-450.0   90.0   16.666666666666668
-500.0   90.0   33.333333333333336
-450.0   120.0   33.333333333333336
-450.0   90.0   16.666666666666668
-500.0   120.0   16.666666666666668
-500.0   90.0   33.333333333333336
-450.0   90.0   33.333333333333336
-500.0   120.0   33.333333333333336
-500.0   90.0   50.0
-450.0   90.0   33.333333333333336
-450.0   120.0   33.333333333333336
-500.0   120.0   33.333333333333336
-450.0   120.0   50.0
-500.0   90.0   50.0
-500.0   120.0   50.0
-450.0   120.0   50.0
-500.0   120.0   33.333333333333336
-500.0   90.0   50.0
-450.0   120.0   50.0
-450.0   90.0   50.0
-450.0   90.0   33.333333333333336
-500.0   90.0   50.0
-450.0   120.0   50.0
-450.0   90.0   33.333333333333336
-500.0   120.0   33.333333333333336
-500.0   120.0   0.0
-450.0   120.0   0.0
-500.0   150.0   0.0
-500.0   120.0   16.666666666666668
-450.0   120.0   0.0
-450.0   150.0   0.0
-500.0   150.0   0.0
-450.0   150.0   16.666666666666668
-500.0   120.0   16.666666666666668
-500.0   150.0   16.666666666666668
-450.0   150.0   16.666666666666668
-500.0   150.0   0.0
-500.0   120.0   16.666666666666668
-450.0   150.0   16.666666666666668
-450.0   120.0   16.666666666666668
-450.0   120.0   0.0
-500.0   120.0   16.666666666666668
-450.0   150.0   16.666666666666668
-450.0   120.0   0.0
-500.0   150.0   0.0
-500.0   120.0   16.666666666666668
-450.0   120.0   16.666666666666668
-500.0   150.0   16.666666666666668
-500.0   120.0   33.333333333333336
-450.0   120.0   16.666666666666668
-450.0   150.0   16.666666666666668
-500.0   150.0   16.666666666666668
-450.0   150.0   33.333333333333336
-500.0   120.0   33.333333333333336
-500.0   150.0   33.333333333333336
-450.0   150.0   33.333333333333336
-500.0   150.0   16.666666666666668
-500.0   120.0   33.333333333333336
-450.0   150.0   33.333333333333336
-450.0   120.0   33.333333333333336
-450.0   120.0   16.666666666666668
-500.0   120.0   33.333333333333336
-450.0   150.0   33.333333333333336
-450.0   120.0   16.666666666666668
-500.0   150.0   16.666666666666668
-500.0   120.0   33.333333333333336
-450.0   120.0   33.333333333333336
-500.0   150.0   33.333333333333336
-500.0   120.0   50.0
-450.0   120.0   33.333333333333336
-450.0   150.0   33.333333333333336
-500.0   150.0   33.333333333333336
-450.0   150.0   50.0
-500.0   120.0   50.0
-500.0   150.0   50.0
-450.0   150.0   50.0
-500.0   150.0   33.333333333333336
-500.0   120.0   50.0
-450.0   150.0   50.0
-450.0   120.0   50.0
-450.0   120.0   33.333333333333336
-500.0   120.0   50.0
-450.0   150.0   50.0
-450.0   120.0   33.333333333333336
-500.0   150.0   33.333333333333336
-450.0   0.0   0.0
-400.0   0.0   0.0
-450.0   30.0   0.0
-450.0   0.0   16.666666666666668
-400.0   0.0   0.0
-400.0   30.0   0.0
-450.0   30.0   0.0
-400.0   30.0   16.666666666666668
-450.0   0.0   16.666666666666668
-450.0   30.0   16.666666666666668
-400.0   30.0   16.666666666666668
-450.0   30.0   0.0
-450.0   0.0   16.666666666666668
-400.0   30.0   16.666666666666668
-400.0   0.0   16.666666666666668
-400.0   0.0   0.0
-450.0   0.0   16.666666666666668
-400.0   30.0   16.666666666666668
-400.0   0.0   0.0
-450.0   30.0   0.0
-450.0   0.0   16.666666666666668
-400.0   0.0   16.666666666666668
-450.0   30.0   16.666666666666668
-450.0   0.0   33.333333333333336
-400.0   0.0   16.666666666666668
-400.0   30.0   16.666666666666668
-450.0   30.0   16.666666666666668
-400.0   30.0   33.333333333333336
-450.0   0.0   33.333333333333336
-450.0   30.0   33.333333333333336
-400.0   30.0   33.333333333333336
-450.0   30.0   16.666666666666668
-450.0   0.0   33.333333333333336
-400.0   30.0   33.333333333333336
-400.0   0.0   33.333333333333336
-400.0   0.0   16.666666666666668
-450.0   0.0   33.333333333333336
-400.0   30.0   33.333333333333336
-400.0   0.0   16.666666666666668
-450.0   30.0   16.666666666666668
-450.0   0.0   33.333333333333336
-400.0   0.0   33.333333333333336
-450.0   30.0   33.333333333333336
-450.0   0.0   50.0
-400.0   0.0   33.333333333333336
-400.0   30.0   33.333333333333336
-450.0   30.0   33.333333333333336
-400.0   30.0   50.0
-450.0   0.0   50.0
-450.0   30.0   50.0
-400.0   30.0   50.0
-450.0   30.0   33.333333333333336
-450.0   0.0   50.0
-400.0   30.0   50.0
-400.0   0.0   50.0
-400.0   0.0   33.333333333333336
-450.0   0.0   50.0
-400.0   30.0   50.0
-400.0   0.0   33.333333333333336
-450.0   30.0   33.333333333333336
-450.0   30.0   0.0
-400.0   30.0   0.0
-450.0   60.0   0.0
-450.0   30.0   16.666666666666668
-400.0   30.0   0.0
-400.0   60.0   0.0
-450.0   60.0   0.0
-400.0   60.0   16.666666666666668
-450.0   30.0   16.666666666666668
-450.0   60.0   16.666666666666668
-400.0   60.0   16.666666666666668
-450.0   60.0   0.0
-450.0   30.0   16.666666666666668
-400.0   60.0   16.666666666666668
-400.0   30.0   16.666666666666668
-400.0   30.0   0.0
-450.0   30.0   16.666666666666668
-400.0   60.0   16.666666666666668
-400.0   30.0   0.0
-450.0   60.0   0.0
-450.0   30.0   16.666666666666668
-400.0   30.0   16.666666666666668
-450.0   60.0   16.666666666666668
-450.0   30.0   33.333333333333336
-400.0   30.0   16.666666666666668
-400.0   60.0   16.666666666666668
-450.0   60.0   16.666666666666668
-400.0   60.0   33.333333333333336
-450.0   30.0   33.333333333333336
-450.0   60.0   33.333333333333336
-400.0   60.0   33.333333333333336
-450.0   60.0   16.666666666666668
-450.0   30.0   33.333333333333336
-400.0   60.0   33.333333333333336
-400.0   30.0   33.333333333333336
-400.0   30.0   16.666666666666668
-450.0   30.0   33.333333333333336
-400.0   60.0   33.333333333333336
-400.0   30.0   16.666666666666668
-450.0   60.0   16.666666666666668
-450.0   30.0   33.333333333333336
-400.0   30.0   33.333333333333336
-450.0   60.0   33.333333333333336
-450.0   30.0   50.0
-400.0   30.0   33.333333333333336
-400.0   60.0   33.333333333333336
-450.0   60.0   33.333333333333336
-400.0   60.0   50.0
-450.0   30.0   50.0
-450.0   60.0   50.0
-400.0   60.0   50.0
-450.0   60.0   33.333333333333336
-450.0   30.0   50.0
-400.0   60.0   50.0
-400.0   30.0   50.0
-400.0   30.0   33.333333333333336
-450.0   30.0   50.0
-400.0   60.0   50.0
-400.0   30.0   33.333333333333336
-450.0   60.0   33.333333333333336
-450.0   60.0   0.0
-400.0   60.0   0.0
-450.0   90.0   0.0
-450.0   60.0   16.666666666666668
-400.0   60.0   0.0
-400.0   90.0   0.0
-450.0   90.0   0.0
-400.0   90.0   16.666666666666668
-450.0   60.0   16.666666666666668
-450.0   90.0   16.666666666666668
-400.0   90.0   16.666666666666668
-450.0   90.0   0.0
-450.0   60.0   16.666666666666668
-400.0   90.0   16.666666666666668
-400.0   60.0   16.666666666666668
-400.0   60.0   0.0
-450.0   60.0   16.666666666666668
-400.0   90.0   16.666666666666668
-400.0   60.0   0.0
-450.0   90.0   0.0
-450.0   60.0   16.666666666666668
-400.0   60.0   16.666666666666668
-450.0   90.0   16.666666666666668
-450.0   60.0   33.333333333333336
-400.0   60.0   16.666666666666668
-400.0   90.0   16.666666666666668
-450.0   90.0   16.666666666666668
-400.0   90.0   33.333333333333336
-450.0   60.0   33.333333333333336
-450.0   90.0   33.333333333333336
-400.0   90.0   33.333333333333336
-450.0   90.0   16.666666666666668
-450.0   60.0   33.333333333333336
-400.0   90.0   33.333333333333336
-400.0   60.0   33.333333333333336
-400.0   60.0   16.666666666666668
-450.0   60.0   33.333333333333336
-400.0   90.0   33.333333333333336
-400.0   60.0   16.666666666666668
-450.0   90.0   16.666666666666668
-450.0   60.0   33.333333333333336
-400.0   60.0   33.333333333333336
-450.0   90.0   33.333333333333336
-450.0   60.0   50.0
-400.0   60.0   33.333333333333336
-400.0   90.0   33.333333333333336
-450.0   90.0   33.333333333333336
-400.0   90.0   50.0
-450.0   60.0   50.0
-450.0   90.0   50.0
-400.0   90.0   50.0
-450.0   90.0   33.333333333333336
-450.0   60.0   50.0
-400.0   90.0   50.0
-400.0   60.0   50.0
-400.0   60.0   33.333333333333336
-450.0   60.0   50.0
-400.0   90.0   50.0
-400.0   60.0   33.333333333333336
-450.0   90.0   33.333333333333336
-450.0   90.0   0.0
-400.0   90.0   0.0
-450.0   120.0   0.0
-450.0   90.0   16.666666666666668
-400.0   90.0   0.0
-400.0   120.0   0.0
-450.0   120.0   0.0
-400.0   120.0   16.666666666666668
-450.0   90.0   16.666666666666668
-450.0   120.0   16.666666666666668
-400.0   120.0   16.666666666666668
-450.0   120.0   0.0
-450.0   90.0   16.666666666666668
-400.0   120.0   16.666666666666668
-400.0   90.0   16.666666666666668
-400.0   90.0   0.0
-450.0   90.0   16.666666666666668
-400.0   120.0   16.666666666666668
-400.0   90.0   0.0
-450.0   120.0   0.0
-450.0   90.0   16.666666666666668
-400.0   90.0   16.666666666666668
-450.0   120.0   16.666666666666668
-450.0   90.0   33.333333333333336
-400.0   90.0   16.666666666666668
-400.0   120.0   16.666666666666668
-450.0   120.0   16.666666666666668
-400.0   120.0   33.333333333333336
-450.0   90.0   33.333333333333336
-450.0   120.0   33.333333333333336
-400.0   120.0   33.333333333333336
-450.0   120.0   16.666666666666668
-450.0   90.0   33.333333333333336
-400.0   120.0   33.333333333333336
-400.0   90.0   33.333333333333336
-400.0   90.0   16.666666666666668
-450.0   90.0   33.333333333333336
-400.0   120.0   33.333333333333336
-400.0   90.0   16.666666666666668
-450.0   120.0   16.666666666666668
-450.0   90.0   33.333333333333336
-400.0   90.0   33.333333333333336
-450.0   120.0   33.333333333333336
-450.0   90.0   50.0
-400.0   90.0   33.333333333333336
-400.0   120.0   33.333333333333336
-450.0   120.0   33.333333333333336
-400.0   120.0   50.0
-450.0   90.0   50.0
-450.0   120.0   50.0
-400.0   120.0   50.0
-450.0   120.0   33.333333333333336
-450.0   90.0   50.0
-400.0   120.0   50.0
-400.0   90.0   50.0
-400.0   90.0   33.333333333333336
-450.0   90.0   50.0
-400.0   120.0   50.0
-400.0   90.0   33.333333333333336
-450.0   120.0   33.333333333333336
-450.0   120.0   0.0
-400.0   120.0   0.0
-450.0   150.0   0.0
-450.0   120.0   16.666666666666668
-400.0   120.0   0.0
-400.0   150.0   0.0
-450.0   150.0   0.0
-400.0   150.0   16.666666666666668
-450.0   120.0   16.666666666666668
-450.0   150.0   16.666666666666668
-400.0   150.0   16.666666666666668
-450.0   150.0   0.0
-450.0   120.0   16.666666666666668
-400.0   150.0   16.666666666666668
-400.0   120.0   16.666666666666668
-400.0   120.0   0.0
-450.0   120.0   16.666666666666668
-400.0   150.0   16.666666666666668
-400.0   120.0   0.0
-450.0   150.0   0.0
-450.0   120.0   16.666666666666668
-400.0   120.0   16.666666666666668
-450.0   150.0   16.666666666666668
-450.0   120.0   33.333333333333336
-400.0   120.0   16.666666666666668
-400.0   150.0   16.666666666666668
-450.0   150.0   16.666666666666668
-400.0   150.0   33.333333333333336
-450.0   120.0   33.333333333333336
-450.0   150.0   33.333333333333336
-400.0   150.0   33.333333333333336
-450.0   150.0   16.666666666666668
-450.0   120.0   33.333333333333336
-400.0   150.0   33.333333333333336
-400.0   120.0   33.333333333333336
-400.0   120.0   16.666666666666668
-450.0   120.0   33.333333333333336
-400.0   150.0   33.333333333333336
-400.0   120.0   16.666666666666668
-450.0   150.0   16.666666666666668
-450.0   120.0   33.333333333333336
-400.0   120.0   33.333333333333336
-450.0   150.0   33.333333333333336
-450.0   120.0   50.0
-400.0   120.0   33.333333333333336
-400.0   150.0   33.333333333333336
-450.0   150.0   33.333333333333336
-400.0   150.0   50.0
-450.0   120.0   50.0
-450.0   150.0   50.0
-400.0   150.0   50.0
-450.0   150.0   33.333333333333336
-450.0   120.0   50.0
-400.0   150.0   50.0
-400.0   120.0   50.0
-400.0   120.0   33.333333333333336
-450.0   120.0   50.0
-400.0   150.0   50.0
-400.0   120.0   33.333333333333336
-450.0   150.0   33.333333333333336
-400.0   0.0   0.0
-350.0   0.0   0.0
-400.0   30.0   0.0
-400.0   0.0   16.666666666666668
-350.0   0.0   0.0
-350.0   30.0   0.0
-400.0   30.0   0.0
-350.0   30.0   16.666666666666668
-400.0   0.0   16.666666666666668
-400.0   30.0   16.666666666666668
-350.0   30.0   16.666666666666668
-400.0   30.0   0.0
-400.0   0.0   16.666666666666668
-350.0   30.0   16.666666666666668
-350.0   0.0   16.666666666666668
-350.0   0.0   0.0
-400.0   0.0   16.666666666666668
-350.0   30.0   16.666666666666668
-350.0   0.0   0.0
-400.0   30.0   0.0
-400.0   0.0   16.666666666666668
-350.0   0.0   16.666666666666668
-400.0   30.0   16.666666666666668
-400.0   0.0   33.333333333333336
-350.0   0.0   16.666666666666668
-350.0   30.0   16.666666666666668
-400.0   30.0   16.666666666666668
-350.0   30.0   33.333333333333336
-400.0   0.0   33.333333333333336
-400.0   30.0   33.333333333333336
-350.0   30.0   33.333333333333336
-400.0   30.0   16.666666666666668
-400.0   0.0   33.333333333333336
-350.0   30.0   33.333333333333336
-350.0   0.0   33.333333333333336
-350.0   0.0   16.666666666666668
-400.0   0.0   33.333333333333336
-350.0   30.0   33.333333333333336
-350.0   0.0   16.666666666666668
-400.0   30.0   16.666666666666668
-400.0   0.0   33.333333333333336
-350.0   0.0   33.333333333333336
-400.0   30.0   33.333333333333336
-400.0   0.0   50.0
-350.0   0.0   33.333333333333336
-350.0   30.0   33.333333333333336
-400.0   30.0   33.333333333333336
-350.0   30.0   50.0
-400.0   0.0   50.0
-400.0   30.0   50.0
-350.0   30.0   50.0
-400.0   30.0   33.333333333333336
-400.0   0.0   50.0
-350.0   30.0   50.0
-350.0   0.0   50.0
-350.0   0.0   33.333333333333336
-400.0   0.0   50.0
-350.0   30.0   50.0
-350.0   0.0   33.333333333333336
-400.0   30.0   33.333333333333336
-400.0   30.0   0.0
-350.0   30.0   0.0
-400.0   60.0   0.0
-400.0   30.0   16.666666666666668
-350.0   30.0   0.0
-350.0   60.0   0.0
-400.0   60.0   0.0
-350.0   60.0   16.666666666666668
-400.0   30.0   16.666666666666668
-400.0   60.0   16.666666666666668
-350.0   60.0   16.666666666666668
-400.0   60.0   0.0
-400.0   30.0   16.666666666666668
-350.0   60.0   16.666666666666668
-350.0   30.0   16.666666666666668
-350.0   30.0   0.0
-400.0   30.0   16.666666666666668
-350.0   60.0   16.666666666666668
-350.0   30.0   0.0
-400.0   60.0   0.0
-400.0   30.0   16.666666666666668
-350.0   30.0   16.666666666666668
-400.0   60.0   16.666666666666668
-400.0   30.0   33.333333333333336
-350.0   30.0   16.666666666666668
-350.0   60.0   16.666666666666668
-400.0   60.0   16.666666666666668
-350.0   60.0   33.333333333333336
-400.0   30.0   33.333333333333336
-400.0   60.0   33.333333333333336
-350.0   60.0   33.333333333333336
-400.0   60.0   16.666666666666668
-400.0   30.0   33.333333333333336
-350.0   60.0   33.333333333333336
-350.0   30.0   33.333333333333336
-350.0   30.0   16.666666666666668
-400.0   30.0   33.333333333333336
-350.0   60.0   33.333333333333336
-350.0   30.0   16.666666666666668
-400.0   60.0   16.666666666666668
-400.0   30.0   33.333333333333336
-350.0   30.0   33.333333333333336
-400.0   60.0   33.333333333333336
-400.0   30.0   50.0
-350.0   30.0   33.333333333333336
-350.0   60.0   33.333333333333336
-400.0   60.0   33.333333333333336
-350.0   60.0   50.0
-400.0   30.0   50.0
-400.0   60.0   50.0
-350.0   60.0   50.0
-400.0   60.0   33.333333333333336
-400.0   30.0   50.0
-350.0   60.0   50.0
-350.0   30.0   50.0
-350.0   30.0   33.333333333333336
-400.0   30.0   50.0
-350.0   60.0   50.0
-350.0   30.0   33.333333333333336
-400.0   60.0   33.333333333333336
-400.0   60.0   0.0
-350.0   60.0   0.0
-400.0   90.0   0.0
-400.0   60.0   16.666666666666668
-350.0   60.0   0.0
-350.0   90.0   0.0
-400.0   90.0   0.0
-350.0   90.0   16.666666666666668
-400.0   60.0   16.666666666666668
-400.0   90.0   16.666666666666668
-350.0   90.0   16.666666666666668
-400.0   90.0   0.0
-400.0   60.0   16.666666666666668
-350.0   90.0   16.666666666666668
-350.0   60.0   16.666666666666668
-350.0   60.0   0.0
-400.0   60.0   16.666666666666668
-350.0   90.0   16.666666666666668
-350.0   60.0   0.0
-400.0   90.0   0.0
-400.0   60.0   16.666666666666668
-350.0   60.0   16.666666666666668
-400.0   90.0   16.666666666666668
-400.0   60.0   33.333333333333336
-350.0   60.0   16.666666666666668
-350.0   90.0   16.666666666666668
-400.0   90.0   16.666666666666668
-350.0   90.0   33.333333333333336
-400.0   60.0   33.333333333333336
-400.0   90.0   33.333333333333336
-350.0   90.0   33.333333333333336
-400.0   90.0   16.666666666666668
-400.0   60.0   33.333333333333336
-350.0   90.0   33.333333333333336
-350.0   60.0   33.333333333333336
-350.0   60.0   16.666666666666668
-400.0   60.0   33.333333333333336
-350.0   90.0   33.333333333333336
-350.0   60.0   16.666666666666668
-400.0   90.0   16.666666666666668
-400.0   60.0   33.333333333333336
-350.0   60.0   33.333333333333336
-400.0   90.0   33.333333333333336
-400.0   60.0   50.0
-350.0   60.0   33.333333333333336
-350.0   90.0   33.333333333333336
-400.0   90.0   33.333333333333336
-350.0   90.0   50.0
-400.0   60.0   50.0
-400.0   90.0   50.0
-350.0   90.0   50.0
-400.0   90.0   33.333333333333336
-400.0   60.0   50.0
-350.0   90.0   50.0
-350.0   60.0   50.0
-350.0   60.0   33.333333333333336
-400.0   60.0   50.0
-350.0   90.0   50.0
-350.0   60.0   33.333333333333336
-400.0   90.0   33.333333333333336
-400.0   90.0   0.0
-350.0   90.0   0.0
-400.0   120.0   0.0
-400.0   90.0   16.666666666666668
-350.0   90.0   0.0
-350.0   120.0   0.0
-400.0   120.0   0.0
-350.0   120.0   16.666666666666668
-400.0   90.0   16.666666666666668
-400.0   120.0   16.666666666666668
-350.0   120.0   16.666666666666668
-400.0   120.0   0.0
-400.0   90.0   16.666666666666668
-350.0   120.0   16.666666666666668
-350.0   90.0   16.666666666666668
-350.0   90.0   0.0
-400.0   90.0   16.666666666666668
-350.0   120.0   16.666666666666668
-350.0   90.0   0.0
-400.0   120.0   0.0
-400.0   90.0   16.666666666666668
-350.0   90.0   16.666666666666668
-400.0   120.0   16.666666666666668
-400.0   90.0   33.333333333333336
-350.0   90.0   16.666666666666668
-350.0   120.0   16.666666666666668
-400.0   120.0   16.666666666666668
-350.0   120.0   33.333333333333336
-400.0   90.0   33.333333333333336
-400.0   120.0   33.333333333333336
-350.0   120.0   33.333333333333336
-400.0   120.0   16.666666666666668
-400.0   90.0   33.333333333333336
-350.0   120.0   33.333333333333336
-350.0   90.0   33.333333333333336
-350.0   90.0   16.666666666666668
-400.0   90.0   33.333333333333336
-350.0   120.0   33.333333333333336
-350.0   90.0   16.666666666666668
-400.0   120.0   16.666666666666668
-400.0   90.0   33.333333333333336
-350.0   90.0   33.333333333333336
-400.0   120.0   33.333333333333336
-400.0   90.0   50.0
-350.0   90.0   33.333333333333336
-350.0   120.0   33.333333333333336
-400.0   120.0   33.333333333333336
-350.0   120.0   50.0
-400.0   90.0   50.0
-400.0   120.0   50.0
-350.0   120.0   50.0
-400.0   120.0   33.333333333333336
-400.0   90.0   50.0
-350.0   120.0   50.0
-350.0   90.0   50.0
-350.0   90.0   33.333333333333336
-400.0   90.0   50.0
-350.0   120.0   50.0
-350.0   90.0   33.333333333333336
-400.0   120.0   33.333333333333336
-400.0   120.0   0.0
-350.0   120.0   0.0
-400.0   150.0   0.0
-400.0   120.0   16.666666666666668
-350.0   120.0   0.0
-350.0   150.0   0.0
-400.0   150.0   0.0
-350.0   150.0   16.666666666666668
-400.0   120.0   16.666666666666668
-400.0   150.0   16.666666666666668
-350.0   150.0   16.666666666666668
-400.0   150.0   0.0
-400.0   120.0   16.666666666666668
-350.0   150.0   16.666666666666668
-350.0   120.0   16.666666666666668
-350.0   120.0   0.0
-400.0   120.0   16.666666666666668
-350.0   150.0   16.666666666666668
-350.0   120.0   0.0
-400.0   150.0   0.0
-400.0   120.0   16.666666666666668
-350.0   120.0   16.666666666666668
-400.0   150.0   16.666666666666668
-400.0   120.0   33.333333333333336
-350.0   120.0   16.666666666666668
-350.0   150.0   16.666666666666668
-400.0   150.0   16.666666666666668
-350.0   150.0   33.333333333333336
-400.0   120.0   33.333333333333336
-400.0   150.0   33.333333333333336
-350.0   150.0   33.333333333333336
-400.0   150.0   16.666666666666668
-400.0   120.0   33.333333333333336
-350.0   150.0   33.333333333333336
-350.0   120.0   33.333333333333336
-350.0   120.0   16.666666666666668
-400.0   120.0   33.333333333333336
-350.0   150.0   33.333333333333336
-350.0   120.0   16.666666666666668
-400.0   150.0   16.666666666666668
-400.0   120.0   33.333333333333336
-350.0   120.0   33.333333333333336
-400.0   150.0   33.333333333333336
-400.0   120.0   50.0
-350.0   120.0   33.333333333333336
-350.0   150.0   33.333333333333336
-400.0   150.0   33.333333333333336
-350.0   150.0   50.0
-400.0   120.0   50.0
-400.0   150.0   50.0
-350.0   150.0   50.0
-400.0   150.0   33.333333333333336
-400.0   120.0   50.0
-350.0   150.0   50.0
-350.0   120.0   50.0
-350.0   120.0   33.333333333333336
-400.0   120.0   50.0
-350.0   150.0   50.0
-350.0   120.0   33.333333333333336
-400.0   150.0   33.333333333333336
-350.0   0.0   0.0
-300.0   0.0   0.0
-350.0   30.0   0.0
-350.0   0.0   16.666666666666668
-300.0   0.0   0.0
-300.0   30.0   0.0
-350.0   30.0   0.0
-300.0   30.0   16.666666666666668
-350.0   0.0   16.666666666666668
-350.0   30.0   16.666666666666668
-300.0   30.0   16.666666666666668
-350.0   30.0   0.0
-350.0   0.0   16.666666666666668
-300.0   30.0   16.666666666666668
-300.0   0.0   16.666666666666668
-300.0   0.0   0.0
-350.0   0.0   16.666666666666668
-300.0   30.0   16.666666666666668
-300.0   0.0   0.0
-350.0   30.0   0.0
-350.0   0.0   16.666666666666668
-300.0   0.0   16.666666666666668
-350.0   30.0   16.666666666666668
-350.0   0.0   33.333333333333336
-300.0   0.0   16.666666666666668
-300.0   30.0   16.666666666666668
-350.0   30.0   16.666666666666668
-300.0   30.0   33.333333333333336
-350.0   0.0   33.333333333333336
-350.0   30.0   33.333333333333336
-300.0   30.0   33.333333333333336
-350.0   30.0   16.666666666666668
-350.0   0.0   33.333333333333336
-300.0   30.0   33.333333333333336
-300.0   0.0   33.333333333333336
-300.0   0.0   16.666666666666668
-350.0   0.0   33.333333333333336
-300.0   30.0   33.333333333333336
-300.0   0.0   16.666666666666668
-350.0   30.0   16.666666666666668
-350.0   0.0   33.333333333333336
-300.0   0.0   33.333333333333336
-350.0   30.0   33.333333333333336
-350.0   0.0   50.0
-300.0   0.0   33.333333333333336
-300.0   30.0   33.333333333333336
-350.0   30.0   33.333333333333336
-300.0   30.0   50.0
-350.0   0.0   50.0
-350.0   30.0   50.0
-300.0   30.0   50.0
-350.0   30.0   33.333333333333336
-350.0   0.0   50.0
-300.0   30.0   50.0
-300.0   0.0   50.0
-300.0   0.0   33.333333333333336
-350.0   0.0   50.0
-300.0   30.0   50.0
-300.0   0.0   33.333333333333336
-350.0   30.0   33.333333333333336
-350.0   30.0   0.0
-300.0   30.0   0.0
-350.0   60.0   0.0
-350.0   30.0   16.666666666666668
-300.0   30.0   0.0
-300.0   60.0   0.0
-350.0   60.0   0.0
-300.0   60.0   16.666666666666668
-350.0   30.0   16.666666666666668
-350.0   60.0   16.666666666666668
-300.0   60.0   16.666666666666668
-350.0   60.0   0.0
-350.0   30.0   16.666666666666668
-300.0   60.0   16.666666666666668
-300.0   30.0   16.666666666666668
-300.0   30.0   0.0
-350.0   30.0   16.666666666666668
-300.0   60.0   16.666666666666668
-300.0   30.0   0.0
-350.0   60.0   0.0
-350.0   30.0   16.666666666666668
-300.0   30.0   16.666666666666668
-350.0   60.0   16.666666666666668
-350.0   30.0   33.333333333333336
-300.0   30.0   16.666666666666668
-300.0   60.0   16.666666666666668
-350.0   60.0   16.666666666666668
-300.0   60.0   33.333333333333336
-350.0   30.0   33.333333333333336
-350.0   60.0   33.333333333333336
-300.0   60.0   33.333333333333336
-350.0   60.0   16.666666666666668
-350.0   30.0   33.333333333333336
-300.0   60.0   33.333333333333336
-300.0   30.0   33.333333333333336
-300.0   30.0   16.666666666666668
-350.0   30.0   33.333333333333336
-300.0   60.0   33.333333333333336
-300.0   30.0   16.666666666666668
-350.0   60.0   16.666666666666668
-350.0   30.0   33.333333333333336
-300.0   30.0   33.333333333333336
-350.0   60.0   33.333333333333336
-350.0   30.0   50.0
-300.0   30.0   33.333333333333336
-300.0   60.0   33.333333333333336
-350.0   60.0   33.333333333333336
-300.0   60.0   50.0
-350.0   30.0   50.0
-350.0   60.0   50.0
-300.0   60.0   50.0
-350.0   60.0   33.333333333333336
-350.0   30.0   50.0
-300.0   60.0   50.0
-300.0   30.0   50.0
-300.0   30.0   33.333333333333336
-350.0   30.0   50.0
-300.0   60.0   50.0
-300.0   30.0   33.333333333333336
-350.0   60.0   33.333333333333336
-350.0   60.0   0.0
-300.0   60.0   0.0
-350.0   90.0   0.0
-350.0   60.0   16.666666666666668
-300.0   60.0   0.0
-300.0   90.0   0.0
-350.0   90.0   0.0
-300.0   90.0   16.666666666666668
-350.0   60.0   16.666666666666668
-350.0   90.0   16.666666666666668
-300.0   90.0   16.666666666666668
-350.0   90.0   0.0
-350.0   60.0   16.666666666666668
-300.0   90.0   16.666666666666668
-300.0   60.0   16.666666666666668
-300.0   60.0   0.0
-350.0   60.0   16.666666666666668
-300.0   90.0   16.666666666666668
-300.0   60.0   0.0
-350.0   90.0   0.0
-350.0   60.0   16.666666666666668
-300.0   60.0   16.666666666666668
-350.0   90.0   16.666666666666668
-350.0   60.0   33.333333333333336
-300.0   60.0   16.666666666666668
-300.0   90.0   16.666666666666668
-350.0   90.0   16.666666666666668
-300.0   90.0   33.333333333333336
-350.0   60.0   33.333333333333336
-350.0   90.0   33.333333333333336
-300.0   90.0   33.333333333333336
-350.0   90.0   16.666666666666668
-350.0   60.0   33.333333333333336
-300.0   90.0   33.333333333333336
-300.0   60.0   33.333333333333336
-300.0   60.0   16.666666666666668
-350.0   60.0   33.333333333333336
-300.0   90.0   33.333333333333336
-300.0   60.0   16.666666666666668
-350.0   90.0   16.666666666666668
-350.0   60.0   33.333333333333336
-300.0   60.0   33.333333333333336
-350.0   90.0   33.333333333333336
-350.0   60.0   50.0
-300.0   60.0   33.333333333333336
-300.0   90.0   33.333333333333336
-350.0   90.0   33.333333333333336
-300.0   90.0   50.0
-350.0   60.0   50.0
-350.0   90.0   50.0
-300.0   90.0   50.0
-350.0   90.0   33.333333333333336
-350.0   60.0   50.0
-300.0   90.0   50.0
-300.0   60.0   50.0
-300.0   60.0   33.333333333333336
-350.0   60.0   50.0
-300.0   90.0   50.0
-300.0   60.0   33.333333333333336
-350.0   90.0   33.333333333333336
-350.0   90.0   0.0
-300.0   90.0   0.0
-350.0   120.0   0.0
-350.0   90.0   16.666666666666668
-300.0   90.0   0.0
-300.0   120.0   0.0
-350.0   120.0   0.0
-300.0   120.0   16.666666666666668
-350.0   90.0   16.666666666666668
-350.0   120.0   16.666666666666668
-300.0   120.0   16.666666666666668
-350.0   120.0   0.0
-350.0   90.0   16.666666666666668
-300.0   120.0   16.666666666666668
-300.0   90.0   16.666666666666668
-300.0   90.0   0.0
-350.0   90.0   16.666666666666668
-300.0   120.0   16.666666666666668
-300.0   90.0   0.0
-350.0   120.0   0.0
-350.0   90.0   16.666666666666668
-300.0   90.0   16.666666666666668
-350.0   120.0   16.666666666666668
-350.0   90.0   33.333333333333336
-300.0   90.0   16.666666666666668
-300.0   120.0   16.666666666666668
-350.0   120.0   16.666666666666668
-300.0   120.0   33.333333333333336
-350.0   90.0   33.333333333333336
-350.0   120.0   33.333333333333336
-300.0   120.0   33.333333333333336
-350.0   120.0   16.666666666666668
-350.0   90.0   33.333333333333336
-300.0   120.0   33.333333333333336
-300.0   90.0   33.333333333333336
-300.0   90.0   16.666666666666668
-350.0   90.0   33.333333333333336
-300.0   120.0   33.333333333333336
-300.0   90.0   16.666666666666668
-350.0   120.0   16.666666666666668
-350.0   90.0   33.333333333333336
-300.0   90.0   33.333333333333336
-350.0   120.0   33.333333333333336
-350.0   90.0   50.0
-300.0   90.0   33.333333333333336
-300.0   120.0   33.333333333333336
-350.0   120.0   33.333333333333336
-300.0   120.0   50.0
-350.0   90.0   50.0
-350.0   120.0   50.0
-300.0   120.0   50.0
-350.0   120.0   33.333333333333336
-350.0   90.0   50.0
-300.0   120.0   50.0
-300.0   90.0   50.0
-300.0   90.0   33.333333333333336
-350.0   90.0   50.0
-300.0   120.0   50.0
-300.0   90.0   33.333333333333336
-350.0   120.0   33.333333333333336
-350.0   120.0   0.0
-300.0   120.0   0.0
-350.0   150.0   0.0
-350.0   120.0   16.666666666666668
-300.0   120.0   0.0
-300.0   150.0   0.0
-350.0   150.0   0.0
-300.0   150.0   16.666666666666668
-350.0   120.0   16.666666666666668
-350.0   150.0   16.666666666666668
-300.0   150.0   16.666666666666668
-350.0   150.0   0.0
-350.0   120.0   16.666666666666668
-300.0   150.0   16.666666666666668
-300.0   120.0   16.666666666666668
-300.0   120.0   0.0
-350.0   120.0   16.666666666666668
-300.0   150.0   16.666666666666668
-300.0   120.0   0.0
-350.0   150.0   0.0
-350.0   120.0   16.666666666666668
-300.0   120.0   16.666666666666668
-350.0   150.0   16.666666666666668
-350.0   120.0   33.333333333333336
-300.0   120.0   16.666666666666668
-300.0   150.0   16.666666666666668
-350.0   150.0   16.666666666666668
-300.0   150.0   33.333333333333336
-350.0   120.0   33.333333333333336
-350.0   150.0   33.333333333333336
-300.0   150.0   33.333333333333336
-350.0   150.0   16.666666666666668
-350.0   120.0   33.333333333333336
-300.0   150.0   33.333333333333336
-300.0   120.0   33.333333333333336
-300.0   120.0   16.666666666666668
-350.0   120.0   33.333333333333336
-300.0   150.0   33.333333333333336
-300.0   120.0   16.666666666666668
-350.0   150.0   16.666666666666668
-350.0   120.0   33.333333333333336
-300.0   120.0   33.333333333333336
-350.0   150.0   33.333333333333336
-350.0   120.0   50.0
-300.0   120.0   33.333333333333336
-300.0   150.0   33.333333333333336
-350.0   150.0   33.333333333333336
-300.0   150.0   50.0
-350.0   120.0   50.0
-350.0   150.0   50.0
-300.0   150.0   50.0
-350.0   150.0   33.333333333333336
-350.0   120.0   50.0
-300.0   150.0   50.0
-300.0   120.0   50.0
-300.0   120.0   33.333333333333336
-350.0   120.0   50.0
-300.0   150.0   50.0
-300.0   120.0   33.333333333333336
-350.0   150.0   33.333333333333336
-300.0   0.0   0.0
-250.0   0.0   0.0
-300.0   30.0   0.0
-300.0   0.0   16.666666666666668
-250.0   0.0   0.0
-250.0   30.0   0.0
-300.0   30.0   0.0
-250.0   30.0   16.666666666666668
-300.0   0.0   16.666666666666668
-300.0   30.0   16.666666666666668
-250.0   30.0   16.666666666666668
-300.0   30.0   0.0
-300.0   0.0   16.666666666666668
-250.0   30.0   16.666666666666668
-250.0   0.0   16.666666666666668
-250.0   0.0   0.0
-300.0   0.0   16.666666666666668
-250.0   30.0   16.666666666666668
-250.0   0.0   0.0
-300.0   30.0   0.0
-300.0   0.0   16.666666666666668
-250.0   0.0   16.666666666666668
-300.0   30.0   16.666666666666668
-300.0   0.0   33.333333333333336
-250.0   0.0   16.666666666666668
-250.0   30.0   16.666666666666668
-300.0   30.0   16.666666666666668
-250.0   30.0   33.333333333333336
-300.0   0.0   33.333333333333336
-300.0   30.0   33.333333333333336
-250.0   30.0   33.333333333333336
-300.0   30.0   16.666666666666668
-300.0   0.0   33.333333333333336
-250.0   30.0   33.333333333333336
-250.0   0.0   33.333333333333336
-250.0   0.0   16.666666666666668
-300.0   0.0   33.333333333333336
-250.0   30.0   33.333333333333336
-250.0   0.0   16.666666666666668
-300.0   30.0   16.666666666666668
-300.0   0.0   33.333333333333336
-250.0   0.0   33.333333333333336
-300.0   30.0   33.333333333333336
-300.0   0.0   50.0
-250.0   0.0   33.333333333333336
-250.0   30.0   33.333333333333336
-300.0   30.0   33.333333333333336
-250.0   30.0   50.0
-300.0   0.0   50.0
-300.0   30.0   50.0
-250.0   30.0   50.0
-300.0   30.0   33.333333333333336
-300.0   0.0   50.0
-250.0   30.0   50.0
-250.0   0.0   50.0
-250.0   0.0   33.333333333333336
-300.0   0.0   50.0
-250.0   30.0   50.0
-250.0   0.0   33.333333333333336
-300.0   30.0   33.333333333333336
-300.0   30.0   0.0
-250.0   30.0   0.0
-300.0   60.0   0.0
-300.0   30.0   16.666666666666668
-250.0   30.0   0.0
-250.0   60.0   0.0
-300.0   60.0   0.0
-250.0   60.0   16.666666666666668
-300.0   30.0   16.666666666666668
-300.0   60.0   16.666666666666668
-250.0   60.0   16.666666666666668
-300.0   60.0   0.0
-300.0   30.0   16.666666666666668
-250.0   60.0   16.666666666666668
-250.0   30.0   16.666666666666668
-250.0   30.0   0.0
-300.0   30.0   16.666666666666668
-250.0   60.0   16.666666666666668
-250.0   30.0   0.0
-300.0   60.0   0.0
-300.0   30.0   16.666666666666668
-250.0   30.0   16.666666666666668
-300.0   60.0   16.666666666666668
-300.0   30.0   33.333333333333336
-250.0   30.0   16.666666666666668
-250.0   60.0   16.666666666666668
-300.0   60.0   16.666666666666668
-250.0   60.0   33.333333333333336
-300.0   30.0   33.333333333333336
-300.0   60.0   33.333333333333336
-250.0   60.0   33.333333333333336
-300.0   60.0   16.666666666666668
-300.0   30.0   33.333333333333336
-250.0   60.0   33.333333333333336
-250.0   30.0   33.333333333333336
-250.0   30.0   16.666666666666668
-300.0   30.0   33.333333333333336
-250.0   60.0   33.333333333333336
-250.0   30.0   16.666666666666668
-300.0   60.0   16.666666666666668
-300.0   30.0   33.333333333333336
-250.0   30.0   33.333333333333336
-300.0   60.0   33.333333333333336
-300.0   30.0   50.0
-250.0   30.0   33.333333333333336
-250.0   60.0   33.333333333333336
-300.0   60.0   33.333333333333336
-250.0   60.0   50.0
-300.0   30.0   50.0
-300.0   60.0   50.0
-250.0   60.0   50.0
-300.0   60.0   33.333333333333336
-300.0   30.0   50.0
-250.0   60.0   50.0
-250.0   30.0   50.0
-250.0   30.0   33.333333333333336
-300.0   30.0   50.0
-250.0   60.0   50.0
-250.0   30.0   33.333333333333336
-300.0   60.0   33.333333333333336
-300.0   60.0   0.0
-250.0   60.0   0.0
-300.0   90.0   0.0
-300.0   60.0   16.666666666666668
-250.0   60.0   0.0
-250.0   90.0   0.0
-300.0   90.0   0.0
-250.0   90.0   16.666666666666668
-300.0   60.0   16.666666666666668
-300.0   90.0   16.666666666666668
-250.0   90.0   16.666666666666668
-300.0   90.0   0.0
-300.0   60.0   16.666666666666668
-250.0   90.0   16.666666666666668
-250.0   60.0   16.666666666666668
-250.0   60.0   0.0
-300.0   60.0   16.666666666666668
-250.0   90.0   16.666666666666668
-250.0   60.0   0.0
-300.0   90.0   0.0
-300.0   60.0   16.666666666666668
-250.0   60.0   16.666666666666668
-300.0   90.0   16.666666666666668
-300.0   60.0   33.333333333333336
-250.0   60.0   16.666666666666668
-250.0   90.0   16.666666666666668
-300.0   90.0   16.666666666666668
-250.0   90.0   33.333333333333336
-300.0   60.0   33.333333333333336
-300.0   90.0   33.333333333333336
-250.0   90.0   33.333333333333336
-300.0   90.0   16.666666666666668
-300.0   60.0   33.333333333333336
-250.0   90.0   33.333333333333336
-250.0   60.0   33.333333333333336
-250.0   60.0   16.666666666666668
-300.0   60.0   33.333333333333336
-250.0   90.0   33.333333333333336
-250.0   60.0   16.666666666666668
-300.0   90.0   16.666666666666668
-300.0   60.0   33.333333333333336
-250.0   60.0   33.333333333333336
-300.0   90.0   33.333333333333336
-300.0   60.0   50.0
-250.0   60.0   33.333333333333336
-250.0   90.0   33.333333333333336
-300.0   90.0   33.333333333333336
-250.0   90.0   50.0
-300.0   60.0   50.0
-300.0   90.0   50.0
-250.0   90.0   50.0
-300.0   90.0   33.333333333333336
-300.0   60.0   50.0
-250.0   90.0   50.0
-250.0   60.0   50.0
-250.0   60.0   33.333333333333336
-300.0   60.0   50.0
-250.0   90.0   50.0
-250.0   60.0   33.333333333333336
-300.0   90.0   33.333333333333336
-300.0   90.0   0.0
-250.0   90.0   0.0
-300.0   120.0   0.0
-300.0   90.0   16.666666666666668
-250.0   90.0   0.0
-250.0   120.0   0.0
-300.0   120.0   0.0
-250.0   120.0   16.666666666666668
-300.0   90.0   16.666666666666668
-300.0   120.0   16.666666666666668
-250.0   120.0   16.666666666666668
-300.0   120.0   0.0
-300.0   90.0   16.666666666666668
-250.0   120.0   16.666666666666668
-250.0   90.0   16.666666666666668
-250.0   90.0   0.0
-300.0   90.0   16.666666666666668
-250.0   120.0   16.666666666666668
-250.0   90.0   0.0
-300.0   120.0   0.0
-300.0   90.0   16.666666666666668
-250.0   90.0   16.666666666666668
-300.0   120.0   16.666666666666668
-300.0   90.0   33.333333333333336
-250.0   90.0   16.666666666666668
-250.0   120.0   16.666666666666668
-300.0   120.0   16.666666666666668
-250.0   120.0   33.333333333333336
-300.0   90.0   33.333333333333336
-300.0   120.0   33.333333333333336
-250.0   120.0   33.333333333333336
-300.0   120.0   16.666666666666668
-300.0   90.0   33.333333333333336
-250.0   120.0   33.333333333333336
-250.0   90.0   33.333333333333336
-250.0   90.0   16.666666666666668
-300.0   90.0   33.333333333333336
-250.0   120.0   33.333333333333336
-250.0   90.0   16.666666666666668
-300.0   120.0   16.666666666666668
-300.0   90.0   33.333333333333336
-250.0   90.0   33.333333333333336
-300.0   120.0   33.333333333333336
-300.0   90.0   50.0
-250.0   90.0   33.333333333333336
-250.0   120.0   33.333333333333336
-300.0   120.0   33.333333333333336
-250.0   120.0   50.0
-300.0   90.0   50.0
-300.0   120.0   50.0
-250.0   120.0   50.0
-300.0   120.0   33.333333333333336
-300.0   90.0   50.0
-250.0   120.0   50.0
-250.0   90.0   50.0
-250.0   90.0   33.333333333333336
-300.0   90.0   50.0
-250.0   120.0   50.0
-250.0   90.0   33.333333333333336
-300.0   120.0   33.333333333333336
-300.0   120.0   0.0
-250.0   120.0   0.0
-300.0   150.0   0.0
-300.0   120.0   16.666666666666668
-250.0   120.0   0.0
-250.0   150.0   0.0
-300.0   150.0   0.0
-250.0   150.0   16.666666666666668
-300.0   120.0   16.666666666666668
-300.0   150.0   16.666666666666668
-250.0   150.0   16.666666666666668
-300.0   150.0   0.0
-300.0   120.0   16.666666666666668
-250.0   150.0   16.666666666666668
-250.0   120.0   16.666666666666668
-250.0   120.0   0.0
-300.0   120.0   16.666666666666668
-250.0   150.0   16.666666666666668
-250.0   120.0   0.0
-300.0   150.0   0.0
-300.0   120.0   16.666666666666668
-250.0   120.0   16.666666666666668
-300.0   150.0   16.666666666666668
-300.0   120.0   33.333333333333336
-250.0   120.0   16.666666666666668
-250.0   150.0   16.666666666666668
-300.0   150.0   16.666666666666668
-250.0   150.0   33.333333333333336
-300.0   120.0   33.333333333333336
-300.0   150.0   33.333333333333336
-250.0   150.0   33.333333333333336
-300.0   150.0   16.666666666666668
-300.0   120.0   33.333333333333336
-250.0   150.0   33.333333333333336
-250.0   120.0   33.333333333333336
-250.0   120.0   16.666666666666668
-300.0   120.0   33.333333333333336
-250.0   150.0   33.333333333333336
-250.0   120.0   16.666666666666668
-300.0   150.0   16.666666666666668
-300.0   120.0   33.333333333333336
-250.0   120.0   33.333333333333336
-300.0   150.0   33.333333333333336
-300.0   120.0   50.0
-250.0   120.0   33.333333333333336
-250.0   150.0   33.333333333333336
-300.0   150.0   33.333333333333336
-250.0   150.0   50.0
-300.0   120.0   50.0
-300.0   150.0   50.0
-250.0   150.0   50.0
-300.0   150.0   33.333333333333336
-300.0   120.0   50.0
-250.0   150.0   50.0
-250.0   120.0   50.0
-250.0   120.0   33.333333333333336
-300.0   120.0   50.0
-250.0   150.0   50.0
-250.0   120.0   33.333333333333336
-300.0   150.0   33.333333333333336
-250.0   0.0   0.0
-200.0   0.0   0.0
-250.0   30.0   0.0
-250.0   0.0   16.666666666666668
-200.0   0.0   0.0
-200.0   30.0   0.0
-250.0   30.0   0.0
-200.0   30.0   16.666666666666668
-250.0   0.0   16.666666666666668
-250.0   30.0   16.666666666666668
-200.0   30.0   16.666666666666668
-250.0   30.0   0.0
-250.0   0.0   16.666666666666668
-200.0   30.0   16.666666666666668
-200.0   0.0   16.666666666666668
-200.0   0.0   0.0
-250.0   0.0   16.666666666666668
-200.0   30.0   16.666666666666668
-200.0   0.0   0.0
-250.0   30.0   0.0
-250.0   0.0   16.666666666666668
-200.0   0.0   16.666666666666668
-250.0   30.0   16.666666666666668
-250.0   0.0   33.333333333333336
-200.0   0.0   16.666666666666668
-200.0   30.0   16.666666666666668
-250.0   30.0   16.666666666666668
-200.0   30.0   33.333333333333336
-250.0   0.0   33.333333333333336
-250.0   30.0   33.333333333333336
-200.0   30.0   33.333333333333336
-250.0   30.0   16.666666666666668
-250.0   0.0   33.333333333333336
-200.0   30.0   33.333333333333336
-200.0   0.0   33.333333333333336
-200.0   0.0   16.666666666666668
-250.0   0.0   33.333333333333336
-200.0   30.0   33.333333333333336
-200.0   0.0   16.666666666666668
-250.0   30.0   16.666666666666668
-250.0   0.0   33.333333333333336
-200.0   0.0   33.333333333333336
-250.0   30.0   33.333333333333336
-250.0   0.0   50.0
-200.0   0.0   33.333333333333336
-200.0   30.0   33.333333333333336
-250.0   30.0   33.333333333333336
-200.0   30.0   50.0
-250.0   0.0   50.0
-250.0   30.0   50.0
-200.0   30.0   50.0
-250.0   30.0   33.333333333333336
-250.0   0.0   50.0
-200.0   30.0   50.0
-200.0   0.0   50.0
-200.0   0.0   33.333333333333336
-250.0   0.0   50.0
-200.0   30.0   50.0
-200.0   0.0   33.333333333333336
-250.0   30.0   33.333333333333336
-250.0   30.0   0.0
-200.0   30.0   0.0
-250.0   60.0   0.0
-250.0   30.0   16.666666666666668
-200.0   30.0   0.0
-200.0   60.0   0.0
-250.0   60.0   0.0
-200.0   60.0   16.666666666666668
-250.0   30.0   16.666666666666668
-250.0   60.0   16.666666666666668
-200.0   60.0   16.666666666666668
-250.0   60.0   0.0
-250.0   30.0   16.666666666666668
-200.0   60.0   16.666666666666668
-200.0   30.0   16.666666666666668
-200.0   30.0   0.0
-250.0   30.0   16.666666666666668
-200.0   60.0   16.666666666666668
-200.0   30.0   0.0
-250.0   60.0   0.0
-250.0   30.0   16.666666666666668
-200.0   30.0   16.666666666666668
-250.0   60.0   16.666666666666668
-250.0   30.0   33.333333333333336
-200.0   30.0   16.666666666666668
-200.0   60.0   16.666666666666668
-250.0   60.0   16.666666666666668
-200.0   60.0   33.333333333333336
-250.0   30.0   33.333333333333336
-250.0   60.0   33.333333333333336
-200.0   60.0   33.333333333333336
-250.0   60.0   16.666666666666668
-250.0   30.0   33.333333333333336
-200.0   60.0   33.333333333333336
-200.0   30.0   33.333333333333336
-200.0   30.0   16.666666666666668
-250.0   30.0   33.333333333333336
-200.0   60.0   33.333333333333336
-200.0   30.0   16.666666666666668
-250.0   60.0   16.666666666666668
-250.0   30.0   33.333333333333336
-200.0   30.0   33.333333333333336
-250.0   60.0   33.333333333333336
-250.0   30.0   50.0
-200.0   30.0   33.333333333333336
-200.0   60.0   33.333333333333336
-250.0   60.0   33.333333333333336
-200.0   60.0   50.0
-250.0   30.0   50.0
-250.0   60.0   50.0
-200.0   60.0   50.0
-250.0   60.0   33.333333333333336
-250.0   30.0   50.0
-200.0   60.0   50.0
-200.0   30.0   50.0
-200.0   30.0   33.333333333333336
-250.0   30.0   50.0
-200.0   60.0   50.0
-200.0   30.0   33.333333333333336
-250.0   60.0   33.333333333333336
-250.0   60.0   0.0
-200.0   60.0   0.0
-250.0   90.0   0.0
-250.0   60.0   16.666666666666668
-200.0   60.0   0.0
-200.0   90.0   0.0
-250.0   90.0   0.0
-200.0   90.0   16.666666666666668
-250.0   60.0   16.666666666666668
-250.0   90.0   16.666666666666668
-200.0   90.0   16.666666666666668
-250.0   90.0   0.0
-250.0   60.0   16.666666666666668
-200.0   90.0   16.666666666666668
-200.0   60.0   16.666666666666668
-200.0   60.0   0.0
-250.0   60.0   16.666666666666668
-200.0   90.0   16.666666666666668
-200.0   60.0   0.0
-250.0   90.0   0.0
-250.0   60.0   16.666666666666668
-200.0   60.0   16.666666666666668
-250.0   90.0   16.666666666666668
-250.0   60.0   33.333333333333336
-200.0   60.0   16.666666666666668
-200.0   90.0   16.666666666666668
-250.0   90.0   16.666666666666668
-200.0   90.0   33.333333333333336
-250.0   60.0   33.333333333333336
-250.0   90.0   33.333333333333336
-200.0   90.0   33.333333333333336
-250.0   90.0   16.666666666666668
-250.0   60.0   33.333333333333336
-200.0   90.0   33.333333333333336
-200.0   60.0   33.333333333333336
-200.0   60.0   16.666666666666668
-250.0   60.0   33.333333333333336
-200.0   90.0   33.333333333333336
-200.0   60.0   16.666666666666668
-250.0   90.0   16.666666666666668
-250.0   60.0   33.333333333333336
-200.0   60.0   33.333333333333336
-250.0   90.0   33.333333333333336
-250.0   60.0   50.0
-200.0   60.0   33.333333333333336
-200.0   90.0   33.333333333333336
-250.0   90.0   33.333333333333336
-200.0   90.0   50.0
-250.0   60.0   50.0
-250.0   90.0   50.0
-200.0   90.0   50.0
-250.0   90.0   33.333333333333336
-250.0   60.0   50.0
-200.0   90.0   50.0
-200.0   60.0   50.0
-200.0   60.0   33.333333333333336
-250.0   60.0   50.0
-200.0   90.0   50.0
-200.0   60.0   33.333333333333336
-250.0   90.0   33.333333333333336
-250.0   90.0   0.0
-200.0   90.0   0.0
-250.0   120.0   0.0
-250.0   90.0   16.666666666666668
-200.0   90.0   0.0
-200.0   120.0   0.0
-250.0   120.0   0.0
-200.0   120.0   16.666666666666668
-250.0   90.0   16.666666666666668
-250.0   120.0   16.666666666666668
-200.0   120.0   16.666666666666668
-250.0   120.0   0.0
-250.0   90.0   16.666666666666668
-200.0   120.0   16.666666666666668
-200.0   90.0   16.666666666666668
-200.0   90.0   0.0
-250.0   90.0   16.666666666666668
-200.0   120.0   16.666666666666668
-200.0   90.0   0.0
-250.0   120.0   0.0
-250.0   90.0   16.666666666666668
-200.0   90.0   16.666666666666668
-250.0   120.0   16.666666666666668
-250.0   90.0   33.333333333333336
-200.0   90.0   16.666666666666668
-200.0   120.0   16.666666666666668
-250.0   120.0   16.666666666666668
-200.0   120.0   33.333333333333336
-250.0   90.0   33.333333333333336
-250.0   120.0   33.333333333333336
-200.0   120.0   33.333333333333336
-250.0   120.0   16.666666666666668
-250.0   90.0   33.333333333333336
-200.0   120.0   33.333333333333336
-200.0   90.0   33.333333333333336
-200.0   90.0   16.666666666666668
-250.0   90.0   33.333333333333336
-200.0   120.0   33.333333333333336
-200.0   90.0   16.666666666666668
-250.0   120.0   16.666666666666668
-250.0   90.0   33.333333333333336
-200.0   90.0   33.333333333333336
-250.0   120.0   33.333333333333336
-250.0   90.0   50.0
-200.0   90.0   33.333333333333336
-200.0   120.0   33.333333333333336
-250.0   120.0   33.333333333333336
-200.0   120.0   50.0
-250.0   90.0   50.0
-250.0   120.0   50.0
-200.0   120.0   50.0
-250.0   120.0   33.333333333333336
-250.0   90.0   50.0
-200.0   120.0   50.0
-200.0   90.0   50.0
-200.0   90.0   33.333333333333336
-250.0   90.0   50.0
-200.0   120.0   50.0
-200.0   90.0   33.333333333333336
-250.0   120.0   33.333333333333336
-250.0   120.0   0.0
-200.0   120.0   0.0
-250.0   150.0   0.0
-250.0   120.0   16.666666666666668
-200.0   120.0   0.0
-200.0   150.0   0.0
-250.0   150.0   0.0
-200.0   150.0   16.666666666666668
-250.0   120.0   16.666666666666668
-250.0   150.0   16.666666666666668
-200.0   150.0   16.666666666666668
-250.0   150.0   0.0
-250.0   120.0   16.666666666666668
-200.0   150.0   16.666666666666668
-200.0   120.0   16.666666666666668
-200.0   120.0   0.0
-250.0   120.0   16.666666666666668
-200.0   150.0   16.666666666666668
-200.0   120.0   0.0
-250.0   150.0   0.0
-250.0   120.0   16.666666666666668
-200.0   120.0   16.666666666666668
-250.0   150.0   16.666666666666668
-250.0   120.0   33.333333333333336
-200.0   120.0   16.666666666666668
-200.0   150.0   16.666666666666668
-250.0   150.0   16.666666666666668
-200.0   150.0   33.333333333333336
-250.0   120.0   33.333333333333336
-250.0   150.0   33.333333333333336
-200.0   150.0   33.333333333333336
-250.0   150.0   16.666666666666668
-250.0   120.0   33.333333333333336
-200.0   150.0   33.333333333333336
-200.0   120.0   33.333333333333336
-200.0   120.0   16.666666666666668
-250.0   120.0   33.333333333333336
-200.0   150.0   33.333333333333336
-200.0   120.0   16.666666666666668
-250.0   150.0   16.666666666666668
-250.0   120.0   33.333333333333336
-200.0   120.0   33.333333333333336
-250.0   150.0   33.333333333333336
-250.0   120.0   50.0
-200.0   120.0   33.333333333333336
-200.0   150.0   33.333333333333336
-250.0   150.0   33.333333333333336
-200.0   150.0   50.0
-250.0   120.0   50.0
-250.0   150.0   50.0
-200.0   150.0   50.0
-250.0   150.0   33.333333333333336
-250.0   120.0   50.0
-200.0   150.0   50.0
-200.0   120.0   50.0
-200.0   120.0   33.333333333333336
-250.0   120.0   50.0
-200.0   150.0   50.0
-200.0   120.0   33.333333333333336
-250.0   150.0   33.333333333333336
-200.0   0.0   0.0
-150.0   0.0   0.0
-200.0   30.0   0.0
-200.0   0.0   16.666666666666668
-150.0   0.0   0.0
-150.0   30.0   0.0
-200.0   30.0   0.0
-150.0   30.0   16.666666666666668
-200.0   0.0   16.666666666666668
-200.0   30.0   16.666666666666668
-150.0   30.0   16.666666666666668
-200.0   30.0   0.0
-200.0   0.0   16.666666666666668
-150.0   30.0   16.666666666666668
-150.0   0.0   16.666666666666668
-150.0   0.0   0.0
-200.0   0.0   16.666666666666668
-150.0   30.0   16.666666666666668
-150.0   0.0   0.0
-200.0   30.0   0.0
-200.0   0.0   16.666666666666668
-150.0   0.0   16.666666666666668
-200.0   30.0   16.666666666666668
-200.0   0.0   33.333333333333336
-150.0   0.0   16.666666666666668
-150.0   30.0   16.666666666666668
-200.0   30.0   16.666666666666668
-150.0   30.0   33.333333333333336
-200.0   0.0   33.333333333333336
-200.0   30.0   33.333333333333336
-150.0   30.0   33.333333333333336
-200.0   30.0   16.666666666666668
-200.0   0.0   33.333333333333336
-150.0   30.0   33.333333333333336
-150.0   0.0   33.333333333333336
-150.0   0.0   16.666666666666668
-200.0   0.0   33.333333333333336
-150.0   30.0   33.333333333333336
-150.0   0.0   16.666666666666668
-200.0   30.0   16.666666666666668
-200.0   0.0   33.333333333333336
-150.0   0.0   33.333333333333336
-200.0   30.0   33.333333333333336
-200.0   0.0   50.0
-150.0   0.0   33.333333333333336
-150.0   30.0   33.333333333333336
-200.0   30.0   33.333333333333336
-150.0   30.0   50.0
-200.0   0.0   50.0
-200.0   30.0   50.0
-150.0   30.0   50.0
-200.0   30.0   33.333333333333336
-200.0   0.0   50.0
-150.0   30.0   50.0
-150.0   0.0   50.0
-150.0   0.0   33.333333333333336
-200.0   0.0   50.0
-150.0   30.0   50.0
-150.0   0.0   33.333333333333336
-200.0   30.0   33.333333333333336
-200.0   30.0   0.0
-150.0   30.0   0.0
-200.0   60.0   0.0
-200.0   30.0   16.666666666666668
-150.0   30.0   0.0
-150.0   60.0   0.0
-200.0   60.0   0.0
-150.0   60.0   16.666666666666668
-200.0   30.0   16.666666666666668
-200.0   60.0   16.666666666666668
-150.0   60.0   16.666666666666668
-200.0   60.0   0.0
-200.0   30.0   16.666666666666668
-150.0   60.0   16.666666666666668
-150.0   30.0   16.666666666666668
-150.0   30.0   0.0
-200.0   30.0   16.666666666666668
-150.0   60.0   16.666666666666668
-150.0   30.0   0.0
-200.0   60.0   0.0
-200.0   30.0   16.666666666666668
-150.0   30.0   16.666666666666668
-200.0   60.0   16.666666666666668
-200.0   30.0   33.333333333333336
-150.0   30.0   16.666666666666668
-150.0   60.0   16.666666666666668
-200.0   60.0   16.666666666666668
-150.0   60.0   33.333333333333336
-200.0   30.0   33.333333333333336
-200.0   60.0   33.333333333333336
-150.0   60.0   33.333333333333336
-200.0   60.0   16.666666666666668
-200.0   30.0   33.333333333333336
-150.0   60.0   33.333333333333336
-150.0   30.0   33.333333333333336
-150.0   30.0   16.666666666666668
-200.0   30.0   33.333333333333336
-150.0   60.0   33.333333333333336
-150.0   30.0   16.666666666666668
-200.0   60.0   16.666666666666668
-200.0   30.0   33.333333333333336
-150.0   30.0   33.333333333333336
-200.0   60.0   33.333333333333336
-200.0   30.0   50.0
-150.0   30.0   33.333333333333336
-150.0   60.0   33.333333333333336
-200.0   60.0   33.333333333333336
-150.0   60.0   50.0
-200.0   30.0   50.0
-200.0   60.0   50.0
-150.0   60.0   50.0
-200.0   60.0   33.333333333333336
-200.0   30.0   50.0
-150.0   60.0   50.0
-150.0   30.0   50.0
-150.0   30.0   33.333333333333336
-200.0   30.0   50.0
-150.0   60.0   50.0
-150.0   30.0   33.333333333333336
-200.0   60.0   33.333333333333336
-200.0   60.0   0.0
-150.0   60.0   0.0
-200.0   90.0   0.0
-200.0   60.0   16.666666666666668
-150.0   60.0   0.0
-150.0   90.0   0.0
-200.0   90.0   0.0
-150.0   90.0   16.666666666666668
-200.0   60.0   16.666666666666668
-200.0   90.0   16.666666666666668
-150.0   90.0   16.666666666666668
-200.0   90.0   0.0
-200.0   60.0   16.666666666666668
-150.0   90.0   16.666666666666668
-150.0   60.0   16.666666666666668
-150.0   60.0   0.0
-200.0   60.0   16.666666666666668
-150.0   90.0   16.666666666666668
-150.0   60.0   0.0
-200.0   90.0   0.0
-200.0   60.0   16.666666666666668
-150.0   60.0   16.666666666666668
-200.0   90.0   16.666666666666668
-200.0   60.0   33.333333333333336
-150.0   60.0   16.666666666666668
-150.0   90.0   16.666666666666668
-200.0   90.0   16.666666666666668
-150.0   90.0   33.333333333333336
-200.0   60.0   33.333333333333336
-200.0   90.0   33.333333333333336
-150.0   90.0   33.333333333333336
-200.0   90.0   16.666666666666668
-200.0   60.0   33.333333333333336
-150.0   90.0   33.333333333333336
-150.0   60.0   33.333333333333336
-150.0   60.0   16.666666666666668
-200.0   60.0   33.333333333333336
-150.0   90.0   33.333333333333336
-150.0   60.0   16.666666666666668
-200.0   90.0   16.666666666666668
-200.0   60.0   33.333333333333336
-150.0   60.0   33.333333333333336
-200.0   90.0   33.333333333333336
-200.0   60.0   50.0
-150.0   60.0   33.333333333333336
-150.0   90.0   33.333333333333336
-200.0   90.0   33.333333333333336
-150.0   90.0   50.0
-200.0   60.0   50.0
-200.0   90.0   50.0
-150.0   90.0   50.0
-200.0   90.0   33.333333333333336
-200.0   60.0   50.0
-150.0   90.0   50.0
-150.0   60.0   50.0
-150.0   60.0   33.333333333333336
-200.0   60.0   50.0
-150.0   90.0   50.0
-150.0   60.0   33.333333333333336
-200.0   90.0   33.333333333333336
-200.0   90.0   0.0
-150.0   90.0   0.0
-200.0   120.0   0.0
-200.0   90.0   16.666666666666668
-150.0   90.0   0.0
-150.0   120.0   0.0
-200.0   120.0   0.0
-150.0   120.0   16.666666666666668
-200.0   90.0   16.666666666666668
-200.0   120.0   16.666666666666668
-150.0   120.0   16.666666666666668
-200.0   120.0   0.0
-200.0   90.0   16.666666666666668
-150.0   120.0   16.666666666666668
-150.0   90.0   16.666666666666668
-150.0   90.0   0.0
-200.0   90.0   16.666666666666668
-150.0   120.0   16.666666666666668
-150.0   90.0   0.0
-200.0   120.0   0.0
-200.0   90.0   16.666666666666668
-150.0   90.0   16.666666666666668
-200.0   120.0   16.666666666666668
-200.0   90.0   33.333333333333336
-150.0   90.0   16.666666666666668
-150.0   120.0   16.666666666666668
-200.0   120.0   16.666666666666668
-150.0   120.0   33.333333333333336
-200.0   90.0   33.333333333333336
-200.0   120.0   33.333333333333336
-150.0   120.0   33.333333333333336
-200.0   120.0   16.666666666666668
-200.0   90.0   33.333333333333336
-150.0   120.0   33.333333333333336
-150.0   90.0   33.333333333333336
-150.0   90.0   16.666666666666668
-200.0   90.0   33.333333333333336
-150.0   120.0   33.333333333333336
-150.0   90.0   16.666666666666668
-200.0   120.0   16.666666666666668
-200.0   90.0   33.333333333333336
-150.0   90.0   33.333333333333336
-200.0   120.0   33.333333333333336
-200.0   90.0   50.0
-150.0   90.0   33.333333333333336
-150.0   120.0   33.333333333333336
-200.0   120.0   33.333333333333336
-150.0   120.0   50.0
-200.0   90.0   50.0
-200.0   120.0   50.0
-150.0   120.0   50.0
-200.0   120.0   33.333333333333336
-200.0   90.0   50.0
-150.0   120.0   50.0
-150.0   90.0   50.0
-150.0   90.0   33.333333333333336
-200.0   90.0   50.0
-150.0   120.0   50.0
-150.0   90.0   33.333333333333336
-200.0   120.0   33.333333333333336
-200.0   120.0   0.0
-150.0   120.0   0.0
-200.0   150.0   0.0
-200.0   120.0   16.666666666666668
-150.0   120.0   0.0
-150.0   150.0   0.0
-200.0   150.0   0.0
-150.0   150.0   16.666666666666668
-200.0   120.0   16.666666666666668
-200.0   150.0   16.666666666666668
-150.0   150.0   16.666666666666668
-200.0   150.0   0.0
-200.0   120.0   16.666666666666668
-150.0   150.0   16.666666666666668
-150.0   120.0   16.666666666666668
-150.0   120.0   0.0
-200.0   120.0   16.666666666666668
-150.0   150.0   16.666666666666668
-150.0   120.0   0.0
-200.0   150.0   0.0
-200.0   120.0   16.666666666666668
-150.0   120.0   16.666666666666668
-200.0   150.0   16.666666666666668
-200.0   120.0   33.333333333333336
-150.0   120.0   16.666666666666668
-150.0   150.0   16.666666666666668
-200.0   150.0   16.666666666666668
-150.0   150.0   33.333333333333336
-200.0   120.0   33.333333333333336
-200.0   150.0   33.333333333333336
-150.0   150.0   33.333333333333336
-200.0   150.0   16.666666666666668
-200.0   120.0   33.333333333333336
-150.0   150.0   33.333333333333336
-150.0   120.0   33.333333333333336
-150.0   120.0   16.666666666666668
-200.0   120.0   33.333333333333336
-150.0   150.0   33.333333333333336
-150.0   120.0   16.666666666666668
-200.0   150.0   16.666666666666668
-200.0   120.0   33.333333333333336
-150.0   120.0   33.333333333333336
-200.0   150.0   33.333333333333336
-200.0   120.0   50.0
-150.0   120.0   33.333333333333336
-150.0   150.0   33.333333333333336
-200.0   150.0   33.333333333333336
-150.0   150.0   50.0
-200.0   120.0   50.0
-200.0   150.0   50.0
-150.0   150.0   50.0
-200.0   150.0   33.333333333333336
-200.0   120.0   50.0
-150.0   150.0   50.0
-150.0   120.0   50.0
-150.0   120.0   33.333333333333336
-200.0   120.0   50.0
-150.0   150.0   50.0
-150.0   120.0   33.333333333333336
-200.0   150.0   33.333333333333336
-150.0   0.0   0.0
-100.0   0.0   0.0
-150.0   30.0   0.0
-150.0   0.0   16.666666666666668
-100.0   0.0   0.0
-100.0   30.0   0.0
-150.0   30.0   0.0
-100.0   30.0   16.666666666666668
-150.0   0.0   16.666666666666668
-150.0   30.0   16.666666666666668
-100.0   30.0   16.666666666666668
-150.0   30.0   0.0
-150.0   0.0   16.666666666666668
-100.0   30.0   16.666666666666668
-100.0   0.0   16.666666666666668
-100.0   0.0   0.0
-150.0   0.0   16.666666666666668
-100.0   30.0   16.666666666666668
-100.0   0.0   0.0
-150.0   30.0   0.0
-150.0   0.0   16.666666666666668
-100.0   0.0   16.666666666666668
-150.0   30.0   16.666666666666668
-150.0   0.0   33.333333333333336
-100.0   0.0   16.666666666666668
-100.0   30.0   16.666666666666668
-150.0   30.0   16.666666666666668
-100.0   30.0   33.333333333333336
-150.0   0.0   33.333333333333336
-150.0   30.0   33.333333333333336
-100.0   30.0   33.333333333333336
-150.0   30.0   16.666666666666668
-150.0   0.0   33.333333333333336
-100.0   30.0   33.333333333333336
-100.0   0.0   33.333333333333336
-100.0   0.0   16.666666666666668
-150.0   0.0   33.333333333333336
-100.0   30.0   33.333333333333336
-100.0   0.0   16.666666666666668
-150.0   30.0   16.666666666666668
-150.0   0.0   33.333333333333336
-100.0   0.0   33.333333333333336
-150.0   30.0   33.333333333333336
-150.0   0.0   50.0
-100.0   0.0   33.333333333333336
-100.0   30.0   33.333333333333336
-150.0   30.0   33.333333333333336
-100.0   30.0   50.0
-150.0   0.0   50.0
-150.0   30.0   50.0
-100.0   30.0   50.0
-150.0   30.0   33.333333333333336
-150.0   0.0   50.0
-100.0   30.0   50.0
-100.0   0.0   50.0
-100.0   0.0   33.333333333333336
-150.0   0.0   50.0
-100.0   30.0   50.0
-100.0   0.0   33.333333333333336
-150.0   30.0   33.333333333333336
-150.0   30.0   0.0
-100.0   30.0   0.0
-150.0   60.0   0.0
-150.0   30.0   16.666666666666668
-100.0   30.0   0.0
-100.0   60.0   0.0
-150.0   60.0   0.0
-100.0   60.0   16.666666666666668
-150.0   30.0   16.666666666666668
-150.0   60.0   16.666666666666668
-100.0   60.0   16.666666666666668
-150.0   60.0   0.0
-150.0   30.0   16.666666666666668
-100.0   60.0   16.666666666666668
-100.0   30.0   16.666666666666668
-100.0   30.0   0.0
-150.0   30.0   16.666666666666668
-100.0   60.0   16.666666666666668
-100.0   30.0   0.0
-150.0   60.0   0.0
-150.0   30.0   16.666666666666668
-100.0   30.0   16.666666666666668
-150.0   60.0   16.666666666666668
-150.0   30.0   33.333333333333336
-100.0   30.0   16.666666666666668
-100.0   60.0   16.666666666666668
-150.0   60.0   16.666666666666668
-100.0   60.0   33.333333333333336
-150.0   30.0   33.333333333333336
-150.0   60.0   33.333333333333336
-100.0   60.0   33.333333333333336
-150.0   60.0   16.666666666666668
-150.0   30.0   33.333333333333336
-100.0   60.0   33.333333333333336
-100.0   30.0   33.333333333333336
-100.0   30.0   16.666666666666668
-150.0   30.0   33.333333333333336
-100.0   60.0   33.333333333333336
-100.0   30.0   16.666666666666668
-150.0   60.0   16.666666666666668
-150.0   30.0   33.333333333333336
-100.0   30.0   33.333333333333336
-150.0   60.0   33.333333333333336
-150.0   30.0   50.0
-100.0   30.0   33.333333333333336
-100.0   60.0   33.333333333333336
-150.0   60.0   33.333333333333336
-100.0   60.0   50.0
-150.0   30.0   50.0
-150.0   60.0   50.0
-100.0   60.0   50.0
-150.0   60.0   33.333333333333336
-150.0   30.0   50.0
-100.0   60.0   50.0
-100.0   30.0   50.0
-100.0   30.0   33.333333333333336
-150.0   30.0   50.0
-100.0   60.0   50.0
-100.0   30.0   33.333333333333336
-150.0   60.0   33.333333333333336
-150.0   60.0   0.0
-100.0   60.0   0.0
-150.0   90.0   0.0
-150.0   60.0   16.666666666666668
-100.0   60.0   0.0
-100.0   90.0   0.0
-150.0   90.0   0.0
-100.0   90.0   16.666666666666668
-150.0   60.0   16.666666666666668
-150.0   90.0   16.666666666666668
-100.0   90.0   16.666666666666668
-150.0   90.0   0.0
-150.0   60.0   16.666666666666668
-100.0   90.0   16.666666666666668
-100.0   60.0   16.666666666666668
-100.0   60.0   0.0
-150.0   60.0   16.666666666666668
-100.0   90.0   16.666666666666668
-100.0   60.0   0.0
-150.0   90.0   0.0
-150.0   60.0   16.666666666666668
-100.0   60.0   16.666666666666668
-150.0   90.0   16.666666666666668
-150.0   60.0   33.333333333333336
-100.0   60.0   16.666666666666668
-100.0   90.0   16.666666666666668
-150.0   90.0   16.666666666666668
-100.0   90.0   33.333333333333336
-150.0   60.0   33.333333333333336
-150.0   90.0   33.333333333333336
-100.0   90.0   33.333333333333336
-150.0   90.0   16.666666666666668
-150.0   60.0   33.333333333333336
-100.0   90.0   33.333333333333336
-100.0   60.0   33.333333333333336
-100.0   60.0   16.666666666666668
-150.0   60.0   33.333333333333336
-100.0   90.0   33.333333333333336
-100.0   60.0   16.666666666666668
-150.0   90.0   16.666666666666668
-150.0   60.0   33.333333333333336
-100.0   60.0   33.333333333333336
-150.0   90.0   33.333333333333336
-150.0   60.0   50.0
-100.0   60.0   33.333333333333336
-100.0   90.0   33.333333333333336
-150.0   90.0   33.333333333333336
-100.0   90.0   50.0
-150.0   60.0   50.0
-150.0   90.0   50.0
-100.0   90.0   50.0
-150.0   90.0   33.333333333333336
-150.0   60.0   50.0
-100.0   90.0   50.0
-100.0   60.0   50.0
-100.0   60.0   33.333333333333336
-150.0   60.0   50.0
-100.0   90.0   50.0
-100.0   60.0   33.333333333333336
-150.0   90.0   33.333333333333336
-150.0   90.0   0.0
-100.0   90.0   0.0
-150.0   120.0   0.0
-150.0   90.0   16.666666666666668
-100.0   90.0   0.0
-100.0   120.0   0.0
-150.0   120.0   0.0
-100.0   120.0   16.666666666666668
-150.0   90.0   16.666666666666668
-150.0   120.0   16.666666666666668
-100.0   120.0   16.666666666666668
-150.0   120.0   0.0
-150.0   90.0   16.666666666666668
-100.0   120.0   16.666666666666668
-100.0   90.0   16.666666666666668
-100.0   90.0   0.0
-150.0   90.0   16.666666666666668
-100.0   120.0   16.666666666666668
-100.0   90.0   0.0
-150.0   120.0   0.0
-150.0   90.0   16.666666666666668
-100.0   90.0   16.666666666666668
-150.0   120.0   16.666666666666668
-150.0   90.0   33.333333333333336
-100.0   90.0   16.666666666666668
-100.0   120.0   16.666666666666668
-150.0   120.0   16.666666666666668
-100.0   120.0   33.333333333333336
-150.0   90.0   33.333333333333336
-150.0   120.0   33.333333333333336
-100.0   120.0   33.333333333333336
-150.0   120.0   16.666666666666668
-150.0   90.0   33.333333333333336
-100.0   120.0   33.333333333333336
-100.0   90.0   33.333333333333336
-100.0   90.0   16.666666666666668
-150.0   90.0   33.333333333333336
-100.0   120.0   33.333333333333336
-100.0   90.0   16.666666666666668
-150.0   120.0   16.666666666666668
-150.0   90.0   33.333333333333336
-100.0   90.0   33.333333333333336
-150.0   120.0   33.333333333333336
-150.0   90.0   50.0
-100.0   90.0   33.333333333333336
-100.0   120.0   33.333333333333336
-150.0   120.0   33.333333333333336
-100.0   120.0   50.0
-150.0   90.0   50.0
-150.0   120.0   50.0
-100.0   120.0   50.0
-150.0   120.0   33.333333333333336
-150.0   90.0   50.0
-100.0   120.0   50.0
-100.0   90.0   50.0
-100.0   90.0   33.333333333333336
-150.0   90.0   50.0
-100.0   120.0   50.0
-100.0   90.0   33.333333333333336
-150.0   120.0   33.333333333333336
-150.0   120.0   0.0
-100.0   120.0   0.0
-150.0   150.0   0.0
-150.0   120.0   16.666666666666668
-100.0   120.0   0.0
-100.0   150.0   0.0
-150.0   150.0   0.0
-100.0   150.0   16.666666666666668
-150.0   120.0   16.666666666666668
-150.0   150.0   16.666666666666668
-100.0   150.0   16.666666666666668
-150.0   150.0   0.0
-150.0   120.0   16.666666666666668
-100.0   150.0   16.666666666666668
-100.0   120.0   16.666666666666668
-100.0   120.0   0.0
-150.0   120.0   16.666666666666668
-100.0   150.0   16.666666666666668
-100.0   120.0   0.0
-150.0   150.0   0.0
-150.0   120.0   16.666666666666668
-100.0   120.0   16.666666666666668
-150.0   150.0   16.666666666666668
-150.0   120.0   33.333333333333336
-100.0   120.0   16.666666666666668
-100.0   150.0   16.666666666666668
-150.0   150.0   16.666666666666668
-100.0   150.0   33.333333333333336
-150.0   120.0   33.333333333333336
-150.0   150.0   33.333333333333336
-100.0   150.0   33.333333333333336
-150.0   150.0   16.666666666666668
-150.0   120.0   33.333333333333336
-100.0   150.0   33.333333333333336
-100.0   120.0   33.333333333333336
-100.0   120.0   16.666666666666668
-150.0   120.0   33.333333333333336
-100.0   150.0   33.333333333333336
-100.0   120.0   16.666666666666668
-150.0   150.0   16.666666666666668
-150.0   120.0   33.333333333333336
-100.0   120.0   33.333333333333336
-150.0   150.0   33.333333333333336
-150.0   120.0   50.0
-100.0   120.0   33.333333333333336
-100.0   150.0   33.333333333333336
-150.0   150.0   33.333333333333336
-100.0   150.0   50.0
-150.0   120.0   50.0
-150.0   150.0   50.0
-100.0   150.0   50.0
-150.0   150.0   33.333333333333336
-150.0   120.0   50.0
-100.0   150.0   50.0
-100.0   120.0   50.0
-100.0   120.0   33.333333333333336
-150.0   120.0   50.0
-100.0   150.0   50.0
-100.0   120.0   33.333333333333336
-150.0   150.0   33.333333333333336
-100.0   0.0   0.0
-50.0   0.0   0.0
-100.0   30.0   0.0
-100.0   0.0   16.666666666666668
-50.0   0.0   0.0
-50.0   30.0   0.0
-100.0   30.0   0.0
-50.0   30.0   16.666666666666668
-100.0   0.0   16.666666666666668
-100.0   30.0   16.666666666666668
-50.0   30.0   16.666666666666668
-100.0   30.0   0.0
-100.0   0.0   16.666666666666668
-50.0   30.0   16.666666666666668
-50.0   0.0   16.666666666666668
-50.0   0.0   0.0
-100.0   0.0   16.666666666666668
-50.0   30.0   16.666666666666668
-50.0   0.0   0.0
-100.0   30.0   0.0
-100.0   0.0   16.666666666666668
-50.0   0.0   16.666666666666668
-100.0   30.0   16.666666666666668
-100.0   0.0   33.333333333333336
-50.0   0.0   16.666666666666668
-50.0   30.0   16.666666666666668
-100.0   30.0   16.666666666666668
-50.0   30.0   33.333333333333336
-100.0   0.0   33.333333333333336
-100.0   30.0   33.333333333333336
-50.0   30.0   33.333333333333336
-100.0   30.0   16.666666666666668
-100.0   0.0   33.333333333333336
-50.0   30.0   33.333333333333336
-50.0   0.0   33.333333333333336
-50.0   0.0   16.666666666666668
-100.0   0.0   33.333333333333336
-50.0   30.0   33.333333333333336
-50.0   0.0   16.666666666666668
-100.0   30.0   16.666666666666668
-100.0   0.0   33.333333333333336
-50.0   0.0   33.333333333333336
-100.0   30.0   33.333333333333336
-100.0   0.0   50.0
-50.0   0.0   33.333333333333336
-50.0   30.0   33.333333333333336
-100.0   30.0   33.333333333333336
-50.0   30.0   50.0
-100.0   0.0   50.0
-100.0   30.0   50.0
-50.0   30.0   50.0
-100.0   30.0   33.333333333333336
-100.0   0.0   50.0
-50.0   30.0   50.0
-50.0   0.0   50.0
-50.0   0.0   33.333333333333336
-100.0   0.0   50.0
-50.0   30.0   50.0
-50.0   0.0   33.333333333333336
-100.0   30.0   33.333333333333336
-100.0   30.0   0.0
-50.0   30.0   0.0
-100.0   60.0   0.0
-100.0   30.0   16.666666666666668
-50.0   30.0   0.0
-50.0   60.0   0.0
-100.0   60.0   0.0
-50.0   60.0   16.666666666666668
-100.0   30.0   16.666666666666668
-100.0   60.0   16.666666666666668
-50.0   60.0   16.666666666666668
-100.0   60.0   0.0
-100.0   30.0   16.666666666666668
-50.0   60.0   16.666666666666668
-50.0   30.0   16.666666666666668
-50.0   30.0   0.0
-100.0   30.0   16.666666666666668
-50.0   60.0   16.666666666666668
-50.0   30.0   0.0
-100.0   60.0   0.0
-100.0   30.0   16.666666666666668
-50.0   30.0   16.666666666666668
-100.0   60.0   16.666666666666668
-100.0   30.0   33.333333333333336
-50.0   30.0   16.666666666666668
-50.0   60.0   16.666666666666668
-100.0   60.0   16.666666666666668
-50.0   60.0   33.333333333333336
-100.0   30.0   33.333333333333336
-100.0   60.0   33.333333333333336
-50.0   60.0   33.333333333333336
-100.0   60.0   16.666666666666668
-100.0   30.0   33.333333333333336
-50.0   60.0   33.333333333333336
-50.0   30.0   33.333333333333336
-50.0   30.0   16.666666666666668
-100.0   30.0   33.333333333333336
-50.0   60.0   33.333333333333336
-50.0   30.0   16.666666666666668
-100.0   60.0   16.666666666666668
-100.0   30.0   33.333333333333336
-50.0   30.0   33.333333333333336
-100.0   60.0   33.333333333333336
-100.0   30.0   50.0
-50.0   30.0   33.333333333333336
-50.0   60.0   33.333333333333336
-100.0   60.0   33.333333333333336
-50.0   60.0   50.0
-100.0   30.0   50.0
-100.0   60.0   50.0
-50.0   60.0   50.0
-100.0   60.0   33.333333333333336
-100.0   30.0   50.0
-50.0   60.0   50.0
-50.0   30.0   50.0
-50.0   30.0   33.333333333333336
-100.0   30.0   50.0
-50.0   60.0   50.0
-50.0   30.0   33.333333333333336
-100.0   60.0   33.333333333333336
-100.0   60.0   0.0
-50.0   60.0   0.0
-100.0   90.0   0.0
-100.0   60.0   16.666666666666668
-50.0   60.0   0.0
-50.0   90.0   0.0
-100.0   90.0   0.0
-50.0   90.0   16.666666666666668
-100.0   60.0   16.666666666666668
-100.0   90.0   16.666666666666668
-50.0   90.0   16.666666666666668
-100.0   90.0   0.0
-100.0   60.0   16.666666666666668
-50.0   90.0   16.666666666666668
-50.0   60.0   16.666666666666668
-50.0   60.0   0.0
-100.0   60.0   16.666666666666668
-50.0   90.0   16.666666666666668
-50.0   60.0   0.0
-100.0   90.0   0.0
-100.0   60.0   16.666666666666668
-50.0   60.0   16.666666666666668
-100.0   90.0   16.666666666666668
-100.0   60.0   33.333333333333336
-50.0   60.0   16.666666666666668
-50.0   90.0   16.666666666666668
-100.0   90.0   16.666666666666668
-50.0   90.0   33.333333333333336
-100.0   60.0   33.333333333333336
-100.0   90.0   33.333333333333336
-50.0   90.0   33.333333333333336
-100.0   90.0   16.666666666666668
-100.0   60.0   33.333333333333336
-50.0   90.0   33.333333333333336
-50.0   60.0   33.333333333333336
-50.0   60.0   16.666666666666668
-100.0   60.0   33.333333333333336
-50.0   90.0   33.333333333333336
-50.0   60.0   16.666666666666668
-100.0   90.0   16.666666666666668
-100.0   60.0   33.333333333333336
-50.0   60.0   33.333333333333336
-100.0   90.0   33.333333333333336
-100.0   60.0   50.0
-50.0   60.0   33.333333333333336
-50.0   90.0   33.333333333333336
-100.0   90.0   33.333333333333336
-50.0   90.0   50.0
-100.0   60.0   50.0
-100.0   90.0   50.0
-50.0   90.0   50.0
-100.0   90.0   33.333333333333336
-100.0   60.0   50.0
-50.0   90.0   50.0
-50.0   60.0   50.0
-50.0   60.0   33.333333333333336
-100.0   60.0   50.0
-50.0   90.0   50.0
-50.0   60.0   33.333333333333336
-100.0   90.0   33.333333333333336
-100.0   90.0   0.0
-50.0   90.0   0.0
-100.0   120.0   0.0
-100.0   90.0   16.666666666666668
-50.0   90.0   0.0
-50.0   120.0   0.0
-100.0   120.0   0.0
-50.0   120.0   16.666666666666668
-100.0   90.0   16.666666666666668
-100.0   120.0   16.666666666666668
-50.0   120.0   16.666666666666668
-100.0   120.0   0.0
-100.0   90.0   16.666666666666668
-50.0   120.0   16.666666666666668
-50.0   90.0   16.666666666666668
-50.0   90.0   0.0
-100.0   90.0   16.666666666666668
-50.0   120.0   16.666666666666668
-50.0   90.0   0.0
-100.0   120.0   0.0
-100.0   90.0   16.666666666666668
-50.0   90.0   16.666666666666668
-100.0   120.0   16.666666666666668
-100.0   90.0   33.333333333333336
-50.0   90.0   16.666666666666668
-50.0   120.0   16.666666666666668
-100.0   120.0   16.666666666666668
-50.0   120.0   33.333333333333336
-100.0   90.0   33.333333333333336
-100.0   120.0   33.333333333333336
-50.0   120.0   33.333333333333336
-100.0   120.0   16.666666666666668
-100.0   90.0   33.333333333333336
-50.0   120.0   33.333333333333336
-50.0   90.0   33.333333333333336
-50.0   90.0   16.666666666666668
-100.0   90.0   33.333333333333336
-50.0   120.0   33.333333333333336
-50.0   90.0   16.666666666666668
-100.0   120.0   16.666666666666668
-100.0   90.0   33.333333333333336
-50.0   90.0   33.333333333333336
-100.0   120.0   33.333333333333336
-100.0   90.0   50.0
-50.0   90.0   33.333333333333336
-50.0   120.0   33.333333333333336
-100.0   120.0   33.333333333333336
-50.0   120.0   50.0
-100.0   90.0   50.0
-100.0   120.0   50.0
-50.0   120.0   50.0
-100.0   120.0   33.333333333333336
-100.0   90.0   50.0
-50.0   120.0   50.0
-50.0   90.0   50.0
-50.0   90.0   33.333333333333336
-100.0   90.0   50.0
-50.0   120.0   50.0
-50.0   90.0   33.333333333333336
-100.0   120.0   33.333333333333336
-100.0   120.0   0.0
-50.0   120.0   0.0
-100.0   150.0   0.0
-100.0   120.0   16.666666666666668
-50.0   120.0   0.0
-50.0   150.0   0.0
-100.0   150.0   0.0
-50.0   150.0   16.666666666666668
-100.0   120.0   16.666666666666668
-100.0   150.0   16.666666666666668
-50.0   150.0   16.666666666666668
-100.0   150.0   0.0
-100.0   120.0   16.666666666666668
-50.0   150.0   16.666666666666668
-50.0   120.0   16.666666666666668
-50.0   120.0   0.0
-100.0   120.0   16.666666666666668
-50.0   150.0   16.666666666666668
-50.0   120.0   0.0
-100.0   150.0   0.0
-100.0   120.0   16.666666666666668
-50.0   120.0   16.666666666666668
-100.0   150.0   16.666666666666668
-100.0   120.0   33.333333333333336
-50.0   120.0   16.666666666666668
-50.0   150.0   16.666666666666668
-100.0   150.0   16.666666666666668
-50.0   150.0   33.333333333333336
-100.0   120.0   33.333333333333336
-100.0   150.0   33.333333333333336
-50.0   150.0   33.333333333333336
-100.0   150.0   16.666666666666668
-100.0   120.0   33.333333333333336
-50.0   150.0   33.333333333333336
-50.0   120.0   33.333333333333336
-50.0   120.0   16.666666666666668
-100.0   120.0   33.333333333333336
-50.0   150.0   33.333333333333336
-50.0   120.0   16.666666666666668
-100.0   150.0   16.666666666666668
-100.0   120.0   33.333333333333336
-50.0   120.0   33.333333333333336
-100.0   150.0   33.333333333333336
-100.0   120.0   50.0
-50.0   120.0   33.333333333333336
-50.0   150.0   33.333333333333336
-100.0   150.0   33.333333333333336
-50.0   150.0   50.0
-100.0   120.0   50.0
-100.0   150.0   50.0
-50.0   150.0   50.0
-100.0   150.0   33.333333333333336
-100.0   120.0   50.0
-50.0   150.0   50.0
-50.0   120.0   50.0
-50.0   120.0   33.333333333333336
-100.0   120.0   50.0
-50.0   150.0   50.0
-50.0   120.0   33.333333333333336
-100.0   150.0   33.333333333333336
-50.0   0.0   0.0
0.0   0.0   0.0
-50.0   30.0   0.0
-50.0   0.0   16.666666666666668
0.0   0.0   0.0
0.0   30.0   0.0
-50.0   30.0   0.0
0.0   30.0   16.666666666666668
-50.0   0.0   16.666666666666668
-50.0   30.0   16.666666666666668
0.0   30.0   16.666666666666668
-50.0   30.0   0.0
-50.0   0.0   16.666666666666668
0.0   30.0   16.666666666666668
0.0   0.0   16.666666666666668
0.0   0.0   0.0
-50.0   0.0   16.666666666666668
0.0   30.0   16.666666666666668
0.0   0.0   0.0
-50.0   30.0   0.0
-50.0   0.0   16.666666666666668
0.0   0.0   16.666666666666668
-50.0   30.0   16.666666666666668
-50.0   0.0   33.333333333333336
0.0   0.0   16.666666666666668
0.0   30.0   16.666666666666668
-50.0   30.0   16.666666666666668
0.0   30.0   33.333333333333336
-50.0   0.0   33.333333333333336
-50.0   30.0   33.333333333333336
0.0   30.0   33.333333333333336
-50.0   30.0   16.666666666666668
-50.0   0.0   33.333333333333336
0.0   30.0   33.333333333333336
0.0   0.0   33.333333333333336
0.0   0.0   16.666666666666668
-50.0   0.0   33.333333333333336
0.0   30.0   33.333333333333336
0.0   0.0   16.666666666666668
-50.0   30.0   16.666666666666668
-50.0   0.0   33.333333333333336
0.0   0.0   33.333333333333336
-50.0   30.0   33.333333333333336
-50.0   0.0   50.0
0.0   0.0   33.333333333333336
0.0   30.0   33.333333333333336
-50.0   30.0   33.333333333333336
0.0   30.0   50.0
-50.0   0.0   50.0
-50.0   30.0   50.0
0.0   30.0   50.0
-50.0   30.0   33.333333333333336
-50.0   0.0   50.0
0.0   30.0   50.0
0.0   0.0   50.0
0.0   0.0   33.333333333333336
-50.0   0.0   50.0
0.0   30.0   50.0
0.0   0.0   33.333333333333336
-50.0   30.0   33.333333333333336
-50.0   30.0   0.0
0.0   30.0   0.0
-50.0   60.0   0.0
-50.0   30.0   16.666666666666668
0.0   30.0   0.0
0.0   60.0   0.0
-50.0   60.0   0.0
0.0   60.0   16.666666666666668
-50.0   30.0   16.666666666666668
-50.0   60.0   16.666666666666668
0.0   60.0   16.666666666666668
-50.0   60.0   0.0
-50.0   30.0   16.666666666666668
0.0   60.0   16.666666666666668
0.0   30.0   16.666666666666668
0.0   30.0   0.0
-50.0   30.0   16.666666666666668
0.0   60.0   16.666666666666668
0.0   30.0   0.0
-50.0   60.0   0.0
-50.0   30.0   16.666666666666668
0.0   30.0   16.666666666666668
-50.0   60.0   16.666666666666668
-50.0   30.0   33.333333333333336
0.0   30.0   16.666666666666668
0.0   60.0   16.666666666666668
-50.0   60.0   16.666666666666668
0.0   60.0   33.333333333333336
-50.0   30.0   33.333333333333336
-50.0   60.0   33.333333333333336
0.0   60.0   33.333333333333336
-50.0   60.0   16.666666666666668
-50.0   30.0   33.333333333333336
0.0   60.0   33.333333333333336
0.0   30.0   33.333333333333336
0.0   30.0   16.666666666666668
-50.0   30.0   33.333333333333336
0.0   60.0   33.333333333333336
0.0   30.0   16.666666666666668
-50.0   60.0   16.666666666666668
-50.0   30.0   33.333333333333336
0.0   30.0   33.333333333333336
-50.0   60.0   33.333333333333336
-50.0   30.0   50.0
0.0   30.0   33.333333333333336
0.0   60.0   33.333333333333336
-50.0   60.0   33.333333333333336
0.0   60.0   50.0
-50.0   30.0   50.0
-50.0   60.0   50.0
0.0   60.0   50.0
-50.0   60.0   33.333333333333336
-50.0   30.0   50.0
0.0   60.0   50.0
0.0   30.0   50.0
0.0   30.0   33.333333333333336
-50.0   30.0   50.0
0.0   60.0   50.0
0.0   30.0   33.333333333333336
-50.0   60.0   33.333333333333336
-50.0   60.0   0.0
0.0   60.0   0.0
-50.0   90.0   0.0
-50.0   60.0   16.666666666666668
0.0   60.0   0.0
0.0   90.0   0.0
-50.0   90.0   0.0
0.0   90.0   16.666666666666668
-50.0   60.0   16.666666666666668
-50.0   90.0   16.666666666666668
0.0   90.0   16.666666666666668
-50.0   90.0   0.0
-50.0   60.0   16.666666666666668
0.0   90.0   16.666666666666668
0.0   60.0   16.666666666666668
0.0   60.0   0.0
-50.0   60.0   16.666666666666668
0.0   90.0   16.666666666666668
0.0   60.0   0.0
-50.0   90.0   0.0
-50.0   60.0   16.666666666666668
0.0   60.0   16.666666666666668
-50.0   90.0   16.666666666666668
-50.0   60.0   33.333333333333336
0.0   60.0   16.666666666666668
0.0   90.0   16.666666666666668
-50.0   90.0   16.666666666666668
0.0   90.0   33.333333333333336
-50.0   60.0   33.333333333333336
-50.0   90.0   33.333333333333336
0.0   90.0   33.333333333333336
-50.0   90.0   16.666666666666668
-50.0   60.0   33.333333333333336
0.0   90.0   33.333333333333336
0.0   60.0   33.333333333333336
0.0   60.0   16.666666666666668
-50.0   60.0   33.333333333333336
0.0   90.0   33.333333333333336
0.0   60.0   16.666666666666668
-50.0   90.0   16.666666666666668
-50.0   60.0   33.333333333333336
0.0   60.0   33.333333333333336
-50.0   90.0   33.333333333333336
-50.0   60.0   50.0
0.0   60.0   33.333333333333336
0.0   90.0   33.333333333333336
-50.0   90.0   33.333333333333336
0.0   90.0   50.0
-50.0   60.0   50.0
-50.0   90.0   50.0
0.0   90.0   50.0
-50.0   90.0   33.333333333333336
-50.0   60.0   50.0
0.0   90.0   50.0
0.0   60.0   50.0
0.0   60.0   33.333333333333336
-50.0   60.0   50.0
0.0   90.0   50.0
0.0   60.0   33.333333333333336
-50.0   90.0   33.333333333333336
-50.0   90.0   0.0
0.0   90.0   0.0
-50.0   120.0   0.0
-50.0   90.0   16.666666666666668
0.0   90.0   0.0
0.0   120.0   0.0
-50.0   120.0   0.0
0.0   120.0   16.666666666666668
-50.0   90.0   16.666666666666668
-50.0   120.0   16.666666666666668
0.0   120.0   16.666666666666668
-50.0   120.0   0.0
-50.0   90.0   16.666666666666668
0.0   120.0   16.666666666666668
0.0   90.0   16.666666666666668
0.0   90.0   0.0
-50.0   90.0   16.666666666666668
0.0   120.0   16.666666666666668
0.0   90.0   0.0
-50.0   120.0   0.0
-50.0   90.0   16.666666666666668
0.0   90.0   16.666666666666668
-50.0   120.0   16.666666666666668
-50.0   90.0   33.333333333333336
0.0   90.0   16.666666666666668
0.0   120.0   16.666666666666668
-50.0   120.0   16.666666666666668
0.0   120.0   33.333333333333336
-50.0   90.0   33.333333333333336
-50.0   120.0   33.333333333333336
0.0   120.0   33.333333333333336
-50.0   120.0   16.666666666666668
-50.0   90.0   33.333333333333336
0.0   120.0   33.333333333333336
0.0   90.0   33.333333333333336
0.0   90.0   16.666666666666668
-50.0   90.0   33.333333333333336
0.0   120.0   33.333333333333336
0.0   90.0   16.666666666666668
-50.0   120.0   16.666666666666668
-50.0   90.0   33.333333333333336
0.0   90.0   33.333333333333336
-50.0   120.0   33.333333333333336
-50.0   90.0   50.0
0.0   90.0   33.333333333333336
0.0   120.0   33.333333333333336
-50.0   120.0   33.333333333333336
0.0   120.0   50.0
-50.0   90.0   50.0
-50.0   120.0   50.0
0.0   120.0   50.0
-50.0   120.0   33.333333333333336
-50.0   90.0   50.0
0.0   120.0   50.0
0.0   90.0   50.0
0.0   90.0   33.333333333333336
-50.0   90.0   50.0
0.0   120.0   50.0
0.0   90.0   33.333333333333336
-50.0   120.0   33.333333333333336
-50.0   120.0   0.0
0.0   120.0   0.0
-50.0   150.0   0.0
-50.0   120.0   16.666666666666668
0.0   120.0   0.0
0.0   150.0   0.0
-50.0   150.0   0.0
0.0   150.0   16.666666666666668
-50.0   120.0   16.666666666666668
-50.0   150.0   16.666666666666668
0.0   150.0   16.666666666666668
-50.0   150.0   0.0
-50.0   120.0   16.666666666666668
0.0   150.0   16.666666666666668
0.0   120.0   16.666666666666668
0.0   120.0   0.0
-50.0   120.0   16.666666666666668
0.0   150.0   16.666666666666668
0.0   120.0   0.0
-50.0   150.0   0.0
-50.0   120.0   16.666666666666668
0.0   120.0   16.666666666666668
-50.0   150.0   16.666666666666668
-50.0   120.0   33.333333333333336
0.0   120.0   16.666666666666668
0.0   150.0   16.666666666666668
-50.0   150.0   16.666666666666668
0.0   150.0   33.333333333333336
-50.0   120.0   33.333333333333336
-50.0   150.0   33.333333333333336
0.0   150.0   33.333333333333336
-50.0   150.0   16.666666666666668
-50.0   120.0   33.333333333333336
0.0   150.0   33.333333333333336
0.0   120.0   33.333333333333336
0.0   120.0   16.666666666666668
-50.0   120.0   33.333333333333336
0.0   150.0   33.333333333333336
0.0   120.0   16.666666666666668
-50.0   150.0   16.666666666666668
-50.0   120.0   33.333333333333336
0.0   120.0   33.333333333333336
-50.0   150.0   33.333333333333336
-50.0   120.0   50.0
0.0   120.0   33.333333333333336
0.0   150.0   33.333333333333336
-50.0   150.0   33.333333333333336
0.0   150.0   50.0
-50.0   120.0   50.0
-50.0   150.0   50.0
0.0   150.0   50.0
-50.0   150.0   33.333333333333336
-50.0   120.0   50.0
0.0   150.0   50.0
0.0   120.0   50.0
0.0   120.0   33.333333333333336
-50.0   120.0   50.0
0.0   150.0   50.0
0.0   120.0   33.333333333333336
-50.0   150.0   33.333333333333336
0.0   0.0   0.0
50.0   0.0   0.0
0.0   30.0   0.0
0.0   0.0   16.666666666666668
50.0   0.0   0.0
50.0   30.0   0.0
0.0   30.0   0.0
50.0   30.0   16.666666666666668
0.0   0.0   16.666666666666668
0.0   30.0   16.666666666666668
50.0   30.0   16.666666666666668
0.0   30.0   0.0
0.0   0.0   16.666666666666668
50.0   30.0   16.666666666666668
50.0   0.0   16.666666666666668
50.0   0.0   0.0
0.0   0.0   16.666666666666668
50.0   30.0   16.666666666666668
50.0   0.0   0.0
0.0   30.0   0.0
0.0   0.0   16.666666666666668
50.0   0.0   16.666666666666668
0.0   30.0   16.666666666666668
0.0   0.0   33.333333333333336
50.0   0.0   16.666666666666668
50.0   30.0   16.666666666666668
0.0   30.0   16.666666666666668
50.0   30.0   33.333333333333336
0.0   0.0   33.333333333333336
0.0   30.0   33.333333333333336
50.0   30.0   33.333333333333336
0.0   30.0   16.666666666666668
0.0   0.0   33.333333333333336
50.0   30.0   33.333333333333336
50.0   0.0   33.333333333333336
50.0   0.0   16.666666666666668
0.0   0.0   33.333333333333336
50.0   30.0   33.333333333333336
50.0   0.0   16.666666666666668
0.0   30.0   16.666666666666668
0.0   0.0   33.333333333333336
50.0   0.0   33.333333333333336
0.0   30.0   33.333333333333336
0.0   0.0   50.0
50.0   0.0   33.333333333333336
50.0   30.0   33.333333333333336
0.0   30.0   33.333333333333336
50.0   30.0   50.0
0.0   0.0   50.0
0.0   30.0   50.0
50.0   30.0   50.0
0.0   30.0   33.333333333333336
0.0   0.0   50.0
50.0   30.0   50.0
50.0   0.0   50.0
50.0   0.0   33.333333333333336
0.0   0.0   50.0
50.0   30.0   50.0
50.0   0.0   33.333333333333336
0.0   30.0   33.333333333333336
0.0   30.0   0.0
50.0   30.0   0.0
0.0   60.0   0.0
0.0   30.0   16.666666666666668
50.0   30.0   0.0
50.0   60.0   0.0
0.0   60.0   0.0
50.0   60.0   16.666666666666668
0.0   30.0   16.666666666666668
0.0   60.0   16.666666666666668
50.0   60.0   16.666666666666668
0.0   60.0   0.0
0.0   30.0   16.666666666666668
50.0   60.0   16.666666666666668
50.0   30.0   16.666666666666668
50.0   30.0   0.0
0.0   30.0   16.666666666666668
50.0   60.0   16.666666666666668
50.0   30.0   0.0
0.0   60.0   0.0
0.0   30.0   16.666666666666668
50.0   30.0   16.666666666666668
0.0   60.0   16.666666666666668
0.0   30.0   33.333333333333336
50.0   30.0   16.666666666666668
50.0   60.0   16.666666666666668
0.0   60.0   16.666666666666668
50.0   60.0   33.333333333333336
0.0   30.0   33.333333333333336
0.0   60.0   33.333333333333336
50.0   60.0   33.333333333333336
0.0   60.0   16.666666666666668
0.0   30.0   33.333333333333336
50.0   60.0   33.333333333333336
50.0   30.0   33.333333333333336
50.0   30.0   16.666666666666668
0.0   30.0   33.333333333333336
50.0   60.0   33.333333333333336
50.0   30.0   16.666666666666668
0.0   60.0   16.666666666666668
0.0   30.0   33.333333333333336
50.0   30.0   33.333333333333336
0.0   60.0   33.333333333333336
0.0   30.0   50.0
50.0   30.0   33.333333333333336
50.0   60.0   33.333333333333336
0.0   60.0   33.333333333333336
50.0   60.0   50.0
0.0   30.0   50.0
0.0   60.0   50.0
50.0   60.0   50.0
0.0   60.0   33.333333333333336
0.0   30.0   50.0
50.0   60.0   50.0
50.0   30.0   50.0
50.0   30.0   33.333333333333336
0.0   30.0   50.0
50.0   60.0   50.0
50.0   30.0   33.333333333333336
0.0   60.0   33.333333333333336
0.0   60.0   0.0
50.0   60.0   0.0
0.0   90.0   0.0
0.0   60.0   16.666666666666668
50.0   60.0   0.0
50.0   90.0   0.0
0.0   90.0   0.0
50.0   90.0   16.666666666666668
0.0   60.0   16.666666666666668
0.0   90.0   16.666666666666668
50.0   90.0   16.666666666666668
0.0   90.0   0.0
0.0   60.0   16.666666666666668
50.0   90.0   16.666666666666668
50.0   60.0   16.666666666666668
50.0   60.0   0.0
0.0   60.0   16.666666666666668
50.0   90.0   16.666666666666668
50.0   60.0   0.0
0.0   90.0   0.0
0.0   60.0   16.666666666666668
50.0   60.0   16.666666666666668
0.0   90.0   16.666666666666668
0.0   60.0   33.333333333333336
50.0   60.0   16.666666666666668
50.0   90.0   16.666666666666668
0.0   90.0   16.666666666666668
50.0   90.0   33.333333333333336
0.0   60.0   33.333333333333336
0.0   90.0   33.333333333333336
50.0   90.0   33.333333333333336
0.0   90.0   16.666666666666668
0.0   60.0   33.333333333333336
50.0   90.0   33.333333333333336
50.0   60.0   33.333333333333336
50.0   60.0   16.666666666666668
0.0   60.0   33.333333333333336
50.0   90.0   33.333333333333336
50.0   60.0   16.666666666666668
0.0   90.0   16.666666666666668
0.0   60.0   33.333333333333336
50.0   60.0   33.333333333333336
0.0   90.0   33.333333333333336
0.0   60.0   50.0
50.0   60.0   33.333333333333336
50.0   90.0   33.333333333333336
0.0   90.0   33.333333333333336
50.0   90.0   50.0
0.0   60.0   50.0
0.0   90.0   50.0
50.0   90.0   50.0
0.0   90.0   33.333333333333336
0.0   60.0   50.0
50.0   90.0   50.0
50.0   60.0   50.0
50.0   60.0   33.333333333333336
0.0   60.0   50.0
50.0   90.0   50.0
50.0   60.0   33.333333333333336
0.0   90.0   33.333333333333336
0.0   90.0   0.0
50.0   90.0   0.0
0.0   120.0   0.0
0.0   90.0   16.666666666666668
50.0   90.0   0.0
50.0   120.0   0.0
0.0   120.0   0.0
50.0   120.0   16.666666666666668
0.0   90.0   16.666666666666668
0.0   120.0   16.666666666666668
50.0   120.0   16.666666666666668
0.0   120.0   0.0
0.0   90.0   16.666666666666668
50.0   120.0   16.666666666666668
50.0   90.0   16.666666666666668
50.0   90.0   0.0
0.0   90.0   16.666666666666668
50.0   120.0   16.666666666666668
50.0   90.0   0.0
0.0   120.0   0.0
0.0   90.0   16.666666666666668
50.0   90.0   16.666666666666668
0.0   120.0   16.666666666666668
0.0   90.0   33.333333333333336
50.0   90.0   16.666666666666668
50.0   120.0   16.666666666666668
0.0   120.0   16.666666666666668
50.0   120.0   33.333333333333336
0.0   90.0   33.333333333333336
0.0   120.0   33.333333333333336
50.0   120.0   33.333333333333336
0.0   120.0   16.666666666666668
0.0   90.0   33.333333333333336
50.0   120.0   33.333333333333336
50.0   90.0   33.333333333333336
50.0   90.0   16.666666666666668
0.0   90.0   33.333333333333336
50.0   120.0   33.333333333333336
50.0   90.0   16.666666666666668
0.0   120.0   16.666666666666668
0.0   90.0   33.333333333333336
50.0   90.0   33.333333333333336
0.0   120.0   33.333333333333336
0.0   90.0   50.0
50.0   90.0   33.333333333333336
50.0   120.0   33.333333333333336
0.0   120.0   33.333333333333336
50.0   120.0   50.0
0.0   90.0   50.0
0.0   120.0   50.0
50.0   120.0   50.0
0.0   120.0   33.333333333333336
0.0   90.0   50.0
50.0   120.0   50.0
50.0   90.0   50.0
50.0   90.0   33.333333333333336
0.0   90.0   50.0
50.0   120.0   50.0
50.0   90.0   33.333333333333336
0.0   120.0   33.333333333333336
0.0   120.0   0.0
50.0   120.0   0.0
0.0   150.0   0.0
0.0   120.0   16.666666666666668
50.0   120.0   0.0
50.0   150.0   0.0
0.0   150.0   0.0
50.0   150.0   16.666666666666668
0.0   120.0   16.666666666666668
0.0   150.0   16.666666666666668
50.0   150.0   16.666666666666668
0.0   150.0   0.0
0.0   120.0   16.666666666666668
50.0   150.0   16.666666666666668
50.0   120.0   16.666666666666668
50.0   120.0   0.0
0.0   120.0   16.666666666666668
50.0   150.0   16.666666666666668
50.0   120.0   0.0
0.0   150.0   0.0
0.0   120.0   16.666666666666668
50.0   120.0   16.666666666666668
0.0   150.0   16.666666666666668
0.0   120.0   33.333333333333336
50.0   120.0   16.666666666666668
50.0   150.0   16.666666666666668
0.0   150.0   16.666666666666668
50.0   150.0   33.333333333333336
0.0   120.0   33.333333333333336
0.0   150.0   33.333333333333336
50.0   150.0   33.333333333333336
0.0   150.0   16.666666666666668
0.0   120.0   33.333333333333336
50.0   150.0   33.333333333333336
50.0   120.0   33.333333333333336
50.0   120.0   16.666666666666668
0.0   120.0   33.333333333333336
50.0   150.0   33.333333333333336
50.0   120.0   16.666666666666668
0.0   150.0   16.666666666666668
0.0   120.0   33.333333333333336
50.0   120.0   33.333333333333336
0.0   150.0   33.333333333333336
0.0   120.0   50.0
50.0   120.0   33.333333333333336
50.0   150.0   33.333333333333336
0.0   150.0   33.333333333333336
50.0   150.0   50.0
0.0   120.0   50.0
0.0   150.0   50.0
50.0   150.0   50.0
0.0   150.0   33.333333333333336
0.0   120.0   50.0
50.0   150.0   50.0
50.0   120.0   50.0
50.0   120.0   33.333333333333336
0.0   120.0   50.0
50.0   150.0   50.0
50.0   120.0   33.333333333333336
0.0   150.0   33.333333333333336
50.0   0.0   0.0
100.0   0.0   0.0
50.0   30.0   0.0
50.0   0.0   16.666666666666668
100.0   0.0   0.0
100.0   30.0   0.0
50.0   30.0   0.0
100.0   30.0   16.666666666666668
50.0   0.0   16.666666666666668
50.0   30.0   16.666666666666668
100.0   30.0   16.666666666666668
50.0   30.0   0.0
50.0   0.0   16.666666666666668
100.0   30.0   16.666666666666668
100.0   0.0   16.666666666666668
100.0   0.0   0.0
50.0   0.0   16.666666666666668
100.0   30.0   16.666666666666668
100.0   0.0   0.0
50.0   30.0   0.0
50.0   0.0   16.666666666666668
100.0   0.0   16.666666666666668
50.0   30.0   16.666666666666668
50.0   0.0   33.333333333333336
100.0   0.0   16.666666666666668
100.0   30.0   16.666666666666668
50.0   30.0   16.666666666666668
100.0   30.0   33.333333333333336
50.0   0.0   33.333333333333336
50.0   30.0   33.333333333333336
100.0   30.0   33.333333333333336
50.0   30.0   16.666666666666668
50.0   0.0   33.333333333333336
100.0   30.0   33.333333333333336
100.0   0.0   33.333333333333336
100.0   0.0   16.666666666666668
50.0   0.0   33.333333333333336
100.0   30.0   33.333333333333336
100.0   0.0   16.666666666666668
50.0   30.0   16.666666666666668
50.0   0.0   33.333333333333336
100.0   0.0   33.333333333333336
50.0   30.0   33.333333333333336
50.0   0.0   50.0
100.0   0.0   33.333333333333336
100.0   30.0   33.333333333333336
50.0   30.0   33.333333333333336
100.0   30.0   50.0
50.0   0.0   50.0
50.0   30.0   50.0
100.0   30.0   50.0
50.0   30.0   33.333333333333336
50.0   0.0   50.0
100.0   30.0   50.0
100.0   0.0   50.0
100.0   0.0   33.333333333333336
50.0   0.0   50.0
100.0   30.0   50.0
100.0   0.0   33.333333333333336
50.0   30.0   33.333333333333336
50.0   30.0   0.0
100.0   30.0   0.0
50.0   60.0   0.0
50.0   30.0   16.666666666666668
100.0   30.0   0.0
100.0   60.0   0.0
50.0   60.0   0.0
100.0   60.0   16.666666666666668
50.0   30.0   16.666666666666668
50.0   60.0   16.666666666666668
100.0   60.0   16.666666666666668
50.0   60.0   0.0
50.0   30.0   16.666666666666668
100.0   60.0   16.666666666666668
100.0   30.0   16.666666666666668
100.0   30.0   0.0
50.0   30.0   16.666666666666668
100.0   60.0   16.666666666666668
100.0   30.0   0.0
50.0   60.0   0.0
50.0   30.0   16.666666666666668
100.0   30.0   16.666666666666668
50.0   60.0   16.666666666666668
50.0   30.0   33.333333333333336
100.0   30.0   16.666666666666668
100.0   60.0   16.666666666666668
50.0   60.0   16.666666666666668
100.0   60.0   33.333333333333336
50.0   30.0   33.333333333333336
50.0   60.0   33.333333333333336
100.0   60.0   33.333333333333336
50.0   60.0   16.666666666666668
50.0   30.0   33.333333333333336
100.0   60.0   33.333333333333336
100.0   30.0   33.333333333333336
100.0   30.0   16.666666666666668
50.0   30.0   33.333333333333336
100.0   60.0   33.333333333333336
100.0   30.0   16.666666666666668
50.0   60.0   16.666666666666668
50.0   30.0   33.333333333333336
100.0   30.0   33.333333333333336
50.0   60.0   33.333333333333336
50.0   30.0   50.0
100.0   30.0   33.333333333333336
100.0   60.0   33.333333333333336
50.0   60.0   33.333333333333336
100.0   60.0   50.0
50.0   30.0   50.0
50.0   60.0   50.0
100.0   60.0   50.0
50.0   60.0   33.333333333333336
50.0   30.0   50.0
100.0   60.0   50.0
100.0   30.0   50.0
100.0   30.0   33.333333333333336
50.0   30.0   50.0
100.0   60.0   50.0
100.0   30.0   33.333333333333336
50.0   60.0   33.333333333333336
50.0   60.0   0.0
100.0   60.0   0.0
50.0   90.0   0.0
50.0   60.0   16.666666666666668
100.0   60.0   0.0
100.0   90.0   0.0
50.0   90.0   0.0
100.0   90.0   16.666666666666668
50.0   60.0   16.666666666666668
50.0   90.0   16.666666666666668
100.0   90.0   16.666666666666668
50.0   90.0   0.0
50.0   60.0   16.666666666666668
100.0   90.0   16.666666666666668
100.0   60.0   16.666666666666668
100.0   60.0   0.0
50.0   60.0   16.666666666666668
100.0   90.0   16.666666666666668
100.0   60.0   0.0
50.0   90.0   0.0
50.0   60.0   16.666666666666668
100.0   60.0   16.666666666666668
50.0   90.0   16.666666666666668
50.0   60.0   33.333333333333336
100.0   60.0   16.666666666666668
100.0   90.0   16.666666666666668
50.0   90.0   16.666666666666668
100.0   90.0   33.333333333333336
50.0   60.0   33.333333333333336
50.0   90.0   33.333333333333336
100.0   90.0   33.333333333333336
50.0   90.0   16.666666666666668
50.0   60.0   33.333333333333336
100.0   90.0   33.333333333333336
100.0   60.0   33.333333333333336
100.0   60.0   16.666666666666668
50.0   60.0   33.333333333333336
100.0   90.0   33.333333333333336
100.0   60.0   16.666666666666668
50.0   90.0   16.666666666666668
50.0   60.0   33.333333333333336
100.0   60.0   33.333333333333336
50.0   90.0   33.333333333333336
50.0   60.0   50.0
100.0   60.0   33.333333333333336
100.0   90.0   33.333333333333336
50.0   90.0   33.333333333333336
100.0   90.0   50.0
50.0   60.0   50.0
50.0   90.0   50.0
100.0   90.0   50.0
50.0   90.0   33.333333333333336
50.0   60.0   50.0
100.0   90.0   50.0
100.0   60.0   50.0
100.0   60.0   33.333333333333336
50.0   60.0   50.0
100.0   90.0   50.0
100.0   60.0   33.333333333333336
50.0   90.0   33.333333333333336
50.0   90.0   0.0
100.0   90.0   0.0
50.0   120.0   0.0
50.0   90.0   16.666666666666668
100.0   90.0   0.0
100.0   120.0   0.0
50.0   120.0   0.0
100.0   120.0   16.666666666666668
50.0   90.0   16.666666666666668
50.0   120.0   16.666666666666668
100.0   120.0   16.666666666666668
50.0   120.0   0.0
50.0   90.0   16.666666666666668
100.0   120.0   16.666666666666668
100.0   90.0   16.666666666666668
100.0   90.0   0.0
50.0   90.0   16.666666666666668
100.0   120.0   16.666666666666668
100.0   90.0   0.0
50.0   120.0   0.0
50.0   90.0   16.666666666666668
100.0   90.0   16.666666666666668
50.0   120.0   16.666666666666668
50.0   90.0   33.333333333333336
100.0   90.0   16.666666666666668
100.0   120.0   16.666666666666668
50.0   120.0   16.666666666666668
100.0   120.0   33.333333333333336
50.0   90.0   33.333333333333336
50.0   120.0   33.333333333333336
100.0   120.0   33.333333333333336
50.0   120.0   16.666666666666668
50.0   90.0   33.333333333333336
100.0   120.0   33.333333333333336
100.0   90.0   33.333333333333336
100.0   90.0   16.666666666666668
50.0   90.0   33.333333333333336
100.0   120.0   33.333333333333336
100.0   90.0   16.666666666666668
50.0   120.0   16.666666666666668
50.0   90.0   33.333333333333336
100.0   90.0   33.333333333333336
50.0   120.0   33.333333333333336
50.0   90.0   50.0
100.0   90.0   33.333333333333336
100.0   120.0   33.333333333333336
50.0   120.0   33.333333333333336
100.0   120.0   50.0
50.0   90.0   50.0
50.0   120.0   50.0
100.0   120.0   50.0
50.0   120.0   33.333333333333336
50.0   90.0   50.0
100.0   120.0   50.0
100.0   90.0   50.0
100.0   90.0   33.333333333333336
50.0   90.0   50.0
100.0   120.0   50.0
100.0   90.0   33.333333333333336
50.0   120.0   33.333333333333336
50.0   120.0   0.0
100.0   120.0   0.0
50.0   150.0   0.0
50.0   120.0   16.666666666666668
100.0   120.0   0.0
100.0   150.0   0.0
50.0   150.0   0.0
100.0   150.0   16.666666666666668
50.0   120.0   16.666666666666668
50.0   150.0   16.666666666666668
100.0   150.0   16.666666666666668
50.0   150.0   0.0
50.0   120.0   16.666666666666668
100.0   150.0   16.666666666666668
100.0   120.0   16.666666666666668
100.0   120.0   0.0
50.0   120.0   16.666666666666668
100.0   150.0   16.666666666666668
100.0   120.0   0.0
50.0   150.0   0.0
50.0   120.0   16.666666666666668
100.0   120.0   16.666666666666668
50.0   150.0   16.666666666666668
50.0   120.0   33.333333333333336
100.0   120.0   16.666666666666668
100.0   150.0   16.666666666666668
50.0   150.0   16.666666666666668
100.0   150.0   33.333333333333336
50.0   120.0   33.333333333333336
50.0   150.0   33.333333333333336
100.0   150.0   33.333333333333336
50.0   150.0   16.666666666666668
50.0   120.0   33.333333333333336
100.0   150.0   33.333333333333336
100.0   120.0   33.333333333333336
100.0   120.0   16.666666666666668
50.0   120.0   33.333333333333336
100.0   150.0   33.333333333333336
100.0   120.0   16.666666666666668
50.0   150.0   16.666666666666668
50.0   120.0   33.333333333333336
100.0   120.0   33.333333333333336
50.0   150.0   33.333333333333336
50.0   120.0   50.0
100.0   120.0   33.333333333333336
100.0   150.0   33.333333333333336
50.0   150.0   33.333333333333336
100.0   150.0   50.0
50.0   120.0   50.0
50.0   150.0   50.0
100.0   150.0   50.0
50.0   150.0   33.333333333333336
50.0   120.0   50.0
100.0   150.0   50.0
100.0   120.0   50.0
100.0   120.0   33.333333333333336
50.0   120.0   50.0
100.0   150.0   50.0
100.0   120.0   33.333333333333336
50.0   150.0   33.333333333333336
100.0   0.0   0.0
150.0   0.0   0.0
100.0   30.0   0.0
100.0   0.0   16.666666666666668
150.0   0.0   0.0
150.0   30.0   0.0
100.0   30.0   0.0
150.0   30.0   16.666666666666668
100.0   0.0   16.666666666666668
100.0   30.0   16.666666666666668
150.0   30.0   16.666666666666668
100.0   30.0   0.0
100.0   0.0   16.666666666666668
150.0   30.0   16.666666666666668
150.0   0.0   16.666666666666668
150.0   0.0   0.0
100.0   0.0   16.666666666666668
150.0   30.0   16.666666666666668
150.0   0.0   0.0
100.0   30.0   0.0
100.0   0.0   16.666666666666668
150.0   0.0   16.666666666666668
100.0   30.0   16.666666666666668
100.0   0.0   33.333333333333336
150.0   0.0   16.666666666666668
150.0   30.0   16.666666666666668
100.0   30.0   16.666666666666668
150.0   30.0   33.333333333333336
100.0   0.0   33.333333333333336
100.0   30.0   33.333333333333336
150.0   30.0   33.333333333333336
100.0   30.0   16.666666666666668
100.0   0.0   33.333333333333336
150.0   30.0   33.333333333333336
150.0   0.0   33.333333333333336
150.0   0.0   16.666666666666668
100.0   0.0   33.333333333333336
150.0   30.0   33.333333333333336
150.0   0.0   16.666666666666668
100.0   30.0   16.666666666666668
100.0   0.0   33.333333333333336
150.0   0.0   33.333333333333336
100.0   30.0   33.333333333333336
100.0   0.0   50.0
150.0   0.0   33.333333333333336
150.0   30.0   33.333333333333336
100.0   30.0   33.333333333333336
150.0   30.0   50.0
100.0   0.0   50.0
100.0   30.0   50.0
150.0   30.0   50.0
100.0   30.0   33.333333333333336
100.0   0.0   50.0
150.0   30.0   50.0
150.0   0.0   50.0
150.0   0.0   33.333333333333336
100.0   0.0   50.0
150.0   30.0   50.0
150.0   0.0   33.333333333333336
100.0   30.0   33.333333333333336
100.0   30.0   0.0
150.0   30.0   0.0
100.0   60.0   0.0
100.0   30.0   16.666666666666668
150.0   30.0   0.0
150.0   60.0   0.0
100.0   60.0   0.0
150.0   60.0   16.666666666666668
100.0   30.0   16.666666666666668
100.0   60.0   16.666666666666668
150.0   60.0   16.666666666666668
100.0   60.0   0.0
100.0   30.0   16.666666666666668
150.0   60.0   16.666666666666668
150.0   30.0   16.666666666666668
150.0   30.0   0.0
100.0   30.0   16.666666666666668
150.0   60.0   16.666666666666668
150.0   30.0   0.0
100.0   60.0   0.0
100.0   30.0   16.666666666666668
150.0   30.0   16.666666666666668
100.0   60.0   16.666666666666668
100.0   30.0   33.333333333333336
150.0   30.0   16.666666666666668
150.0   60.0   16.666666666666668
100.0   60.0   16.666666666666668
150.0   60.0   33.333333333333336
100.0   30.0   33.333333333333336
100.0   60.0   33.333333333333336
150.0   60.0   33.333333333333336
100.0   60.0   16.666666666666668
100.0   30.0   33.333333333333336
150.0   60.0   33.333333333333336
150.0   30.0   33.333333333333336
150.0   30.0   16.666666666666668
100.0   30.0   33.333333333333336
150.0   60.0   33.333333333333336
150.0   30.0   16.666666666666668
100.0   60.0   16.666666666666668
100.0   30.0   33.333333333333336
150.0   30.0   33.333333333333336
100.0   60.0   33.333333333333336
100.0   30.0   50.0
150.0   30.0   33.333333333333336
150.0   60.0   33.333333333333336
100.0   60.0   33.333333333333336
150.0   60.0   50.0
100.0   30.0   50.0
100.0   60.0   50.0
150.0   60.0   50.0
100.0   60.0   33.333333333333336
100.0   30.0   50.0
150.0   60.0   50.0
150.0   30.0   50.0
150.0   30.0   33.333333333333336
100.0   30.0   50.0
150.0   60.0   50.0
150.0   30.0   33.333333333333336
100.0   60.0   33.333333333333336
100.0   60.0   0.0
150.0   60.0   0.0
100.0   90.0   0.0
100.0   60.0   16.666666666666668
150.0   60.0   0.0
150.0   90.0   0.0
100.0   90.0   0.0
150.0   90.0   16.666666666666668
100.0   60.0   16.666666666666668
100.0   90.0   16.666666666666668
150.0   90.0   16.666666666666668
100.0   90.0   0.0
100.0   60.0   16.666666666666668
150.0   90.0   16.666666666666668
150.0   60.0   16.666666666666668
150.0   60.0   0.0
100.0   60.0   16.666666666666668
150.0   90.0   16.666666666666668
150.0   60.0   0.0
100.0   90.0   0.0
100.0   60.0   16.666666666666668
150.0   60.0   16.666666666666668
100.0   90.0   16.666666666666668
100.0   60.0   33.333333333333336
150.0   60.0   16.666666666666668
150.0   90.0   16.666666666666668
100.0   90.0   16.666666666666668
150.0   90.0   33.333333333333336
100.0   60.0   33.333333333333336
100.0   90.0   33.333333333333336
150.0   90.0   33.333333333333336
100.0   90.0   16.666666666666668
100.0   60.0   33.333333333333336
150.0   90.0   33.333333333333336
150.0   60.0   33.333333333333336
150.0   60.0   16.666666666666668
100.0   60.0   33.333333333333336
150.0   90.0   33.333333333333336
150.0   60.0   16.666666666666668
100.0   90.0   16.666666666666668
100.0   60.0   33.333333333333336
150.0   60.0   33.333333333333336
100.0   90.0   33.333333333333336
100.0   60.0   50.0
150.0   60.0   33.333333333333336
150.0   90.0   33.333333333333336
100.0   90.0   33.333333333333336
150.0   90.0   50.0
100.0   60.0   50.0
100.0   90.0   50.0
150.0   90.0   50.0
100.0   90.0   33.333333333333336
100.0   60.0   50.0
150.0   90.0   50.0
150.0   60.0   50.0
150.0   60.0   33.333333333333336
100.0   60.0   50.0
150.0   90.0   50.0
150.0   60.0   33.333333333333336
100.0   90.0   33.333333333333336
100.0   90.0   0.0
150.0   90.0   0.0
100.0   120.0   0.0
100.0   90.0   16.666666666666668
150.0   90.0   0.0
150.0   120.0   0.0
100.0   120.0   0.0
150.0   120.0   16.666666666666668
100.0   90.0   16.666666666666668
100.0   120.0   16.666666666666668
150.0   120.0   16.666666666666668
100.0   120.0   0.0
100.0   90.0   16.666666666666668
150.0   120.0   16.666666666666668
150.0   90.0   16.666666666666668
150.0   90.0   0.0
100.0   90.0   16.666666666666668
150.0   120.0   16.666666666666668
150.0   90.0   0.0
100.0   120.0   0.0
100.0   90.0   16.666666666666668
150.0   90.0   16.666666666666668
100.0   120.0   16.666666666666668
100.0   90.0   33.333333333333336
150.0   90.0   16.666666666666668
150.0   120.0   16.666666666666668
100.0   120.0   16.666666666666668
150.0   120.0   33.333333333333336
100.0   90.0   33.333333333333336
100.0   120.0   33.333333333333336
150.0   120.0   33.333333333333336
100.0   120.0   16.666666666666668
100.0   90.0   33.333333333333336
150.0   120.0   33.333333333333336
150.0   90.0   33.333333333333336
150.0   90.0   16.666666666666668
100.0   90.0   33.333333333333336
150.0   120.0   33.333333333333336
150.0   90.0   16.666666666666668
100.0   120.0   16.666666666666668
100.0   90.0   33.333333333333336
150.0   90.0   33.333333333333336
100.0   120.0   33.333333333333336
100.0   90.0   50.0
150.0   90.0   33.333333333333336
150.0   120.0   33.333333333333336
100.0   120.0   33.333333333333336
150.0   120.0   50.0
100.0   90.0   50.0
100.0   120.0   50.0
150.0   120.0   50.0
100.0   120.0   33.333333333333336
100.0   90.0   50.0
150.0   120.0   50.0
150.0   90.0   50.0
150.0   90.0   33.333333333333336
100.0   90.0   50.0
150.0   120.0   50.0
150.0   90.0   33.333333333333336
100.0   120.0   33.333333333333336
100.0   120.0   0.0
150.0   120.0   0.0
100.0   150.0   0.0
100.0   120.0   16.666666666666668
150.0   120.0   0.0
150.0   150.0   0.0
100.0   150.0   0.0
150.0   150.0   16.666666666666668
100.0   120.0   16.666666666666668
100.0   150.0   16.666666666666668
150.0   150.0   16.666666666666668
100.0   150.0   0.0
100.0   120.0   16.666666666666668
150.0   150.0   16.666666666666668
150.0   120.0   16.666666666666668
150.0   120.0   0.0
100.0   120.0   16.666666666666668
150.0   150.0   16.666666666666668
150.0   120.0   0.0
100.0   150.0   0.0
100.0   120.0   16.666666666666668
150.0   120.0   16.666666666666668
100.0   150.0   16.666666666666668
100.0   120.0   33.333333333333336
150.0   120.0   16.666666666666668
150.0   150.0   16.666666666666668
100.0   150.0   16.666666666666668
150.0   150.0   33.333333333333336
100.0   120.0   33.333333333333336
100.0   150.0   33.333333333333336
150.0   150.0   33.333333333333336
100.0   150.0   16.666666666666668
100.0   120.0   33.333333333333336
150.0   150.0   33.333333333333336
150.0   120.0   33.333333333333336
150.0   120.0   16.666666666666668
100.0   120.0   33.333333333333336
150.0   150.0   33.333333333333336
150.0   120.0   16.666666666666668
100.0   150.0   16.666666666666668
100.0   120.0   33.333333333333336
150.0   120.0   33.333333333333336
100.0   150.0   33.333333333333336
100.0   120.0   50.0
150.0   120.0   33.333333333333336
150.0   150.0   33.333333333333336
100.0   150.0   33.333333333333336
150.0   150.0   50.0
100.0   120.0   50.0
100.0   150.0   50.0
150.0   150.0   50.0
100.0   150.0   33.333333333333336
100.0   120.0   50.0
150.0   150.0   50.0
150.0   120.0   50.0
150.0   120.0   33.333333333333336
100.0   120.0   50.0
150.0   150.0   50.0
150.0   120.0   33.333333333333336
100.0   150.0   33.333333333333336
150.0   0.0   0.0
200.0   0.0   0.0
150.0   30.0   0.0
150.0   0.0   16.666666666666668
200.0   0.0   0.0
200.0   30.0   0.0
150.0   30.0   0.0
200.0   30.0   16.666666666666668
150.0   0.0   16.666666666666668
150.0   30.0   16.666666666666668
200.0   30.0   16.666666666666668
150.0   30.0   0.0
150.0   0.0   16.666666666666668
200.0   30.0   16.666666666666668
200.0   0.0   16.666666666666668
200.0   0.0   0.0
150.0   0.0   16.666666666666668
200.0   30.0   16.666666666666668
200.0   0.0   0.0
150.0   30.0   0.0
150.0   0.0   16.666666666666668
200.0   0.0   16.666666666666668
150.0   30.0   16.666666666666668
150.0   0.0   33.333333333333336
200.0   0.0   16.666666666666668
200.0   30.0   16.666666666666668
150.0   30.0   16.666666666666668
200.0   30.0   33.333333333333336
150.0   0.0   33.333333333333336
150.0   30.0   33.333333333333336
200.0   30.0   33.333333333333336
150.0   30.0   16.666666666666668
150.0   0.0   33.333333333333336
200.0   30.0   33.333333333333336
200.0   0.0   33.333333333333336
200.0   0.0   16.666666666666668
150.0   0.0   33.333333333333336
200.0   30.0   33.333333333333336
200.0   0.0   16.666666666666668
150.0   30.0   16.666666666666668
150.0   0.0   33.333333333333336
200.0   0.0   33.333333333333336
150.0   30.0   33.333333333333336
150.0   0.0   50.0
200.0   0.0   33.333333333333336
200.0   30.0   33.333333333333336
150.0   30.0   33.333333333333336
200.0   30.0   50.0
150.0   0.0   50.0
150.0   30.0   50.0
200.0   30.0   50.0
150.0   30.0   33.333333333333336
150.0   0.0   50.0
200.0   30.0   50.0
200.0   0.0   50.0
200.0   0.0   33.333333333333336
150.0   0.0   50.0
200.0   30.0   50.0
200.0   0.0   33.333333333333336
150.0   30.0   33.333333333333336
150.0   30.0   0.0
200.0   30.0   0.0
150.0   60.0   0.0
150.0   30.0   16.666666666666668
200.0   30.0   0.0
200.0   60.0   0.0
150.0   60.0   0.0
200.0   60.0   16.666666666666668
150.0   30.0   16.666666666666668
150.0   60.0   16.666666666666668
200.0   60.0   16.666666666666668
150.0   60.0   0.0
150.0   30.0   16.666666666666668
200.0   60.0   16.666666666666668
200.0   30.0   16.666666666666668
200.0   30.0   0.0
150.0   30.0   16.666666666666668
200.0   60.0   16.666666666666668
200.0   30.0   0.0
150.0   60.0   0.0
150.0   30.0   16.666666666666668
200.0   30.0   16.666666666666668
150.0   60.0   16.666666666666668
150.0   30.0   33.333333333333336
200.0   30.0   16.666666666666668
200.0   60.0   16.666666666666668
150.0   60.0   16.666666666666668
200.0   60.0   33.333333333333336
150.0   30.0   33.333333333333336
150.0   60.0   33.333333333333336
200.0   60.0   33.333333333333336
150.0   60.0   16.666666666666668
150.0   30.0   33.333333333333336
200.0   60.0   33.333333333333336
200.0   30.0   33.333333333333336
200.0   30.0   16.666666666666668
150.0   30.0   33.333333333333336
200.0   60.0   33.333333333333336
200.0   30.0   16.666666666666668
150.0   60.0   16.666666666666668
150.0   30.0   33.333333333333336
200.0   30.0   33.333333333333336
150.0   60.0   33.333333333333336
150.0   30.0   50.0
200.0   30.0   33.333333333333336
200.0   60.0   33.333333333333336
150.0   60.0   33.333333333333336
200.0   60.0   50.0
150.0   30.0   50.0
150.0   60.0   50.0
200.0   60.0   50.0
150.0   60.0   33.333333333333336
150.0   30.0   50.0
200.0   60.0   50.0
200.0   30.0   50.0
200.0   30.0   33.333333333333336
150.0   30.0   50.0
200.0   60.0   50.0
200.0   30.0   33.333333333333336
150.0   60.0   33.333333333333336
150.0   60.0   0.0
200.0   60.0   0.0
150.0   90.0   0.0
150.0   60.0   16.666666666666668
200.0   60.0   0.0
200.0   90.0   0.0
150.0   90.0   0.0
200.0   90.0   16.666666666666668
150.0   60.0   16.666666666666668
150.0   90.0   16.666666666666668
200.0   90.0   16.666666666666668
150.0   90.0   0.0
150.0   60.0   16.666666666666668
200.0   90.0   16.666666666666668
200.0   60.0   16.666666666666668
200.0   60.0   0.0
150.0   60.0   16.666666666666668
200.0   90.0   16.666666666666668
200.0   60.0   0.0
150.0   90.0   0.0
150.0   60.0   16.666666666666668
200.0   60.0   16.666666666666668
150.0   90.0   16.666666666666668
150.0   60.0   33.333333333333336
200.0   60.0   16.666666666666668
200.0   90.0   16.666666666666668
150.0   90.0   16.666666666666668
200.0   90.0   33.333333333333336
150.0   60.0   33.333333333333336
150.0   90.0   33.333333333333336
200.0   90.0   33.333333333333336
150.0   90.0   16.666666666666668
150.0   60.0   33.333333333333336
200.0   90.0   33.333333333333336
200.0   60.0   33.333333333333336
200.0   60.0   16.666666666666668
150.0   60.0   33.333333333333336
200.0   90.0   33.333333333333336
200.0   60.0   16.666666666666668
150.0   90.0   16.666666666666668
150.0   60.0   33.333333333333336
200.0   60.0   33.333333333333336
150.0   90.0   33.333333333333336
150.0   60.0   50.0
200.0   60.0   33.333333333333336
200.0   90.0   33.333333333333336
150.0   90.0   33.333333333333336
200.0   90.0   50.0
150.0   60.0   50.0
150.0   90.0   50.0
200.0   90.0   50.0
150.0   90.0   33.333333333333336
150.0   60.0   50.0
200.0   90.0   50.0
200.0   60.0   50.0
200.0   60.0   33.333333333333336
150.0   60.0   50.0
200.0   90.0   50.0
200.0   60.0   33.333333333333336
150.0   90.0   33.333333333333336
150.0   90.0   0.0
200.0   90.0   0.0
150.0   120.0   0.0
150.0   90.0   16.666666666666668
200.0   90.0   0.0
200.0   120.0   0.0
150.0   120.0   0.0
200.0   120.0   16.666666666666668
150.0   90.0   16.666666666666668
150.0   120.0   16.666666666666668
200.0   120.0   16.666666666666668
150.0   120.0   0.0
150.0   90.0   16.666666666666668
200.0   120.0   16.666666666666668
200.0   90.0   16.666666666666668
200.0   90.0   0.0
150.0   90.0   16.666666666666668
200.0   120.0   16.666666666666668
200.0   90.0   0.0
150.0   120.0   0.0
150.0   90.0   16.666666666666668
200.0   90.0   16.666666666666668
150.0   120.0   16.666666666666668
150.0   90.0   33.333333333333336
200.0   90.0   16.666666666666668
200.0   120.0   16.666666666666668
150.0   120.0   16.666666666666668
200.0   120.0   33.333333333333336
150.0   90.0   33.333333333333336
150.0   120.0   33.333333333333336
200.0   120.0   33.333333333333336
150.0   120.0   16.666666666666668
150.0   90.0   33.333333333333336
200.0   120.0   33.333333333333336
200.0   90.0   33.333333333333336
200.0   90.0   16.666666666666668
150.0   90.0   33.333333333333336
200.0   120.0   33.333333333333336
200.0   90.0   16.666666666666668
150.0   120.0   16.666666666666668
150.0   90.0   33.333333333333336
200.0   90.0   33.333333333333336
150.0   120.0   33.333333333333336
150.0   90.0   50.0
200.0   90.0   33.333333333333336
200.0   120.0   33.333333333333336
150.0   120.0   33.333333333333336
200.0   120.0   50.0
150.0   90.0   50.0
150.0   120.0   50.0
200.0   120.0   50.0
150.0   120.0   33.333333333333336
150.0   90.0   50.0
200.0   120.0   50.0
200.0   90.0   50.0
200.0   90.0   33.333333333333336
150.0   90.0   50.0
200.0   120.0   50.0
200.0   90.0   33.333333333333336
150.0   120.0   33.333333333333336
150.0   120.0   0.0
200.0   120.0   0.0
150.0   150.0   0.0
150.0   120.0   16.666666666666668
200.0   120.0   0.0
200.0   150.0   0.0
150.0   150.0   0.0
200.0   150.0   16.666666666666668
150.0   120.0   16.666666666666668
150.0   150.0   16.666666666666668
200.0   150.0   16.666666666666668
150.0   150.0   0.0
150.0   120.0   16.666666666666668
200.0   150.0   16.666666666666668
200.0   120.0   16.666666666666668
200.0   120.0   0.0
150.0   120.0   16.666666666666668
200.0   150.0   16.666666666666668
200.0   120.0   0.0
150.0   150.0   0.0
150.0   120.0   16.666666666666668
200.0   120.0   16.666666666666668
150.0   150.0   16.666666666666668
150.0   120.0   33.333333333333336
200.0   120.0   16.666666666666668
200.0   150.0   16.666666666666668
150.0   150.0   16.666666666666668
200.0   150.0   33.333333333333336
150.0   120.0   33.333333333333336
150.0   150.0   33.333333333333336
200.0   150.0   33.333333333333336
150.0   150.0   16.666666666666668
150.0   120.0   33.333333333333336
200.0   150.0   33.333333333333336
200.0   120.0   33.333333333333336
200.0   120.0   16.666666666666668
150.0   120.0   33.333333333333336
200.0   150.0   33.333333333333336
200.0   120.0   16.666666666666668
150.0   150.0   16.666666666666668
150.0   120.0   33.333333333333336
200.0   120.0   33.333333333333336
150.0   150.0   33.333333333333336
150.0   120.0   50.0
200.0   120.0   33.333333333333336
200.0   150.0   33.333333333333336
150.0   150.0   33.333333333333336
200.0   150.0   50.0
150.0   120.0   50.0
150.0   150.0   50.0
200.0   150.0   50.0
150.0   150.0   33.333333333333336
150.0   120.0   50.0
200.0   150.0   50.0
200.0   120.0   50.0
200.0   120.0   33.333333333333336
150.0   120.0   50.0
200.0   150.0   50.0
200.0   120.0   33.333333333333336
150.0   150.0   33.333333333333336
200.0   0.0   0.0
250.0   0.0   0.0
200.0   30.0   0.0
200.0   0.0   16.666666666666668
250.0   0.0   0.0
250.0   30.0   0.0
200.0   30.0   0.0
250.0   30.0   16.666666666666668
200.0   0.0   16.666666666666668
200.0   30.0   16.666666666666668
250.0   30.0   16.666666666666668
200.0   30.0   0.0
200.0   0.0   16.666666666666668
250.0   30.0   16.666666666666668
250.0   0.0   16.666666666666668
250.0   0.0   0.0
200.0   0.0   16.666666666666668
250.0   30.0   16.666666666666668
250.0   0.0   0.0
200.0   30.0   0.0
200.0   0.0   16.666666666666668
250.0   0.0   16.666666666666668
200.0   30.0   16.666666666666668
200.0   0.0   33.333333333333336
250.0   0.0   16.666666666666668
250.0   30.0   16.666666666666668
200.0   30.0   16.666666666666668
250.0   30.0   33.333333333333336
200.0   0.0   33.333333333333336
200.0   30.0   33.333333333333336
250.0   30.0   33.333333333333336
200.0   30.0   16.666666666666668
200.0   0.0   33.333333333333336
250.0   30.0   33.333333333333336
250.0   0.0   33.333333333333336
250.0   0.0   16.666666666666668
200.0   0.0   33.333333333333336
250.0   30.0   33.333333333333336
250.0   0.0   16.666666666666668
200.0   30.0   16.666666666666668
200.0   0.0   33.333333333333336
250.0   0.0   33.333333333333336
200.0   30.0   33.333333333333336
200.0   0.0   50.0
250.0   0.0   33.333333333333336
250.0   30.0   33.333333333333336
200.0   30.0   33.333333333333336
250.0   30.0   50.0
200.0   0.0   50.0
200.0   30.0   50.0
250.0   30.0   50.0
200.0   30.0   33.333333333333336
200.0   0.0   50.0
250.0   30.0   50.0
250.0   0.0   50.0
250.0   0.0   33.333333333333336
200.0   0.0   50.0
250.0   30.0   50.0
250.0   0.0   33.333333333333336
200.0   30.0   33.333333333333336
200.0   30.0   0.0
250.0   30.0   0.0
200.0   60.0   0.0
200.0   30.0   16.666666666666668
250.0   30.0   0.0
250.0   60.0   0.0
200.0   60.0   0.0
250.0   60.0   16.666666666666668
200.0   30.0   16.666666666666668
200.0   60.0   16.666666666666668
250.0   60.0   16.666666666666668
200.0   60.0   0.0
200.0   30.0   16.666666666666668
250.0   60.0   16.666666666666668
250.0   30.0   16.666666666666668
250.0   30.0   0.0
200.0   30.0   16.666666666666668
250.0   60.0   16.666666666666668
250.0   30.0   0.0
200.0   60.0   0.0
200.0   30.0   16.666666666666668
250.0   30.0   16.666666666666668
200.0   60.0   16.666666666666668
200.0   30.0   33.333333333333336
250.0   30.0   16.666666666666668
250.0   60.0   16.666666666666668
200.0   60.0   16.666666666666668
250.0   60.0   33.333333333333336
200.0   30.0   33.333333333333336
200.0   60.0   33.333333333333336
250.0   60.0   33.333333333333336
200.0   60.0   16.666666666666668
200.0   30.0   33.333333333333336
250.0   60.0   33.333333333333336
250.0   30.0   33.333333333333336
250.0   30.0   16.666666666666668
200.0   30.0   33.333333333333336
250.0   60.0   33.333333333333336
250.0   30.0   16.666666666666668
200.0   60.0   16.666666666666668
200.0   30.0   33.333333333333336
250.0   30.0   33.333333333333336
200.0   60.0   33.333333333333336
200.0   30.0   50.0
250.0   30.0   33.333333333333336
250.0   60.0   33.333333333333336
200.0   60.0   33.333333333333336
250.0   60.0   50.0
200.0   30.0   50.0
200.0   60.0   50.0
250.0   60.0   50.0
200.0   60.0   33.333333333333336
200.0   30.0   50.0
250.0   60.0   50.0
250.0   30.0   50.0
250.0   30.0   33.333333333333336
200.0   30.0   50.0
250.0   60.0   50.0
250.0   30.0   33.333333333333336
200.0   60.0   33.333333333333336
200.0   60.0   0.0
250.0   60.0   0.0
200.0   90.0   0.0
200.0   60.0   16.666666666666668
250.0   60.0   0.0
250.0   90.0   0.0
200.0   90.0   0.0
250.0   90.0   16.666666666666668
200.0   60.0   16.666666666666668
200.0   90.0   16.666666666666668
250.0   90.0   16.666666666666668
200.0   90.0   0.0
200.0   60.0   16.666666666666668
250.0   90.0   16.666666666666668
250.0   60.0   16.666666666666668
250.0   60.0   0.0
200.0   60.0   16.666666666666668
250.0   90.0   16.666666666666668
250.0   60.0   0.0
200.0   90.0   0.0
200.0   60.0   16.666666666666668
250.0   60.0   16.666666666666668
200.0   90.0   16.666666666666668
200.0   60.0   33.333333333333336
250.0   60.0   16.666666666666668
250.0   90.0   16.666666666666668
200.0   90.0   16.666666666666668
250.0   90.0   33.333333333333336
200.0   60.0   33.333333333333336
200.0   90.0   33.333333333333336
250.0   90.0   33.333333333333336
200.0   90.0   16.666666666666668
200.0   60.0   33.333333333333336
250.0   90.0   33.333333333333336
250.0   60.0   33.333333333333336
250.0   60.0   16.666666666666668
200.0   60.0   33.333333333333336
250.0   90.0   33.333333333333336
250.0   60.0   16.666666666666668
200.0   90.0   16.666666666666668
200.0   60.0   33.333333333333336
250.0   60.0   33.333333333333336
200.0   90.0   33.333333333333336
200.0   60.0   50.0
250.0   60.0   33.333333333333336
250.0   90.0   33.333333333333336
200.0   90.0   33.333333333333336
250.0   90.0   50.0
200.0   60.0   50.0
200.0   90.0   50.0
250.0   90.0   50.0
200.0   90.0   33.333333333333336
200.0   60.0   50.0
250.0   90.0   50.0
250.0   60.0   50.0
250.0   60.0   33.333333333333336
200.0   60.0   50.0
250.0   90.0   50.0
250.0   60.0   33.333333333333336
200.0   90.0   33.333333333333336
200.0   90.0   0.0
250.0   90.0   0.0
200.0   120.0   0.0
200.0   90.0   16.666666666666668
250.0   90.0   0.0
250.0   120.0   0.0
200.0   120.0   0.0
250.0   120.0   16.666666666666668
200.0   90.0   16.666666666666668
200.0   120.0   16.666666666666668
250.0   120.0   16.666666666666668
200.0   120.0   0.0
200.0   90.0   16.666666666666668
250.0   120.0   16.666666666666668
250.0   90.0   16.666666666666668
250.0   90.0   0.0
200.0   90.0   16.666666666666668
250.0   120.0   16.666666666666668
250.0   90.0   0.0
200.0   120.0   0.0
200.0   90.0   16.666666666666668
250.0   90.0   16.666666666666668
200.0   120.0   16.666666666666668
200.0   90.0   33.333333333333336
250.0   90.0   16.666666666666668
250.0   120.0   16.666666666666668
200.0   120.0   16.666666666666668
250.0   120.0   33.333333333333336
200.0   90.0   33.333333333333336
200.0   120.0   33.333333333333336
250.0   120.0   33.333333333333336
200.0   120.0   16.666666666666668
200.0   90.0   33.333333333333336
250.0   120.0   33.333333333333336
250.0   90.0   33.333333333333336
250.0   90.0   16.666666666666668
200.0   90.0   33.333333333333336
250.0   120.0   33.333333333333336
250.0   90.0   16.666666666666668
200.0   120.0   16.666666666666668
200.0   90.0   33.333333333333336
250.0   90.0   33.333333333333336
200.0   120.0   33.333333333333336
200.0   90.0   50.0
250.0   90.0   33.333333333333336
250.0   120.0   33.333333333333336
200.0   120.0   33.333333333333336
250.0   120.0   50.0
200.0   90.0   50.0
200.0   120.0   50.0
250.0   120.0   50.0
200.0   120.0   33.333333333333336
200.0   90.0   50.0
250.0   120.0   50.0
250.0   90.0   50.0
250.0   90.0   33.333333333333336
200.0   90.0   50.0
250.0   120.0   50.0
250.0   90.0   33.333333333333336
200.0   120.0   33.333333333333336
200.0   120.0   0.0
250.0   120.0   0.0
200.0   150.0   0.0
200.0   120.0   16.666666666666668
250.0   120.0   0.0
250.0   150.0   0.0
200.0   150.0   0.0
250.0   150.0   16.666666666666668
200.0   120.0   16.666666666666668
200.0   150.0   16.666666666666668
250.0   150.0   16.666666666666668
200.0   150.0   0.0
200.0   120.0   16.666666666666668
250.0   150.0   16.666666666666668
250.0   120.0   16.666666666666668
250.0   120.0   0.0
200.0   120.0   16.666666666666668
250.0   150.0   16.666666666666668
250.0   120.0   0.0
200.0   150.0   0.0
200.0   120.0   16.666666666666668
250.0   120.0   16.666666666666668
200.0   150.0   16.666666666666668
200.0   120.0   33.333333333333336
250.0   120.0   16.666666666666668
250.0   150.0   16.666666666666668
200.0   150.0   16.666666666666668
250.0   150.0   33.333333333333336
200.0   120.0   33.333333333333336
200.0   150.0   33.333333333333336
250.0   150.0   33.333333333333336
200.0   150.0   16.666666666666668
200.0   120.0   33.333333333333336
250.0   150.0   33.333333333333336
250.0   120.0   33.333333333333336
250.0   120.0   16.666666666666668
200.0   120.0   33.333333333333336
250.0   150.0   33.333333333333336
250.0   120.0   16.666666666666668
200.0   150.0   16.666666666666668
200.0   120.0   33.333333333333336
250.0   120.0   33.333333333333336
200.0   150.0   33.333333333333336
200.0   120.0   50.0
250.0   120.0   33.333333333333336
250.0   150.0   33.333333333333336
200.0   150.0   33.333333333333336
250.0   150.0   50.0
200.0   120.0   50.0
200.0   150.0   50.0
250.0   150.0   50.0
200.0   150.0   33.333333333333336
200.0   120.0   50.0
250.0   150.0   50.0
250.0   120.0   50.0
250.0   120.0   33.333333333333336
200.0   120.0   50.0
250.0   150.0   50.0
250.0   120.0   33.333333333333336
200.0   150.0   33.333333333333336
250.0   0.0   0.0
300.0   0.0   0.0
250.0   30.0   0.0
250.0   0.0   16.666666666666668
300.0   0.0   0.0
300.0   30.0   0.0
250.0   30.0   0.0
300.0   30.0   16.666666666666668
250.0   0.0   16.666666666666668
250.0   30.0   16.666666666666668
300.0   30.0   16.666666666666668
250.0   30.0   0.0
250.0   0.0   16.666666666666668
300.0   30.0   16.666666666666668
300.0   0.0   16.666666666666668
300.0   0.0   0.0
250.0   0.0   16.666666666666668
300.0   30.0   16.666666666666668
300.0   0.0   0.0
250.0   30.0   0.0
250.0   0.0   16.666666666666668
300.0   0.0   16.666666666666668
250.0   30.0   16.666666666666668
250.0   0.0   33.333333333333336
300.0   0.0   16.666666666666668
300.0   30.0   16.666666666666668
250.0   30.0   16.666666666666668
300.0   30.0   33.333333333333336
250.0   0.0   33.333333333333336
250.0   30.0   33.333333333333336
300.0   30.0   33.333333333333336
250.0   30.0   16.666666666666668
250.0   0.0   33.333333333333336
300.0   30.0   33.333333333333336
300.0   0.0   33.333333333333336
300.0   0.0   16.666666666666668
250.0   0.0   33.333333333333336
300.0   30.0   33.333333333333336
300.0   0.0   16.666666666666668
250.0   30.0   16.666666666666668
250.0   0.0   33.333333333333336
300.0   0.0   33.333333333333336
250.0   30.0   33.333333333333336
250.0   0.0   50.0
300.0   0.0   33.333333333333336
300.0   30.0   33.333333333333336
250.0   30.0   33.333333333333336
300.0   30.0   50.0
250.0   0.0   50.0
250.0   30.0   50.0
300.0   30.0   50.0
250.0   30.0   33.333333333333336
250.0   0.0   50.0
300.0   30.0   50.0
300.0   0.0   50.0
300.0   0.0   33.333333333333336
250.0   0.0   50.0
300.0   30.0   50.0
300.0   0.0   33.333333333333336
250.0   30.0   33.333333333333336
250.0   30.0   0.0
300.0   30.0   0.0
250.0   60.0   0.0
250.0   30.0   16.666666666666668
300.0   30.0   0.0
300.0   60.0   0.0
250.0   60.0   0.0
300.0   60.0   16.666666666666668
250.0   30.0   16.666666666666668
250.0   60.0   16.666666666666668
300.0   60.0   16.666666666666668
250.0   60.0   0.0
250.0   30.0   16.666666666666668
300.0   60.0   16.666666666666668
300.0   30.0   16.666666666666668
300.0   30.0   0.0
250.0   30.0   16.666666666666668
300.0   60.0   16.666666666666668
300.0   30.0   0.0
250.0   60.0   0.0
250.0   30.0   16.666666666666668
300.0   30.0   16.666666666666668
250.0   60.0   16.666666666666668
250.0   30.0   33.333333333333336
300.0   30.0   16.666666666666668
300.0   60.0   16.666666666666668
250.0   60.0   16.666666666666668
300.0   60.0   33.333333333333336
250.0   30.0   33.333333333333336
250.0   60.0   33.333333333333336
300.0   60.0   33.333333333333336
250.0   60.0   16.666666666666668
250.0   30.0   33.333333333333336
300.0   60.0   33.333333333333336
300.0   30.0   33.333333333333336
300.0   30.0   16.666666666666668
250.0   30.0   33.333333333333336
300.0   60.0   33.333333333333336
300.0   30.0   16.666666666666668
250.0   60.0   16.666666666666668
250.0   30.0   33.333333333333336
300.0   30.0   33.333333333333336
250.0   60.0   33.333333333333336
250.0   30.0   50.0
300.0   30.0   33.333333333333336
300.0   60.0   33.333333333333336
250.0   60.0   33.333333333333336
300.0   60.0   50.0
250.0   30.0   50.0
250.0   60.0   50.0
300.0   60.0   50.0
250.0   60.0   33.333333333333336
250.0   30.0   50.0
300.0   60.0   50.0
300.0   30.0   50.0
300.0   30.0   33.333333333333336
250.0   30.0   50.0
300.0   60.0   50.0
300.0   30.0   33.333333333333336
250.0   60.0   33.333333333333336
250.0   60.0   0.0
300.0   60.0   0.0
250.0   90.0   0.0
250.0   60.0   16.666666666666668
300.0   60.0   0.0
300.0   90.0   0.0
250.0   90.0   0.0
300.0   90.0   16.666666666666668
250.0   60.0   16.666666666666668
250.0   90.0   16.666666666666668
300.0   90.0   16.666666666666668
250.0   90.0   0.0
250.0   60.0   16.666666666666668
300.0   90.0   16.666666666666668
300.0   60.0   16.666666666666668
300.0   60.0   0.0
250.0   60.0   16.666666666666668
300.0   90.0   16.666666666666668
300.0   60.0   0.0
250.0   90.0   0.0
250.0   60.0   16.666666666666668
300.0   60.0   16.666666666666668
250.0   90.0   16.666666666666668
250.0   60.0   33.333333333333336
300.0   60.0   16.666666666666668
300.0   90.0   16.666666666666668
250.0   90.0   16.666666666666668
300.0   90.0   33.333333333333336
250.0   60.0   33.333333333333336
250.0   90.0   33.333333333333336
300.0   90.0   33.333333333333336
250.0   90.0   16.666666666666668
250.0   60.0   33.333333333333336
300.0   90.0   33.333333333333336
300.0   60.0   33.333333333333336
300.0   60.0   16.666666666666668
250.0   60.0   33.333333333333336
300.0   90.0   33.333333333333336
300.0   60.0   16.666666666666668
250.0   90.0   16.666666666666668
250.0   60.0   33.333333333333336
300.0   60.0   33.333333333333336
250.0   90.0   33.333333333333336
250.0   60.0   50.0
300.0   60.0   33.333333333333336
300.0   90.0   33.333333333333336
250.0   90.0   33.333333333333336
300.0   90.0   50.0
250.0   60.0   50.0
250.0   90.0   50.0
300.0   90.0   50.0
250.0   90.0   33.333333333333336
250.0   60.0   50.0
300.0   90.0   50.0
300.0   60.0   50.0
300.0   60.0   33.333333333333336
250.0   60.0   50.0
300.0   90.0   50.0
300.0   60.0   33.333333333333336
250.0   90.0   33.333333333333336
250.0   90.0   0.0
300.0   90.0   0.0
250.0   120.0   0.0
250.0   90.0   16.666666666666668
300.0   90.0   0.0
300.0   120.0   0.0
250.0   120.0   0.0
300.0   120.0   16.666666666666668
250.0   90.0   16.666666666666668
250.0   120.0   16.666666666666668
300.0   120.0   16.666666666666668
250.0   120.0   0.0
250.0   90.0   16.666666666666668
300.0   120.0   16.666666666666668
300.0   90.0   16.666666666666668
300.0   90.0   0.0
250.0   90.0   16.666666666666668
300.0   120.0   16.666666666666668
300.0   90.0   0.0
250.0   120.0   0.0
250.0   90.0   16.666666666666668
300.0   90.0   16.666666666666668
250.0   120.0   16.666666666666668
250.0   90.0   33.333333333333336
300.0   90.0   16.666666666666668
300.0   120.0   16.666666666666668
250.0   120.0   16.666666666666668
300.0   120.0   33.333333333333336
250.0   90.0   33.333333333333336
250.0   120.0   33.333333333333336
300.0   120.0   33.333333333333336
250.0   120.0   16.666666666666668
250.0   90.0   33.333333333333336
300.0   120.0   33.333333333333336
300.0   90.0   33.333333333333336
300.0   90.0   16.666666666666668
250.0   90.0   33.333333333333336
300.0   120.0   33.333333333333336
300.0   90.0   16.666666666666668
250.0   120.0   16.666666666666668
250.0   90.0   33.333333333333336
300.0   90.0   33.333333333333336
250.0   120.0   33.333333333333336
250.0   90.0   50.0
300.0   90.0   33.333333333333336
300.0   120.0   33.333333333333336
250.0   120.0   33.333333333333336
300.0   120.0   50.0
250.0   90.0   50.0
250.0   120.0   50.0
300.0   120.0   50.0
250.0   120.0   33.333333333333336
250.0   90.0   50.0
300.0   120.0   50.0
300.0   90.0   50.0
300.0   90.0   33.333333333333336
250.0   90.0   50.0
300.0   120.0   50.0
300.0   90.0   33.333333333333336
250.0   120.0   33.333333333333336
250.0   120.0   0.0
300.0   120.0   0.0
250.0   150.0   0.0
250.0   120.0   16.666666666666668
300.0   120.0   0.0
300.0   150.0   0.0
250.0   150.0   0.0
300.0   150.0   16.666666666666668
250.0   120.0   16.666666666666668
250.0   150.0   16.666666666666668
300.0   150.0   16.666666666666668
250.0   150.0   0.0
250.0   120.0   16.666666666666668
300.0   150.0   16.666666666666668
300.0   120.0   16.666666666666668
300.0   120.0   0.0
250.0   120.0   16.666666666666668
300.0   150.0   16.666666666666668
300.0   120.0   0.0
250.0   150.0   0.0
250.0   120.0   16.666666666666668
300.0   120.0   16.666666666666668
250.0   150.0   16.666666666666668
250.0   120.0   33.333333333333336
300.0   120.0   16.666666666666668
300.0   150.0   16.666666666666668
250.0   150.0   16.666666666666668
300.0   150.0   33.333333333333336
250.0   120.0   33.333333333333336
250.0   150.0   33.333333333333336
300.0   150.0   33.333333333333336
250.0   150.0   16.666666666666668
250.0   120.0   33.333333333333336
300.0   150.0   33.333333333333336
300.0   120.0   33.333333333333336
300.0   120.0   16.666666666666668
250.0   120.0   33.333333333333336
300.0   150.0   33.333333333333336
300.0   120.0   16.666666666666668
250.0   150.0   16.666666666666668
250.0   120.0   33.333333333333336
300.0   120.0   33.333333333333336
250.0   150.0   33.333333333333336
250.0   120.0   50.0
300.0   120.0   33.333333333333336
300.0   150.0   33.333333333333336
250.0   150.0   33.333333333333336
300.0   150.0   50.0
250.0   120.0   50.0
250.0   150.0   50.0
300.0   150.0   50.0
250.0   150.0   33.333333333333336
250.0   120.0   50.0
300.0   150.0   50.0
300.0   120.0   50.0
300.0   120.0   33.333333333333336
250.0   120.0   50.0
300.0   150.0   50.0
300.0   120.0   33.333333333333336
250.0   150.0   33.333333333333336
300.0   0.0   0.0
350.0   0.0   0.0
300.0   30.0   0.0
300.0   0.0   16.666666666666668
350.0   0.0   0.0
350.0   30.0   0.0
300.0   30.0   0.0
350.0   30.0   16.666666666666668
300.0   0.0   16.666666666666668
300.0   30.0   16.666666666666668
350.0   30.0   16.666666666666668
300.0   30.0   0.0
300.0   0.0   16.666666666666668
350.0   30.0   16.666666666666668
350.0   0.0   16.666666666666668
350.0   0.0   0.0
300.0   0.0   16.666666666666668
350.0   30.0   16.666666666666668
350.0   0.0   0.0
300.0   30.0   0.0
300.0   0.0   16.666666666666668
350.0   0.0   16.666666666666668
300.0   30.0   16.666666666666668
300.0   0.0   33.333333333333336
350.0   0.0   16.666666666666668
350.0   30.0   16.666666666666668
300.0   30.0   16.666666666666668
350.0   30.0   33.333333333333336
300.0   0.0   33.333333333333336
300.0   30.0   33.333333333333336
350.0   30.0   33.333333333333336
300.0   30.0   16.666666666666668
300.0   0.0   33.333333333333336
350.0   30.0   33.333333333333336
350.0   0.0   33.333333333333336
350.0   0.0   16.666666666666668
300.0   0.0   33.333333333333336
350.0   30.0   33.333333333333336
350.0   0.0   16.666666666666668
300.0   30.0   16.666666666666668
300.0   0.0   33.333333333333336
350.0   0.0   33.333333333333336
300.0   30.0   33.333333333333336
300.0   0.0   50.0
350.0   0.0   33.333333333333336
350.0   30.0   33.333333333333336
300.0   30.0   33.333333333333336
350.0   30.0   50.0
300.0   0.0   50.0
300.0   30.0   50.0
350.0   30.0   50.0
300.0   30.0   33.333333333333336
300.0   0.0   50.0
350.0   30.0   50.0
350.0   0.0   50.0
350.0   0.0   33.333333333333336
300.0   0.0   50.0
350.0   30.0   50.0
350.0   0.0   33.333333333333336
300.0   30.0   33.333333333333336
300.0   30.0   0.0
350.0   30.0   0.0
300.0   60.0   0.0
300.0   30.0   16.666666666666668
350.0   30.0   0.0
350.0   60.0   0.0
300.0   60.0   0.0
350.0   60.0   16.666666666666668
300.0   30.0   16.666666666666668
300.0   60.0   16.666666666666668
350.0   60.0   16.666666666666668
300.0   60.0   0.0
300.0   30.0   16.666666666666668
350.0   60.0   16.666666666666668
350.0   30.0   16.666666666666668
350.0   30.0   0.0
300.0   30.0   16.666666666666668
350.0   60.0   16.666666666666668
350.0   30.0   0.0
300.0   60.0   0.0
300.0   30.0   16.666666666666668
350.0   30.0   16.666666666666668
300.0   60.0   16.666666666666668
300.0   30.0   33.333333333333336
350.0   30.0   16.666666666666668
350.0   60.0   16.666666666666668
300.0   60.0   16.666666666666668
350.0   60.0   33.333333333333336
300.0   30.0   33.333333333333336
300.0   60.0   33.333333333333336
350.0   60.0   33.333333333333336
300.0   60.0   16.666666666666668
300.0   30.0   33.333333333333336
350.0   60.0   33.333333333333336
350.0   30.0   33.333333333333336
350.0   30.0   16.666666666666668
300.0   30.0   33.333333333333336
350.0   60.0   33.333333333333336
350.0   30.0   16.666666666666668
300.0   60.0   16.666666666666668
300.0   30.0   33.333333333333336
350.0   30.0   33.333333333333336
300.0   60.0   33.333333333333336
300.0   30.0   50.0
350.0   30.0   33.333333333333336
350.0   60.0   33.333333333333336
300.0   60.0   33.333333333333336
350.0   60.0   50.0
300.0   30.0   50.0
300.0   60.0   50.0
350.0   60.0   50.0
300.0   60.0   33.333333333333336
300.0   30.0   50.0
350.0   60.0   50.0
350.0   30.0   50.0
350.0   30.0   33.333333333333336
300.0   30.0   50.0
350.0   60.0   50.0
350.0   30.0   33.333333333333336
300.0   60.0   33.333333333333336
300.0   60.0   0.0
350.0   60.0   0.0
300.0   90.0   0.0
300.0   60.0   16.666666666666668
350.0   60.0   0.0
350.0   90.0   0.0
300.0   90.0   0.0
350.0   90.0   16.666666666666668
300.0   60.0   16.666666666666668
300.0   90.0   16.666666666666668
350.0   90.0   16.666666666666668
300.0   90.0   0.0
300.0   60.0   16.666666666666668
350.0   90.0   16.666666666666668
350.0   60.0   16.666666666666668
350.0   60.0   0.0
300.0   60.0   16.666666666666668
350.0   90.0   16.666666666666668
350.0   60.0   0.0
300.0   90.0   0.0
300.0   60.0   16.666666666666668
350.0   60.0   16.666666666666668
300.0   90.0   16.666666666666668
300.0   60.0   33.333333333333336
350.0   60.0   16.666666666666668
350.0   90.0   16.666666666666668
300.0   90.0   16.666666666666668
350.0   90.0   33.333333333333336
300.0   60.0   33.333333333333336
300.0   90.0   33.333333333333336
350.0   90.0   33.333333333333336
300.0   90.0   16.666666666666668
300.0   60.0   33.333333333333336
350.0   90.0   33.333333333333336
350.0   60.0   33.333333333333336
350.0   60.0   16.666666666666668
300.0   60.0   33.333333333333336
350.0   90.0   33.333333333333336
350.0   60.0   16.666666666666668
300.0   90.0   16.666666666666668
300.0   60.0   33.333333333333336
350.0   60.0   33.333333333333336
300.0   90.0   33.333333333333336
300.0   60.0   50.0
350.0   60.0   33.333333333333336
350.0   90.0   33.333333333333336
300.0   90.0   33.333333333333336
350.0   90.0   50.0
300.0   60.0   50.0
300.0   90.0   50.0
350.0   90.0   50.0
300.0   90.0   33.333333333333336
300.0   60.0   50.0
350.0   90.0   50.0
350.0   60.0   50.0
350.0   60.0   33.333333333333336
300.0   60.0   50.0
350.0   90.0   50.0
350.0   60.0   33.333333333333336
300.0   90.0   33.333333333333336
300.0   90.0   0.0
350.0   90.0   0.0
300.0   120.0   0.0
300.0   90.0   16.666666666666668
350.0   90.0   0.0
350.0   120.0   0.0
300.0   120.0   0.0
350.0   120.0   16.666666666666668
300.0   90.0   16.666666666666668
300.0   120.0   16.666666666666668
350.0   120.0   16.666666666666668
300.0   120.0   0.0
300.0   90.0   16.666666666666668
350.0   120.0   16.666666666666668
350.0   90.0   16.666666666666668
350.0   90.0   0.0
300.0   90.0   16.666666666666668
350.0   120.0   16.666666666666668
350.0   90.0   0.0
300.0   120.0   0.0
300.0   90.0   16.666666666666668
350.0   90.0   16.666666666666668
300.0   120.0   16.666666666666668
300.0   90.0   33.333333333333336
350.0   90.0   16.666666666666668
350.0   120.0   16.666666666666668
300.0   120.0   16.666666666666668
350.0   120.0   33.333333333333336
300.0   90.0   33.333333333333336
300.0   120.0   33.333333333333336
350.0   120.0   33.333333333333336
300.0   120.0   16.666666666666668
300.0   90.0   33.333333333333336
350.0   120.0   33.333333333333336
350.0   90.0   33.333333333333336
350.0   90.0   16.666666666666668
300.0   90.0   33.333333333333336
350.0   120.0   33.333333333333336
350.0   90.0   16.666666666666668
300.0   120.0   16.666666666666668
300.0   90.0   33.333333333333336
350.0   90.0   33.333333333333336
300.0   120.0   33.333333333333336
300.0   90.0   50.0
350.0   90.0   33.333333333333336
350.0   120.0   33.333333333333336
300.0   120.0   33.333333333333336
350.0   120.0   50.0
300.0   90.0   50.0
300.0   120.0   50.0
350.0   120.0   50.0
300.0   120.0   33.333333333333336
300.0   90.0   50.0
350.0   120.0   50.0
350.0   90.0   50.0
350.0   90.0   33.333333333333336
300.0   90.0   50.0
350.0   120.0   50.0
350.0   90.0   33.333333333333336
300.0   120.0   33.333333333333336
300.0   120.0   0.0
350.0   120.0   0.0
300.0   150.0   0.0
300.0   120.0   16.666666666666668
350.0   120.0   0.0
350.0   150.0   0.0
300.0   150.0   0.0
350.0   150.0   16.666666666666668
300.0   120.0   16.666666666666668
300.0   150.0   16.666666666666668
350.0   150.0   16.666666666666668
300.0   150.0   0.0
300.0   120.0   16.666666666666668
350.0   150.0   16.666666666666668
350.0   120.0   16.666666666666668
350.0   120.0   0.0
300.0   120.0   16.666666666666668
350.0   150.0   16.666666666666668
350.0   120.0   0.0
300.0   150.0   0.0
300.0   120.0   16.666666666666668
350.0   120.0   16.666666666666668
300.0   150.0   16.666666666666668
300.0   120.0   33.333333333333336
350.0   120.0   16.666666666666668
350.0   150.0   16.666666666666668
300.0   150.0   16.666666666666668
350.0   150.0   33.333333333333336
300.0   120.0   33.333333333333336
300.0   150.0   33.333333333333336
350.0   150.0   33.333333333333336
300.0   150.0   16.666666666666668
300.0   120.0   33.333333333333336
350.0   150.0   33.333333333333336
350.0   120.0   33.333333333333336
350.0   120.0   16.666666666666668
300.0   120.0   33.333333333333336
350.0   150.0   33.333333333333336
350.0   120.0   16.666666666666668
300.0   150.0   16.666666666666668
300.0   120.0   33.333333333333336
350.0   120.0   33.333333333333336
300.0   150.0   33.333333333333336
300.0   120.0   50.0
350.0   120.0   33.333333333333336
350.0   150.0   33.333333333333336
300.0   150.0   33.333333333333336
350.0   150.0   50.0
300.0   120.0   50.0
300.0   150.0   50.0
350.0   150.0   50.0
300.0   150.0   33.333333333333336
300.0   120.0   50.0
350.0   150.0   50.0
350.0   120.0   50.0
350.0   120.0   33.333333333333336
300.0   120.0   50.0
350.0   150.0   50.0
350.0   120.0   33.333333333333336
300.0   150.0   33.333333333333336
350.0   0.0   0.0
400.0   0.0   0.0
350.0   30.0   0.0
350.0   0.0   16.666666666666668
400.0   0.0   0.0
400.0   30.0   0.0
350.0   30.0   0.0
400.0   30.0   16.666666666666668
350.0   0.0   16.666666666666668
350.0   30.0   16.666666666666668
400.0   30.0   16.666666666666668
350.0   30.0   0.0
350.0   0.0   16.666666666666668
400.0   30.0   16.666666666666668
400.0   0.0   16.666666666666668
400.0   0.0   0.0
350.0   0.0   16.666666666666668
400.0   30.0   16.666666666666668
400.0   0.0   0.0
350.0   30.0   0.0
350.0   0.0   16.666666666666668
400.0   0.0   16.666666666666668
350.0   30.0   16.666666666666668
350.0   0.0   33.333333333333336
400.0   0.0   16.666666666666668
400.0   30.0   16.666666666666668
350.0   30.0   16.666666666666668
400.0   30.0   33.333333333333336
350.0   0.0   33.333333333333336
350.0   30.0   33.333333333333336
400.0   30.0   33.333333333333336
350.0   30.0   16.666666666666668
350.0   0.0   33.333333333333336
400.0   30.0   33.333333333333336
400.0   0.0   33.333333333333336
400.0   0.0   16.666666666666668
350.0   0.0   33.333333333333336
400.0   30.0   33.333333333333336
400.0   0.0   16.666666666666668
350.0   30.0   16.666666666666668
350.0   0.0   33.333333333333336
400.0   0.0   33.333333333333336
350.0   30.0   33.333333333333336
350.0   0.0   50.0
400.0   0.0   33.333333333333336
400.0   30.0   33.333333333333336
350.0   30.0   33.333333333333336
400.0   30.0   50.0
350.0   0.0   50.0
350.0   30.0   50.0
400.0   30.0   50.0
350.0   30.0   33.333333333333336
350.0   0.0   50.0
400.0   30.0   50.0
400.0   0.0   50.0
400.0   0.0   33.333333333333336
350.0   0.0   50.0
400.0   30.0   50.0
400.0   0.0   33.333333333333336
350.0   30.0   33.333333333333336
350.0   30.0   0.0
400.0   30.0   0.0
350.0   60.0   0.0
350.0   30.0   16.666666666666668
400.0   30.0   0.0
400.0   60.0   0.0
350.0   60.0   0.0
400.0   60.0   16.666666666666668
350.0   30.0   16.666666666666668
350.0   60.0   16.666666666666668
400.0   60.0   16.666666666666668
350.0   60.0   0.0
350.0   30.0   16.666666666666668
400.0   60.0   16.666666666666668
400.0   30.0   16.666666666666668
400.0   30.0   0.0
350.0   30.0   16.666666666666668
400.0   60.0   16.666666666666668
400.0   30.0   0.0
350.0   60.0   0.0
350.0   30.0   16.666666666666668
400.0   30.0   16.666666666666668
350.0   60.0   16.666666666666668
350.0   30.0   33.333333333333336
400.0   30.0   16.666666666666668
400.0   60.0   16.666666666666668
350.0   60.0   16.666666666666668
400.0   60.0   33.333333333333336
350.0   30.0   33.333333333333336
350.0   60.0   33.333333333333336
400.0   60.0   33.333333333333336
350.0   60.0   16.666666666666668
350.0   30.0   33.333333333333336
400.0   60.0   33.333333333333336
400.0   30.0   33.333333333333336
400.0   30.0   16.666666666666668
350.0   30.0   33.333333333333336
400.0   60.0   33.333333333333336
400.0   30.0   16.666666666666668
350.0   60.0   16.666666666666668
350.0   30.0   33.333333333333336
400.0   30.0   33.333333333333336
350.0   60.0   33.333333333333336
350.0   30.0   50.0
400.0   30.0   33.333333333333336
400.0   60.0   33.333333333333336
350.0   60.0   33.333333333333336
400.0   60.0   50.0
350.0   30.0   50.0
350.0   60.0   50.0
400.0   60.0   50.0
350.0   60.0   33.333333333333336
350.0   30.0   50.0
400.0   60.0   50.0
400.0   30.0   50.0
400.0   30.0   33.333333333333336
350.0   30.0   50.0
400.0   60.0   50.0
400.0   30.0   33.333333333333336
350.0   60.0   33.333333333333336
350.0   60.0   0.0
400.0   60.0   0.0
350.0   90.0   0.0
350.0   60.0   16.666666666666668
400.0   60.0   0.0
400.0   90.0   0.0
350.0   90.0   0.0
400.0   90.0   16.666666666666668
350.0   60.0   16.666666666666668
350.0   90.0   16.666666666666668
400.0   90.0   16.666666666666668
350.0   90.0   0.0
350.0   60.0   16.666666666666668
400.0   90.0   16.666666666666668
400.0   60.0   16.666666666666668
400.0   60.0   0.0
350.0   60.0   16.666666666666668
400.0   90.0   16.666666666666668
400.0   60.0   0.0
350.0   90.0   0.0
350.0   60.0   16.666666666666668
400.0   60.0   16.666666666666668
350.0   90.0   16.666666666666668
350.0   60.0   33.333333333333336
400.0   60.0   16.666666666666668
400.0   90.0   16.666666666666668
350.0   90.0   16.666666666666668
400.0   90.0   33.333333333333336
350.0   60.0   33.333333333333336
350.0   90.0   33.333333333333336
400.0   90.0   33.333333333333336
350.0   90.0   16.666666666666668
350.0   60.0   33.333333333333336
400.0   90.0   33.333333333333336
400.0   60.0   33.333333333333336
400.0   60.0   16.666666666666668
350.0   60.0   33.333333333333336
400.0   90.0   33.333333333333336
400.0   60.0   16.666666666666668
350.0   90.0   16.666666666666668
350.0   60.0   33.333333333333336
400.0   60.0   33.333333333333336
350.0   90.0   33.333333333333336
350.0   60.0   50.0
400.0   60.0   33.333333333333336
400.0   90.0   33.333333333333336
350.0   90.0   33.333333333333336
400.0   90.0   50.0
350.0   60.0   50.0
350.0   90.0   50.0
400.0   90.0   50.0
350.0   90.0   33.333333333333336
350.0   60.0   50.0
400.0   90.0   50.0
400.0   60.0   50.0
400.0   60.0   33.333333333333336
350.0   60.0   50.0
400.0   90.0   50.0
400.0   60.0   33.333333333333336
350.0   90.0   33.333333333333336
350.0   90.0   0.0
400.0   90.0   0.0
350.0   120.0   0.0
350.0   90.0   16.666666666666668
400.0   90.0   0.0
400.0   120.0   0.0
350.0   120.0   0.0
400.0   120.0   16.666666666666668
350.0   90.0   16.666666666666668
350.0   120.0   16.666666666666668
400.0   120.0   16.666666666666668
350.0   120.0   0.0
350.0   90.0   16.666666666666668
400.0   120.0   16.666666666666668
400.0   90.0   16.666666666666668
400.0   90.0   0.0
350.0   90.0   16.666666666666668
400.0   120.0   16.666666666666668
400.0   90.0   0.0
350.0   120.0   0.0
350.0   90.0   16.666666666666668
400.0   90.0   16.666666666666668
350.0   120.0   16.666666666666668
350.0   90.0   33.333333333333336
400.0   90.0   16.666666666666668
400.0   120.0   16.666666666666668
350.0   120.0   16.666666666666668
400.0   120.0   33.333333333333336
350.0   90.0   33.333333333333336
350.0   120.0   33.333333333333336
400.0   120.0   33.333333333333336
350.0   120.0   16.666666666666668
350.0   90.0   33.333333333333336
400.0   120.0   33.333333333333336
400.0   90.0   33.333333333333336
400.0   90.0   16.666666666666668
350.0   90.0   33.333333333333336
400.0   120.0   33.333333333333336
400.0   90.0   16.666666666666668
350.0   120.0   16.666666666666668
350.0   90.0   33.333333333333336
400.0   90.0   33.333333333333336
350.0   120.0   33.333333333333336
350.0   90.0   50.0
400.0   90.0   33.333333333333336
400.0   120.0   33.333333333333336
350.0   120.0   33.333333333333336
400.0   120.0   50.0
350.0   90.0   50.0
350.0   120.0   50.0
400.0   120.0   50.0
350.0   120.0   33.333333333333336
350.0   90.0   50.0
400.0   120.0   50.0
400.0   90.0   50.0
400.0   90.0   33.333333333333336
350.0   90.0   50.0
400.0   120.0   50.0
400.0   90.0   33.333333333333336
350.0   120.0   33.333333333333336
350.0   120.0   0.0
400.0   120.0   0.0
350.0   150.0   0.0
350.0   120.0   16.666666666666668
400.0   120.0   0.0
400.0   150.0   0.0
350.0   150.0   0.0
400.0   150.0   16.666666666666668
350.0   120.0   16.666666666666668
350.0   150.0   16.666666666666668
400.0   150.0   16.666666666666668
350.0   150.0   0.0
350.0   120.0   16.666666666666668
400.0   150.0   16.666666666666668
400.0   120.0   16.666666666666668
400.0   120.0   0.0
350.0   120.0   16.666666666666668
400.0   150.0   16.666666666666668
400.0   120.0   0.0
350.0   150.0   0.0
350.0   120.0   16.666666666666668
400.0   120.0   16.666666666666668
350.0   150.0   16.666666666666668
350.0   120.0   33.333333333333336
400.0   120.0   16.666666666666668
400.0   150.0   16.666666666666668
350.0   150.0   16.666666666666668
400.0   150.0   33.333333333333336
350.0   120.0   33.333333333333336
350.0   150.0   33.333333333333336
400.0   150.0   33.333333333333336
350.0   150.0   16.666666666666668
350.0   120.0   33.333333333333336
400.0   150.0   33.333333333333336
400.0   120.0   33.333333333333336
400.0   120.0   16.666666666666668
350.0   120.0   33.333333333333336
400.0   150.0   33.333333333333336
400.0   120.0   16.666666666666668
350.0   150.0   16.666666666666668
350.0   120.0   33.333333333333336
400.0   120.0   33.333333333333336
350.0   150.0   33.333333333333336
350.0   120.0   50.0
400.0   120.0   33.333333333333336
400.0   150.0   33.333333333333336
350.0   150.0   33.333333333333336
400.0   150.0   50.0
350.0   120.0   50.0
350.0   150.0   50.0
400.0   150.0   50.0
350.0   150.0   33.333333333333336
350.0   120.0   50.0
400.0   150.0   50.0
400.0   120.0   50.0
400.0   120.0   33.333333333333336
350.0   120.0   50.0
400.0   150.0   50.0
400.0   120.0   33.333333333333336
350.0   150.0   33.333333333333336
400.0   0.0   0.0
450.0   0.0   0.0
400.0   30.0   0.0
400.0   0.0   16.666666666666668
450.0   0.0   0.0
450.0   30.0   0.0
400.0   30.0   0.0
450.0   30.0   16.666666666666668
400.0   0.0   16.666666666666668
400.0   30.0   16.666666666666668
450.0   30.0   16.666666666666668
400.0   30.0   0.0
400.0   0.0   16.666666666666668
450.0   30.0   16.666666666666668
450.0   0.0   16.666666666666668
450.0   0.0   0.0
400.0   0.0   16.666666666666668
450.0   30.0   16.666666666666668
450.0   0.0   0.0
400.0   30.0   0.0
400.0   0.0   16.666666666666668
450.0   0.0   16.666666666666668
400.0   30.0   16.666666666666668
400.0   0.0   33.333333333333336
450.0   0.0   16.666666666666668
450.0   30.0   16.666666666666668
400.0   30.0   16.666666666666668
450.0   30.0   33.333333333333336
400.0   0.0   33.333333333333336
400.0   30.0   33.333333333333336
450.0   30.0   33.333333333333336
400.0   30.0   16.666666666666668
400.0   0.0   33.333333333333336
450.0   30.0   33.333333333333336
450.0   0.0   33.333333333333336
450.0   0.0   16.666666666666668
400.0   0.0   33.333333333333336
450.0   30.0   33.333333333333336
450.0   0.0   16.666666666666668
400.0   30.0   16.666666666666668
400.0   0.0   33.333333333333336
450.0   0.0   33.333333333333336
400.0   30.0   33.333333333333336
400.0   0.0   50.0
450.0   0.0   33.333333333333336
450.0   30.0   33.333333333333336
400.0   30.0   33.333333333333336
450.0   30.0   50.0
400.0   0.0   50.0
400.0   30.0   50.0
450.0   30.0   50.0
400.0   30.0   33.333333333333336
400.0   0.0   50.0
450.0   30.0   50.0
450.0   0.0   50.0
450.0   0.0   33.333333333333336
400.0   0.0   50.0
450.0   30.0   50.0
450.0   0.0   33.333333333333336
400.0   30.0   33.333333333333336
400.0   30.0   0.0
450.0   30.0   0.0
400.0   60.0   0.0
400.0   30.0   16.666666666666668
450.0   30.0   0.0
450.0   60.0   0.0
400.0   60.0   0.0
450.0   60.0   16.666666666666668
400.0   30.0   16.666666666666668
400.0   60.0   16.666666666666668
450.0   60.0   16.666666666666668
400.0   60.0   0.0
400.0   30.0   16.666666666666668
450.0   60.0   16.666666666666668
450.0   30.0   16.666666666666668
450.0   30.0   0.0
400.0   30.0   16.666666666666668
450.0   60.0   16.666666666666668
450.0   30.0   0.0
400.0   60.0   0.0
400.0   30.0   16.666666666666668
450.0   30.0   16.666666666666668
400.0   60.0   16.666666666666668
400.0   30.0   33.333333333333336
450.0   30.0   16.666666666666668
450.0   60.0   16.666666666666668
400.0   60.0   16.666666666666668
450.0   60.0   33.333333333333336
400.0   30.0   33.333333333333336
400.0   60.0   33.333333333333336
450.0   60.0   33.333333333333336
400.0   60.0   16.666666666666668
400.0   30.0   33.333333333333336
450.0   60.0   33.333333333333336
450.0   30.0   33.333333333333336
450.0   30.0   16.666666666666668
400.0   30.0   33.333333333333336
450.0   60.0   33.333333333333336
450.0   30.0   16.666666666666668
400.0   60.0   16.666666666666668
400.0   30.0   33.333333333333336
450.0   30.0   33.333333333333336
400.0   60.0   33.333333333333336
400.0   30.0   50.0
450.0   30.0   33.333333333333336
450.0   60.0   33.333333333333336
400.0   60.0   33.333333333333336
450.0   60.0   50.0
400.0   30.0   50.0
400.0   60.0   50.0
450.0   60.0   50.0
400.0   60.0   33.333333333333336
400.0   30.0   50.0
450.0   60.0   50.0
450.0   30.0   50.0
450.0   30.0   33.333333333333336
400.0   30.0   50.0
450.0   60.0   50.0
450.0   30.0   33.333333333333336
400.0   60.0   33.333333333333336
400.0   60.0   0.0
450.0   60.0   0.0
400.0   90.0   0.0
400.0   60.0   16.666666666666668
450.0   60.0   0.0
450.0   90.0   0.0
400.0   90.0   0.0
450.0   90.0   16.666666666666668
400.0   60.0   16.666666666666668
400.0   90.0   16.666666666666668
450.0   90.0   16.666666666666668
400.0   90.0   0.0
400.0   60.0   16.666666666666668
450.0   90.0   16.666666666666668
450.0   60.0   16.666666666666668
450.0   60.0   0.0
400.0   60.0   16.666666666666668
450.0   90.0   16.666666666666668
450.0   60.0   0.0
400.0   90.0   0.0
400.0   60.0   16.666666666666668
450.0   60.0   16.666666666666668
400.0   90.0   16.666666666666668
400.0   60.0   33.333333333333336
450.0   60.0   16.666666666666668
450.0   90.0   16.666666666666668
400.0   90.0   16.666666666666668
450.0   90.0   33.333333333333336
400.0   60.0   33.333333333333336
400.0   90.0   33.333333333333336
450.0   90.0   33.333333333333336
400.0   90.0   16.666666666666668
400.0   60.0   33.333333333333336
450.0   90.0   33.333333333333336
450.0   60.0   33.333333333333336
450.0   60.0   16.666666666666668
400.0   60.0   33.333333333333336
450.0   90.0   33.333333333333336
450.0   60.0   16.666666666666668
400.0   90.0   16.666666666666668
400.0   60.0   33.333333333333336
450.0   60.0   33.333333333333336
400.0   90.0   33.333333333333336
400.0   60.0   50.0
450.0   60.0   33.333333333333336
450.0   90.0   33.333333333333336
400.0   90.0   33.333333333333336
450.0   90.0   50.0
400.0   60.0   50.0
400.0   90.0   50.0
450.0   90.0   50.0
400.0   90.0   33.333333333333336
400.0   60.0   50.0
450.0   90.0   50.0
450.0   60.0   50.0
450.0   60.0   33.333333333333336
400.0   60.0   50.0
450.0   90.0   50.0
450.0   60.0   33.333333333333336
400.0   90.0   33.333333333333336
400.0   90.0   0.0
450.0   90.0   0.0
400.0   120.0   0.0
400.0   90.0   16.666666666666668
450.0   90.0   0.0
450.0   120.0   0.0
400.0   120.0   0.0
450.0   120.0   16.666666666666668
400.0   90.0   16.666666666666668
400.0   120.0   16.666666666666668
450.0   120.0   16.666666666666668
400.0   120.0   0.0
400.0   90.0   16.666666666666668
450.0   120.0   16.666666666666668
450.0   90.0   16.666666666666668
450.0   90.0   0.0
400.0   90.0   16.666666666666668
450.0   120.0   16.666666666666668
450.0   90.0   0.0
400.0   120.0   0.0
400.0   90.0   16.666666666666668
450.0   90.0   16.666666666666668
400.0   120.0   16.666666666666668
400.0   90.0   33.333333333333336
450.0   90.0   16.666666666666668
450.0   120.0   16.666666666666668
400.0   120.0   16.666666666666668
450.0   120.0   33.333333333333336
400.0   90.0   33.333333333333336
400.0   120.0   33.333333333333336
450.0   120.0   33.333333333333336
400.0   120.0   16.666666666666668
400.0   90.0   33.333333333333336
450.0   120.0   33.333333333333336
450.0   90.0   33.333333333333336
450.0   90.0   16.666666666666668
400.0   90.0   33.333333333333336
450.0   120.0   33.333333333333336
450.0   90.0   16.666666666666668
400.0   120.0   16.666666666666668
400.0   90.0   33.333333333333336
450.0   90.0   33.333333333333336
400.0   120.0   33.333333333333336
400.0   90.0   50.0
450.0   90.0   33.333333333333336
450.0   120.0   33.333333333333336
400.0   120.0   33.333333333333336
450.0   120.0   50.0
400.0   90.0   50.0
400.0   120.0   50.0
450.0   120.0   50.0
400.0   120.0   33.333333333333336
400.0   90.0   50.0
450.0   120.0   50.0
450.0   90.0   50.0
450.0   90.0   33.333333333333336
400.0   90.0   50.0
450.0   120.0   50.0
450.0   90.0   33.333333333333336
400.0   120.0   33.333333333333336
400.0   120.0   0.0
450.0   120.0   0.0
400.0   150.0   0.0
400.0   120.0   16.666666666666668
450.0   120.0   0.0
450.0   150.0   0.0
400.0   150.0   0.0
450.0   150.0   16.666666666666668
400.0   120.0   16.666666666666668
400.0   150.0   16.666666666666668
450.0   150.0   16.666666666666668
400.0   150.0   0.0
400.0   120.0   16.666666666666668
450.0   150.0   16.666666666666668
450.0   120.0   16.666666666666668
450.0   120.0   0.0
400.0   120.0   16.666666666666668
450.0   150.0   16.666666666666668
450.0   120.0   0.0
400.0   150.0   0.0
400.0   120.0   16.666666666666668
450.0   120.0   16.666666666666668
400.0   150.0   16.666666666666668
400.0   120.0   33.333333333333336
450.0   120.0   16.666666666666668
450.0   150.0   16.666666666666668
400.0   150.0   16.666666666666668
450.0   150.0   33.333333333333336
400.0   120.0   33.333333333333336
400.0   150.0   33.333333333333336
450.0   150.0   33.333333333333336
400.0   150.0   16.666666666666668
400.0   120.0   33.333333333333336
450.0   150.0   33.333333333333336
450.0   120.0   33.333333333333336
450.0   120.0   16.666666666666668
400.0   120.0   33.333333333333336
450.0   150.0   33.333333333333336
450.0   120.0   16.666666666666668
400.0   150.0   16.666666666666668
400.0   120.0   33.333333333333336
450.0   120.0   33.333333333333336
400.0   150.0   33.333333333333336
400.0   120.0   50.0
450.0   120.0   33.333333333333336
450.0   150.0   33.333333333333336
400.0   150.0   33.333333333333336
450.0   150.0   50.0
400.0   120.0   50.0
400.0   150.0   50.0
450.0   150.0   50.0
400.0   150.0   33.333333333333336
400.0   120.0   50.0
450.0   150.0   50.0
450.0   120.0   50.0
450.0   120.0   33.333333333333336
400.0   120.0   50.0
450.0   150.0   50.0
450.0   120.0   33.333333333333336
400.0   150.0   33.333333333333336
450.0   0.0   0.0
500.0   0.0   0.0
450.0   30.0   0.0
450.0   0.0   16.666666666666668
500.0   0.0   0.0
500.0   30.0   0.0
450.0   30.0   0.0
500.0   30.0   16.666666666666668
450.0   0.0   16.666666666666668
450.0   30.0   16.666666666666668
500.0   30.0   16.666666666666668
450.0   30.0   0.0
450.0   0.0   16.666666666666668
500.0   30.0   16.666666666666668
500.0   0.0   16.666666666666668
500.0   0.0   0.0
450.0   0.0   16.666666666666668
500.0   30.0   16.666666666666668
500.0   0.0   0.0
450.0   30.0   0.0
450.0   0.0   16.666666666666668
500.0   0.0   16.666666666666668
450.0   30.0   16.666666666666668
450.0   0.0   33.333333333333336
500.0   0.0   16.666666666666668
500.0   30.0   16.666666666666668
450.0   30.0   16.666666666666668
500.0   30.0   33.333333333333336
450.0   0.0   33.333333333333336
450.0   30.0   33.333333333333336
500.0   30.0   33.333333333333336
450.0   30.0   16.666666666666668
450.0   0.0   33.333333333333336
500.0   30.0   33.333333333333336
500.0   0.0   33.333333333333336
500.0   0.0   16.666666666666668
450.0   0.0   33.333333333333336
500.0   30.0   33.333333333333336
500.0   0.0   16.666666666666668
450.0   30.0   16.666666666666668
450.0   0.0   33.333333333333336
500.0   0.0   33.333333333333336
450.0   30.0   33.333333333333336
450.0   0.0   50.0
500.0   0.0   33.333333333333336
500.0   30.0   33.333333333333336
450.0   30.0   33.333333333333336
500.0   30.0   50.0
450.0   0.0   50.0
450.0   30.0   50.0
500.0   30.0   50.0
450.0   30.0   33.333333333333336
450.0   0.0   50.0
500.0   30.0   50.0
500.0   0.0   50.0
500.0   0.0   33.333333333333336
450.0   0.0   50.0
500.0   30.0   50.0
500.0   0.0   33.333333333333336
450.0   30.0   33.333333333333336
450.0   30.0   0.0
500.0   30.0   0.0
450.0   60.0   0.0
450.0   30.0   16.666666666666668
500.0   30.0   0.0
500.0   60.0   0.0
450.0   60.0   0.0
500.0   60.0   16.666666666666668
450.0   30.0   16.666666666666668
450.0   60.0   16.666666666666668
500.0   60.0   16.666666666666668
450.0   60.0   0.0
450.0   30.0   16.666666666666668
500.0   60.0   16.666666666666668
500.0   30.0   16.666666666666668
500.0   30.0   0.0
450.0   30.0   16.666666666666668
500.0   60.0   16.666666666666668
500.0   30.0   0.0
450.0   60.0   0.0
450.0   30.0   16.666666666666668
500.0   30.0   16.666666666666668
450.0   60.0   16.666666666666668
450.0   30.0   33.333333333333336
500.0   30.0   16.666666666666668
500.0   60.0   16.666666666666668
450.0   60.0   16.666666666666668
500.0   60.0   33.333333333333336
450.0   30.0   33.333333333333336
450.0   60.0   33.333333333333336
500.0   60.0   33.333333333333336
450.0   60.0   16.666666666666668
450.0   30.0   33.333333333333336
500.0   60.0   33.333333333333336
500.0   30.0   33.333333333333336
500.0   30.0   16.666666666666668
450.0   30.0   33.333333333333336
500.0   60.0   33.333333333333336
500.0   30.0   16.666666666666668
450.0   60.0   16.666666666666668
450.0   30.0   33.333333333333336
500.0   30.0   33.333333333333336
450.0   60.0   33.333333333333336
450.0   30.0   50.0
500.0   30.0   33.333333333333336
500.0   60.0   33.333333333333336
450.0   60.0   33.333333333333336
500.0   60.0   50.0
450.0   30.0   50.0
450.0   60.0   50.0
500.0   60.0   50.0
450.0   60.0   33.333333333333336
450.0   30.0   50.0
500.0   60.0   50.0
500.0   30.0   50.0
500.0   30.0   33.333333333333336
450.0   30.0   50.0
500.0   60.0   50.0
500.0   30.0   33.333333333333336
450.0   60.0   33.333333333333336
450.0   60.0   0.0
500.0   60.0   0.0
450.0   90.0   0.0
450.0   60.0   16.666666666666668
500.0   60.0   0.0
500.0   90.0   0.0
450.0   90.0   0.0
500.0   90.0   16.666666666666668
450.0   60.0   16.666666666666668
450.0   90.0   16.666666666666668
500.0   90.0   16.666666666666668
450.0   90.0   0.0
450.0   60.0   16.666666666666668
500.0   90.0   16.666666666666668
500.0   60.0   16.666666666666668
500.0   60.0   0.0
450.0   60.0   16.666666666666668
500.0   90.0   16.666666666666668
500.0   60.0   0.0
450.0   90.0   0.0
450.0   60.0   16.666666666666668
500.0   60.0   16.666666666666668
450.0   90.0   16.666666666666668
450.0   60.0   33.333333333333336
500.0   60.0   16.666666666666668
500.0   90.0   16.666666666666668
450.0   90.0   16.666666666666668
500.0   90.0   33.333333333333336
450.0   60.0   33.333333333333336
450.0   90.0   33.333333333333336
500.0   90.0   33.333333333333336
450.0   90.0   16.666666666666668
450.0   60.0   33.333333333333336
500.0   90.0   33.333333333333336
500.0   60.0   33.333333333333336
500.0   60.0   16.666666666666668
450.0   60.0   33.333333333333336
500.0   90.0   33.333333333333336
500.0   60.0   16.666666666666668
450.0   90.0   16.666666666666668
450.0   60.0   33.333333333333336
500.0   60.0   33.333333333333336
450.0   90.0   33.333333333333336
450.0   60.0   50.0
500.0   60.0   33.333333333333336
500.0   90.0   33.333333333333336
450.0   90.0   33.333333333333336
500.0   90.0   50.0
450.0   60.0   50.0
450.0   90.0   50.0
500.0   90.0   50.0
450.0   90.0   33.333333333333336
450.0   60.0   50.0
500.0   90.0   50.0
500.0   60.0   50.0
500.0   60.0   33.333333333333336
450.0   60.0   50.0
500.0   90.0   50.0
500.0   60.0   33.333333333333336
450.0   90.0   33.333333333333336
450.0   90.0   0.0
500.0   90.0   0.0
450.0   120.0   0.0
450.0   90.0   16.666666666666668
500.0   90.0   0.0
500.0   120.0   0.0
450.0   120.0   0.0
500.0   120.0   16.666666666666668
450.0   90.0   16.666666666666668
450.0   120.0   16.666666666666668
500.0   120.0   16.666666666666668
450.0   120.0   0.0
450.0   90.0   16.666666666666668
500.0   120.0   16.666666666666668
500.0   90.0   16.666666666666668
500.0   90.0   0.0
450.0   90.0   16.666666666666668
500.0   120.0   16.666666666666668
500.0   90.0   0.0
450.0   120.0   0.0
450.0   90.0   16.666666666666668
500.0   90.0   16.666666666666668
450.0   120.0   16.666666666666668
450.0   90.0   33.333333333333336
500.0   90.0   16.666666666666668
500.0   120.0   16.666666666666668
450.0   120.0   16.666666666666668
500.0   120.0   33.333333333333336
450.0   90.0   33.333333333333336
450.0   120.0   33.333333333333336
500.0   120.0   33.333333333333336
450.0   120.0   16.666666666666668
450.0   90.0   33.333333333333336
500.0   120.0   33.333333333333336
500.0   90.0   33.333333333333336
500.0   90.0   16.666666666666668
450.0   90.0   33.333333333333336
500.0   120.0   33.333333333333336
500.0   90.0   16.666666666666668
450.0   120.0   16.666666666666668
450.0   90.0   33.333333333333336
500.0   90.0   33.333333333333336
450.0   120.0   33.333333333333336
450.0   90.0   50.0
500.0   90.0   33.333333333333336
500.0   120.0   33.333333333333336
450.0   120.0   33.333333333333336
500.0   120.0   50.0
450.0   90.0   50.0
450.0   120.0   50.0
500.0   120.0   50.0
450.0   120.0   33.333333333333336
450.0   90.0   50.0
500.0   120.0   50.0
500.0   90.0   50.0
500.0   90.0   33.333333333333336
450.0   90.0   50.0
500.0   120.0   50.0
500.0   90.0   33.333333333333336
450.0   120.0   33.333333333333336
450.0   120.0   0.0
500.0   120.0   0.0
450.0   150.0   0.0
450.0   120.0   16.666666666666668
500.0   120.0   0.0
500.0   150.0   0.0
450.0   150.0   0.0
500.0   150.0   16.666666666666668
450.0   120.0   16.666666666666668
450.0   150.0   16.666666666666668
500.0   150.0   16.666666666666668
450.0   150.0   0.0
450.0   120.0   16.666666666666668
500.0   150.0   16.666666666666668
500.0   120.0   16.666666666666668
500.0   120.0   0.0
450.0   120.0   16.666666666666668
500.0   150.0   16.666666666666668
500.0   120.0   0.0
450.0   150.0   0.0
450.0   120.0   16.666666666666668
500.0   120.0   16.666666666666668
450.0   150.0   16.666666666666668
450.0   120.0   33.333333333333336
500.0   120.0   16.666666666666668
500.0   150.0   16.666666666666668
450.0   150.0   16.666666666666668
500.0   150.0   33.333333333333336
450.0   120.0   33.333333333333336
450.0   150.0   33.333333333333336
500.0   150.0   33.333333333333336
450.0   150.0   16.666666666666668
450.0   120.0   33.333333333333336
500.0   150.0   33.333333333333336
500.0   120.0   33.333333333333336
500.0   120.0   16.666666666666668
450.0   120.0   33.333333333333336
500.0   150.0   33.333333333333336
500.0   120.0   16.666666666666668
450.0   150.0   16.666666666666668
450.0   120.0   33.333333333333336
500.0   120.0   33.333333333333336
450.0   150.0   33.333333333333336
450.0   120.0   50.0
500.0   120.0   33.333333333333336
500.0   150.0   33.333333333333336
450.0   150.0   33.333333333333336
500.0   150.0   50.0
450.0   120.0   50.0
450.0   150.0   50.0
500.0   150.0   50.0
450.0   150.0   33.333333333333336
450.0   120.0   50.0
500.0   150.0   50.0
500.0   120.0   50.0
500.0   120.0   33.333333333333336
450.0   120.0   50.0
500.0   150.0   50.0
500.0   120.0   33.333333333333336
450.0   150.0   33.333333333333336
             </DataArray>   
          </Points>  
          <Cells>  
             <DataArray type="Int32" Name="connectivity" format="ascii">   
0   1   2   3
4   5   6   7
8   9   10   11
12   13   14   15
16   17   18   19
20   21   22   23
24   25   26   27
28   29   30   31
32   33   34   35
36   37   38   39
40   41   42   43
44   45   46   47
48   49   50   51
52   53   54   55
56   57   58   59
60   61   62   63
64   65   66   67
68   69   70   71
72   73   74   75
76   77   78   79
80   81   82   83
84   85   86   87
88   89   90   91
92   93   94   95
96   97   98   99
100   101   102   103
104   105   106   107
108   109   110   111
112   113   114   115
116   117   118   119
120   121   122   123
124   125   126   127
128   129   130   131
132   133   134   135
136   137   138   139
140   141   142   143
144   145   146   147
148   149   150   151
152   153   154   155
156   157   158   159
160   161   162   163
164   165   166   167
168   169   170   171
172   173   174   175
176   177   178   179
180   181   182   183
184   185   186   187
188   189   190   191
192   193   194   195
196   197   198   199
200   201   202   203
204   205   206   207
208   209   210   211
212   213   214   215
216   217   218   219
220   221   222   223
224   225   226   227
228   229   230   231
232   233   234   235
236   237   238   239
240   241   242   243
244   245   246   247
248   249   250   251
252   253   254   255
256   257   258   259
260   261   262   263
264   265   266   267
268   269   270   271
272   273   274   275
276   277   278   279
280   281   282   283
284   285   286   287
288   289   290   291
292   293   294   295
296   297   298   299
300   301   302   303
304   305   306   307
308   309   310   311
312   313   314   315
316   317   318   319
320   321   322   323
324   325   326   327
328   329   330   331
332   333   334   335
336   337   338   339
340   341   342   343
344   345   346   347
348   349   350   351
352   353   354   355
356   357   358   359
360   361   362   363
364   365   366   367
368   369   370   371
372   373   374   375
376   377   378   379
380   381   382   383
384   385   386   387
388   389   390   391
392   393   394   395
396   397   398   399
400   401   402   403
404   405   406   407
408   409   410   411
412   413   414   415
416   417   418   419
420   421   422   423
424   425   426   427
428   429   430   431
432   433   434   435
436   437   438   439
440   441   442   443
444   445   446   447
448   449   450   451
452   453   454   455
456   457   458   459
460   461   462   463
464   465   466   467
468   469   470   471
472   473   474   475
476   477   478   479
480   481   482   483
484   485   486   487
488   489   490   491
492   493   494   495
496   497   498   499
500   501   502   503
504   505   506   507
508   509   510   511
512   513   514   515
516   517   518   519
520   521   522   523
524   525   526   527
528   529   530   531
532   533   534   535
536   537   538   539
540   541   542   543
544   545   546   547
548   549   550   551
552   553   554   555
556   557   558   559
560   561   562   563
564   565   566   567
568   569   570   571
572   573   574   575
576   577   578   579
580   581   582   583
584   585   586   587
588   589   590   591
592   593   594   595
596   597   598   599
600   601   602   603
604   605   606   607
608   609   610   611
612   613   614   615
616   617   618   619
620   621   622   623
624   625   626   627
628   629   630   631
632   633   634   635
636   637   638   639
640   641   642   643
644   645   646   647
648   649   650   651
652   653   654   655
656   657   658   659
660   661   662   663
664   665   666   667
668   669   670   671
672   673   674   675
676   677   678   679
680   681   682   683
684   685   686   687
688   689   690   691
692   693   694   695
696   697   698   699
700   701   702   703
704   705   706   707
708   709   710   711
712   713   714   715
716   717   718   719
720   721   722   723
724   725   726   727
728   729   730   731
732   733   734   735
736   737   738   739
740   741   742   743
744   745   746   747
748   749   750   751
752   753   754   755
756   757   758   759
760   761   762   763
764   765   766   767
768   769   770   771
772   773   774   775
776   777   778   779
780   781   782   783
784   785   786   787
788   789   790   791
792   793   794   795
796   797   798   799
800   801   802   803
804   805   806   807
808   809   810   811
812   813   814   815
816   817   818   819
820   821   822   823
824   825   826   827
828   829   830   831
832   833   834   835
836   837   838   839
840   841   842   843
844   845   846   847
848   849   850   851
852   853   854   855
856   857   858   859
860   861   862   863
864   865   866   867
868   869   870   871
872   873   874   875
876   877   878   879
880   881   882   883
884   885   886   887
888   889   890   891
892   893   894   895
896   897   898   899
900   901   902   903
904   905   906   907
908   909   910   911
912   913   914   915
916   917   918   919
920   921   922   923
924   925   926   927
928   929   930   931
932   933   934   935
936   937   938   939
940   941   942   943
944   945   946   947
948   949   950   951
952   953   954   955
956   957   958   959
960   961   962   963
964   965   966   967
968   969   970   971
972   973   974   975
976   977   978   979
980   981   982   983
984   985   986   987
988   989   990   991
992   993   994   995
996   997   998   999
1000   1001   1002   1003
1004   1005   1006   1007
1008   1009   1010   1011
1012   1013   1014   1015
1016   1017   1018   1019
1020   1021   1022   1023
1024   1025   1026   1027
1028   1029   1030   1031
1032   1033   1034   1035
1036   1037   1038   1039
1040   1041   1042   1043
1044   1045   1046   1047
1048   1049   1050   1051
1052   1053   1054   1055
1056   1057   1058   1059
1060   1061   1062   1063
1064   1065   1066   1067
1068   1069   1070   1071
1072   1073   1074   1075
1076   1077   1078   1079
1080   1081   1082   1083
1084   1085   1086   1087
1088   1089   1090   1091
1092   1093   1094   1095
1096   1097   1098   1099
1100   1101   1102   1103
1104   1105   1106   1107
1108   1109   1110   1111
1112   1113   1114   1115
1116   1117   1118   1119
1120   1121   1122   1123
1124   1125   1126   1127
1128   1129   1130   1131
1132   1133   1134   1135
1136   1137   1138   1139
1140   1141   1142   1143
1144   1145   1146   1147
1148   1149   1150   1151
1152   1153   1154   1155
1156   1157   1158   1159
1160   1161   1162   1163
1164   1165   1166   1167
1168   1169   1170   1171
1172   1173   1174   1175
1176   1177   1178   1179
1180   1181   1182   1183
1184   1185   1186   1187
1188   1189   1190   1191
1192   1193   1194   1195
1196   1197   1198   1199
1200   1201   1202   1203
1204   1205   1206   1207
1208   1209   1210   1211
1212   1213   1214   1215
1216   1217   1218   1219
1220   1221   1222   1223
1224   1225   1226   1227
1228   1229   1230   1231
1232   1233   1234   1235
1236   1237   1238   1239
1240   1241   1242   1243
1244   1245   1246   1247
1248   1249   1250   1251
1252   1253   1254   1255
1256   1257   1258   1259
1260   1261   1262   1263
1264   1265   1266   1267
1268   1269   1270   1271
1272   1273   1274   1275
1276   1277   1278   1279
1280   1281   1282   1283
1284   1285   1286   1287
1288   1289   1290   1291
1292   1293   1294   1295
1296   1297   1298   1299
1300   1301   1302   1303
1304   1305   1306   1307
1308   1309   1310   1311
1312   1313   1314   1315
1316   1317   1318   1319
1320   1321   1322   1323
1324   1325   1326   1327
1328   1329   1330   1331
1332   1333   1334   1335
1336   1337   1338   1339
1340   1341   1342   1343
1344   1345   1346   1347
1348   1349   1350   1351
1352   1353   1354   1355
1356   1357   1358   1359
1360   1361   1362   1363
1364   1365   1366   1367
1368   1369   1370   1371
1372   1373   1374   1375
1376   1377   1378   1379
1380   1381   1382   1383
1384   1385   1386   1387
1388   1389   1390   1391
1392   1393   1394   1395
1396   1397   1398   1399
1400   1401   1402   1403
1404   1405   1406   1407
1408   1409   1410   1411
1412   1413   1414   1415
1416   1417   1418   1419
1420   1421   1422   1423
1424   1425   1426   1427
1428   1429   1430   1431
1432   1433   1434   1435
1436   1437   1438   1439
1440   1441   1442   1443
1444   1445   1446   1447
1448   1449   1450   1451
1452   1453   1454   1455
1456   1457   1458   1459
1460   1461   1462   1463
1464   1465   1466   1467
1468   1469   1470   1471
1472   1473   1474   1475
1476   1477   1478   1479
1480   1481   1482   1483
1484   1485   1486   1487
1488   1489   1490   1491
1492   1493   1494   1495
1496   1497   1498   1499
1500   1501   1502   1503
1504   1505   1506   1507
1508   1509   1510   1511
1512   1513   1514   1515
1516   1517   1518   1519
1520   1521   1522   1523
1524   1525   1526   1527
1528   1529   1530   1531
1532   1533   1534   1535
1536   1537   1538   1539
1540   1541   1542   1543
1544   1545   1546   1547
1548   1549   1550   1551
1552   1553   1554   1555
1556   1557   1558   1559
1560   1561   1562   1563
1564   1565   1566   1567
1568   1569   1570   1571
1572   1573   1574   1575
1576   1577   1578   1579
1580   1581   1582   1583
1584   1585   1586   1587
1588   1589   1590   1591
1592   1593   1594   1595
1596   1597   1598   1599
1600   1601   1602   1603
1604   1605   1606   1607
1608   1609   1610   1611
1612   1613   1614   1615
1616   1617   1618   1619
1620   1621   1622   1623
1624   1625   1626   1627
1628   1629   1630   1631
1632   1633   1634   1635
1636   1637   1638   1639
1640   1641   1642   1643
1644   1645   1646   1647
1648   1649   1650   1651
1652   1653   1654   1655
1656   1657   1658   1659
1660   1661   1662   1663
1664   1665   1666   1667
1668   1669   1670   1671
1672   1673   1674   1675
1676   1677   1678   1679
1680   1681   1682   1683
1684   1685   1686   1687
1688   1689   1690   1691
1692   1693   1694   1695
1696   1697   1698   1699
1700   1701   1702   1703
1704   1705   1706   1707
1708   1709   1710   1711
1712   1713   1714   1715
1716   1717   1718   1719
1720   1721   1722   1723
1724   1725   1726   1727
1728   1729   1730   1731
1732   1733   1734   1735
1736   1737   1738   1739
1740   1741   1742   1743
1744   1745   1746   1747
1748   1749   1750   1751
1752   1753   1754   1755
1756   1757   1758   1759
1760   1761   1762   1763
1764   1765   1766   1767
1768   1769   1770   1771
1772   1773   1774   1775
1776   1777   1778   1779
1780   1781   1782   1783
1784   1785   1786   1787
1788   1789   1790   1791
1792   1793   1794   1795
1796   1797   1798   1799
1800   1801   1802   1803
1804   1805   1806   1807
1808   1809   1810   1811
1812   1813   1814   1815
1816   1817   1818   1819
1820   1821   1822   1823
1824   1825   1826   1827
1828   1829   1830   1831
1832   1833   1834   1835
1836   1837   1838   1839
1840   1841   1842   1843
1844   1845   1846   1847
1848   1849   1850   1851
1852   1853   1854   1855
1856   1857   1858   1859
1860   1861   1862   1863
1864   1865   1866   1867
1868   1869   1870   1871
1872   1873   1874   1875
1876   1877   1878   1879
1880   1881   1882   1883
1884   1885   1886   1887
1888   1889   1890   1891
1892   1893   1894   1895
1896   1897   1898   1899
1900   1901   1902   1903
1904   1905   1906   1907
1908   1909   1910   1911
1912   1913   1914   1915
1916   1917   1918   1919
1920   1921   1922   1923
1924   1925   1926   1927
1928   1929   1930   1931
1932   1933   1934   1935
1936   1937   1938   1939
1940   1941   1942   1943
1944   1945   1946   1947
1948   1949   1950   1951
1952   1953   1954   1955
1956   1957   1958   1959
1960   1961   1962   1963
1964   1965   1966   1967
1968   1969   1970   1971
1972   1973   1974   1975
1976   1977   1978   1979
1980   1981   1982   1983
1984   1985   1986   1987
1988   1989   1990   1991
1992   1993   1994   1995
1996   1997   1998   1999
2000   2001   2002   2003
2004   2005   2006   2007
2008   2009   2010   2011
2012   2013   2014   2015
2016   2017   2018   2019
2020   2021   2022   2023
2024   2025   2026   2027
2028   2029   2030   2031
2032   2033   2034   2035
2036   2037   2038   2039
2040   2041   2042   2043
2044   2045   2046   2047
2048   2049   2050   2051
2052   2053   2054   2055
2056   2057   2058   2059
2060   2061   2062   2063
2064   2065   2066   2067
2068   2069   2070   2071
2072   2073   2074   2075
2076   2077   2078   2079
2080   2081   2082   2083
2084   2085   2086   2087
2088   2089   2090   2091
2092   2093   2094   2095
2096   2097   2098   2099
2100   2101   2102   2103
2104   2105   2106   2107
2108   2109   2110   2111
2112   2113   2114   2115
2116   2117   2118   2119
2120   2121   2122   2123
2124   2125   2126   2127
2128   2129   2130   2131
2132   2133   2134   2135
2136   2137   2138   2139
2140   2141   2142   2143
2144   2145   2146   2147
2148   2149   2150   2151
2152   2153   2154   2155
2156   2157   2158   2159
2160   2161   2162   2163
2164   2165   2166   2167
2168   2169   2170   2171
2172   2173   2174   2175
2176   2177   2178   2179
2180   2181   2182   2183
2184   2185   2186   2187
2188   2189   2190   2191
2192   2193   2194   2195
2196   2197   2198   2199
2200   2201   2202   2203
2204   2205   2206   2207
2208   2209   2210   2211
2212   2213   2214   2215
2216   2217   2218   2219
2220   2221   2222   2223
2224   2225   2226   2227
2228   2229   2230   2231
2232   2233   2234   2235
2236   2237   2238   2239
2240   2241   2242   2243
2244   2245   2246   2247
2248   2249   2250   2251
2252   2253   2254   2255
2256   2257   2258   2259
2260   2261   2262   2263
2264   2265   2266   2267
2268   2269   2270   2271
2272   2273   2274   2275
2276   2277   2278   2279
2280   2281   2282   2283
2284   2285   2286   2287
2288   2289   2290   2291
2292   2293   2294   2295
2296   2297   2298   2299
2300   2301   2302   2303
2304   2305   2306   2307
2308   2309   2310   2311
2312   2313   2314   2315
2316   2317   2318   2319
2320   2321   2322   2323
2324   2325   2326   2327
2328   2329   2330   2331
2332   2333   2334   2335
2336   2337   2338   2339
2340   2341   2342   2343
2344   2345   2346   2347
2348   2349   2350   2351
2352   2353   2354   2355
2356   2357   2358   2359
2360   2361   2362   2363
2364   2365   2366   2367
2368   2369   2370   2371
2372   2373   2374   2375
2376   2377   2378   2379
2380   2381   2382   2383
2384   2385   2386   2387
2388   2389   2390   2391
2392   2393   2394   2395
2396   2397   2398   2399
2400   2401   2402   2403
2404   2405   2406   2407
2408   2409   2410   2411
2412   2413   2414   2415
2416   2417   2418   2419
2420   2421   2422   2423
2424   2425   2426   2427
2428   2429   2430   2431
2432   2433   2434   2435
2436   2437   2438   2439
2440   2441   2442   2443
2444   2445   2446   2447
2448   2449   2450   2451
2452   2453   2454   2455
2456   2457   2458   2459
2460   2461   2462   2463
2464   2465   2466   2467
2468   2469   2470   2471
2472   2473   2474   2475
2476   2477   2478   2479
2480   2481   2482   2483
2484   2485   2486   2487
2488   2489   2490   2491
2492   2493   2494   2495
2496   2497   2498   2499
2500   2501   2502   2503
2504   2505   2506   2507
2508   2509   2510   2511
2512   2513   2514   2515
2516   2517   2518   2519
2520   2521   2522   2523
2524   2525   2526   2527
2528   2529   2530   2531
2532   2533   2534   2535
2536   2537   2538   2539
2540   2541   2542   2543
2544   2545   2546   2547
2548   2549   2550   2551
2552   2553   2554   2555
2556   2557   2558   2559
2560   2561   2562   2563
2564   2565   2566   2567
2568   2569   2570   2571
2572   2573   2574   2575
2576   2577   2578   2579
2580   2581   2582   2583
2584   2585   2586   2587
2588   2589   2590   2591
2592   2593   2594   2595
2596   2597   2598   2599
2600   2601   2602   2603
2604   2605   2606   2607
2608   2609   2610   2611
2612   2613   2614   2615
2616   2617   2618   2619
2620   2621   2622   2623
2624   2625   2626   2627
2628   2629   2630   2631
2632   2633   2634   2635
2636   2637   2638   2639
2640   2641   2642   2643
2644   2645   2646   2647
2648   2649   2650   2651
2652   2653   2654   2655
2656   2657   2658   2659
2660   2661   2662   2663
2664   2665   2666   2667
2668   2669   2670   2671
2672   2673   2674   2675
2676   2677   2678   2679
2680   2681   2682   2683
2684   2685   2686   2687
2688   2689   2690   2691
2692   2693   2694   2695
2696   2697   2698   2699
2700   2701   2702   2703
2704   2705   2706   2707
2708   2709   2710   2711
2712   2713   2714   2715
2716   2717   2718   2719
2720   2721   2722   2723
2724   2725   2726   2727
2728   2729   2730   2731
2732   2733   2734   2735
2736   2737   2738   2739
2740   2741   2742   2743
2744   2745   2746   2747
2748   2749   2750   2751
2752   2753   2754   2755
2756   2757   2758   2759
2760   2761   2762   2763
2764   2765   2766   2767
2768   2769   2770   2771
2772   2773   2774   2775
2776   2777   2778   2779
2780   2781   2782   2783
2784   2785   2786   2787
2788   2789   2790   2791
2792   2793   2794   2795
2796   2797   2798   2799
2800   2801   2802   2803
2804   2805   2806   2807
2808   2809   2810   2811
2812   2813   2814   2815
2816   2817   2818   2819
2820   2821   2822   2823
2824   2825   2826   2827
2828   2829   2830   2831
2832   2833   2834   2835
2836   2837   2838   2839
2840   2841   2842   2843
2844   2845   2846   2847
2848   2849   2850   2851
2852   2853   2854   2855
2856   2857   2858   2859
2860   2861   2862   2863
2864   2865   2866   2867
2868   2869   2870   2871
2872   2873   2874   2875
2876   2877   2878   2879
2880   2881   2882   2883
2884   2885   2886   2887
2888   2889   2890   2891
2892   2893   2894   2895
2896   2897   2898   2899
2900   2901   2902   2903
2904   2905   2906   2907
2908   2909   2910   2911
2912   2913   2914   2915
2916   2917   2918   2919
2920   2921   2922   2923
2924   2925   2926   2927
2928   2929   2930   2931
2932   2933   2934   2935
2936   2937   2938   2939
2940   2941   2942   2943
2944   2945   2946   2947
2948   2949   2950   2951
2952   2953   2954   2955
2956   2957   2958   2959
2960   2961   2962   2963
2964   2965   2966   2967
2968   2969   2970   2971
2972   2973   2974   2975
2976   2977   2978   2979
2980   2981   2982   2983
2984   2985   2986   2987
2988   2989   2990   2991
2992   2993   2994   2995
2996   2997   2998   2999
3000   3001   3002   3003
3004   3005   3006   3007
3008   3009   3010   3011
3012   3013   3014   3015
3016   3017   3018   3019
3020   3021   3022   3023
3024   3025   3026   3027
3028   3029   3030   3031
3032   3033   3034   3035
3036   3037   3038   3039
3040   3041   3042   3043
3044   3045   3046   3047
3048   3049   3050   3051
3052   3053   3054   3055
3056   3057   3058   3059
3060   3061   3062   3063
3064   3065   3066   3067
3068   3069   3070   3071
3072   3073   3074   3075
3076   3077   3078   3079
3080   3081   3082   3083
3084   3085   3086   3087
3088   3089   3090   3091
3092   3093   3094   3095
3096   3097   3098   3099
3100   3101   3102   3103
3104   3105   3106   3107
3108   3109   3110   3111
3112   3113   3114   3115
3116   3117   3118   3119
3120   3121   3122   3123
3124   3125   3126   3127
3128   3129   3130   3131
3132   3133   3134   3135
3136   3137   3138   3139
3140   3141   3142   3143
3144   3145   3146   3147
3148   3149   3150   3151
3152   3153   3154   3155
3156   3157   3158   3159
3160   3161   3162   3163
3164   3165   3166   3167
3168   3169   3170   3171
3172   3173   3174   3175
3176   3177   3178   3179
3180   3181   3182   3183
3184   3185   3186   3187
3188   3189   3190   3191
3192   3193   3194   3195
3196   3197   3198   3199
3200   3201   3202   3203
3204   3205   3206   3207
3208   3209   3210   3211
3212   3213   3214   3215
3216   3217   3218   3219
3220   3221   3222   3223
3224   3225   3226   3227
3228   3229   3230   3231
3232   3233   3234   3235
3236   3237   3238   3239
3240   3241   3242   3243
3244   3245   3246   3247
3248   3249   3250   3251
3252   3253   3254   3255
3256   3257   3258   3259
3260   3261   3262   3263
3264   3265   3266   3267
3268   3269   3270   3271
3272   3273   3274   3275
3276   3277   3278   3279
3280   3281   3282   3283
3284   3285   3286   3287
3288   3289   3290   3291
3292   3293   3294   3295
3296   3297   3298   3299
3300   3301   3302   3303
3304   3305   3306   3307
3308   3309   3310   3311
3312   3313   3314   3315
3316   3317   3318   3319
3320   3321   3322   3323
3324   3325   3326   3327
3328   3329   3330   3331
3332   3333   3334   3335
3336   3337   3338   3339
3340   3341   3342   3343
3344   3345   3346   3347
3348   3349   3350   3351
3352   3353   3354   3355
3356   3357   3358   3359
3360   3361   3362   3363
3364   3365   3366   3367
3368   3369   3370   3371
3372   3373   3374   3375
3376   3377   3378   3379
3380   3381   3382   3383
3384   3385   3386   3387
3388   3389   3390   3391
3392   3393   3394   3395
3396   3397   3398   3399
3400   3401   3402   3403
3404   3405   3406   3407
3408   3409   3410   3411
3412   3413   3414   3415
3416   3417   3418   3419
3420   3421   3422   3423
3424   3425   3426   3427
3428   3429   3430   3431
3432   3433   3434   3435
3436   3437   3438   3439
3440   3441   3442   3443
3444   3445   3446   3447
3448   3449   3450   3451
3452   3453   3454   3455
3456   3457   3458   3459
3460   3461   3462   3463
3464   3465   3466   3467
3468   3469   3470   3471
3472   3473   3474   3475
3476   3477   3478   3479
3480   3481   3482   3483
3484   3485   3486   3487
3488   3489   3490   3491
3492   3493   3494   3495
3496   3497   3498   3499
3500   3501   3502   3503
3504   3505   3506   3507
3508   3509   3510   3511
3512   3513   3514   3515
3516   3517   3518   3519
3520   3521   3522   3523
3524   3525   3526   3527
3528   3529   3530   3531
3532   3533   3534   3535
3536   3537   3538   3539
3540   3541   3542   3543
3544   3545   3546   3547
3548   3549   3550   3551
3552   3553   3554   3555
3556   3557   3558   3559
3560   3561   3562   3563
3564   3565   3566   3567
3568   3569   3570   3571
3572   3573   3574   3575
3576   3577   3578   3579
3580   3581   3582   3583
3584   3585   3586   3587
3588   3589   3590   3591
3592   3593   3594   3595
3596   3597   3598   3599
3600   3601   3602   3603
3604   3605   3606   3607
3608   3609   3610   3611
3612   3613   3614   3615
3616   3617   3618   3619
3620   3621   3622   3623
3624   3625   3626   3627
3628   3629   3630   3631
3632   3633   3634   3635
3636   3637   3638   3639
3640   3641   3642   3643
3644   3645   3646   3647
3648   3649   3650   3651
3652   3653   3654   3655
3656   3657   3658   3659
3660   3661   3662   3663
3664   3665   3666   3667
3668   3669   3670   3671
3672   3673   3674   3675
3676   3677   3678   3679
3680   3681   3682   3683
3684   3685   3686   3687
3688   3689   3690   3691
3692   3693   3694   3695
3696   3697   3698   3699
3700   3701   3702   3703
3704   3705   3706   3707
3708   3709   3710   3711
3712   3713   3714   3715
3716   3717   3718   3719
3720   3721   3722   3723
3724   3725   3726   3727
3728   3729   3730   3731
3732   3733   3734   3735
3736   3737   3738   3739
3740   3741   3742   3743
3744   3745   3746   3747
3748   3749   3750   3751
3752   3753   3754   3755
3756   3757   3758   3759
3760   3761   3762   3763
3764   3765   3766   3767
3768   3769   3770   3771
3772   3773   3774   3775
3776   3777   3778   3779
3780   3781   3782   3783
3784   3785   3786   3787
3788   3789   3790   3791
3792   3793   3794   3795
3796   3797   3798   3799
3800   3801   3802   3803
3804   3805   3806   3807
3808   3809   3810   3811
3812   3813   3814   3815
3816   3817   3818   3819
3820   3821   3822   3823
3824   3825   3826   3827
3828   3829   3830   3831
3832   3833   3834   3835
3836   3837   3838   3839
3840   3841   3842   3843
3844   3845   3846   3847
3848   3849   3850   3851
3852   3853   3854   3855
3856   3857   3858   3859
3860   3861   3862   3863
3864   3865   3866   3867
3868   3869   3870   3871
3872   3873   3874   3875
3876   3877   3878   3879
3880   3881   3882   3883
3884   3885   3886   3887
3888   3889   3890   3891
3892   3893   3894   3895
3896   3897   3898   3899
3900   3901   3902   3903
3904   3905   3906   3907
3908   3909   3910   3911
3912   3913   3914   3915
3916   3917   3918   3919
3920   3921   3922   3923
3924   3925   3926   3927
3928   3929   3930   3931
3932   3933   3934   3935
3936   3937   3938   3939
3940   3941   3942   3943
3944   3945   3946   3947
3948   3949   3950   3951
3952   3953   3954   3955
3956   3957   3958   3959
3960   3961   3962   3963
3964   3965   3966   3967
3968   3969   3970   3971
3972   3973   3974   3975
3976   3977   3978   3979
3980   3981   3982   3983
3984   3985   3986   3987
3988   3989   3990   3991
3992   3993   3994   3995
3996   3997   3998   3999
4000   4001   4002   4003
4004   4005   4006   4007
4008   4009   4010   4011
4012   4013   4014   4015
4016   4017   4018   4019
4020   4021   4022   4023
4024   4025   4026   4027
4028   4029   4030   4031
4032   4033   4034   4035
4036   4037   4038   4039
4040   4041   4042   4043
4044   4045   4046   4047
4048   4049   4050   4051
4052   4053   4054   4055
4056   4057   4058   4059
4060   4061   4062   4063
4064   4065   4066   4067
4068   4069   4070   4071
4072   4073   4074   4075
4076   4077   4078   4079
4080   4081   4082   4083
4084   4085   4086   4087
4088   4089   4090   4091
4092   4093   4094   4095
4096   4097   4098   4099
4100   4101   4102   4103
4104   4105   4106   4107
4108   4109   4110   4111
4112   4113   4114   4115
4116   4117   4118   4119
4120   4121   4122   4123
4124   4125   4126   4127
4128   4129   4130   4131
4132   4133   4134   4135
4136   4137   4138   4139
4140   4141   4142   4143
4144   4145   4146   4147
4148   4149   4150   4151
4152   4153   4154   4155
4156   4157   4158   4159
4160   4161   4162   4163
4164   4165   4166   4167
4168   4169   4170   4171
4172   4173   4174   4175
4176   4177   4178   4179
4180   4181   4182   4183
4184   4185   4186   4187
4188   4189   4190   4191
4192   4193   4194   4195
4196   4197   4198   4199
4200   4201   4202   4203
4204   4205   4206   4207
4208   4209   4210   4211
4212   4213   4214   4215
4216   4217   4218   4219
4220   4221   4222   4223
4224   4225   4226   4227
4228   4229   4230   4231
4232   4233   4234   4235
4236   4237   4238   4239
4240   4241   4242   4243
4244   4245   4246   4247
4248   4249   4250   4251
4252   4253   4254   4255
4256   4257   4258   4259
4260   4261   4262   4263
4264   4265   4266   4267
4268   4269   4270   4271
4272   4273   4274   4275
4276   4277   4278   4279
4280   4281   4282   4283
4284   4285   4286   4287
4288   4289   4290   4291
4292   4293   4294   4295
4296   4297   4298   4299
4300   4301   4302   4303
4304   4305   4306   4307
4308   4309   4310   4311
4312   4313   4314   4315
4316   4317   4318   4319
4320   4321   4322   4323
4324   4325   4326   4327
4328   4329   4330   4331
4332   4333   4334   4335
4336   4337   4338   4339
4340   4341   4342   4343
4344   4345   4346   4347
4348   4349   4350   4351
4352   4353   4354   4355
4356   4357   4358   4359
4360   4361   4362   4363
4364   4365   4366   4367
4368   4369   4370   4371
4372   4373   4374   4375
4376   4377   4378   4379
4380   4381   4382   4383
4384   4385   4386   4387
4388   4389   4390   4391
4392   4393   4394   4395
4396   4397   4398   4399
4400   4401   4402   4403
4404   4405   4406   4407
4408   4409   4410   4411
4412   4413   4414   4415
4416   4417   4418   4419
4420   4421   4422   4423
4424   4425   4426   4427
4428   4429   4430   4431
4432   4433   4434   4435
4436   4437   4438   4439
4440   4441   4442   4443
4444   4445   4446   4447
4448   4449   4450   4451
4452   4453   4454   4455
4456   4457   4458   4459
4460   4461   4462   4463
4464   4465   4466   4467
4468   4469   4470   4471
4472   4473   4474   4475
4476   4477   4478   4479
4480   4481   4482   4483
4484   4485   4486   4487
4488   4489   4490   4491
4492   4493   4494   4495
4496   4497   4498   4499
4500   4501   4502   4503
4504   4505   4506   4507
4508   4509   4510   4511
4512   4513   4514   4515
4516   4517   4518   4519
4520   4521   4522   4523
4524   4525   4526   4527
4528   4529   4530   4531
4532   4533   4534   4535
4536   4537   4538   4539
4540   4541   4542   4543
4544   4545   4546   4547
4548   4549   4550   4551
4552   4553   4554   4555
4556   4557   4558   4559
4560   4561   4562   4563
4564   4565   4566   4567
4568   4569   4570   4571
4572   4573   4574   4575
4576   4577   4578   4579
4580   4581   4582   4583
4584   4585   4586   4587
4588   4589   4590   4591
4592   4593   4594   4595
4596   4597   4598   4599
4600   4601   4602   4603
4604   4605   4606   4607
4608   4609   4610   4611
4612   4613   4614   4615
4616   4617   4618   4619
4620   4621   4622   4623
4624   4625   4626   4627
4628   4629   4630   4631
4632   4633   4634   4635
4636   4637   4638   4639
4640   4641   4642   4643
4644   4645   4646   4647
4648   4649   4650   4651
4652   4653   4654   4655
4656   4657   4658   4659
4660   4661   4662   4663
4664   4665   4666   4667
4668   4669   4670   4671
4672   4673   4674   4675
4676   4677   4678   4679
4680   4681   4682   4683
4684   4685   4686   4687
4688   4689   4690   4691
4692   4693   4694   4695
4696   4697   4698   4699
4700   4701   4702   4703
4704   4705   4706   4707
4708   4709   4710   4711
4712   4713   4714   4715
4716   4717   4718   4719
4720   4721   4722   4723
4724   4725   4726   4727
4728   4729   4730   4731
4732   4733   4734   4735
4736   4737   4738   4739
4740   4741   4742   4743
4744   4745   4746   4747
4748   4749   4750   4751
4752   4753   4754   4755
4756   4757   4758   4759
4760   4761   4762   4763
4764   4765   4766   4767
4768   4769   4770   4771
4772   4773   4774   4775
4776   4777   4778   4779
4780   4781   4782   4783
4784   4785   4786   4787
4788   4789   4790   4791
4792   4793   4794   4795
4796   4797   4798   4799
4800   4801   4802   4803
4804   4805   4806   4807
4808   4809   4810   4811
4812   4813   4814   4815
4816   4817   4818   4819
4820   4821   4822   4823
4824   4825   4826   4827
4828   4829   4830   4831
4832   4833   4834   4835
4836   4837   4838   4839
4840   4841   4842   4843
4844   4845   4846   4847
4848   4849   4850   4851
4852   4853   4854   4855
4856   4857   4858   4859
4860   4861   4862   4863
4864   4865   4866   4867
4868   4869   4870   4871
4872   4873   4874   4875
4876   4877   4878   4879
4880   4881   4882   4883
4884   4885   4886   4887
4888   4889   4890   4891
4892   4893   4894   4895
4896   4897   4898   4899
4900   4901   4902   4903
4904   4905   4906   4907
4908   4909   4910   4911
4912   4913   4914   4915
4916   4917   4918   4919
4920   4921   4922   4923
4924   4925   4926   4927
4928   4929   4930   4931
4932   4933   4934   4935
4936   4937   4938   4939
4940   4941   4942   4943
4944   4945   4946   4947
4948   4949   4950   4951
4952   4953   4954   4955
4956   4957   4958   4959
4960   4961   4962   4963
4964   4965   4966   4967
4968   4969   4970   4971
4972   4973   4974   4975
4976   4977   4978   4979
4980   4981   4982   4983
4984   4985   4986   4987
4988   4989   4990   4991
4992   4993   4994   4995
4996   4997   4998   4999
5000   5001   5002   5003
5004   5005   5006   5007
5008   5009   5010   5011
5012   5013   5014   5015
5016   5017   5018   5019
5020   5021   5022   5023
5024   5025   5026   5027
5028   5029   5030   5031
5032   5033   5034   5035
5036   5037   5038   5039
5040   5041   5042   5043
5044   5045   5046   5047
5048   5049   5050   5051
5052   5053   5054   5055
5056   5057   5058   5059
5060   5061   5062   5063
5064   5065   5066   5067
5068   5069   5070   5071
5072   5073   5074   5075
5076   5077   5078   5079
5080   5081   5082   5083
5084   5085   5086   5087
5088   5089   5090   5091
5092   5093   5094   5095
5096   5097   5098   5099
5100   5101   5102   5103
5104   5105   5106   5107
5108   5109   5110   5111
5112   5113   5114   5115
5116   5117   5118   5119
5120   5121   5122   5123
5124   5125   5126   5127
5128   5129   5130   5131
5132   5133   5134   5135
5136   5137   5138   5139
5140   5141   5142   5143
5144   5145   5146   5147
5148   5149   5150   5151
5152   5153   5154   5155
5156   5157   5158   5159
5160   5161   5162   5163
5164   5165   5166   5167
5168   5169   5170   5171
5172   5173   5174   5175
5176   5177   5178   5179
5180   5181   5182   5183
5184   5185   5186   5187
5188   5189   5190   5191
5192   5193   5194   5195
5196   5197   5198   5199
5200   5201   5202   5203
5204   5205   5206   5207
5208   5209   5210   5211
5212   5213   5214   5215
5216   5217   5218   5219
5220   5221   5222   5223
5224   5225   5226   5227
5228   5229   5230   5231
5232   5233   5234   5235
5236   5237   5238   5239
5240   5241   5242   5243
5244   5245   5246   5247
5248   5249   5250   5251
5252   5253   5254   5255
5256   5257   5258   5259
5260   5261   5262   5263
5264   5265   5266   5267
5268   5269   5270   5271
5272   5273   5274   5275
5276   5277   5278   5279
5280   5281   5282   5283
5284   5285   5286   5287
5288   5289   5290   5291
5292   5293   5294   5295
5296   5297   5298   5299
5300   5301   5302   5303
5304   5305   5306   5307
5308   5309   5310   5311
5312   5313   5314   5315
5316   5317   5318   5319
5320   5321   5322   5323
5324   5325   5326   5327
5328   5329   5330   5331
5332   5333   5334   5335
5336   5337   5338   5339
5340   5341   5342   5343
5344   5345   5346   5347
5348   5349   5350   5351
5352   5353   5354   5355
5356   5357   5358   5359
5360   5361   5362   5363
5364   5365   5366   5367
5368   5369   5370   5371
5372   5373   5374   5375
5376   5377   5378   5379
5380   5381   5382   5383
5384   5385   5386   5387
5388   5389   5390   5391
5392   5393   5394   5395
5396   5397   5398   5399
5400   5401   5402   5403
5404   5405   5406   5407
5408   5409   5410   5411
5412   5413   5414   5415
5416   5417   5418   5419
5420   5421   5422   5423
5424   5425   5426   5427
5428   5429   5430   5431
5432   5433   5434   5435
5436   5437   5438   5439
5440   5441   5442   5443
5444   5445   5446   5447
5448   5449   5450   5451
5452   5453   5454   5455
5456   5457   5458   5459
5460   5461   5462   5463
5464   5465   5466   5467
5468   5469   5470   5471
5472   5473   5474   5475
5476   5477   5478   5479
5480   5481   5482   5483
5484   5485   5486   5487
5488   5489   5490   5491
5492   5493   5494   5495
5496   5497   5498   5499
5500   5501   5502   5503
5504   5505   5506   5507
5508   5509   5510   5511
5512   5513   5514   5515
5516   5517   5518   5519
5520   5521   5522   5523
5524   5525   5526   5527
5528   5529   5530   5531
5532   5533   5534   5535
5536   5537   5538   5539
5540   5541   5542   5543
5544   5545   5546   5547
5548   5549   5550   5551
5552   5553   5554   5555
5556   5557   5558   5559
5560   5561   5562   5563
5564   5565   5566   5567
5568   5569   5570   5571
5572   5573   5574   5575
5576   5577   5578   5579
5580   5581   5582   5583
5584   5585   5586   5587
5588   5589   5590   5591
5592   5593   5594   5595
5596   5597   5598   5599
5600   5601   5602   5603
5604   5605   5606   5607
5608   5609   5610   5611
5612   5613   5614   5615
5616   5617   5618   5619
5620   5621   5622   5623
5624   5625   5626   5627
5628   5629   5630   5631
5632   5633   5634   5635
5636   5637   5638   5639
5640   5641   5642   5643
5644   5645   5646   5647
5648   5649   5650   5651
5652   5653   5654   5655
5656   5657   5658   5659
5660   5661   5662   5663
5664   5665   5666   5667
5668   5669   5670   5671
5672   5673   5674   5675
5676   5677   5678   5679
5680   5681   5682   5683
5684   5685   5686   5687
5688   5689   5690   5691
5692   5693   5694   5695
5696   5697   5698   5699
5700   5701   5702   5703
5704   5705   5706   5707
5708   5709   5710   5711
5712   5713   5714   5715
5716   5717   5718   5719
5720   5721   5722   5723
5724   5725   5726   5727
5728   5729   5730   5731
5732   5733   5734   5735
5736   5737   5738   5739
5740   5741   5742   5743
5744   5745   5746   5747
5748   5749   5750   5751
5752   5753   5754   5755
5756   5757   5758   5759
5760   5761   5762   5763
5764   5765   5766   5767
5768   5769   5770   5771
5772   5773   5774   5775
5776   5777   5778   5779
5780   5781   5782   5783
5784   5785   5786   5787
5788   5789   5790   5791
5792   5793   5794   5795
5796   5797   5798   5799
5800   5801   5802   5803
5804   5805   5806   5807
5808   5809   5810   5811
5812   5813   5814   5815
5816   5817   5818   5819
5820   5821   5822   5823
5824   5825   5826   5827
5828   5829   5830   5831
5832   5833   5834   5835
5836   5837   5838   5839
5840   5841   5842   5843
5844   5845   5846   5847
5848   5849   5850   5851
5852   5853   5854   5855
5856   5857   5858   5859
5860   5861   5862   5863
5864   5865   5866   5867
5868   5869   5870   5871
5872   5873   5874   5875
5876   5877   5878   5879
5880   5881   5882   5883
5884   5885   5886   5887
5888   5889   5890   5891
5892   5893   5894   5895
5896   5897   5898   5899
5900   5901   5902   5903
5904   5905   5906   5907
5908   5909   5910   5911
5912   5913   5914   5915
5916   5917   5918   5919
5920   5921   5922   5923
5924   5925   5926   5927
5928   5929   5930   5931
5932   5933   5934   5935
5936   5937   5938   5939
5940   5941   5942   5943
5944   5945   5946   5947
5948   5949   5950   5951
5952   5953   5954   5955
5956   5957   5958   5959
5960   5961   5962   5963
5964   5965   5966   5967
5968   5969   5970   5971
5972   5973   5974   5975
5976   5977   5978   5979
5980   5981   5982   5983
5984   5985   5986   5987
5988   5989   5990   5991
5992   5993   5994   5995
5996   5997   5998   5999
              </DataArray>   
              <DataArray type="Int32" Name="offsets" format="ascii">   
4
8
12
16
20
24
28
32
36
40
44
48
52
56
60
64
68
72
76
80
84
88
92
96
100
104
108
112
116
120
124
128
132
136
140
144
148
152
156
160
164
168
172
176
180
184
188
192
196
200
204
208
212
216
220
224
228
232
236
240
244
248
252
256
260
264
268
272
276
280
284
288
292
296
300
304
308
312
316
320
324
328
332
336
340
344
348
352
356
360
364
368
372
376
380
384
388
392
396
400
404
408
412
416
420
424
428
432
436
440
444
448
452
456
460
464
468
472
476
480
484
488
492
496
500
504
508
512
516
520
524
528
532
536
540
544
548
552
556
560
564
568
572
576
580
584
588
592
596
600
604
608
612
616
620
624
628
632
636
640
644
648
652
656
660
664
668
672
676
680
684
688
692
696
700
704
708
712
716
720
724
728
732
736
740
744
748
752
756
760
764
768
772
776
780
784
788
792
796
800
804
808
812
816
820
824
828
832
836
840
844
848
852
856
860
864
868
872
876
880
884
888
892
896
900
904
908
912
916
920
924
928
932
936
940
944
948
952
956
960
964
968
972
976
980
984
988
992
996
1000
1004
1008
1012
1016
1020
1024
1028
1032
1036
1040
1044
1048
1052
1056
1060
1064
1068
1072
1076
1080
1084
1088
1092
1096
1100
1104
1108
1112
1116
1120
1124
1128
1132
1136
1140
1144
1148
1152
1156
1160
1164
1168
1172
1176
1180
1184
1188
1192
1196
1200
1204
1208
1212
1216
1220
1224
1228
1232
1236
1240
1244
1248
1252
1256
1260
1264
1268
1272
1276
1280
1284
1288
1292
1296
1300
1304
1308
1312
1316
1320
1324
1328
1332
1336
1340
1344
1348
1352
1356
1360
1364
1368
1372
1376
1380
1384
1388
1392
1396
1400
1404
1408
1412
1416
1420
1424
1428
1432
1436
1440
1444
1448
1452
1456
1460
1464
1468
1472
1476
1480
1484
1488
1492
1496
1500
1504
1508
1512
1516
1520
1524
1528
1532
1536
1540
1544
1548
1552
1556
1560
1564
1568
1572
1576
1580
1584
1588
1592
1596
1600
1604
1608
1612
1616
1620
1624
1628
1632
1636
1640
1644
1648
1652
1656
1660
1664
1668
1672
1676
1680
1684
1688
1692
1696
1700
1704
1708
1712
1716
1720
1724
1728
1732
1736
1740
1744
1748
1752
1756
1760
1764
1768
1772
1776
1780
1784
1788
1792
1796
1800
1804
1808
1812
1816
1820
1824
1828
1832
1836
1840
1844
1848
1852
1856
1860
1864
1868
1872
1876
1880
1884
1888
1892
1896
1900
1904
1908
1912
1916
1920
1924
1928
1932
1936
1940
1944
1948
1952
1956
1960
1964
1968
1972
1976
1980
1984
1988
1992
1996
2000
2004
2008
2012
2016
2020
2024
2028
2032
2036
2040
2044
2048
2052
2056
2060
2064
2068
2072
2076
2080
2084
2088
2092
2096
2100
2104
2108
2112
2116
2120
2124
2128
2132
2136
2140
2144
2148
2152
2156
2160
2164
2168
2172
2176
2180
2184
2188
2192
2196
2200
2204
2208
2212
2216
2220
2224
2228
2232
2236
2240
2244
2248
2252
2256
2260
2264
2268
2272
2276
2280
2284
2288
2292
2296
2300
2304
2308
2312
2316
2320
2324
2328
2332
2336
2340
2344
2348
2352
2356
2360
2364
2368
2372
2376
2380
2384
2388
2392
2396
2400
2404
2408
2412
2416
2420
2424
2428
2432
2436
2440
2444
2448
2452
2456
2460
2464
2468
2472
2476
2480
2484
2488
2492
2496
2500
2504
2508
2512
2516
2520
2524
2528
2532
2536
2540
2544
2548
2552
2556
2560
2564
2568
2572
2576
2580
2584
2588
2592
2596
2600
2604
2608
2612
2616
2620
2624
2628
2632
2636
2640
2644
2648
2652
2656
2660
2664
2668
2672
2676
2680
2684
2688
2692
2696
2700
2704
2708
2712
2716
2720
2724
2728
2732
2736
2740
2744
2748
2752
2756
2760
2764
2768
2772
2776
2780
2784
2788
2792
2796
2800
2804
2808
2812
2816
2820
2824
2828
2832
2836
2840
2844
2848
2852
2856
2860
2864
2868
2872
2876
2880
2884
2888
2892
2896
2900
2904
2908
2912
2916
2920
2924
2928
2932
2936
2940
2944
2948
2952
2956
2960
2964
2968
2972
2976
2980
2984
2988
2992
2996
3000
3004
3008
3012
3016
3020
3024
3028
3032
3036
3040
3044
3048
3052
3056
3060
3064
3068
3072
3076
3080
3084
3088
3092
3096
3100
3104
3108
3112
3116
3120
3124
3128
3132
3136
3140
3144
3148
3152
3156
3160
3164
3168
3172
3176
3180
3184
3188
3192
3196
3200
3204
3208
3212
3216
3220
3224
3228
3232
3236
3240
3244
3248
3252
3256
3260
3264
3268
3272
3276
3280
3284
3288
3292
3296
3300
3304
3308
3312
3316
3320
3324
3328
3332
3336
3340
3344
3348
3352
3356
3360
3364
3368
3372
3376
3380
3384
3388
3392
3396
3400
3404
3408
3412
3416
3420
3424
3428
3432
3436
3440
3444
3448
3452
3456
3460
3464
3468
3472
3476
3480
3484
3488
3492
3496
3500
3504
3508
3512
3516
3520
3524
3528
3532
3536
3540
3544
3548
3552
3556
3560
3564
3568
3572
3576
3580
3584
3588
3592
3596
3600
3604
3608
3612
3616
3620
3624
3628
3632
3636
3640
3644
3648
3652
3656
3660
3664
3668
3672
3676
3680
3684
3688
3692
3696
3700
3704
3708
3712
3716
3720
3724
3728
3732
3736
3740
3744
3748
3752
3756
3760
3764
3768
3772
3776
3780
3784
3788
3792
3796
3800
3804
3808
3812
3816
3820
3824
3828
3832
3836
3840
3844
3848
3852
3856
3860
3864
3868
3872
3876
3880
3884
3888
3892
3896
3900
3904
3908
3912
3916
3920
3924
3928
3932
3936
3940
3944
3948
3952
3956
3960
3964
3968
3972
3976
3980
3984
3988
3992
3996
4000
4004
4008
4012
4016
4020
4024
4028
4032
4036
4040
4044
4048
4052
4056
4060
4064
4068
4072
4076
4080
4084
4088
4092
4096
4100
4104
4108
4112
4116
4120
4124
4128
4132
4136
4140
4144
4148
4152
4156
4160
4164
4168
4172
4176
4180
4184
4188
4192
4196
4200
4204
4208
4212
4216
4220
4224
4228
4232
4236
4240
4244
4248
4252
4256
4260
4264
4268
4272
4276
4280
4284
4288
4292
4296
4300
4304
4308
4312
4316
4320
4324
4328
4332
4336
4340
4344
4348
4352
4356
4360
4364
4368
4372
4376
4380
4384
4388
4392
4396
4400
4404
4408
4412
4416
4420
4424
4428
4432
4436
4440
4444
4448
4452
4456
4460
4464
4468
4472
4476
4480
4484
4488
4492
4496
4500
4504
4508
4512
4516
4520
4524
4528
4532
4536
4540
4544
4548
4552
4556
4560
4564
4568
4572
4576
4580
4584
4588
4592
4596
4600
4604
4608
4612
4616
4620
4624
4628
4632
4636
4640
4644
4648
4652
4656
4660
4664
4668
4672
4676
4680
4684
4688
4692
4696
4700
4704
4708
4712
4716
4720
4724
4728
4732
4736
4740
4744
4748
4752
4756
4760
4764
4768
4772
4776
4780
4784
4788
4792
4796
4800
4804
4808
4812
4816
4820
4824
4828
4832
4836
4840
4844
4848
4852
4856
4860
4864
4868
4872
4876
4880
4884
4888
4892
4896
4900
4904
4908
4912
4916
4920
4924
4928
4932
4936
4940
4944
4948
4952
4956
4960
4964
4968
4972
4976
4980
4984
4988
4992
4996
5000
5004
5008
5012
5016
5020
5024
5028
5032
5036
5040
5044
5048
5052
5056
5060
5064
5068
5072
5076
5080
5084
5088
5092
5096
5100
5104
5108
5112
5116
5120
5124
5128
5132
5136
5140
5144
5148
5152
5156
5160
5164
5168
5172
5176
5180
5184
5188
5192
5196
5200
5204
5208
5212
5216
5220
5224
5228
5232
5236
5240
5244
5248
5252
5256
5260
5264
5268
5272
5276
5280
5284
5288
5292
5296
5300
5304
5308
5312
5316
5320
5324
5328
5332
5336
5340
5344
5348
5352
5356
5360
5364
5368
5372
5376
5380
5384
5388
5392
5396
5400
5404
5408
5412
5416
5420
5424
5428
5432
5436
5440
5444
5448
5452
5456
5460
5464
5468
5472
5476
5480
5484
5488
5492
5496
5500
5504
5508
5512
5516
5520
5524
5528
5532
5536
5540
5544
5548
5552
5556
5560
5564
5568
5572
5576
5580
5584
5588
5592
5596
5600
5604
5608
5612
5616
5620
5624
5628
5632
5636
5640
5644
5648
5652
5656
5660
5664
5668
5672
5676
5680
5684
5688
5692
5696
5700
5704
5708
5712
5716
5720
5724
5728
5732
5736
5740
5744
5748
5752
5756
5760
5764
5768
5772
5776
5780
5784
5788
5792
5796
5800
5804
5808
5812
5816
5820
5824
5828
5832
5836
5840
5844
5848
5852
5856
5860
5864
5868
5872
5876
5880
5884
5888
5892
5896
5900
5904
5908
5912
5916
5920
5924
5928
5932
5936
5940
5944
5948
5952
5956
5960
5964
5968
5972
5976
5980
5984
5988
5992
5996
6000
              </DataArray>   
              <DataArray type="UInt8" Name="types" format="ascii">   
10
10
10
10
10
10
10
10
10
10
10
10
10
10
10
10
10
10
10
10
10
10
10
10
10
10
10
10
10
10
10
10
10
10
10
10
10
10
10
10
10
10
10
10
10
10
10
10
10
10
10
10
10
10
10
10
10
10
10
10
10
10
10
10
10
10
10
10
10
10
10
10
10
10
10
10
10
10
10
10
10
10
10
10
10
10
10
10
10
10
10
10
10
10
10
10
10
10
10
10
10
10
10
10
10
10
10
10
10
10
10
10
10
10
10
10
10
10
10
10
10
10
10
10
10
10
10
10
10
10
10
10
10
10
10
10
10
10
10
10
10
10
10
10
10
10
10
10
10
10
10
10
10
10
10
10
10
10
10
10
10
10
10
10
10
10
10
10
10
10
10
10
10
10
10
10
10
10
10
10
10
10
10
10
10
10
10
10
10
10
10
10
10
10
10
10
10
10
10
10
10
10
10
10
10
10
10
10
10
10
10
10
10
10
10
10
10
10
10
10
10
10
10
10
10
10
10
10
10
10
10
10
10
10
10
10
10
10
10
10
10
10
10
10
10
10
10
10
10
10
10
10
10
10
10
10
10
10
10
10
10
10
10
10
10
10
10
10
10
10
10
10
10
10
10
10
10
10
10
10
10
10
10
10
10
10
10
10
10
10
10
10
10
10
10
10
10
10
10
10
10
10
10
10
10
10
10
10
10
10
10
10
10
10
10
10
10
10
10
10
10
10
10
10
10
10
10
10
10
10
10
10
10
10
10
10
10
10
10
10
10
10
10
10
10
10
10
10
10
10
10
10
10
10
10
10
10
10
10
10
10
10
10
10
10
10
10
10
10
10
10
10
10
10
10
10
10
10
10
10
10
10
10
10
10
10
10
10
10
10
10
10
10
10
10
10
10
10
10
10
10
10
10
10
10
10
10
10
10
10
10
10
10
10
10
10
10
10
10
10
10
10
10
10
10
10
10
10
10
10
10
10
10
10
10
10
10
10
10
10
10
10
10
10
10
10
10
10
10
10
10
10
10
10
10
10
10
10
10
10
10
10
10
10
10
10
10
10
10
10
10
10
10
10
10
10
10
10
10
10
10
10
10
10
10
10
10
10
10
10
10
10
10
10
10
10
10
10
10
10
10
10
10
10
10
10
10
10
10
10
10
10
10
10
10
10
10
10
10
10
10
10
10
10
10
10
10
10
10
10
10
10
10
10
10
10
10
10
10
10
10
10
10
10
10
10
10
10
10
10
10
10
10
10
10
10
10
10
10
10
10
10
10
10
10
10
10
10
10
10
10
10
10
10
10
10
10
10
10
10
10
10
10
10
10
10
10
10
10
10
10
10
10
10
10
10
10
10
10
10
10
10
10
10
10
10
10
10
10
10
10
10
10
10
10
10
10
10
10
10
10
10
10
10
10
10
10
10
10
10
10
10
10
10
10
10
10
10
10
10
10
10
10
10
10
10
10
10
10
10
10
10
10
10
10
10
10
10
10
10
10
10
10
10
10
10
10
10
10
10
10
10
10
10
10
10
10
10
10
10
10
10
10
10
10
10
10
10
10
10
10
10
10
10
10
10
10
10
10
10
10
10
10
10
10
10
10
10
10
10
10
10
10
10
10
10
10
10
10
10
10
10
10
10
10
10
10
10
10
10
10
10
10
10
10
10
10
10
10
10
10
10
10
10
10
10
10
10
10
10
10
10
10
10
10
10
10
10
10
10
10
10
10
10
10
10
10
10
10
10
10
10
10
10
10
10
10
10
10
10
10
10
10
10
10
10
10
10
10
10
10
10
10
10
10
10
10
10
10
10
10
10
10
10
10
10
10
10
10
10
10
10
10
10
10
10
10
10
10
10
10
10
10
10
10
10
10
10
10
10
10
10
10
10
10
10
10
10
10
10
10
10
10
10
10
10
10
10
10
10
10
10
10
10
10
10
10
10
10
10
10
10
10
10
10
10
10
10
10
10
10
10
10
10
10
10
10
10
10
10
10
10
10
10
10
10
10
10
10
10
10
10
10
10
10
10
10
10
10
10
10
10
10
10
10
10
10
10
10
10
10
10
10
10
10
10
10
10
10
10
10
10
10
10
10
10
10
10
10
10
10
10
10
10
10
10
10
10
10
10
10
10
10
10
10
10
10
10
10
10
10
10
10
10
10
10
10
10
10
10
10
10
10
10
10
10
10
10
10
10
10
10
10
10
10
10
10
10
10
10
10
10
10
10
10
10
10
10
10
10
10
10
10
10
10
10
10
10
10
10
10
10
10
10
10
10
10
10
10
10
10
10
10
10
10
10
10
10
10
10
10
10
10
10
10
10
10
10
10
10
10
10
10
10
10
10
10
10
10
10
10
10
10
10
10
10
10
10
10
10
10
10
10
10
10
10
10
10
10
10
10
10
10
10
10
10
10
10
10
10
10
10
10
10
10
10
10
10
10
10
10
10
10
10
10
10
10
10
10
10
10
10
10
10
10
10
10
10
10
10
10
10
10
10
10
10
10
10
10
10
10
10
10
10
10
10
10
10
10
10
10
10
10
10
10
10
10
10
10
10
10
10
10
10
10
10
10
10
10
10
10
10
10
10
10
10
10
10
10
10
10
10
10
10
10
10
10
10
10
10
10
10
10
10
10
10
10
10
10
10
10
10
10
10
10
10
10
10
10
10
10
10
10
10
10
10
10
10
10
10
10
10
10
10
10
10
10
10
10
10
10
10
10
10
10
10
10
10
10
10
10
10
10
10
10
10
10
10
10
10
10
10
10
10
10
10
10
10
10
10
10
10
10
10
10
10
10
10
10
10
10
10
10
10
10
10
10
10
10
10
10
10
10
10
10
10
10
10
10
10
10
10
10
10
10
10
10
10
10
10
10
10
10
10
10
10
10
10
10
10
10
10
10
10
10
10
10
10
10
10
10
10
10
10
10
10
10
10
10
10
10
10
10
10
10
10
10
10
10
10
10
10
10
10
10
10
10
10
10
10
10
10
10
10
10
10
10
10
10
10
10
10
10
10
10
10
10
10
10
10
10
10
10
10
10
10
10
10
10
10
10
10
10
10
10
10
10
10
10
10
10
10
10
10
10
10
10
10
10
10
10
10
10
10
10
10
10
10
10
10
10
10
10
10
10
10
10
10
10
10
10
10
10
10
10
10
10
10
10
10
10
10
10
10
10
10
10
10
10
10
10
10
10
10
10
10
10
10
10
10
10
10
10
10
10
10
10
10
10
10
10
10
10
10
10
10
10
10
10
10
10
10
10
10
10
10
10
10
10
10
10
10
10
10
10
10
10
10
10
10
10
10
10
10
10
10
10
10
10
10
10
10
10
10
10
10
10
10
10
10
10
10
10
10
10
10
10
10
10
10
10
10
10
10
10
10
10
10
10
10
              </DataArray>   
          </Cells>  
          <PointData>  
             <DataArray type="Float64" NumberOfComponents="3" Name="Strains" format="ascii">   
-6.308032811912246e-05   0.0   -4.14868802866494e-05
-6.308032811912246e-05   0.0   -4.14868802866494e-05
-6.308032811912246e-05   0.0   -4.14868802866494e-05
-6.308032811912246e-05   0.0   -4.14868802866494e-05
-4.0130614229644974e-05   6.976526895806088e-06   9.485589999633074e-07
-4.0130614229644974e-05   6.976526895806088e-06   9.485589999633074e-07
-4.0130614229644974e-05   6.976526895806088e-06   9.485589999633074e-07
-4.0130614229644974e-05   6.976526895806088e-06   9.485589999633074e-07
-3.93311115523546e-05   0.0   -3.916690832647817e-05
-3.93311115523546e-05   0.0   -3.916690832647817e-05
-3.93311115523546e-05   0.0   -3.916690832647817e-05
-3.93311115523546e-05   0.0   -3.916690832647817e-05
-6.60093158481464e-05   8.377704899691465e-06   2.701425600267675e-07
-6.60093158481464e-05   8.377704899691465e-06   2.701425600267675e-07
-6.60093158481464e-05   8.377704899691465e-06   2.701425600267675e-07
-6.60093158481464e-05   8.377704899691465e-06   2.701425600267675e-07
-5.120571983573844e-05   1.9333099668093575e-06   -2.0535880500923853e-05
-5.120571983573844e-05   1.9333099668093575e-06   -2.0535880500923853e-05
-5.120571983573844e-05   1.9333099668093575e-06   -2.0535880500923853e-05
-5.120571983573844e-05   1.9333099668093575e-06   -2.0535880500923853e-05
-6.60093158481465e-05   0.0   -4.419353126629306e-05
-6.60093158481465e-05   0.0   -4.419353126629306e-05
-6.60093158481465e-05   0.0   -4.419353126629306e-05
-6.60093158481465e-05   0.0   -4.419353126629306e-05
-3.93311115523546e-05   8.377704899691478e-06   5.296765499841668e-06
-3.93311115523546e-05   8.377704899691478e-06   5.296765499841668e-06
-3.93311115523546e-05   8.377704899691478e-06   5.296765499841668e-06
-3.93311115523546e-05   8.377704899691478e-06   5.296765499841668e-06
-3.9435707561971685e-05   0.0   -4.012387426149866e-05
-3.9435707561971685e-05   0.0   -4.012387426149866e-05
-3.9435707561971685e-05   0.0   -4.012387426149866e-05
-3.9435707561971685e-05   0.0   -4.012387426149866e-05
-6.806341169408674e-05   8.97695060833279e-06   2.2027955936936174e-06
-6.806341169408674e-05   8.97695060833279e-06   2.2027955936936174e-06
-6.806341169408674e-05   8.97695060833279e-06   2.2027955936936174e-06
-6.806341169408674e-05   8.97695060833279e-06   2.2027955936936174e-06
-5.2722511705059e-05   3.3913808373286684e-06   -2.0014029192083465e-05
-5.2722511705059e-05   3.3913808373286684e-06   -2.0014029192083465e-05
-5.2722511705059e-05   3.3913808373286684e-06   -2.0014029192083465e-05
-5.2722511705059e-05   3.3913808373286684e-06   -2.0014029192083465e-05
-6.806341169408686e-05   0.0   -4.5510044626498334e-05
-6.806341169408686e-05   0.0   -4.5510044626498334e-05
-6.806341169408686e-05   0.0   -4.5510044626498334e-05
-6.806341169408686e-05   0.0   -4.5510044626498334e-05
-3.9435707561971685e-05   8.976950608332804e-06   7.588965958693305e-06
-3.9435707561971685e-05   8.976950608332804e-06   7.588965958693305e-06
-3.9435707561971685e-05   8.976950608332804e-06   7.588965958693305e-06
-3.9435707561971685e-05   8.976950608332804e-06   7.588965958693305e-06
-3.94078495968347e-05   0.0   -4.0370773676894056e-05
-3.94078495968347e-05   0.0   -4.0370773676894056e-05
-3.94078495968347e-05   0.0   -4.0370773676894056e-05
-3.94078495968347e-05   0.0   -4.0370773676894056e-05
-7.249477659330464e-05   1.0231278383703707e-05   8.635337620333791e-06
-7.249477659330464e-05   1.0231278383703707e-05   8.635337620333791e-06
-7.249477659330464e-05   1.0231278383703707e-05   8.635337620333791e-06
-7.249477659330464e-05   1.0231278383703707e-05   8.635337620333791e-06
-5.3735630645460685e-05   4.2827257913368995e-06   -1.906077407065268e-05
-5.3735630645460685e-05   4.2827257913368995e-06   -1.906077407065268e-05
-5.3735630645460685e-05   4.2827257913368995e-06   -1.906077407065268e-05
-5.3735630645460685e-05   4.2827257913368995e-06   -1.906077407065268e-05
-4.013061422964504e-05   0.0   -3.730096414916575e-05
-4.013061422964504e-05   0.0   -3.730096414916575e-05
-4.013061422964504e-05   0.0   -3.730096414916575e-05
-4.013061422964504e-05   0.0   -3.730096414916575e-05
-1.8283012766765568e-05   2.5564845813159245e-06   6.455957044229116e-07
-1.8283012766765568e-05   2.5564845813159245e-06   6.455957044229116e-07
-1.8283012766765568e-05   2.5564845813159245e-06   6.455957044229116e-07
-1.8283012766765568e-05   2.5564845813159245e-06   6.455957044229116e-07
-1.7578178744414256e-05   0.0   -3.6980837393193824e-05
-1.7578178744414256e-05   0.0   -3.6980837393193824e-05
-1.7578178744414256e-05   0.0   -3.6980837393193824e-05
-1.7578178744414256e-05   0.0   -3.6980837393193824e-05
-3.93311115523546e-05   3.6434515554738993e-06   -2.9120203132442662e-06
-3.93311115523546e-05   3.6434515554738993e-06   -2.9120203132442662e-06
-3.93311115523546e-05   3.6434515554738993e-06   -2.9120203132442662e-06
-3.93311115523546e-05   3.6434515554738993e-06   -2.9120203132442662e-06
-2.88543964870296e-05   2.667722966432631e-07   -1.834720453348742e-05
-2.88543964870296e-05   2.667722966432631e-07   -1.834720453348742e-05
-2.88543964870296e-05   2.667722966432631e-07   -1.834720453348742e-05
-2.88543964870296e-05   2.667722966432631e-07   -1.834720453348742e-05
-3.9331111552354566e-05   0.0   -3.916690832647814e-05
-3.9331111552354566e-05   0.0   -3.916690832647814e-05
-3.9331111552354566e-05   0.0   -3.916690832647814e-05
-3.9331111552354566e-05   0.0   -3.916690832647814e-05
-1.7578178744414256e-05   3.6434515554738993e-06   -7.259493799599287e-07
-1.7578178744414256e-05   3.6434515554738993e-06   -7.259493799599287e-07
-1.7578178744414256e-05   3.6434515554738993e-06   -7.259493799599287e-07
-1.7578178744414256e-05   3.6434515554738993e-06   -7.259493799599287e-07
-1.7179736883791825e-05   0.0   -3.744373871674328e-05
-1.7179736883791825e-05   0.0   -3.744373871674328e-05
-1.7179736883791825e-05   0.0   -3.744373871674328e-05
-1.7179736883791825e-05   0.0   -3.744373871674328e-05
-3.9435707561971685e-05   4.4668925745922885e-06   -3.0305897978655656e-06
-3.9435707561971685e-05   4.4668925745922885e-06   -3.0305897978655656e-06
-3.9435707561971685e-05   4.4668925745922885e-06   -3.0305897978655656e-06
-3.9435707561971685e-05   4.4668925745922885e-06   -3.0305897978655656e-06
-2.825542421807316e-05   1.4359746747790735e-06   -1.9845844631141684e-05
-2.825542421807316e-05   1.4359746747790735e-06   -1.9845844631141684e-05
-2.825542421807316e-05   1.4359746747790735e-06   -1.9845844631141684e-05
-2.825542421807316e-05   1.4359746747790735e-06   -1.9845844631141684e-05
-3.9435707561971685e-05   0.0   -4.012387426149866e-05
-3.9435707561971685e-05   0.0   -4.012387426149866e-05
-3.9435707561971685e-05   0.0   -4.012387426149866e-05
-3.9435707561971685e-05   0.0   -4.012387426149866e-05
-1.7179736883791825e-05   4.4668925745922885e-06   -3.5045425311019585e-07
-1.7179736883791825e-05   4.4668925745922885e-06   -3.5045425311019585e-07
-1.7179736883791825e-05   4.4668925745922885e-06   -3.5045425311019585e-07
-1.7179736883791825e-05   4.4668925745922885e-06   -3.5045425311019585e-07
-1.6815879558098908e-05   0.0   -3.7251223046288815e-05
-1.6815879558098908e-05   0.0   -3.7251223046288815e-05
-1.6815879558098908e-05   0.0   -3.7251223046288815e-05
-1.6815879558098908e-05   0.0   -3.7251223046288815e-05
-3.94078495968346e-05   5.199251051008665e-06   -2.7174902790010535e-06
-3.94078495968346e-05   5.199251051008665e-06   -2.7174902790010535e-06
-3.94078495968346e-05   5.199251051008665e-06   -2.7174902790010535e-06
-3.94078495968346e-05   5.199251051008665e-06   -2.7174902790010535e-06
-2.8125793560035283e-05   2.3938760126748437e-06   -1.9837691983999757e-05
-2.8125793560035283e-05   2.3938760126748437e-06   -1.9837691983999757e-05
-2.8125793560035283e-05   2.3938760126748437e-06   -1.9837691983999757e-05
-2.8125793560035283e-05   2.3938760126748437e-06   -1.9837691983999757e-05
-1.82830127667656e-05   0.0   -3.576707340037619e-05
-1.82830127667656e-05   0.0   -3.576707340037619e-05
-1.82830127667656e-05   0.0   -3.576707340037619e-05
-1.82830127667656e-05   0.0   -3.576707340037619e-05
2.353461134121291e-06   -3.2920251855940024e-07   -1.5704717433669738e-06
2.353461134121291e-06   -3.2920251855940024e-07   -1.5704717433669738e-06
2.353461134121291e-06   -3.2920251855940024e-07   -1.5704717433669738e-06
2.353461134121291e-06   -3.2920251855940024e-07   -1.5704717433669738e-06
2.806287373370525e-06   0.0   -3.659283592382472e-05
2.806287373370525e-06   0.0   -3.659283592382472e-05
2.806287373370525e-06   0.0   -3.659283592382472e-05
2.806287373370525e-06   0.0   -3.659283592382472e-05
-1.7578178744414225e-05   6.46669115614973e-07   -3.006727196885836e-06
-1.7578178744414225e-05   6.46669115614973e-07   -3.006727196885836e-06
-1.7578178744414225e-05   6.46669115614973e-07   -3.006727196885836e-06
-1.7578178744414225e-05   6.46669115614973e-07   -3.006727196885836e-06
-7.738362696697506e-06   -6.881354362072127e-07   -1.8605537878653664e-05
-7.738362696697506e-06   -6.881354362072127e-07   -1.8605537878653664e-05
-7.738362696697506e-06   -6.881354362072127e-07   -1.8605537878653664e-05
-7.738362696697506e-06   -6.881354362072127e-07   -1.8605537878653664e-05
-1.7578178744414256e-05   0.0   -3.6980837393193824e-05
-1.7578178744414256e-05   0.0   -3.6980837393193824e-05
-1.7578178744414256e-05   0.0   -3.6980837393193824e-05
-1.7578178744414256e-05   0.0   -3.6980837393193824e-05
2.8062873733705303e-06   6.46669115614973e-07   -2.618725727516855e-06
2.8062873733705303e-06   6.46669115614973e-07   -2.618725727516855e-06
2.8062873733705303e-06   6.46669115614973e-07   -2.618725727516855e-06
2.8062873733705303e-06   6.46669115614973e-07   -2.618725727516855e-06
3.1645225062727366e-06   0.0   -3.6539998659223e-05
3.1645225062727366e-06   0.0   -3.6539998659223e-05
3.1645225062727366e-06   0.0   -3.6539998659223e-05
3.1645225062727366e-06   0.0   -3.6539998659223e-05
-1.7179736883791764e-05   1.5062334292003624e-06   -3.5366397333023376e-06
-1.7179736883791764e-05   1.5062334292003624e-06   -3.5366397333023376e-06
-1.7179736883791764e-05   1.5062334292003624e-06   -3.5366397333023376e-06
-1.7179736883791764e-05   1.5062334292003624e-06   -3.5366397333023376e-06
-7.206828119070744e-06   3.6736561164230503e-07   -1.94748336506359e-05
-7.206828119070744e-06   3.6736561164230503e-07   -1.94748336506359e-05
-7.206828119070744e-06   3.6736561164230503e-07   -1.94748336506359e-05
-7.206828119070744e-06   3.6736561164230503e-07   -1.94748336506359e-05
-1.7179736883791825e-05   0.0   -3.744373871674328e-05
-1.7179736883791825e-05   0.0   -3.744373871674328e-05
-1.7179736883791825e-05   0.0   -3.744373871674328e-05
-1.7179736883791825e-05   0.0   -3.744373871674328e-05
3.164522506272742e-06   1.5062334292003624e-06   -2.6328996757821236e-06
3.164522506272742e-06   1.5062334292003624e-06   -2.6328996757821236e-06
3.164522506272742e-06   1.5062334292003624e-06   -2.6328996757821236e-06
3.164522506272742e-06   1.5062334292003624e-06   -2.6328996757821236e-06
3.6444300714139595e-06   0.0   -3.5750351888039305e-05
3.6444300714139595e-06   0.0   -3.5750351888039305e-05
3.6444300714139595e-06   0.0   -3.5750351888039305e-05
3.6444300714139595e-06   0.0   -3.5750351888039305e-05
-1.6815879558098864e-05   2.5014519304157945e-06   -3.150706997100697e-06
-1.6815879558098864e-05   2.5014519304157945e-06   -3.150706997100697e-06
-1.6815879558098864e-05   2.5014519304157945e-06   -3.150706997100697e-06
-1.6815879558098864e-05   2.5014519304157945e-06   -3.150706997100697e-06
-6.767653406188917e-06   1.41115569058659e-06   -1.9243572839719783e-05
-6.767653406188917e-06   1.41115569058659e-06   -1.9243572839719783e-05
-6.767653406188917e-06   1.41115569058659e-06   -1.9243572839719783e-05
-6.767653406188917e-06   1.41115569058659e-06   -1.9243572839719783e-05
2.3534611341212954e-06   0.0   -3.596459491151183e-05
2.3534611341212954e-06   0.0   -3.596459491151183e-05
2.3534611341212954e-06   0.0   -3.596459491151183e-05
2.3534611341212954e-06   0.0   -3.596459491151183e-05
2.4759422192734723e-05   -2.904060653176666e-06   -3.637628723954185e-07
2.4759422192734723e-05   -2.904060653176666e-06   -3.637628723954185e-07
2.4759422192734723e-05   -2.904060653176666e-06   -3.637628723954185e-07
2.4759422192734723e-05   -2.904060653176666e-06   -3.637628723954185e-07
2.4811015237054308e-05   0.0   -3.790533273574386e-05
2.4811015237054308e-05   0.0   -3.790533273574386e-05
2.4811015237054308e-05   0.0   -3.790533273574386e-05
2.4811015237054308e-05   0.0   -3.790533273574386e-05
2.806287373370535e-06   -2.187494686531692e-06   8.171051564810866e-08
2.806287373370535e-06   -2.187494686531692e-06   8.171051564810866e-08
2.806287373370535e-06   -2.187494686531692e-06   8.171051564810866e-08
2.806287373370535e-06   -2.187494686531692e-06   8.171051564810866e-08
1.3582238185587801e-05   -1.617281520193362e-06   -1.8220335404516987e-05
1.3582238185587801e-05   -1.617281520193362e-06   -1.8220335404516987e-05
1.3582238185587801e-05   -1.617281520193362e-06   -1.8220335404516987e-05
1.3582238185587801e-05   -1.617281520193362e-06   -1.8220335404516987e-05
2.806287373370535e-06   0.0   -3.659283592382484e-05
2.806287373370535e-06   0.0   -3.659283592382484e-05
2.806287373370535e-06   0.0   -3.659283592382484e-05
2.806287373370535e-06   0.0   -3.659283592382484e-05
2.4811015237054308e-05   -2.187494686531692e-06   -1.2307862962709053e-06
2.4811015237054308e-05   -2.187494686531692e-06   -1.2307862962709053e-06
2.4811015237054308e-05   -2.187494686531692e-06   -1.2307862962709053e-06
2.4811015237054308e-05   -2.187494686531692e-06   -1.2307862962709053e-06
2.4711274031639087e-05   0.0   -3.7364113104418216e-05
2.4711274031639087e-05   0.0   -3.7364113104418216e-05
2.4711274031639087e-05   0.0   -3.7364113104418216e-05
2.4711274031639087e-05   0.0   -3.7364113104418216e-05
3.164522506272742e-06   -1.3735240753252529e-06   -6.287461169458254e-07
3.164522506272742e-06   -1.3735240753252529e-06   -6.287461169458254e-07
3.164522506272742e-06   -1.3735240753252529e-06   -6.287461169458254e-07
3.164522506272742e-06   -1.3735240753252529e-06   -6.287461169458254e-07
1.3758780702504811e-05   -6.427309838278113e-07   -1.872431896556439e-05
1.3758780702504811e-05   -6.427309838278113e-07   -1.872431896556439e-05
1.3758780702504811e-05   -6.427309838278113e-07   -1.872431896556439e-05
1.3758780702504811e-05   -6.427309838278113e-07   -1.872431896556439e-05
3.164522506272739e-06   0.0   -3.653999865922303e-05
3.164522506272739e-06   0.0   -3.653999865922303e-05
3.164522506272739e-06   0.0   -3.653999865922303e-05
3.164522506272739e-06   0.0   -3.653999865922303e-05
2.4711274031639087e-05   -1.3735240753252529e-06   -1.452860562140976e-06
2.4711274031639087e-05   -1.3735240753252529e-06   -1.452860562140976e-06
2.4711274031639087e-05   -1.3735240753252529e-06   -1.452860562140976e-06
2.4711274031639087e-05   -1.3735240753252529e-06   -1.452860562140976e-06
2.5196122650910916e-05   0.0   -3.591842789839564e-05
2.5196122650910916e-05   0.0   -3.591842789839564e-05
2.5196122650910916e-05   0.0   -3.591842789839564e-05
2.5196122650910916e-05   0.0   -3.591842789839564e-05
3.644430071413966e-06   -2.801266839271127e-07   1.6913574445553756e-07
3.644430071413966e-06   -2.801266839271127e-07   1.6913574445553756e-07
3.644430071413966e-06   -2.801266839271127e-07   1.6913574445553756e-07
3.644430071413966e-06   -2.801266839271127e-07   1.6913574445553756e-07
1.4180322578591818e-05   5.179756340228524e-07   -1.7869546491610843e-05
1.4180322578591818e-05   5.179756340228524e-07   -1.7869546491610843e-05
1.4180322578591818e-05   5.179756340228524e-07   -1.7869546491610843e-05
1.4180322578591818e-05   5.179756340228524e-07   -1.7869546491610843e-05
2.4759422192734723e-05   0.0   -3.770703130341782e-05
2.4759422192734723e-05   0.0   -3.770703130341782e-05
2.4759422192734723e-05   0.0   -3.770703130341782e-05
2.4759422192734723e-05   0.0   -3.770703130341782e-05
5.593793887633602e-05   -7.366870710387495e-06   9.83704074301883e-06
5.593793887633602e-05   -7.366870710387495e-06   9.83704074301883e-06
5.593793887633602e-05   -7.366870710387495e-06   9.83704074301883e-06
5.593793887633602e-05   -7.366870710387495e-06   9.83704074301883e-06
5.2544580286259484e-05   0.0   -4.16637556631981e-05
5.2544580286259484e-05   0.0   -4.16637556631981e-05
5.2544580286259484e-05   0.0   -4.16637556631981e-05
5.2544580286259484e-05   0.0   -4.16637556631981e-05
2.4811015237054308e-05   -6.264038212423737e-06   8.317275679598082e-06
2.4811015237054308e-05   -6.264038212423737e-06   8.317275679598082e-06
2.4811015237054308e-05   -6.264038212423737e-06   8.317275679598082e-06
2.4811015237054308e-05   -6.264038212423737e-06   8.317275679598082e-06
3.865200123949711e-05   -3.2972702998168977e-06   -1.6531095072037314e-05
3.865200123949711e-05   -3.2972702998168977e-06   -1.6531095072037314e-05
3.865200123949711e-05   -3.2972702998168977e-06   -1.6531095072037314e-05
3.865200123949711e-05   -3.2972702998168977e-06   -1.6531095072037314e-05
2.4811015237054287e-05   0.0   -3.790533273574383e-05
2.4811015237054287e-05   0.0   -3.790533273574383e-05
2.4811015237054287e-05   0.0   -3.790533273574383e-05
2.4811015237054287e-05   0.0   -3.790533273574383e-05
5.25445802862593e-05   -6.26403821242371e-06   4.558852752143834e-06
5.25445802862593e-05   -6.26403821242371e-06   4.558852752143834e-06
5.25445802862593e-05   -6.26403821242371e-06   4.558852752143834e-06
5.25445802862593e-05   -6.26403821242371e-06   4.558852752143834e-06
5.098271232647748e-05   0.0   -4.079761486280609e-05
5.098271232647748e-05   0.0   -4.079761486280609e-05
5.098271232647748e-05   0.0   -4.079761486280609e-05
5.098271232647748e-05   0.0   -4.079761486280609e-05
2.4711274031639087e-05   -5.722502930646467e-06   6.421617386979097e-06
2.4711274031639087e-05   -5.722502930646467e-06   6.421617386979097e-06
2.4711274031639087e-05   -5.722502930646467e-06   6.421617386979097e-06
2.4711274031639087e-05   -5.722502930646467e-06   6.421617386979097e-06
3.789686378176587e-05   -2.4102351058851986e-06   -1.754172622475564e-05
3.789686378176587e-05   -2.4102351058851986e-06   -1.754172622475564e-05
3.789686378176587e-05   -2.4102351058851986e-06   -1.754172622475564e-05
3.789686378176587e-05   -2.4102351058851986e-06   -1.754172622475564e-05
2.4711274031639087e-05   0.0   -3.7364113104418216e-05
2.4711274031639087e-05   0.0   -3.7364113104418216e-05
2.4711274031639087e-05   0.0   -3.7364113104418216e-05
2.4711274031639087e-05   0.0   -3.7364113104418216e-05
5.0982712326477305e-05   -5.7225029306464395e-06   2.9881156285912076e-06
5.0982712326477305e-05   -5.7225029306464395e-06   2.9881156285912076e-06
5.0982712326477305e-05   -5.7225029306464395e-06   2.9881156285912076e-06
5.0982712326477305e-05   -5.7225029306464395e-06   2.9881156285912076e-06
4.8652972603844625e-05   0.0   -3.858420972337112e-05
4.8652972603844625e-05   0.0   -3.858420972337112e-05
4.8652972603844625e-05   0.0   -3.858420972337112e-05
4.8652972603844625e-05   0.0   -3.858420972337112e-05
2.5196122650910916e-05   -4.442969708292576e-06   3.176322023160685e-06
2.5196122650910916e-05   -4.442969708292576e-06   3.176322023160685e-06
2.5196122650910916e-05   -4.442969708292576e-06   3.176322023160685e-06
2.5196122650910916e-05   -4.442969708292576e-06   3.176322023160685e-06
3.66821233177419e-05   -1.0167471824608056e-06   -1.8022745937056665e-05
3.66821233177419e-05   -1.0167471824608056e-06   -1.8022745937056665e-05
3.66821233177419e-05   -1.0167471824608056e-06   -1.8022745937056665e-05
3.66821233177419e-05   -1.0167471824608056e-06   -1.8022745937056665e-05
-5.4666632596670015e-05   6.976526895806061e-06   -3.592633094148472e-05
-5.4666632596670015e-05   6.976526895806061e-06   -3.592633094148472e-05
-5.4666632596670015e-05   6.976526895806061e-06   -3.592633094148472e-05
-5.4666632596670015e-05   6.976526895806061e-06   -3.592633094148472e-05
-3.501933337322961e-05   6.269964815418765e-06   -3.604769483983071e-06
-3.501933337322961e-05   6.269964815418765e-06   -3.604769483983071e-06
-3.501933337322961e-05   6.269964815418765e-06   -3.604769483983071e-06
-3.501933337322961e-05   6.269964815418765e-06   -3.604769483983071e-06
-3.589714516537806e-05   8.377704899691465e-06   -3.017784830695278e-05
-3.589714516537806e-05   8.377704899691465e-06   -3.017784830695278e-05
-3.589714516537806e-05   8.377704899691465e-06   -3.017784830695278e-05
-3.589714516537806e-05   8.377704899691465e-06   -3.017784830695278e-05
-5.5251515559715975e-05   7.528937406489617e-06   2.5886961795316217e-06
-5.5251515559715975e-05   7.528937406489617e-06   2.5886961795316217e-06
-5.5251515559715975e-05   7.528937406489617e-06   2.5886961795316217e-06
-5.5251515559715975e-05   7.528937406489617e-06   2.5886961795316217e-06
-4.3417643677866875e-05   7.289059195533028e-06   -1.6990496696976556e-05
-4.3417643677866875e-05   7.289059195533028e-06   -1.6990496696976556e-05
-4.3417643677866875e-05   7.289059195533028e-06   -1.6990496696976556e-05
-4.3417643677866875e-05   7.289059195533028e-06   -1.6990496696976556e-05
-5.5251515559715975e-05   8.377704899691465e-06   -2.9668587811031676e-05
-5.5251515559715975e-05   8.377704899691465e-06   -2.9668587811031676e-05
-5.5251515559715975e-05   8.377704899691465e-06   -2.9668587811031676e-05
-5.5251515559715975e-05   8.377704899691465e-06   -2.9668587811031676e-05
-3.5897145165378184e-05   7.528937406489644e-06   2.0794356836105184e-06
-3.5897145165378184e-05   7.528937406489644e-06   2.0794356836105184e-06
-3.5897145165378184e-05   7.528937406489644e-06   2.0794356836105184e-06
-3.5897145165378184e-05   7.528937406489644e-06   2.0794356836105184e-06
-3.607757101982515e-05   8.976950608332777e-06   -2.7135616319599567e-05
-3.607757101982515e-05   8.976950608332777e-06   -2.7135616319599567e-05
-3.607757101982515e-05   8.976950608332777e-06   -2.7135616319599567e-05
-3.607757101982515e-05   8.976950608332777e-06   -2.7135616319599567e-05
-5.5634409722608505e-05   8.097283780828982e-06   5.9869149482080785e-06
-5.5634409722608505e-05   8.097283780828982e-06   5.9869149482080785e-06
-5.5634409722608505e-05   8.097283780828982e-06   5.9869149482080785e-06
-5.5634409722608505e-05   8.097283780828982e-06   5.9869149482080785e-06
-4.468979337160901e-05   8.080498668645484e-06   -1.2244041236147472e-05
-4.468979337160901e-05   8.080498668645484e-06   -1.2244041236147472e-05
-4.468979337160901e-05   8.080498668645484e-06   -1.2244041236147472e-05
-4.468979337160901e-05   8.080498668645484e-06   -1.2244041236147472e-05
-5.56344097226084e-05   8.976950608332777e-06   -2.6607816223097314e-05
-5.56344097226084e-05   8.976950608332777e-06   -2.6607816223097314e-05
-5.56344097226084e-05   8.976950608332777e-06   -2.6607816223097314e-05
-5.56344097226084e-05   8.976950608332777e-06   -2.6607816223097314e-05
-3.6077571019825215e-05   8.097283780828982e-06   5.459114851705826e-06
-3.6077571019825215e-05   8.097283780828982e-06   5.459114851705826e-06
-3.6077571019825215e-05   8.097283780828982e-06   5.459114851705826e-06
-3.6077571019825215e-05   8.097283780828982e-06   5.459114851705826e-06
-3.586877664663464e-05   1.0231278383703694e-05   -2.0062271325941558e-05
-3.586877664663464e-05   1.0231278383703694e-05   -2.0062271325941558e-05
-3.586877664663464e-05   1.0231278383703694e-05   -2.0062271325941558e-05
-3.586877664663464e-05   1.0231278383703694e-05   -2.0062271325941558e-05
-5.408299002639188e-05   8.551123842485319e-06   1.1302843698384683e-05
-5.408299002639188e-05   8.551123842485319e-06   1.1302843698384683e-05
-5.408299002639188e-05   8.551123842485319e-06   1.1302843698384683e-05
-5.408299002639188e-05   8.551123842485319e-06   1.1302843698384683e-05
-4.352198175244417e-05   8.865370154266278e-06   -6.48738454526337e-06
-4.352198175244417e-05   8.865370154266278e-06   -6.48738454526337e-06
-4.352198175244417e-05   8.865370154266278e-06   -6.48738454526337e-06
-4.352198175244417e-05   8.865370154266278e-06   -6.48738454526337e-06
-3.501933337322961e-05   2.5564845813159313e-06   -3.818712223404707e-05
-3.501933337322961e-05   2.5564845813159313e-06   -3.818712223404707e-05
-3.501933337322961e-05   2.5564845813159313e-06   -3.818712223404707e-05
-3.501933337322961e-05   2.5564845813159313e-06   -3.818712223404707e-05
-1.6604498447785558e-05   2.91763378409984e-06   -7.2790411699699e-06
-1.6604498447785558e-05   2.91763378409984e-06   -7.2790411699699e-06
-1.6604498447785558e-05   2.91763378409984e-06   -7.2790411699699e-06
-1.6604498447785558e-05   2.91763378409984e-06   -7.2790411699699e-06
-1.6997707628681054e-05   3.6434515554738993e-06   -3.8127550714477814e-05
-1.6997707628681054e-05   3.6434515554738993e-06   -3.8127550714477814e-05
-1.6997707628681054e-05   3.6434515554738993e-06   -3.8127550714477814e-05
-1.6997707628681054e-05   3.6434515554738993e-06   -3.8127550714477814e-05
-3.589714516537806e-05   4.075257231408704e-06   -6.887571558876905e-06
-3.589714516537806e-05   4.075257231408704e-06   -6.887571558876905e-06
-3.589714516537806e-05   4.075257231408704e-06   -6.887571558876905e-06
-3.589714516537806e-05   4.075257231408704e-06   -6.887571558876905e-06
-2.6055854828424917e-05   3.2810952443402446e-06   -2.2813224928224605e-05
-2.6055854828424917e-05   3.2810952443402446e-06   -2.2813224928224605e-05
-2.6055854828424917e-05   3.2810952443402446e-06   -2.2813224928224605e-05
-2.6055854828424917e-05   3.2810952443402446e-06   -2.2813224928224605e-05
-3.589714516537803e-05   3.6434515554738993e-06   -3.8386634120038625e-05
-3.589714516537803e-05   3.6434515554738993e-06   -3.8386634120038625e-05
-3.589714516537803e-05   3.6434515554738993e-06   -3.8386634120038625e-05
-3.589714516537803e-05   3.6434515554738993e-06   -3.8386634120038625e-05
-1.6997707628681078e-05   4.075257231408731e-06   -6.62848815331606e-06
-1.6997707628681078e-05   4.075257231408731e-06   -6.62848815331606e-06
-1.6997707628681078e-05   4.075257231408731e-06   -6.62848815331606e-06
-1.6997707628681078e-05   4.075257231408731e-06   -6.62848815331606e-06
-1.7118801242894713e-05   4.466892574592275e-06   -3.741497461968748e-05
-1.7118801242894713e-05   4.466892574592275e-06   -3.741497461968748e-05
-1.7118801242894713e-05   4.466892574592275e-06   -3.741497461968748e-05
-1.7118801242894713e-05   4.466892574592275e-06   -3.741497461968748e-05
-3.607757101982515e-05   5.033888335377173e-06   -6.157222447941078e-06
-3.607757101982515e-05   5.033888335377173e-06   -6.157222447941078e-06
-3.607757101982515e-05   5.033888335377173e-06   -6.157222447941078e-06
-3.607757101982515e-05   5.033888335377173e-06   -6.157222447941078e-06
-2.6256454269016664e-05   4.16622460665985e-06   -2.2005152128724714e-05
-2.6256454269016664e-05   4.16622460665985e-06   -2.2005152128724714e-05
-2.6256454269016664e-05   4.16622460665985e-06   -2.2005152128724714e-05
-2.6256454269016664e-05   4.16622460665985e-06   -2.2005152128724714e-05
-3.607757101982515e-05   4.466892574592275e-06   -3.7755172076158424e-05
-3.607757101982515e-05   4.466892574592275e-06   -3.7755172076158424e-05
-3.607757101982515e-05   4.466892574592275e-06   -3.7755172076158424e-05
-3.607757101982515e-05   4.466892574592275e-06   -3.7755172076158424e-05
-1.7118801242894774e-05   5.0338883353772e-06   -5.8170249914701584e-06
-1.7118801242894774e-05   5.0338883353772e-06   -5.8170249914701584e-06
-1.7118801242894774e-05   5.0338883353772e-06   -5.8170249914701584e-06
-1.7118801242894774e-05   5.0338883353772e-06   -5.8170249914701584e-06
-1.7073735128928868e-05   5.1992510510086515e-06   -3.7033998338523256e-05
-1.7073735128928868e-05   5.1992510510086515e-06   -3.7033998338523256e-05
-1.7073735128928868e-05   5.1992510510086515e-06   -3.7033998338523256e-05
-1.7073735128928868e-05   5.1992510510086515e-06   -3.7033998338523256e-05
-3.586877664663461e-05   6.065697579300859e-06   -6.228797059322321e-06
-3.586877664663461e-05   6.065697579300859e-06   -6.228797059322321e-06
-3.586877664663461e-05   6.065697579300859e-06   -6.228797059322321e-06
-3.586877664663461e-05   6.065697579300859e-06   -6.228797059322321e-06
-2.6407653394099073e-05   4.967384148946521e-06   -2.1338347755335743e-05
-2.6407653394099073e-05   4.967384148946521e-06   -2.1338347755335743e-05
-2.6407653394099073e-05   4.967384148946521e-06   -2.1338347755335743e-05
-2.6407653394099073e-05   4.967384148946521e-06   -2.1338347755335743e-05
-1.6604498447785527e-05   -3.2920251855940024e-07   -3.998897864903096e-05
-1.6604498447785527e-05   -3.2920251855940024e-07   -3.998897864903096e-05
-1.6604498447785527e-05   -3.2920251855940024e-07   -3.998897864903096e-05
-1.6604498447785527e-05   -3.2920251855940024e-07   -3.998897864903096e-05
1.5774459694241824e-06   -8.793277527752402e-08   -9.540976107712277e-06
1.5774459694241824e-06   -8.793277527752402e-08   -9.540976107712277e-06
1.5774459694241824e-06   -8.793277527752402e-08   -9.540976107712277e-06
1.5774459694241824e-06   -8.793277527752402e-08   -9.540976107712277e-06
1.5058002393202845e-06   6.46669115614973e-07   -4.0209021440011476e-05
1.5058002393202845e-06   6.46669115614973e-07   -4.0209021440011476e-05
1.5058002393202845e-06   6.46669115614973e-07   -4.0209021440011476e-05
1.5058002393202845e-06   6.46669115614973e-07   -4.0209021440011476e-05
-1.6997707628681054e-05   9.788476012688246e-07   -9.569148751401404e-06
-1.6997707628681054e-05   9.788476012688246e-07   -9.569148751401404e-06
-1.6997707628681054e-05   9.788476012688246e-07   -9.569148751401404e-06
-1.6997707628681054e-05   9.788476012688246e-07   -9.569148751401404e-06
-7.675352995783676e-06   3.253751159080565e-07   -2.4714322981680688e-05
-7.675352995783676e-06   3.253751159080565e-07   -2.4714322981680688e-05
-7.675352995783676e-06   3.253751159080565e-07   -2.4714322981680688e-05
-7.675352995783676e-06   3.253751159080565e-07   -2.4714322981680688e-05
-1.6997707628681054e-05   6.466691156149662e-07   -4.040832853140373e-05
-1.6997707628681054e-05   6.466691156149662e-07   -4.040832853140373e-05
-1.6997707628681054e-05   6.466691156149662e-07   -4.040832853140373e-05
-1.6997707628681054e-05   6.466691156149662e-07   -4.040832853140373e-05
1.5058002393202845e-06   9.788476012687975e-07   -9.369841660009135e-06
1.5058002393202845e-06   9.788476012687975e-07   -9.369841660009135e-06
1.5058002393202845e-06   9.788476012687975e-07   -9.369841660009135e-06
1.5058002393202845e-06   9.788476012687975e-07   -9.369841660009135e-06
1.4074216188733305e-06   1.5062334292003691e-06   -4.029212291460651e-05
1.4074216188733305e-06   1.5062334292003691e-06   -4.029212291460651e-05
1.4074216188733305e-06   1.5062334292003691e-06   -4.029212291460651e-05
1.4074216188733305e-06   1.5062334292003691e-06   -4.029212291460651e-05
-1.7118801242894713e-05   2.0212954046555437e-06   -9.724121996932932e-06
-1.7118801242894713e-05   2.0212954046555437e-06   -9.724121996932932e-06
-1.7118801242894713e-05   2.0212954046555437e-06   -9.724121996932932e-06
-1.7118801242894713e-05   2.0212954046555437e-06   -9.724121996932932e-06
-7.815246368763974e-06   1.2291319637945989e-06   -2.4754748722634165e-05
-7.815246368763974e-06   1.2291319637945989e-06   -2.4754748722634165e-05
-7.815246368763974e-06   1.2291319637945989e-06   -2.4754748722634165e-05
-7.815246368763974e-06   1.2291319637945989e-06   -2.4754748722634165e-05
-1.7118801242894713e-05   1.5062334292003691e-06   -4.060116009987962e-05
-1.7118801242894713e-05   1.5062334292003691e-06   -4.060116009987962e-05
-1.7118801242894713e-05   1.5062334292003691e-06   -4.060116009987962e-05
-1.7118801242894713e-05   1.5062334292003691e-06   -4.060116009987962e-05
1.4074216188733335e-06   2.0212954046555437e-06   -9.415084811659822e-06
1.4074216188733335e-06   2.0212954046555437e-06   -9.415084811659822e-06
1.4074216188733335e-06   2.0212954046555437e-06   -9.415084811659822e-06
1.4074216188733335e-06   2.0212954046555437e-06   -9.415084811659822e-06
1.205508608538893e-06   2.5014519304158013e-06   -4.0223270233556626e-05
1.205508608538893e-06   2.5014519304158013e-06   -4.0223270233556626e-05
1.205508608538893e-06   2.5014519304158013e-06   -4.0223270233556626e-05
1.205508608538893e-06   2.5014519304158013e-06   -4.0223270233556626e-05
-1.7073735128928882e-05   3.1072776865349763e-06   -1.012135945811519e-05
-1.7073735128928882e-05   3.1072776865349763e-06   -1.012135945811519e-05
-1.7073735128928882e-05   3.1072776865349763e-06   -1.012135945811519e-05
-1.7073735128928882e-05   3.1072776865349763e-06   -1.012135945811519e-05
-7.89862119745375e-06   2.1575700136212375e-06   -2.4843391406825488e-05
-7.89862119745375e-06   2.1575700136212375e-06   -2.4843391406825488e-05
-7.89862119745375e-06   2.1575700136212375e-06   -2.4843391406825488e-05
-7.89862119745375e-06   2.1575700136212375e-06   -2.4843391406825488e-05
1.5774459694241824e-06   -2.9040606531766455e-06   -3.689507154018425e-05
1.5774459694241824e-06   -2.9040606531766455e-06   -3.689507154018425e-05
1.5774459694241824e-06   -2.9040606531766455e-06   -3.689507154018425e-05
1.5774459694241824e-06   -2.9040606531766455e-06   -3.689507154018425e-05
2.031405046875576e-05   -2.9853573450678965e-06   -5.716175389766374e-06
2.031405046875576e-05   -2.9853573450678965e-06   -5.716175389766374e-06
2.031405046875576e-05   -2.9853573450678965e-06   -5.716175389766374e-06
2.031405046875576e-05   -2.9853573450678965e-06   -5.716175389766374e-06
2.0484385814117537e-05   -2.1874946865316853e-06   -3.740529817895381e-05
2.0484385814117537e-05   -2.1874946865316853e-06   -3.740529817895381e-05
2.0484385814117537e-05   -2.1874946865316853e-06   -3.740529817895381e-05
2.0484385814117537e-05   -2.1874946865316853e-06   -3.740529817895381e-05
1.5058002393202845e-06   -2.015349656710717e-06   -5.8776092388509e-06
1.5058002393202845e-06   -2.015349656710717e-06   -5.8776092388509e-06
1.5058002393202845e-06   -2.015349656710717e-06   -5.8776092388509e-06
1.5058002393202845e-06   -2.015349656710717e-06   -5.8776092388509e-06
1.0830299294306049e-05   -2.4136982092043662e-06   -2.1179431865664403e-05
1.0830299294306049e-05   -2.4136982092043662e-06   -2.1179431865664403e-05
1.0830299294306049e-05   -2.4136982092043662e-06   -2.1179431865664403e-05
1.0830299294306049e-05   -2.4136982092043662e-06   -2.1179431865664403e-05
1.505800239320282e-06   -2.187494686531692e-06   -3.750858519684647e-05
1.505800239320282e-06   -2.187494686531692e-06   -3.750858519684647e-05
1.505800239320282e-06   -2.187494686531692e-06   -3.750858519684647e-05
1.505800239320282e-06   -2.187494686531692e-06   -3.750858519684647e-05
2.0484385814117568e-05   -2.015349656710744e-06   -5.774322220958306e-06
2.0484385814117568e-05   -2.015349656710744e-06   -5.774322220958306e-06
2.0484385814117568e-05   -2.015349656710744e-06   -5.774322220958306e-06
2.0484385814117568e-05   -2.015349656710744e-06   -5.774322220958306e-06
2.0387136817131785e-05   -1.3735240753252529e-06   -3.810323710445958e-05
2.0387136817131785e-05   -1.3735240753252529e-06   -3.810323710445958e-05
2.0387136817131785e-05   -1.3735240753252529e-06   -3.810323710445958e-05
2.0387136817131785e-05   -1.3735240753252529e-06   -3.810323710445958e-05
1.4074216188733305e-06   -1.0656369898076254e-06   -6.655110692006122e-06
1.4074216188733305e-06   -1.0656369898076254e-06   -6.655110692006122e-06
1.4074216188733305e-06   -1.0656369898076254e-06   -6.655110692006122e-06
1.4074216188733305e-06   -1.0656369898076254e-06   -6.655110692006122e-06
1.0717480359067335e-05   -1.6399743896096364e-06   -2.1827272819114847e-05
1.0717480359067335e-05   -1.6399743896096364e-06   -2.1827272819114847e-05
1.0717480359067335e-05   -1.6399743896096364e-06   -2.1827272819114847e-05
1.0717480359067335e-05   -1.6399743896096364e-06   -2.1827272819114847e-05
1.40742161887333e-06   -1.373524075325246e-06   -3.8287969355770174e-05
1.40742161887333e-06   -1.373524075325246e-06   -3.8287969355770174e-05
1.40742161887333e-06   -1.373524075325246e-06   -3.8287969355770174e-05
1.40742161887333e-06   -1.373524075325246e-06   -3.8287969355770174e-05
2.0387136817131856e-05   -1.0656369898076254e-06   -6.47037844069554e-06
2.0387136817131856e-05   -1.0656369898076254e-06   -6.47037844069554e-06
2.0387136817131856e-05   -1.0656369898076254e-06   -6.47037844069554e-06
2.0387136817131856e-05   -1.0656369898076254e-06   -6.47037844069554e-06
1.979386892604122e-05   -2.801266839271127e-07   -3.8171141221841415e-05
1.979386892604122e-05   -2.801266839271127e-07   -3.8171141221841415e-05
1.979386892604122e-05   -2.801266839271127e-07   -3.8171141221841415e-05
1.979386892604122e-05   -2.801266839271127e-07   -3.8171141221841415e-05
1.205508608538893e-06   1.0846903008681621e-07   -7.423698121079293e-06
1.205508608538893e-06   1.0846903008681621e-07   -7.423698121079293e-06
1.205508608538893e-06   1.0846903008681621e-07   -7.423698121079293e-06
1.205508608538893e-06   1.0846903008681621e-07   -7.423698121079293e-06
1.0603115799522593e-05   -7.363311765336126e-07   -2.2579496648746477e-05
1.0603115799522593e-05   -7.363311765336126e-07   -2.2579496648746477e-05
1.0603115799522593e-05   -7.363311765336126e-07   -2.2579496648746477e-05
1.0603115799522593e-05   -7.363311765336126e-07   -2.2579496648746477e-05
2.031405046875576e-05   -7.366870710387495e-06   -2.2322923513672308e-05
2.031405046875576e-05   -7.366870710387495e-06   -2.2322923513672308e-05
2.031405046875576e-05   -7.366870710387495e-06   -2.2322923513672308e-05
2.031405046875576e-05   -7.366870710387495e-06   -2.2322923513672308e-05
3.8798870842897445e-05   -5.545402664324466e-06   9.577991270868293e-06
3.8798870842897445e-05   -5.545402664324466e-06   9.577991270868293e-06
3.8798870842897445e-05   -5.545402664324466e-06   9.577991270868293e-06
3.8798870842897445e-05   -5.545402664324466e-06   9.577991270868293e-06
4.028321191091745e-05   -6.264038212423737e-06   -2.7115278103663525e-05
4.028321191091745e-05   -6.264038212423737e-06   -2.7115278103663525e-05
4.028321191091745e-05   -6.264038212423737e-06   -2.7115278103663525e-05
4.028321191091745e-05   -6.264038212423737e-06   -2.7115278103663525e-05
2.0484385814117605e-05   -5.027441380054689e-06   5.140807291581574e-06
2.0484385814117605e-05   -5.027441380054689e-06   5.140807291581574e-06
2.0484385814117605e-05   -5.027441380054689e-06   5.140807291581574e-06
2.0484385814117605e-05   -5.027441380054689e-06   5.140807291581574e-06
2.8576155372638467e-05   -6.024428238625667e-06   -7.747283190810692e-06
2.8576155372638467e-05   -6.024428238625667e-06   -7.747283190810692e-06
2.8576155372638467e-05   -6.024428238625667e-06   -7.747283190810692e-06
2.8576155372638467e-05   -6.024428238625667e-06   -7.747283190810692e-06
2.0484385814117554e-05   -6.26403821242371e-06   -2.7857236203084836e-05
2.0484385814117554e-05   -6.26403821242371e-06   -2.7857236203084836e-05
2.0484385814117554e-05   -6.26403821242371e-06   -2.7857236203084836e-05
2.0484385814117554e-05   -6.26403821242371e-06   -2.7857236203084836e-05
4.028321191091745e-05   -5.027441380054689e-06   5.882765391002987e-06
4.028321191091745e-05   -5.027441380054689e-06   5.882765391002987e-06
4.028321191091745e-05   -5.027441380054689e-06   5.882765391002987e-06
4.028321191091745e-05   -5.027441380054689e-06   5.882765391002987e-06
4.013745674785842e-05   -5.722502930646467e-06   -2.9483855960093852e-05
4.013745674785842e-05   -5.722502930646467e-06   -2.9483855960093852e-05
4.013745674785842e-05   -5.722502930646467e-06   -2.9483855960093852e-05
4.013745674785842e-05   -5.722502930646467e-06   -2.9483855960093852e-05
2.0387136817131856e-05   -4.48099760523682e-06   2.688440729204595e-06
2.0387136817131856e-05   -4.48099760523682e-06   2.688440729204595e-06
2.0387136817131856e-05   -4.48099760523682e-06   2.688440729204595e-06
2.0387136817131856e-05   -4.48099760523682e-06   2.688440729204595e-06
2.9579857903804582e-05   -5.31805543242195e-06   -1.2130526385605535e-05
2.9579857903804582e-05   -5.31805543242195e-06   -1.2130526385605535e-05
2.9579857903804582e-05   -5.31805543242195e-06   -1.2130526385605535e-05
2.9579857903804582e-05   -5.31805543242195e-06   -1.2130526385605535e-05
2.038713681713182e-05   -5.722502930646453e-06   -3.0228759155339594e-05
2.038713681713182e-05   -5.722502930646453e-06   -3.0228759155339594e-05
2.038713681713182e-05   -5.722502930646453e-06   -3.0228759155339594e-05
2.038713681713182e-05   -5.722502930646453e-06   -3.0228759155339594e-05
4.013745674785842e-05   -4.48099760523682e-06   3.433343924450367e-06
4.013745674785842e-05   -4.48099760523682e-06   3.433343924450367e-06
4.013745674785842e-05   -4.48099760523682e-06   3.433343924450367e-06
4.013745674785842e-05   -4.48099760523682e-06   3.433343924450367e-06
3.9900569670100135e-05   -4.442969708292569e-06   -3.4313322421165844e-05
3.9900569670100135e-05   -4.442969708292569e-06   -3.4313322421165844e-05
3.9900569670100135e-05   -4.442969708292569e-06   -3.4313322421165844e-05
3.9900569670100135e-05   -4.442969708292569e-06   -3.4313322421165844e-05
1.9793868926041287e-05   -3.3053755222687674e-06   -1.484711026015424e-06
1.9793868926041287e-05   -3.3053755222687674e-06   -1.484711026015424e-06
1.9793868926041287e-05   -3.3053755222687674e-06   -1.484711026015424e-06
1.9793868926041287e-05   -3.3053755222687674e-06   -1.484711026015424e-06
2.8736559072663697e-05   -4.5773885661238504e-06   -1.5625986777406355e-05
2.8736559072663697e-05   -4.5773885661238504e-06   -1.5625986777406355e-05
2.8736559072663697e-05   -4.5773885661238504e-06   -1.5625986777406355e-05
2.8736559072663697e-05   -4.5773885661238504e-06   -1.5625986777406355e-05
-4.349385453363393e-05   6.269964815418765e-06   -3.0060755707151066e-05
-4.349385453363393e-05   6.269964815418765e-06   -3.0060755707151066e-05
-4.349385453363393e-05   6.269964815418765e-06   -3.0060755707151066e-05
-4.349385453363393e-05   6.269964815418765e-06   -3.0060755707151066e-05
-2.8527012502679847e-05   4.786275088327556e-06   -6.006232825149022e-06
-2.8527012502679847e-05   4.786275088327556e-06   -6.006232825149022e-06
-2.8527012502679847e-05   4.786275088327556e-06   -6.006232825149022e-06
-2.8527012502679847e-05   4.786275088327556e-06   -6.006232825149022e-06
-2.866306971194342e-05   7.528937406489617e-06   -2.4961902610483907e-05
-2.866306971194342e-05   7.528937406489617e-06   -2.4961902610483907e-05
-2.866306971194342e-05   7.528937406489617e-06   -2.4961902610483907e-05
-2.866306971194342e-05   7.528937406489617e-06   -2.4961902610483907e-05
-4.282938355450831e-05   5.7925183126869475e-06   -3.0952808326086293e-07
-4.282938355450831e-05   5.7925183126869475e-06   -3.0952808326086293e-07
-4.282938355450831e-05   5.7925183126869475e-06   -3.0952808326086293e-07
-4.282938355450831e-05   5.7925183126869475e-06   -3.0952808326086293e-07
-3.4360681334182734e-05   6.3768820564934865e-06   -1.4774650030087514e-05
-3.4360681334182734e-05   6.3768820564934865e-06   -1.4774650030087514e-05
-3.4360681334182734e-05   6.3768820564934865e-06   -1.4774650030087514e-05
-3.4360681334182734e-05   6.3768820564934865e-06   -1.4774650030087514e-05
-4.282938355450831e-05   7.528937406489617e-06   -2.3920051154202322e-05
-4.282938355450831e-05   7.528937406489617e-06   -2.3920051154202322e-05
-4.282938355450831e-05   7.528937406489617e-06   -2.3920051154202322e-05
-4.282938355450831e-05   7.528937406489617e-06   -2.3920051154202322e-05
-2.866306971194342e-05   5.792518312687002e-06   -1.3513795395423195e-06
-2.866306971194342e-05   5.792518312687002e-06   -1.3513795395423195e-06
-2.866306971194342e-05   5.792518312687002e-06   -1.3513795395423195e-06
-2.866306971194342e-05   5.792518312687002e-06   -1.3513795395423195e-06
-2.863206075979583e-05   8.097283780828982e-06   -2.1356966106076856e-05
-2.863206075979583e-05   8.097283780828982e-06   -2.1356966106076856e-05
-2.863206075979583e-05   8.097283780828982e-06   -2.1356966106076856e-05
-2.863206075979583e-05   8.097283780828982e-06   -2.1356966106076856e-05
-4.2182747002452445e-05   6.235056937897319e-06   2.344847070776413e-06
-4.2182747002452445e-05   6.235056937897319e-06   2.344847070776413e-06
-4.2182747002452445e-05   6.235056937897319e-06   2.344847070776413e-06
-4.2182747002452445e-05   6.235056937897319e-06   2.344847070776413e-06
-3.465473808476777e-05   6.960170154918775e-06   -1.0636902388910596e-05
-3.465473808476777e-05   6.960170154918775e-06   -1.0636902388910596e-05
-3.465473808476777e-05   6.960170154918775e-06   -1.0636902388910596e-05
-3.465473808476777e-05   6.960170154918775e-06   -1.0636902388910596e-05
-4.2182747002452445e-05   8.097283780828982e-06   -2.023963000031783e-05
-4.2182747002452445e-05   8.097283780828982e-06   -2.023963000031783e-05
-4.2182747002452445e-05   8.097283780828982e-06   -2.023963000031783e-05
-4.2182747002452445e-05   8.097283780828982e-06   -2.023963000031783e-05
-2.8632060759795896e-05   6.235056937897319e-06   1.2275109650175848e-06
-2.8632060759795896e-05   6.235056937897319e-06   1.2275109650175848e-06
-2.8632060759795896e-05   6.235056937897319e-06   1.2275109650175848e-06
-2.8632060759795896e-05   6.235056937897319e-06   1.2275109650175848e-06
-2.8659786596566295e-05   8.551123842485319e-06   -1.6312444448575805e-05
-2.8659786596566295e-05   8.551123842485319e-06   -1.6312444448575805e-05
-2.8659786596566295e-05   8.551123842485319e-06   -1.6312444448575805e-05
-2.8659786596566295e-05   8.551123842485319e-06   -1.6312444448575805e-05
-4.133985084569901e-05   6.672088329737289e-06   5.948417274293926e-06
-4.133985084569901e-05   6.672088329737289e-06   5.948417274293926e-06
-4.133985084569901e-05   6.672088329737289e-06   5.948417274293926e-06
-4.133985084569901e-05   6.672088329737289e-06   5.948417274293926e-06
-3.386296802884499e-05   7.268250741819125e-06   -6.870751534377963e-06
-3.386296802884499e-05   7.268250741819125e-06   -6.870751534377963e-06
-3.386296802884499e-05   7.268250741819125e-06   -6.870751534377963e-06
-3.386296802884499e-05   7.268250741819125e-06   -6.870751534377963e-06
-2.8527012502679847e-05   2.9176337840998673e-06   -3.4841930751063e-05
-2.8527012502679847e-05   2.9176337840998673e-06   -3.4841930751063e-05
-2.8527012502679847e-05   2.9176337840998673e-06   -3.4841930751063e-05
-2.8527012502679847e-05   2.9176337840998673e-06   -3.4841930751063e-05
-1.4533156459638673e-05   2.388328766308968e-06   -1.1836420356668917e-05
-1.4533156459638673e-05   2.388328766308968e-06   -1.1836420356668917e-05
-1.4533156459638673e-05   2.388328766308968e-06   -1.1836420356668917e-05
-1.4533156459638673e-05   2.388328766308968e-06   -1.1836420356668917e-05
-1.470817902120021e-05   4.075257231408704e-06   -3.4347064537823465e-05
-1.470817902120021e-05   4.075257231408704e-06   -3.4347064537823465e-05
-1.470817902120021e-05   4.075257231408704e-06   -3.4347064537823465e-05
-1.470817902120021e-05   4.075257231408704e-06   -3.4347064537823465e-05
-2.8663069711943364e-05   3.378332756655137e-06   -1.0670758701732629e-05
-2.8663069711943364e-05   3.378332756655137e-06   -1.0670758701732629e-05
-2.8663069711943364e-05   3.378332756655137e-06   -1.0670758701732629e-05
-2.8663069711943364e-05   3.378332756655137e-06   -1.0670758701732629e-05
-2.142262878378311e-05   3.36725907946247e-06   -2.273151604235087e-05
-2.142262878378311e-05   3.36725907946247e-06   -2.273151604235087e-05
-2.142262878378311e-05   3.36725907946247e-06   -2.273151604235087e-05
-2.142262878378311e-05   3.36725907946247e-06   -2.273151604235087e-05
-2.866306971194339e-05   4.075257231408704e-06   -3.392890985297125e-05
-2.866306971194339e-05   4.075257231408704e-06   -3.392890985297125e-05
-2.866306971194339e-05   4.075257231408704e-06   -3.392890985297125e-05
-2.866306971194339e-05   4.075257231408704e-06   -3.392890985297125e-05
-1.4708179021200237e-05   3.378332756655137e-06   -1.108891338658474e-05
-1.4708179021200237e-05   3.378332756655137e-06   -1.108891338658474e-05
-1.4708179021200237e-05   3.378332756655137e-06   -1.108891338658474e-05
-1.4708179021200237e-05   3.378332756655137e-06   -1.108891338658474e-05
-1.4821162618152125e-05   5.033888335377173e-06   -3.3438581446025144e-05
-1.4821162618152125e-05   5.033888335377173e-06   -3.3438581446025144e-05
-1.4821162618152125e-05   5.033888335377173e-06   -3.3438581446025144e-05
-1.4821162618152125e-05   5.033888335377173e-06   -3.3438581446025144e-05
-2.863206075979583e-05   4.258424934874816e-06   -9.955139836317678e-06
-2.863206075979583e-05   4.258424934874816e-06   -9.955139836317678e-06
-2.863206075979583e-05   4.258424934874816e-06   -9.955139836317678e-06
-2.863206075979583e-05   4.258424934874816e-06   -9.955139836317678e-06
-2.146093110981129e-05   4.182110191302516e-06   -2.1861233740148167e-05
-2.146093110981129e-05   4.182110191302516e-06   -2.1861233740148167e-05
-2.146093110981129e-05   4.182110191302516e-06   -2.1861233740148167e-05
-2.146093110981129e-05   4.182110191302516e-06   -2.1861233740148167e-05
-2.863206075979583e-05   5.0338883353772e-06   -3.297330340572372e-05
-2.863206075979583e-05   5.0338883353772e-06   -3.297330340572372e-05
-2.863206075979583e-05   5.0338883353772e-06   -3.297330340572372e-05
-2.863206075979583e-05   5.0338883353772e-06   -3.297330340572372e-05
-1.4821162618152172e-05   4.2584249348748705e-06   -1.0420417876618964e-05
-1.4821162618152172e-05   4.2584249348748705e-06   -1.0420417876618964e-05
-1.4821162618152172e-05   4.2584249348748705e-06   -1.0420417876618964e-05
-1.4821162618152172e-05   4.2584249348748705e-06   -1.0420417876618964e-05
-1.4967916121518816e-05   6.0656975793009135e-06   -3.335828383614086e-05
-1.4967916121518816e-05   6.0656975793009135e-06   -3.335828383614086e-05
-1.4967916121518816e-05   6.0656975793009135e-06   -3.335828383614086e-05
-1.4967916121518816e-05   6.0656975793009135e-06   -3.335828383614086e-05
-2.8659786596566282e-05   5.195211988319145e-06   -1.0016208356472707e-05
-2.8659786596566282e-05   5.195211988319145e-06   -1.0016208356472707e-05
-2.8659786596566282e-05   5.195211988319145e-06   -1.0016208356472707e-05
-2.8659786596566282e-05   5.195211988319145e-06   -1.0016208356472707e-05
-2.171385288999166e-05   4.989710513476019e-06   -2.146946364919088e-05
-2.171385288999166e-05   4.989710513476019e-06   -2.146946364919088e-05
-2.171385288999166e-05   4.989710513476019e-06   -2.146946364919088e-05
-2.171385288999166e-05   4.989710513476019e-06   -2.146946364919088e-05
-1.4533156459638652e-05   -8.793277527752402e-08   -3.7566210545449035e-05
-1.4533156459638652e-05   -8.793277527752402e-08   -3.7566210545449035e-05
-1.4533156459638652e-05   -8.793277527752402e-08   -3.7566210545449035e-05
-1.4533156459638652e-05   -8.793277527752402e-08   -3.7566210545449035e-05
-6.942459957863275e-07   1.2749709454054582e-07   -1.4372101850471e-05
-6.942459957863275e-07   1.2749709454054582e-07   -1.4372101850471e-05
-6.942459957863275e-07   1.2749709454054582e-07   -1.4372101850471e-05
-6.942459957863275e-07   1.2749709454054582e-07   -1.4372101850471e-05
-8.344895708000987e-07   9.788476012687975e-07   -3.7213519949328626e-05
-8.344895708000987e-07   9.788476012687975e-07   -3.7213519949328626e-05
-8.344895708000987e-07   9.788476012687975e-07   -3.7213519949328626e-05
-8.344895708000987e-07   9.788476012687975e-07   -3.7213519949328626e-05
-1.470817902120021e-05   1.1025229122357057e-06   -1.416490938524199e-05
-1.470817902120021e-05   1.1025229122357057e-06   -1.416490938524199e-05
-1.470817902120021e-05   1.1025229122357057e-06   -1.416490938524199e-05
-1.470817902120021e-05   1.1025229122357057e-06   -1.416490938524199e-05
-7.649045181374618e-06   6.42761149082698e-07   -2.565427539372619e-05
-7.649045181374618e-06   6.42761149082698e-07   -2.565427539372619e-05
-7.649045181374618e-06   6.42761149082698e-07   -2.565427539372619e-05
-7.649045181374618e-06   6.42761149082698e-07   -2.565427539372619e-05
-1.470817902120021e-05   9.788476012688246e-07   -3.7287725135908836e-05
-1.470817902120021e-05   9.788476012688246e-07   -3.7287725135908836e-05
-1.470817902120021e-05   9.788476012688246e-07   -3.7287725135908836e-05
-1.470817902120021e-05   9.788476012688246e-07   -3.7287725135908836e-05
-8.344895708001004e-07   1.10252291223576e-06   -1.4090704198661767e-05
-8.344895708001004e-07   1.10252291223576e-06   -1.4090704198661767e-05
-8.344895708001004e-07   1.10252291223576e-06   -1.4090704198661767e-05
-8.344895708001004e-07   1.10252291223576e-06   -1.4090704198661767e-05
-9.353078385787772e-07   2.0212954046555437e-06   -3.731363849840343e-05
-9.353078385787772e-07   2.0212954046555437e-06   -3.731363849840343e-05
-9.353078385787772e-07   2.0212954046555437e-06   -3.731363849840343e-05
-9.353078385787772e-07   2.0212954046555437e-06   -3.731363849840343e-05
-1.4821162618152152e-05   2.0746953264629865e-06   -1.4202587152199105e-05
-1.4821162618152152e-05   2.0746953264629865e-06   -1.4202587152199105e-05
-1.4821162618152152e-05   2.0746953264629865e-06   -1.4202587152199105e-05
-1.4821162618152152e-05   2.0746953264629865e-06   -1.4202587152199105e-05
-7.83048929686625e-06   1.5027711091522393e-06   -2.551055482395561e-05
-7.83048929686625e-06   1.5027711091522393e-06   -2.551055482395561e-05
-7.83048929686625e-06   1.5027711091522393e-06   -2.551055482395561e-05
-7.83048929686625e-06   1.5027711091522393e-06   -2.551055482395561e-05
-1.4821162618152152e-05   2.0212954046555437e-06   -3.734567845148796e-05
-1.4821162618152152e-05   2.0212954046555437e-06   -3.734567845148796e-05
-1.4821162618152152e-05   2.0212954046555437e-06   -3.734567845148796e-05
-1.4821162618152152e-05   2.0212954046555437e-06   -3.734567845148796e-05
-9.353078385787793e-07   2.0746953264629865e-06   -1.4170547199114465e-05
-9.353078385787793e-07   2.0746953264629865e-06   -1.4170547199114465e-05
-9.353078385787793e-07   2.0746953264629865e-06   -1.4170547199114465e-05
-9.353078385787793e-07   2.0746953264629865e-06   -1.4170547199114465e-05
-1.0945647369840334e-06   3.1072776865349763e-06   -3.779343418014187e-05
-1.0945647369840334e-06   3.1072776865349763e-06   -3.779343418014187e-05
-1.0945647369840334e-06   3.1072776865349763e-06   -3.779343418014187e-05
-1.0945647369840334e-06   3.1072776865349763e-06   -3.779343418014187e-05
-1.4967916121518796e-05   3.0694109728134186e-06   -1.4648461844351187e-05
-1.4967916121518796e-05   3.0694109728134186e-06   -1.4648461844351187e-05
-1.4967916121518796e-05   3.0694109728134186e-06   -1.4648461844351187e-05
-1.4967916121518796e-05   3.0694109728134186e-06   -1.4648461844351187e-05
-8.023328119994067e-06   2.373002445122622e-06   -2.5804930063611012e-05
-8.023328119994067e-06   2.373002445122622e-06   -2.5804930063611012e-05
-8.023328119994067e-06   2.373002445122622e-06   -2.5804930063611012e-05
-8.023328119994067e-06   2.373002445122622e-06   -2.5804930063611012e-05
-6.942459957863288e-07   -2.9853573450678965e-06   -3.356337389047754e-05
-6.942459957863288e-07   -2.9853573450678965e-06   -3.356337389047754e-05
-6.942459957863288e-07   -2.9853573450678965e-06   -3.356337389047754e-05
-6.942459957863288e-07   -2.9853573450678965e-06   -3.356337389047754e-05
1.3071624864782222e-05   -1.998751205159726e-06   -1.0028292105585142e-05
1.3071624864782222e-05   -1.998751205159726e-06   -1.0028292105585142e-05
1.3071624864782222e-05   -1.998751205159726e-06   -1.0028292105585142e-05
1.3071624864782222e-05   -1.998751205159726e-06   -1.0028292105585142e-05
1.3063080063023065e-05   -2.015349656710717e-06   -3.3174648298984135e-05
1.3063080063023065e-05   -2.015349656710717e-06   -3.3174648298984135e-05
1.3063080063023065e-05   -2.015349656710717e-06   -3.3174648298984135e-05
1.3063080063023065e-05   -2.015349656710717e-06   -3.3174648298984135e-05
-8.344895708001004e-07   -1.1042842747334002e-06   -1.0558671471798565e-05
-8.344895708001004e-07   -1.1042842747334002e-06   -1.0558671471798565e-05
-8.344895708001004e-07   -1.1042842747334002e-06   -1.0558671471798565e-05
-8.344895708001004e-07   -1.1042842747334002e-06   -1.0558671471798565e-05
6.104790973886388e-06   -1.9552320087226085e-06   -2.1613570405882532e-05
6.104790973886388e-06   -1.9552320087226085e-06   -2.1613570405882532e-05
6.104790973886388e-06   -1.9552320087226085e-06   -2.1613570405882532e-05
6.104790973886388e-06   -1.9552320087226085e-06   -2.1613570405882532e-05
-8.344895708001004e-07   -2.015349656710744e-06   -3.372128752817046e-05
-8.344895708001004e-07   -2.015349656710744e-06   -3.372128752817046e-05
-8.344895708001004e-07   -2.015349656710744e-06   -3.372128752817046e-05
-8.344895708001004e-07   -2.015349656710744e-06   -3.372128752817046e-05
1.3063080063023065e-05   -1.1042842747334544e-06   -1.0012032242612143e-05
1.3063080063023065e-05   -1.1042842747334544e-06   -1.0012032242612143e-05
1.3063080063023065e-05   -1.1042842747334544e-06   -1.0012032242612143e-05
1.3063080063023065e-05   -1.1042842747334544e-06   -1.0012032242612143e-05
1.3127102020747554e-05   -1.0656369898076254e-06   -3.404987186980397e-05
1.3127102020747554e-05   -1.0656369898076254e-06   -3.404987186980397e-05
1.3127102020747554e-05   -1.0656369898076254e-06   -3.404987186980397e-05
1.3127102020747554e-05   -1.0656369898076254e-06   -3.404987186980397e-05
-9.35307838578781e-07   -2.2598280823119292e-07   -1.1116314613206055e-05
-9.35307838578781e-07   -2.2598280823119292e-07   -1.1116314613206055e-05
-9.35307838578781e-07   -2.2598280823119292e-07   -1.1116314613206055e-05
-9.35307838578781e-07   -2.2598280823119292e-07   -1.1116314613206055e-05
5.917882867545599e-06   -1.1798042817643133e-06   -2.196600623929326e-05
5.917882867545599e-06   -1.1798042817643133e-06   -2.196600623929326e-05
5.917882867545599e-06   -1.1798042817643133e-06   -2.196600623929326e-05
5.917882867545599e-06   -1.1798042817643133e-06   -2.196600623929326e-05
-9.353078385787785e-07   -1.0656369898076254e-06   -3.455366437874967e-05
-9.353078385787785e-07   -1.0656369898076254e-06   -3.455366437874967e-05
-9.353078385787785e-07   -1.0656369898076254e-06   -3.455366437874967e-05
-9.353078385787785e-07   -1.0656369898076254e-06   -3.455366437874967e-05
1.3127102020747554e-05   -2.259828082311387e-07   -1.0612522104260012e-05
1.3127102020747554e-05   -2.259828082311387e-07   -1.0612522104260012e-05
1.3127102020747554e-05   -2.259828082311387e-07   -1.0612522104260012e-05
1.3127102020747554e-05   -2.259828082311387e-07   -1.0612522104260012e-05
1.302802160045848e-05   1.0846903008684332e-07   -3.5044173405061345e-05
1.302802160045848e-05   1.0846903008684332e-07   -3.5044173405061345e-05
1.302802160045848e-05   1.0846903008684332e-07   -3.5044173405061345e-05
1.302802160045848e-05   1.0846903008684332e-07   -3.5044173405061345e-05
-1.0945647369840355e-06   8.002938496139318e-07   -1.1921624401040133e-05
-1.0945647369840355e-06   8.002938496139318e-07   -1.1921624401040133e-05
-1.0945647369840355e-06   8.002938496139318e-07   -1.1921624401040133e-05
-1.0945647369840355e-06   8.002938496139318e-07   -1.1921624401040133e-05
5.853149967627063e-06   -3.50655631473247e-07   -2.2810579220072845e-05
5.853149967627063e-06   -3.50655631473247e-07   -2.2810579220072845e-05
5.853149967627063e-06   -3.50655631473247e-07   -2.2810579220072845e-05
5.853149967627063e-06   -3.50655631473247e-07   -2.2810579220072845e-05
1.3071624864782202e-05   -5.545402664324466e-06   -1.8770124373535842e-05
1.3071624864782202e-05   -5.545402664324466e-06   -1.8770124373535842e-05
1.3071624864782202e-05   -5.545402664324466e-06   -1.8770124373535842e-05
1.3071624864782202e-05   -5.545402664324466e-06   -1.8770124373535842e-05
2.5948474883397596e-05   -3.620376705538151e-06   3.846307899428288e-06
2.5948474883397596e-05   -3.620376705538151e-06   3.846307899428288e-06
2.5948474883397596e-05   -3.620376705538151e-06   3.846307899428288e-06
2.5948474883397596e-05   -3.620376705538151e-06   3.846307899428288e-06
2.682965782459178e-05   -5.027441380054662e-06   -2.1105317286613712e-05
2.682965782459178e-05   -5.027441380054662e-06   -2.1105317286613712e-05
2.682965782459178e-05   -5.027441380054662e-06   -2.1105317286613712e-05
2.682965782459178e-05   -5.027441380054662e-06   -2.1105317286613712e-05
1.3063080063023045e-05   -3.103772213670572e-06   6.847774828370583e-07
1.3063080063023045e-05   -3.103772213670572e-06   6.847774828370583e-07
1.3063080063023045e-05   -3.103772213670572e-06   6.847774828370583e-07
1.3063080063023045e-05   -3.103772213670572e-06   6.847774828370583e-07
1.888516838881792e-05   -4.272769016784865e-06   -8.317304978285852e-06
1.888516838881792e-05   -4.272769016784865e-06   -8.317304978285852e-06
1.888516838881792e-05   -4.272769016784865e-06   -8.317304978285852e-06
1.888516838881792e-05   -4.272769016784865e-06   -8.317304978285852e-06
1.3063080063023038e-05   -5.027441380054689e-06   -2.225951878644416e-05
1.3063080063023038e-05   -5.027441380054689e-06   -2.225951878644416e-05
1.3063080063023038e-05   -5.027441380054689e-06   -2.225951878644416e-05
1.3063080063023038e-05   -5.027441380054689e-06   -2.225951878644416e-05
2.682965782459178e-05   -3.103772213670572e-06   1.8389789826676016e-06
2.682965782459178e-05   -3.103772213670572e-06   1.8389789826676016e-06
2.682965782459178e-05   -3.103772213670572e-06   1.8389789826676016e-06
2.682965782459178e-05   -3.103772213670572e-06   1.8389789826676016e-06
2.7508188754533726e-05   -4.48099760523682e-06   -2.379968434630084e-05
2.7508188754533726e-05   -4.48099760523682e-06   -2.379968434630084e-05
2.7508188754533726e-05   -4.48099760523682e-06   -2.379968434630084e-05
2.7508188754533726e-05   -4.48099760523682e-06   -2.379968434630084e-05
1.3127102020747507e-05   -2.6620503492319003e-06   -9.225748102602104e-07
1.3127102020747507e-05   -2.6620503492319003e-06   -9.225748102602104e-07
1.3127102020747507e-05   -2.6620503492319003e-06   -9.225748102602104e-07
1.3127102020747507e-05   -2.6620503492319003e-06   -9.225748102602104e-07
1.95303179485583e-05   -3.939589514137109e-06   -1.082807785766831e-05
1.95303179485583e-05   -3.939589514137109e-06   -1.082807785766831e-05
1.95303179485583e-05   -3.939589514137109e-06   -1.082807785766831e-05
1.95303179485583e-05   -3.939589514137109e-06   -1.082807785766831e-05
1.3127102020747527e-05   -4.48099760523682e-06   -2.4891052699903797e-05
1.3127102020747527e-05   -4.48099760523682e-06   -2.4891052699903797e-05
1.3127102020747527e-05   -4.48099760523682e-06   -2.4891052699903797e-05
1.3127102020747527e-05   -4.48099760523682e-06   -2.4891052699903797e-05
2.7508188754533672e-05   -2.6620503492319003e-06   1.6879354334284162e-07
2.7508188754533672e-05   -2.6620503492319003e-06   1.6879354334284162e-07
2.7508188754533672e-05   -2.6620503492319003e-06   1.6879354334284162e-07
2.7508188754533672e-05   -2.6620503492319003e-06   1.6879354334284162e-07
2.823231447863501e-05   -3.3053755222687674e-06   -2.8386848577394085e-05
2.823231447863501e-05   -3.3053755222687674e-06   -2.8386848577394085e-05
2.823231447863501e-05   -3.3053755222687674e-06   -2.8386848577394085e-05
2.823231447863501e-05   -3.3053755222687674e-06   -2.8386848577394085e-05
1.3028021600458433e-05   -1.7195502539159606e-06   -3.997855608111605e-06
1.3028021600458433e-05   -1.7195502539159606e-06   -3.997855608111605e-06
1.3028021600458433e-05   -1.7195502539159606e-06   -3.997855608111605e-06
1.3028021600458433e-05   -1.7195502539159606e-06   -3.997855608111605e-06
1.9450604485405113e-05   -3.392172671977476e-06   -1.3698586965519053e-05
1.9450604485405113e-05   -3.392172671977476e-06   -1.3698586965519053e-05
1.9450604485405113e-05   -3.392172671977476e-06   -1.3698586965519053e-05
1.9450604485405113e-05   -3.392172671977476e-06   -1.3698586965519053e-05
-3.120920690008073e-05   4.786275088327556e-06   -2.3773795216313443e-05
-3.120920690008073e-05   4.786275088327556e-06   -2.3773795216313443e-05
-3.120920690008073e-05   4.786275088327556e-06   -2.3773795216313443e-05
-3.120920690008073e-05   4.786275088327556e-06   -2.3773795216313443e-05
-2.1268370553638785e-05   3.0403102358070398e-06   -8.253313550422556e-06
-2.1268370553638785e-05   3.0403102358070398e-06   -8.253313550422556e-06
-2.1268370553638785e-05   3.0403102358070398e-06   -8.253313550422556e-06
-2.1268370553638785e-05   3.0403102358070398e-06   -8.253313550422556e-06
-2.11905959546249e-05   5.7925183126869475e-06   -2.019769167413638e-05
-2.11905959546249e-05   5.7925183126869475e-06   -2.019769167413638e-05
-2.11905959546249e-05   5.7925183126869475e-06   -2.019769167413638e-05
-2.11905959546249e-05   5.7925183126869475e-06   -2.019769167413638e-05
-3.0271421505863913e-05   3.872210534106566e-06   -3.910797754923029e-06
-3.0271421505863913e-05   3.872210534106566e-06   -3.910797754923029e-06
-3.0271421505863913e-05   3.872210534106566e-06   -3.910797754923029e-06
-3.0271421505863913e-05   3.872210534106566e-06   -3.910797754923029e-06
-2.4882384732941418e-05   4.609714390067647e-06   -1.3335028023370496e-05
-2.4882384732941418e-05   4.609714390067647e-06   -1.3335028023370496e-05
-2.4882384732941418e-05   4.609714390067647e-06   -1.3335028023370496e-05
-2.4882384732941418e-05   4.609714390067647e-06   -1.3335028023370496e-05
-3.0271421505863913e-05   5.7925183126869475e-06   -1.904550700698813e-05
-3.0271421505863913e-05   5.7925183126869475e-06   -1.904550700698813e-05
-3.0271421505863913e-05   5.7925183126869475e-06   -1.904550700698813e-05
-3.0271421505863913e-05   5.7925183126869475e-06   -1.904550700698813e-05
-2.1190595954624942e-05   3.872210534106566e-06   -5.062982422071271e-06
-2.1190595954624942e-05   3.872210534106566e-06   -5.062982422071271e-06
-2.1190595954624942e-05   3.872210534106566e-06   -5.062982422071271e-06
-2.1190595954624942e-05   3.872210534106566e-06   -5.062982422071271e-06
-2.1029650511761745e-05   6.235056937897319e-06   -1.761263153958741e-05
-2.1029650511761745e-05   6.235056937897319e-06   -1.761263153958741e-05
-2.1029650511761745e-05   6.235056937897319e-06   -1.761263153958741e-05
-2.1029650511761745e-05   6.235056937897319e-06   -1.761263153958741e-05
-2.9571168782833703e-05   4.260454961710629e-06   -2.1920065687553955e-06
-2.9571168782833703e-05   4.260454961710629e-06   -2.1920065687553955e-06
-2.9571168782833703e-05   4.260454961710629e-06   -2.1920065687553955e-06
-2.9571168782833703e-05   4.260454961710629e-06   -2.1920065687553955e-06
-2.488236573638271e-05   5.074044202486709e-06   -1.0494831857306235e-05
-2.488236573638271e-05   5.074044202486709e-06   -1.0494831857306235e-05
-2.488236573638271e-05   5.074044202486709e-06   -1.0494831857306235e-05
-2.488236573638271e-05   5.074044202486709e-06   -1.0494831857306235e-05
-2.9571168782833703e-05   6.235056937897319e-06   -1.6427870353875353e-05
-2.9571168782833703e-05   6.235056937897319e-06   -1.6427870353875353e-05
-2.9571168782833703e-05   6.235056937897319e-06   -1.6427870353875353e-05
-2.9571168782833703e-05   6.235056937897319e-06   -1.6427870353875353e-05
-2.102965051176177e-05   4.260454961710629e-06   -3.3767677544673785e-06
-2.102965051176177e-05   4.260454961710629e-06   -3.3767677544673785e-06
-2.102965051176177e-05   4.260454961710629e-06   -3.3767677544673785e-06
-2.102965051176177e-05   4.260454961710629e-06   -3.3767677544673785e-06
-2.0965724475610742e-05   6.672088329737289e-06   -1.4036627265556485e-05
-2.0965724475610742e-05   6.672088329737289e-06   -1.4036627265556485e-05
-2.0965724475610742e-05   6.672088329737289e-06   -1.4036627265556485e-05
-2.0965724475610742e-05   6.672088329737289e-06   -1.4036627265556485e-05
-2.8655837859210088e-05   4.749650152356612e-06   -6.63087197957761e-08
-2.8655837859210088e-05   4.749650152356612e-06   -6.63087197957761e-08
-2.8655837859210088e-05   4.749650152356612e-06   -6.63087197957761e-08
-2.8655837859210088e-05   4.749650152356612e-06   -6.63087197957761e-08
-2.4145458855319836e-05   5.326864724354129e-06   -7.929935802811433e-06
-2.4145458855319836e-05   5.326864724354129e-06   -7.929935802811433e-06
-2.4145458855319836e-05   5.326864724354129e-06   -7.929935802811433e-06
-2.4145458855319836e-05   5.326864724354129e-06   -7.929935802811433e-06
-2.1268370553638745e-05   2.388328766308968e-06   -3.033397864867109e-05
-2.1268370553638745e-05   2.388328766308968e-06   -3.033397864867109e-05
-2.1268370553638745e-05   2.388328766308968e-06   -3.033397864867109e-05
-2.1268370553638745e-05   2.388328766308968e-06   -3.033397864867109e-05
-1.2252283170807079e-05   1.5748375044733875e-06   -1.5795261101053004e-05
-1.2252283170807079e-05   1.5748375044733875e-06   -1.5795261101053004e-05
-1.2252283170807079e-05   1.5748375044733875e-06   -1.5795261101053004e-05
-1.2252283170807079e-05   1.5748375044733875e-06   -1.5795261101053004e-05
-1.2258409788808488e-05   3.378332756655191e-06   -3.0071947574663216e-05
-1.2258409788808488e-05   3.378332756655191e-06   -3.0071947574663216e-05
-1.2258409788808488e-05   3.378332756655191e-06   -3.0071947574663216e-05
-1.2258409788808488e-05   3.378332756655191e-06   -3.0071947574663216e-05
-2.11905959546249e-05   2.4535381927608905e-06   -1.4630093893299183e-05
-2.11905959546249e-05   2.4535381927608905e-06   -1.4630093893299183e-05
-2.11905959546249e-05   2.4535381927608905e-06   -1.4630093893299183e-05
-2.11905959546249e-05   2.4535381927608905e-06   -1.4630093893299183e-05
-1.6587905869215715e-05   2.614233595355582e-06   -2.239766127720477e-05
-1.6587905869215715e-05   2.614233595355582e-06   -2.239766127720477e-05
-1.6587905869215715e-05   2.614233595355582e-06   -2.239766127720477e-05
-1.6587905869215715e-05   2.614233595355582e-06   -2.239766127720477e-05
-2.1190595954624888e-05   3.378332756655191e-06   -2.951707083632645e-05
-2.1190595954624888e-05   3.378332756655191e-06   -2.951707083632645e-05
-2.1190595954624888e-05   3.378332756655191e-06   -2.951707083632645e-05
-2.1190595954624888e-05   3.378332756655191e-06   -2.951707083632645e-05
-1.2258409788808488e-05   2.453538192760782e-06   -1.5184970631635866e-05
-1.2258409788808488e-05   2.453538192760782e-06   -1.5184970631635866e-05
-1.2258409788808488e-05   2.453538192760782e-06   -1.5184970631635866e-05
-1.2258409788808488e-05   2.453538192760782e-06   -1.5184970631635866e-05
-1.224959344122243e-05   4.258424934874816e-06   -2.939809507092095e-05
-1.224959344122243e-05   4.258424934874816e-06   -2.939809507092095e-05
-1.224959344122243e-05   4.258424934874816e-06   -2.939809507092095e-05
-1.224959344122243e-05   4.258424934874816e-06   -2.939809507092095e-05
-2.1029650511761745e-05   3.2537370515439744e-06   -1.4161853890023687e-05
-2.1029650511761745e-05   3.2537370515439744e-06   -1.4161853890023687e-05
-2.1029650511761745e-05   3.2537370515439744e-06   -1.4161853890023687e-05
-2.1029650511761745e-05   3.2537370515439744e-06   -1.4161853890023687e-05
-1.6510905917236934e-05   3.33644537058443e-06   -2.174271987232234e-05
-1.6510905917236934e-05   3.33644537058443e-06   -2.174271987232234e-05
-1.6510905917236934e-05   3.33644537058443e-06   -2.174271987232234e-05
-1.6510905917236934e-05   3.33644537058443e-06   -2.174271987232234e-05
-2.1029650511761745e-05   4.258424934874816e-06   -2.8795282340922504e-05
-2.1029650511761745e-05   4.258424934874816e-06   -2.8795282340922504e-05
-2.1029650511761745e-05   4.258424934874816e-06   -2.8795282340922504e-05
-2.1029650511761745e-05   4.258424934874816e-06   -2.8795282340922504e-05
-1.2249593441222457e-05   3.2537370515439744e-06   -1.4764666620022064e-05
-1.2249593441222457e-05   3.2537370515439744e-06   -1.4764666620022064e-05
-1.2249593441222457e-05   3.2537370515439744e-06   -1.4764666620022064e-05
-1.2249593441222457e-05   3.2537370515439744e-06   -1.4764666620022064e-05
-1.2259759146515174e-05   5.195211988319145e-06   -2.951681198480209e-05
-1.2259759146515174e-05   5.195211988319145e-06   -2.951681198480209e-05
-1.2259759146515174e-05   5.195211988319145e-06   -2.951681198480209e-05
-1.2259759146515174e-05   5.195211988319145e-06   -2.951681198480209e-05
-2.0965724475610755e-05   4.1235779947730025e-06   -1.4363889373515031e-05
-2.0965724475610755e-05   4.1235779947730025e-06   -1.4363889373515031e-05
-2.0965724475610755e-05   4.1235779947730025e-06   -1.4363889373515031e-05
-2.0965724475610755e-05   4.1235779947730025e-06   -1.4363889373515031e-05
-1.661808311177089e-05   4.051594543454107e-06   -2.1566768242456782e-05
-1.661808311177089e-05   4.051594543454107e-06   -2.1566768242456782e-05
-1.661808311177089e-05   4.051594543454107e-06   -2.1566768242456782e-05
-1.661808311177089e-05   4.051594543454107e-06   -2.1566768242456782e-05
-1.2252283170807051e-05   1.274970945404916e-07   -3.348701282146545e-05
-1.2252283170807051e-05   1.274970945404916e-07   -3.348701282146545e-05
-1.2252283170807051e-05   1.274970945404916e-07   -3.348701282146545e-05
-1.2252283170807051e-05   1.274970945404916e-07   -3.348701282146545e-05
-3.3587262326422466e-06   2.7299363088476546e-07   -1.857712000271757e-05
-3.3587262326422466e-06   2.7299363088476546e-07   -1.857712000271757e-05
-3.3587262326422466e-06   2.7299363088476546e-07   -1.857712000271757e-05
-3.3587262326422466e-06   2.7299363088476546e-07   -1.857712000271757e-05
-3.3653982310808675e-06   1.1025229122357057e-06   -3.311517840986106e-05
-3.3653982310808675e-06   1.1025229122357057e-06   -3.311517840986106e-05
-3.3653982310808675e-06   1.1025229122357057e-06   -3.311517840986106e-05
-3.3653982310808675e-06   1.1025229122357057e-06   -3.311517840986106e-05
-1.2258409788808467e-05   1.1571315180013532e-06   -1.8326257643774412e-05
-1.2258409788808467e-05   1.1571315180013532e-06   -1.8326257643774412e-05
-1.2258409788808467e-05   1.1571315180013532e-06   -1.8326257643774412e-05
-1.2258409788808467e-05   1.1571315180013532e-06   -1.8326257643774412e-05
-7.756673373825309e-06   7.799627710622153e-07   -2.5602850420582848e-05
-7.756673373825309e-06   7.799627710622153e-07   -2.5602850420582848e-05
-7.756673373825309e-06   7.799627710622153e-07   -2.5602850420582848e-05
-7.756673373825309e-06   7.799627710622153e-07   -2.5602850420582848e-05
-1.2258409788808467e-05   1.1025229122357057e-06   -3.314794357332036e-05
-1.2258409788808467e-05   1.1025229122357057e-06   -3.314794357332036e-05
-1.2258409788808467e-05   1.1025229122357057e-06   -3.314794357332036e-05
-1.2258409788808467e-05   1.1025229122357057e-06   -3.314794357332036e-05
-3.3653982310808675e-06   1.1571315180013532e-06   -1.829349248031503e-05
-3.3653982310808675e-06   1.1571315180013532e-06   -1.829349248031503e-05
-3.3653982310808675e-06   1.1571315180013532e-06   -1.829349248031503e-05
-3.3653982310808675e-06   1.1571315180013532e-06   -1.829349248031503e-05
-3.3538700979685153e-06   2.0746953264630407e-06   -3.3198617696694266e-05
-3.3538700979685153e-06   2.0746953264630407e-06   -3.3198617696694266e-05
-3.3538700979685153e-06   2.0746953264630407e-06   -3.3198617696694266e-05
-3.3538700979685153e-06   2.0746953264630407e-06   -3.3198617696694266e-05
-1.224959344122243e-05   2.0441064094740965e-06   -1.8354058774411113e-05
-1.224959344122243e-05   2.0441064094740965e-06   -1.8354058774411113e-05
-1.224959344122243e-05   2.0441064094740965e-06   -1.8354058774411113e-05
-1.224959344122243e-05   2.0441064094740965e-06   -1.8354058774411113e-05
-7.808803145778618e-06   1.5537784676214234e-06   -2.5461179168372554e-05
-7.808803145778618e-06   1.5537784676214234e-06   -2.5461179168372554e-05
-7.808803145778618e-06   1.5537784676214234e-06   -2.5461179168372554e-05
-7.808803145778618e-06   1.5537784676214234e-06   -2.5461179168372554e-05
-1.224959344122243e-05   2.0746953264630407e-06   -3.3180264346500965e-05
-1.224959344122243e-05   2.0746953264630407e-06   -3.3180264346500965e-05
-1.224959344122243e-05   2.0746953264630407e-06   -3.3180264346500965e-05
-1.224959344122243e-05   2.0746953264630407e-06   -3.3180264346500965e-05
-3.353870097968521e-06   2.0441064094740965e-06   -1.8372412124604388e-05
-3.353870097968521e-06   2.0441064094740965e-06   -1.8372412124604388e-05
-3.353870097968521e-06   2.0441064094740965e-06   -1.8372412124604388e-05
-3.353870097968521e-06   2.0441064094740965e-06   -1.8372412124604388e-05
-3.359232906467712e-06   3.069410972813473e-06   -3.370046742522608e-05
-3.359232906467712e-06   3.069410972813473e-06   -3.370046742522608e-05
-3.359232906467712e-06   3.069410972813473e-06   -3.370046742522608e-05
-3.359232906467712e-06   3.069410972813473e-06   -3.370046742522608e-05
-1.2259759146515167e-05   2.9465887942559544e-06   -1.8792563718012258e-05
-1.2259759146515167e-05   2.9465887942559544e-06   -1.8792563718012258e-05
-1.2259759146515167e-05   2.9465887942559544e-06   -1.8792563718012258e-05
-1.2259759146515167e-05   2.9465887942559544e-06   -1.8792563718012258e-05
-7.876129313790347e-06   2.3377620838820447e-06   -2.573331741299604e-05
-7.876129313790347e-06   2.3377620838820447e-06   -2.573331741299604e-05
-7.876129313790347e-06   2.3377620838820447e-06   -2.573331741299604e-05
-7.876129313790347e-06   2.3377620838820447e-06   -2.573331741299604e-05
-3.358726232642241e-06   -1.998751205159726e-06   -2.96478688387179e-05
-3.358726232642241e-06   -1.998751205159726e-06   -2.96478688387179e-05
-3.358726232642241e-06   -1.998751205159726e-06   -2.96478688387179e-05
-3.358726232642241e-06   -1.998751205159726e-06   -2.96478688387179e-05
5.401118536401111e-06   -9.170787428281401e-07   -1.4399124079580061e-05
5.401118536401111e-06   -9.170787428281401e-07   -1.4399124079580061e-05
5.401118536401111e-06   -9.170787428281401e-07   -1.4399124079580061e-05
5.401118536401111e-06   -9.170787428281401e-07   -1.4399124079580061e-05
5.472488414334832e-06   -1.1042842747334002e-06   -2.8970755509421912e-05
5.472488414334832e-06   -1.1042842747334002e-06   -2.8970755509421912e-05
5.472488414334832e-06   -1.1042842747334002e-06   -2.8970755509421912e-05
5.472488414334832e-06   -1.1042842747334002e-06   -2.8970755509421912e-05
-3.3653982310808675e-06   -8.363398544054042e-08   -1.4853334607304871e-05
-3.3653982310808675e-06   -8.363398544054042e-08   -1.4853334607304871e-05
-3.3653982310808675e-06   -8.363398544054042e-08   -1.4853334607304871e-05
-3.3653982310808675e-06   -8.363398544054042e-08   -1.4853334607304871e-05
1.0431044177416435e-06   -9.489880957981264e-07   -2.1681626555794455e-05
1.0431044177416435e-06   -9.489880957981264e-07   -2.1681626555794455e-05
1.0431044177416435e-06   -9.489880957981264e-07   -2.1681626555794455e-05
1.0431044177416435e-06   -9.489880957981264e-07   -2.1681626555794455e-05
-3.3653982310808675e-06   -1.1042842747334002e-06   -2.9583145682997693e-05
-3.3653982310808675e-06   -1.1042842747334002e-06   -2.9583145682997693e-05
-3.3653982310808675e-06   -1.1042842747334002e-06   -2.9583145682997693e-05
-3.3653982310808675e-06   -1.1042842747334002e-06   -2.9583145682997693e-05
5.4724884143348595e-06   -8.3633985440432e-08   -1.4240944433729138e-05
5.4724884143348595e-06   -8.3633985440432e-08   -1.4240944433729138e-05
5.4724884143348595e-06   -8.3633985440432e-08   -1.4240944433729138e-05
5.4724884143348595e-06   -8.3633985440432e-08   -1.4240944433729138e-05
5.641777576702451e-06   -2.259828082311387e-07   -2.9578268804802656e-05
5.641777576702451e-06   -2.259828082311387e-07   -2.9578268804802656e-05
5.641777576702451e-06   -2.259828082311387e-07   -2.9578268804802656e-05
5.641777576702451e-06   -2.259828082311387e-07   -2.9578268804802656e-05
-3.353870097968521e-06   7.175443684072445e-07   -1.51516389863341e-05
-3.353870097968521e-06   7.175443684072445e-07   -1.51516389863341e-05
-3.353870097968521e-06   7.175443684072445e-07   -1.51516389863341e-05
-3.353870097968521e-06   7.175443684072445e-07   -1.51516389863341e-05
9.921864281342614e-07   -2.5550490777390567e-07   -2.1811236964130093e-05
9.921864281342614e-07   -2.5550490777390567e-07   -2.1811236964130093e-05
9.921864281342614e-07   -2.5550490777390567e-07   -2.1811236964130093e-05
9.921864281342614e-07   -2.5550490777390567e-07   -2.1811236964130093e-05
-3.353870097968518e-06   -2.259828082311387e-07   -3.0144385110785616e-05
-3.353870097968518e-06   -2.259828082311387e-07   -3.0144385110785616e-05
-3.353870097968518e-06   -2.259828082311387e-07   -3.0144385110785616e-05
-3.353870097968518e-06   -2.259828082311387e-07   -3.0144385110785616e-05
5.641777576702465e-06   7.175443684072445e-07   -1.4585522680350997e-05
5.641777576702465e-06   7.175443684072445e-07   -1.4585522680350997e-05
5.641777576702465e-06   7.175443684072445e-07   -1.4585522680350997e-05
5.641777576702465e-06   7.175443684072445e-07   -1.4585522680350997e-05
5.724906013488437e-06   8.002938496138776e-07   -3.045002151067571e-05
5.724906013488437e-06   8.002938496138776e-07   -3.045002151067571e-05
5.724906013488437e-06   8.002938496138776e-07   -3.045002151067571e-05
5.724906013488437e-06   8.002938496138776e-07   -3.045002151067571e-05
-3.3592329064677054e-06   1.6351079212909838e-06   -1.5810678420421718e-05
-3.3592329064677054e-06   1.6351079212909838e-06   -1.5810678420421718e-05
-3.3592329064677054e-06   1.6351079212909838e-06   -1.5810678420421718e-05
-3.3592329064677054e-06   1.6351079212909838e-06   -1.5810678420421718e-05
1.022399283505263e-06   4.855659492681826e-07   -2.2423673553829558e-05
1.022399283505263e-06   4.855659492681826e-07   -2.2423673553829558e-05
1.022399283505263e-06   4.855659492681826e-07   -2.2423673553829558e-05
1.022399283505263e-06   4.855659492681826e-07   -2.2423673553829558e-05
5.401118536401104e-06   -3.6203767055382054e-06   -1.6279280931577248e-05
5.401118536401104e-06   -3.6203767055382054e-06   -1.6279280931577248e-05
5.401118536401104e-06   -3.6203767055382054e-06   -1.6279280931577248e-05
5.401118536401104e-06   -3.6203767055382054e-06   -1.6279280931577248e-05
1.3164961548124595e-05   -1.6813311532165153e-06   -2.1761152473116947e-06
1.3164961548124595e-05   -1.6813311532165153e-06   -2.1761152473116947e-06
1.3164961548124595e-05   -1.6813311532165153e-06   -2.1761152473116947e-06
1.3164961548124595e-05   -1.6813311532165153e-06   -2.1761152473116947e-06
1.4092868929695991e-05   -3.103772213670572e-06   -1.7081251293117616e-05
1.4092868929695991e-05   -3.103772213670572e-06   -1.7081251293117616e-05
1.4092868929695991e-05   -3.103772213670572e-06   -1.7081251293117616e-05
1.4092868929695991e-05   -3.103772213670572e-06   -1.7081251293117616e-05
5.472488414334853e-06   -1.1159480622453463e-06   -3.906644925037459e-06
5.472488414334853e-06   -1.1159480622453463e-06   -3.906644925037459e-06
5.472488414334853e-06   -1.1159480622453463e-06   -3.906644925037459e-06
5.472488414334853e-06   -1.1159480622453463e-06   -3.906644925037459e-06
9.126384648656158e-06   -2.306468970909078e-06   -9.282159437041393e-06
9.126384648656158e-06   -2.306468970909078e-06   -9.282159437041393e-06
9.126384648656158e-06   -2.306468970909078e-06   -9.282159437041393e-06
9.126384648656158e-06   -2.306468970909078e-06   -9.282159437041393e-06
5.472488414334832e-06   -3.103772213670572e-06   -1.827394578397259e-05
5.472488414334832e-06   -3.103772213670572e-06   -1.827394578397259e-05
5.472488414334832e-06   -3.103772213670572e-06   -1.827394578397259e-05
5.472488414334832e-06   -3.103772213670572e-06   -1.827394578397259e-05
1.409286892969595e-05   -1.1159480622453463e-06   -2.7139504341823647e-06
1.409286892969595e-05   -1.1159480622453463e-06   -2.7139504341823647e-06
1.409286892969595e-05   -1.1159480622453463e-06   -2.7139504341823647e-06
1.409286892969595e-05   -1.1159480622453463e-06   -2.7139504341823647e-06
1.480780714615301e-05   -2.6620503492319546e-06   -1.8726933436343353e-05
1.480780714615301e-05   -2.6620503492319546e-06   -1.8726933436343353e-05
1.480780714615301e-05   -2.6620503492319546e-06   -1.8726933436343353e-05
1.480780714615301e-05   -2.6620503492319546e-06   -1.8726933436343353e-05
5.641777576702465e-06   -7.264035584662052e-07   -4.611605561718527e-06
5.641777576702465e-06   -7.264035584662052e-07   -4.611605561718527e-06
5.641777576702465e-06   -7.264035584662052e-07   -4.611605561718527e-06
5.641777576702465e-06   -7.264035584662052e-07   -4.611605561718527e-06
9.692085806132532e-06   -2.0157843970064005e-06   -1.0588490774311125e-05
9.692085806132532e-06   -2.0157843970064005e-06   -1.0588490774311125e-05
9.692085806132532e-06   -2.0157843970064005e-06   -1.0588490774311125e-05
9.692085806132532e-06   -2.0157843970064005e-06   -1.0588490774311125e-05
5.641777576702458e-06   -2.6620503492319546e-06   -1.988832151080276e-05
5.641777576702458e-06   -2.6620503492319546e-06   -1.988832151080276e-05
5.641777576702458e-06   -2.6620503492319546e-06   -1.988832151080276e-05
5.641777576702458e-06   -2.6620503492319546e-06   -1.988832151080276e-05
1.480780714615297e-05   -7.264035584662052e-07   -3.450217487258999e-06
1.480780714615297e-05   -7.264035584662052e-07   -3.450217487258999e-06
1.480780714615297e-05   -7.264035584662052e-07   -3.450217487258999e-06
1.480780714615297e-05   -7.264035584662052e-07   -3.450217487258999e-06
1.575893218785651e-05   -1.7195502539159606e-06   -2.1886872251046104e-05
1.575893218785651e-05   -1.7195502539159606e-06   -2.1886872251046104e-05
1.575893218785651e-05   -1.7195502539159606e-06   -2.1886872251046104e-05
1.575893218785651e-05   -1.7195502539159606e-06   -2.1886872251046104e-05
5.724906013488444e-06   3.79086767798029e-08   -6.217970652183316e-06
5.724906013488444e-06   3.79086767798029e-08   -6.217970652183316e-06
5.724906013488444e-06   3.79086767798029e-08   -6.217970652183316e-06
5.724906013488444e-06   3.79086767798029e-08   -6.217970652183316e-06
9.88285419018851e-06   -1.5854239959685085e-06   -1.2173884676367896e-05
9.88285419018851e-06   -1.5854239959685085e-06   -1.2173884676367896e-05
9.88285419018851e-06   -1.5854239959685085e-06   -1.2173884676367896e-05
9.88285419018851e-06   -1.5854239959685085e-06   -1.2173884676367896e-05
-1.8850028718370886e-05   3.0403102358069313e-06   -1.7693503327570806e-05
-1.8850028718370886e-05   3.0403102358069313e-06   -1.7693503327570806e-05
-1.8850028718370886e-05   3.0403102358069313e-06   -1.7693503327570806e-05
-1.8850028718370886e-05   3.0403102358069313e-06   -1.7693503327570806e-05
-1.3943821148819445e-05   1.234486346829585e-06   -1.0599985045038157e-05
-1.3943821148819445e-05   1.234486346829585e-06   -1.0599985045038157e-05
-1.3943821148819445e-05   1.234486346829585e-06   -1.0599985045038157e-05
-1.3943821148819445e-05   1.234486346829585e-06   -1.0599985045038157e-05
-1.3740143210646643e-05   3.872210534106566e-06   -1.5609031477838327e-05
-1.3740143210646643e-05   3.872210534106566e-06   -1.5609031477838327e-05
-1.3740143210646643e-05   3.872210534106566e-06   -1.5609031477838327e-05
-1.3740143210646643e-05   3.872210534106566e-06   -1.5609031477838327e-05
-1.782264432859229e-05   1.9258063771752714e-06   -7.637020453770034e-06
-1.782264432859229e-05   1.9258063771752714e-06   -7.637020453770034e-06
-1.782264432859229e-05   1.9258063771752714e-06   -7.637020453770034e-06
-1.782264432859229e-05   1.9258063771752714e-06   -7.637020453770034e-06
-1.540757466769888e-05   2.7280111019279893e-06   -1.2143459390111342e-05
-1.540757466769888e-05   2.7280111019279893e-06   -1.2143459390111342e-05
-1.540757466769888e-05   2.7280111019279893e-06   -1.2143459390111342e-05
-1.540757466769888e-05   2.7280111019279893e-06   -1.2143459390111342e-05
-1.782264432859229e-05   3.872210534106566e-06   -1.4441188983679582e-05
-1.782264432859229e-05   3.872210534106566e-06   -1.4441188983679582e-05
-1.782264432859229e-05   3.872210534106566e-06   -1.4441188983679582e-05
-1.782264432859229e-05   3.872210534106566e-06   -1.4441188983679582e-05
-1.374014321064667e-05   1.9258063771752714e-06   -8.804862947928873e-06
-1.374014321064667e-05   1.9258063771752714e-06   -8.804862947928873e-06
-1.374014321064667e-05   1.9258063771752714e-06   -8.804862947928873e-06
-1.374014321064667e-05   1.9258063771752714e-06   -8.804862947928873e-06
-1.3449014601229527e-05   4.260454961710629e-06   -1.3937425226198436e-05
-1.3449014601229527e-05   4.260454961710629e-06   -1.3937425226198436e-05
-1.3449014601229527e-05   4.260454961710629e-06   -1.3937425226198436e-05
-1.3449014601229527e-05   4.260454961710629e-06   -1.3937425226198436e-05
-1.7004399644549592e-05   2.2758941339544184e-06   -6.821046990677904e-06
-1.7004399644549592e-05   2.2758941339544184e-06   -6.821046990677904e-06
-1.7004399644549592e-05   2.2758941339544184e-06   -6.821046990677904e-06
-1.7004399644549592e-05   2.2758941339544184e-06   -6.821046990677904e-06
-1.5137312832564297e-05   3.1013674559578425e-06   -1.0428142337188737e-05
-1.5137312832564297e-05   3.1013674559578425e-06   -1.0428142337188737e-05
-1.5137312832564297e-05   3.1013674559578425e-06   -1.0428142337188737e-05
-1.5137312832564297e-05   3.1013674559578425e-06   -1.0428142337188737e-05
-1.7004399644549538e-05   4.260454961710629e-06   -1.2746688729544698e-05
-1.7004399644549538e-05   4.260454961710629e-06   -1.2746688729544698e-05
-1.7004399644549538e-05   4.260454961710629e-06   -1.2746688729544698e-05
-1.7004399644549538e-05   4.260454961710629e-06   -1.2746688729544698e-05
-1.3449014601229527e-05   2.2758941339544184e-06   -8.011783487331547e-06
-1.3449014601229527e-05   2.2758941339544184e-06   -8.011783487331547e-06
-1.3449014601229527e-05   2.2758941339544184e-06   -8.011783487331547e-06
-1.3449014601229527e-05   2.2758941339544184e-06   -8.011783487331547e-06
-1.32518074725633e-05   4.74965015235672e-06   -1.1794703135057749e-05
-1.32518074725633e-05   4.74965015235672e-06   -1.1794703135057749e-05
-1.32518074725633e-05   4.74965015235672e-06   -1.1794703135057749e-05
-1.32518074725633e-05   4.74965015235672e-06   -1.1794703135057749e-05
-1.5962790692569667e-05   2.830841597205227e-06   -6.125112635289333e-06
-1.5962790692569667e-05   2.830841597205227e-06   -6.125112635289333e-06
-1.5962790692569667e-05   2.830841597205227e-06   -6.125112635289333e-06
-1.5962790692569667e-05   2.830841597205227e-06   -6.125112635289333e-06
-1.443081822839038e-05   3.3614701908668294e-06   -8.996777231785544e-06
-1.443081822839038e-05   3.3614701908668294e-06   -8.996777231785544e-06
-1.443081822839038e-05   3.3614701908668294e-06   -8.996777231785544e-06
-1.443081822839038e-05   3.3614701908668294e-06   -8.996777231785544e-06
-1.3943821148819445e-05   1.5748375044733875e-06   -2.5830850454486363e-05
-1.3943821148819445e-05   1.5748375044733875e-06   -2.5830850454486363e-05
-1.3943821148819445e-05   1.5748375044733875e-06   -2.5830850454486363e-05
-1.3943821148819445e-05   1.5748375044733875e-06   -2.5830850454486363e-05
-9.954338311754716e-06   7.130459468210597e-07   -1.969878732730322e-05
-9.954338311754716e-06   7.130459468210597e-07   -1.969878732730322e-05
-9.954338311754716e-06   7.130459468210597e-07   -1.969878732730322e-05
-9.954338311754716e-06   7.130459468210597e-07   -1.969878732730322e-05
-9.821949825441131e-06   2.453538192760782e-06   -2.5744553095758283e-05
-9.821949825441131e-06   2.453538192760782e-06   -2.5744553095758283e-05
-9.821949825441131e-06   2.453538192760782e-06   -2.5744553095758283e-05
-9.821949825441131e-06   2.453538192760782e-06   -2.5744553095758283e-05
-1.374014321064667e-05   1.5061879482743167e-06   -1.8645820640390164e-05
-1.374014321064667e-05   1.5061879482743167e-06   -1.8645820640390164e-05
-1.374014321064667e-05   1.5061879482743167e-06   -1.8645820640390164e-05
-1.374014321064667e-05   1.5061879482743167e-06   -1.8645820640390164e-05
-1.1749351793630006e-05   1.7151753878337115e-06   -2.2089198799154233e-05
-1.1749351793630006e-05   1.7151753878337115e-06   -2.2089198799154233e-05
-1.1749351793630006e-05   1.7151753878337115e-06   -2.2089198799154233e-05
-1.1749351793630006e-05   1.7151753878337115e-06   -2.2089198799154233e-05
-1.3740143210646643e-05   2.453538192760782e-06   -2.5176142949066122e-05
-1.3740143210646643e-05   2.453538192760782e-06   -2.5176142949066122e-05
-1.3740143210646643e-05   2.453538192760782e-06   -2.5176142949066122e-05
-1.3740143210646643e-05   2.453538192760782e-06   -2.5176142949066122e-05
-9.821949825441131e-06   1.5061879482743167e-06   -1.921423078708219e-05
-9.821949825441131e-06   1.5061879482743167e-06   -1.921423078708219e-05
-9.821949825441131e-06   1.5061879482743167e-06   -1.921423078708219e-05
-9.821949825441131e-06   1.5061879482743167e-06   -1.921423078708219e-05
-9.675605885365728e-06   3.253737051544083e-06   -2.5328140185036023e-05
-9.675605885365728e-06   3.253737051544083e-06   -2.5328140185036023e-05
-9.675605885365728e-06   3.253737051544083e-06   -2.5328140185036023e-05
-9.675605885365728e-06   3.253737051544083e-06   -2.5328140185036023e-05
-1.3449014601229554e-05   2.2443556794085476e-06   -1.843349683531477e-05
-1.3449014601229554e-05   2.2443556794085476e-06   -1.843349683531477e-05
-1.3449014601229554e-05   2.2443556794085476e-06   -1.843349683531477e-05
-1.3449014601229554e-05   2.2443556794085476e-06   -1.843349683531477e-05
-1.1574750314958034e-05   2.357183722599557e-06   -2.162496747168185e-05
-1.1574750314958034e-05   2.357183722599557e-06   -2.162496747168185e-05
-1.1574750314958034e-05   2.357183722599557e-06   -2.162496747168185e-05
-1.1574750314958034e-05   2.357183722599557e-06   -2.162496747168185e-05
-1.3449014601229527e-05   3.2537370515439744e-06   -2.472251136175456e-05
-1.3449014601229527e-05   3.2537370515439744e-06   -2.472251136175456e-05
-1.3449014601229527e-05   3.2537370515439744e-06   -2.472251136175456e-05
-1.3449014601229527e-05   3.2537370515439744e-06   -2.472251136175456e-05
-9.675605885365714e-06   2.2443556794085476e-06   -1.9039125658596123e-05
-9.675605885365714e-06   2.2443556794085476e-06   -1.9039125658596123e-05
-9.675605885365714e-06   2.2443556794085476e-06   -1.9039125658596123e-05
-9.675605885365714e-06   2.2443556794085476e-06   -1.9039125658596123e-05
-9.545838609303193e-06   4.123577994773111e-06   -2.5573821890724838e-05
-9.545838609303193e-06   4.123577994773111e-06   -2.5573821890724838e-05
-9.545838609303193e-06   4.123577994773111e-06   -2.5573821890724838e-05
-9.545838609303193e-06   4.123577994773111e-06   -2.5573821890724838e-05
-1.3251807472563327e-05   3.0652429808124574e-06   -1.8762206110248112e-05
-1.3251807472563327e-05   3.0652429808124574e-06   -1.8762206110248112e-05
-1.3251807472563327e-05   3.0652429808124574e-06   -1.8762206110248112e-05
-1.3251807472563327e-05   3.0652429808124574e-06   -1.8762206110248112e-05
-1.1507850758620667e-05   3.0081880638894217e-06   -2.1634567683332393e-05
-1.1507850758620667e-05   3.0081880638894217e-06   -2.1634567683332393e-05
-1.1507850758620667e-05   3.0081880638894217e-06   -2.1634567683332393e-05
-1.1507850758620667e-05   3.0081880638894217e-06   -2.1634567683332393e-05
-9.954338311754675e-06   2.7299363088476546e-07   -2.9217082212548782e-05
-9.954338311754675e-06   2.7299363088476546e-07   -2.9217082212548782e-05
-9.954338311754675e-06   2.7299363088476546e-07   -2.9217082212548782e-05
-9.954338311754675e-06   2.7299363088476546e-07   -2.9217082212548782e-05
-6.064117574880024e-06   4.115165713078307e-07   -2.265026722017067e-05
-6.064117574880024e-06   4.115165713078307e-07   -2.265026722017067e-05
-6.064117574880024e-06   4.115165713078307e-07   -2.265026722017067e-05
-6.064117574880024e-06   4.115165713078307e-07   -2.265026722017067e-05
-5.935328439093291e-06   1.1571315180013532e-06   -2.8848059927811674e-05
-5.935328439093291e-06   1.1571315180013532e-06   -2.8848059927811674e-05
-5.935328439093291e-06   1.1571315180013532e-06   -2.8848059927811674e-05
-5.935328439093291e-06   1.1571315180013532e-06   -2.8848059927811674e-05
-9.821949825441131e-06   1.2200984848100612e-06   -2.2408137797316844e-05
-9.821949825441131e-06   1.2200984848100612e-06   -2.2408137797316844e-05
-9.821949825441131e-06   1.2200984848100612e-06   -2.2408137797316844e-05
-9.821949825441131e-06   1.2200984848100612e-06   -2.2408137797316844e-05
-7.892938738523958e-06   8.784293758901498e-07   -2.5418154810160818e-05
-7.892938738523958e-06   8.784293758901498e-07   -2.5418154810160818e-05
-7.892938738523958e-06   8.784293758901498e-07   -2.5418154810160818e-05
-7.892938738523958e-06   8.784293758901498e-07   -2.5418154810160818e-05
-9.821949825441118e-06   1.1571315180013532e-06   -2.8885840107896747e-05
-9.821949825441118e-06   1.1571315180013532e-06   -2.8885840107896747e-05
-9.821949825441118e-06   1.1571315180013532e-06   -2.8885840107896747e-05
-9.821949825441118e-06   1.1571315180013532e-06   -2.8885840107896747e-05
-5.935328439093291e-06   1.2200984848100612e-06   -2.2370357617231798e-05
-5.935328439093291e-06   1.2200984848100612e-06   -2.2370357617231798e-05
-5.935328439093291e-06   1.2200984848100612e-06   -2.2370357617231798e-05
-5.935328439093291e-06   1.2200984848100612e-06   -2.2370357617231798e-05
-5.790004530044385e-06   2.044106409473988e-06   -2.892255847370198e-05
-5.790004530044385e-06   2.044106409473988e-06   -2.892255847370198e-05
-5.790004530044385e-06   2.044106409473988e-06   -2.892255847370198e-05
-5.790004530044385e-06   2.044106409473988e-06   -2.892255847370198e-05
-9.675605885365714e-06   2.035729519012314e-06   -2.244153008055597e-05
-9.675605885365714e-06   2.035729519012314e-06   -2.244153008055597e-05
-9.675605885365714e-06   2.035729519012314e-06   -2.244153008055597e-05
-9.675605885365714e-06   2.035729519012314e-06   -2.244153008055597e-05
-7.807284487369727e-06   1.5736517411972994e-06   -2.5278152410526905e-05
-7.807284487369727e-06   1.5736517411972994e-06   -2.5278152410526905e-05
-7.807284487369727e-06   1.5736517411972994e-06   -2.5278152410526905e-05
-7.807284487369727e-06   1.5736517411972994e-06   -2.5278152410526905e-05
-9.6756058853657e-06   2.0441064094740965e-06   -2.8917532339424814e-05
-9.6756058853657e-06   2.0441064094740965e-06   -2.8917532339424814e-05
-9.6756058853657e-06   2.0441064094740965e-06   -2.8917532339424814e-05
-9.6756058853657e-06   2.0441064094740965e-06   -2.8917532339424814e-05
-5.790004530044395e-06   2.035729519012314e-06   -2.2446556214833003e-05
-5.790004530044395e-06   2.035729519012314e-06   -2.2446556214833003e-05
-5.790004530044395e-06   2.035729519012314e-06   -2.2446556214833003e-05
-5.790004530044395e-06   2.035729519012314e-06   -2.2446556214833003e-05
-5.659565000891914e-06   2.9465887942559544e-06   -2.940924332110197e-05
-5.659565000891914e-06   2.9465887942559544e-06   -2.940924332110197e-05
-5.659565000891914e-06   2.9465887942559544e-06   -2.940924332110197e-05
-5.659565000891914e-06   2.9465887942559544e-06   -2.940924332110197e-05
-9.545838609303206e-06   2.8637096575768193e-06   -2.2882393158408853e-05
-9.545838609303206e-06   2.8637096575768193e-06   -2.2882393158408853e-05
-9.545838609303206e-06   2.8637096575768193e-06   -2.2882393158408853e-05
-9.545838609303206e-06   2.8637096575768193e-06   -2.2882393158408853e-05
-7.736900134677312e-06   2.278129260324213e-06   -2.5545942377767293e-05
-7.736900134677312e-06   2.278129260324213e-06   -2.5545942377767293e-05
-7.736900134677312e-06   2.278129260324213e-06   -2.5545942377767293e-05
-7.736900134677312e-06   2.278129260324213e-06   -2.5545942377767293e-05
-6.0641175748800025e-06   -9.170787428281401e-07   -2.5604976002556424e-05
-6.0641175748800025e-06   -9.170787428281401e-07   -2.5604976002556424e-05
-6.0641175748800025e-06   -9.170787428281401e-07   -2.5604976002556424e-05
-6.0641175748800025e-06   -9.170787428281401e-07   -2.5604976002556424e-05
-2.2965752149209487e-06   1.8103900321713665e-07   -1.8666868088330955e-05
-2.2965752149209487e-06   1.8103900321713665e-07   -1.8666868088330955e-05
-2.2965752149209487e-06   1.8103900321713665e-07   -1.8666868088330955e-05
-2.2965752149209487e-06   1.8103900321713665e-07   -1.8666868088330955e-05
-2.103122722166539e-06   -8.3633985440432e-08   -2.477880300878944e-05
-2.103122722166539e-06   -8.3633985440432e-08   -2.477880300878944e-05
-2.103122722166539e-06   -8.3633985440432e-08   -2.477880300878944e-05
-2.103122722166539e-06   -8.3633985440432e-08   -2.477880300878944e-05
-5.9353284390932804e-06   9.648644245795505e-07   -1.902089252659004e-05
-5.9353284390932804e-06   9.648644245795505e-07   -1.902089252659004e-05
-5.9353284390932804e-06   9.648644245795505e-07   -1.902089252659004e-05
-5.9353284390932804e-06   9.648644245795505e-07   -1.902089252659004e-05
-4.05837588344175e-06   1.1799817211126298e-07   -2.16410270345287e-05
-4.05837588344175e-06   1.1799817211126298e-07   -2.16410270345287e-05
-4.05837588344175e-06   1.1799817211126298e-07   -2.16410270345287e-05
-4.05837588344175e-06   1.1799817211126298e-07   -2.16410270345287e-05
-5.93532843909327e-06   -8.3633985440432e-08   -2.5407902054801375e-05
-5.93532843909327e-06   -8.3633985440432e-08   -2.5407902054801375e-05
-5.93532843909327e-06   -8.3633985440432e-08   -2.5407902054801375e-05
-5.93532843909327e-06   -8.3633985440432e-08   -2.5407902054801375e-05
-2.103122722166539e-06   9.648644245795505e-07   -1.8391793480578098e-05
-2.103122722166539e-06   9.648644245795505e-07   -1.8391793480578098e-05
-2.103122722166539e-06   9.648644245795505e-07   -1.8391793480578098e-05
-2.103122722166539e-06   9.648644245795505e-07   -1.8391793480578098e-05
-1.8142383160008513e-06   7.175443684072445e-07   -2.51105558732455e-05
-1.8142383160008513e-06   7.175443684072445e-07   -2.51105558732455e-05
-1.8142383160008513e-06   7.175443684072445e-07   -2.51105558732455e-05
-1.8142383160008513e-06   7.175443684072445e-07   -2.51105558732455e-05
-5.790004530044385e-06   1.702926805383976e-06   -1.9075508312025632e-05
-5.790004530044385e-06   1.702926805383976e-06   -1.9075508312025632e-05
-5.790004530044385e-06   1.702926805383976e-06   -1.9075508312025632e-05
-5.790004530044385e-06   1.702926805383976e-06   -1.9075508312025632e-05
-3.94190610759597e-06   7.511957040268842e-07   -2.1584633688625474e-05
-3.94190610759597e-06   7.511957040268842e-07   -2.1584633688625474e-05
-3.94190610759597e-06   7.511957040268842e-07   -2.1584633688625474e-05
-3.94190610759597e-06   7.511957040268842e-07   -2.1584633688625474e-05
-5.79000453004437e-06   7.175443684072445e-07   -2.570178533543144e-05
-5.79000453004437e-06   7.175443684072445e-07   -2.570178533543144e-05
-5.79000453004437e-06   7.175443684072445e-07   -2.570178533543144e-05
-5.79000453004437e-06   7.175443684072445e-07   -2.570178533543144e-05
-1.8142383160008513e-06   1.702926805383976e-06   -1.8484278849839576e-05
-1.8142383160008513e-06   1.702926805383976e-06   -1.8484278849839576e-05
-1.8142383160008513e-06   1.702926805383976e-06   -1.8484278849839576e-05
-1.8142383160008513e-06   1.702926805383976e-06   -1.8484278849839576e-05
-1.6128218848129308e-06   1.6351079212909838e-06   -2.5812681885175768e-05
-1.6128218848129308e-06   1.6351079212909838e-06   -2.5812681885175768e-05
-1.6128218848129308e-06   1.6351079212909838e-06   -2.5812681885175768e-05
-1.6128218848129308e-06   1.6351079212909838e-06   -2.5812681885175768e-05
-5.659565000891914e-06   2.5367459732928256e-06   -1.9609092856245077e-05
-5.659565000891914e-06   2.5367459732928256e-06   -1.9609092856245077e-05
-5.659565000891914e-06   2.5367459732928256e-06   -1.9609092856245077e-05
-5.659565000891914e-06   2.5367459732928256e-06   -1.9609092856245077e-05
-3.820286259040771e-06   1.414115274540168e-06   -2.2000979006745375e-05
-3.820286259040771e-06   1.414115274540168e-06   -2.2000979006745375e-05
-3.820286259040771e-06   1.414115274540168e-06   -2.2000979006745375e-05
-3.820286259040771e-06   1.414115274540168e-06   -2.2000979006745375e-05
-2.296575214920935e-06   -1.681331153216407e-06   -1.3886523854054057e-05
-2.296575214920935e-06   -1.681331153216407e-06   -1.3886523854054057e-05
-2.296575214920935e-06   -1.681331153216407e-06   -1.3886523854054057e-05
-2.296575214920935e-06   -1.681331153216407e-06   -1.3886523854054057e-05
4.6888883928168645e-07   2.5678570081508374e-07   -8.114546984630804e-06
4.6888883928168645e-07   2.5678570081508374e-07   -8.114546984630804e-06
4.6888883928168645e-07   2.5678570081508374e-07   -8.114546984630804e-06
4.6888883928168645e-07   2.5678570081508374e-07   -8.114546984630804e-06
1.500425309374073e-06   -1.1159480622453463e-06   -1.324871320266074e-05
1.500425309374073e-06   -1.1159480622453463e-06   -1.324871320266074e-05
1.500425309374073e-06   -1.1159480622453463e-06   -1.324871320266074e-05
1.500425309374073e-06   -1.1159480622453463e-06   -1.324871320266074e-05
-2.103122722166539e-06   8.770357668165226e-07   -8.438590114196633e-06
-2.103122722166539e-06   8.770357668165226e-07   -8.438590114196633e-06
-2.103122722166539e-06   8.770357668165226e-07   -8.438590114196633e-06
-2.103122722166539e-06   8.770357668165226e-07   -8.438590114196633e-06
-5.904152853470173e-07   -3.328520299770857e-07   -1.0233836497486765e-05
-5.904152853470173e-07   -3.328520299770857e-07   -1.0233836497486765e-05
-5.904152853470173e-07   -3.328520299770857e-07   -1.0233836497486765e-05
-5.904152853470173e-07   -3.328520299770857e-07   -1.0233836497486765e-05
-2.1031227221665253e-06   -1.1159480622453463e-06   -1.4444503500097639e-05
-2.1031227221665253e-06   -1.1159480622453463e-06   -1.4444503500097639e-05
-2.1031227221665253e-06   -1.1159480622453463e-06   -1.4444503500097639e-05
-2.1031227221665253e-06   -1.1159480622453463e-06   -1.4444503500097639e-05
1.5004253093740458e-06   8.770357668165226e-07   -7.242799816759666e-06
1.5004253093740458e-06   8.770357668165226e-07   -7.242799816759666e-06
1.5004253093740458e-06   8.770357668165226e-07   -7.242799816759666e-06
1.5004253093740458e-06   8.770357668165226e-07   -7.242799816759666e-06
2.3151724899523284e-06   -7.264035584663136e-07   -1.3965501400560996e-05
2.3151724899523284e-06   -7.264035584663136e-07   -1.3965501400560996e-05
2.3151724899523284e-06   -7.264035584663136e-07   -1.3965501400560996e-05
2.3151724899523284e-06   -7.264035584663136e-07   -1.3965501400560996e-05
-1.8142383160008513e-06   1.2254920316205143e-06   -8.254287411357605e-06
-1.8142383160008513e-06   1.2254920316205143e-06   -8.254287411357605e-06
-1.8142383160008513e-06   1.2254920316205143e-06   -8.254287411357605e-06
-1.8142383160008513e-06   1.2254920316205143e-06   -8.254287411357605e-06
-6.921256317379089e-08   -3.523670777892934e-08   -1.040622642242971e-05
-6.921256317379089e-08   -3.523670777892934e-08   -1.040622642242971e-05
-6.921256317379089e-08   -3.523670777892934e-08   -1.040622642242971e-05
-6.921256317379089e-08   -3.523670777892934e-08   -1.040622642242971e-05
-1.8142383160008513e-06   -7.264035584662052e-07   -1.5136638754613071e-05
-1.8142383160008513e-06   -7.264035584662052e-07   -1.5136638754613071e-05
-1.8142383160008513e-06   -7.264035584662052e-07   -1.5136638754613071e-05
-1.8142383160008513e-06   -7.264035584662052e-07   -1.5136638754613071e-05
2.3151724899523013e-06   1.2254920316204058e-06   -7.0831500573056245e-06
2.3151724899523013e-06   1.2254920316204058e-06   -7.0831500573056245e-06
2.3151724899523013e-06   1.2254920316204058e-06   -7.0831500573056245e-06
2.3151724899523013e-06   1.2254920316204058e-06   -7.0831500573056245e-06
3.34474049934629e-06   3.79086767798029e-08   -1.5638586402301827e-05
3.34474049934629e-06   3.79086767798029e-08   -1.5638586402301827e-05
3.34474049934629e-06   3.79086767798029e-08   -1.5638586402301827e-05
3.34474049934629e-06   3.79086767798029e-08   -1.5638586402301827e-05
-1.6128218848129308e-06   1.8417022728496124e-06   -8.458258586344753e-06
-1.6128218848129308e-06   1.8417022728496124e-06   -8.458258586344753e-06
-1.6128218848129308e-06   1.8417022728496124e-06   -8.458258586344753e-06
-1.6128218848129308e-06   1.8417022728496124e-06   -8.458258586344753e-06
3.817487020404983e-07   3.0274726839428327e-07   -1.0859169895094194e-05
3.817487020404983e-07   3.0274726839428327e-07   -1.0859169895094194e-05
3.817487020404983e-07   3.0274726839428327e-07   -1.0859169895094194e-05
3.817487020404983e-07   3.0274726839428327e-07   -1.0859169895094194e-05
-6.52144560375149e-06   1.234486346829585e-06   -1.1758874828575472e-05
-6.52144560375149e-06   1.234486346829585e-06   -1.1758874828575472e-05
-6.52144560375149e-06   1.234486346829585e-06   -1.1758874828575472e-05
-6.52144560375149e-06   1.234486346829585e-06   -1.1758874828575472e-05
-6.652958623567953e-06   -5.808263037812827e-07   -1.3067250785302778e-05
-6.652958623567953e-06   -5.808263037812827e-07   -1.3067250785302778e-05
-6.652958623567953e-06   -5.808263037812827e-07   -1.3067250785302778e-05
-6.652958623567953e-06   -5.808263037812827e-07   -1.3067250785302778e-05
-6.322275801936693e-06   1.9258063771752714e-06   -1.1049397474253986e-05
-6.322275801936693e-06   1.9258063771752714e-06   -1.1049397474253986e-05
-6.322275801936693e-06   1.9258063771752714e-06   -1.1049397474253986e-05
-6.322275801936693e-06   1.9258063771752714e-06   -1.1049397474253986e-05
-5.374451026957501e-06   -2.2437807332617576e-08   -1.1460158921847662e-05
-5.374451026957501e-06   -2.2437807332617576e-08   -1.1460158921847662e-05
-5.374451026957501e-06   -2.2437807332617576e-08   -1.1460158921847662e-05
-5.374451026957501e-06   -2.2437807332617576e-08   -1.1460158921847662e-05
-5.946202631837064e-06   8.501050711392285e-07   -1.1030765307465493e-05
-5.946202631837064e-06   8.501050711392285e-07   -1.1030765307465493e-05
-5.946202631837064e-06   8.501050711392285e-07   -1.1030765307465493e-05
-5.946202631837064e-06   8.501050711392285e-07   -1.1030765307465493e-05
-5.374451026957501e-06   1.9258063771752714e-06   -9.880450963549198e-06
-5.374451026957501e-06   1.9258063771752714e-06   -9.880450963549198e-06
-5.374451026957501e-06   1.9258063771752714e-06   -9.880450963549198e-06
-5.374451026957501e-06   1.9258063771752714e-06   -9.880450963549198e-06
-6.322275801936693e-06   -2.2437807332617576e-08   -1.262910543255264e-05
-6.322275801936693e-06   -2.2437807332617576e-08   -1.262910543255264e-05
-6.322275801936693e-06   -2.2437807332617576e-08   -1.262910543255264e-05
-6.322275801936693e-06   -2.2437807332617576e-08   -1.262910543255264e-05
-5.904608489475105e-06   2.2758941339544184e-06   -1.0253520377808117e-05
-5.904608489475105e-06   2.2758941339544184e-06   -1.0253520377808117e-05
-5.904608489475105e-06   2.2758941339544184e-06   -1.0253520377808117e-05
-5.904608489475105e-06   2.2758941339544184e-06   -1.0253520377808117e-05
-4.427431527126441e-06   2.943549807198076e-07   -1.152655848978164e-05
-4.427431527126441e-06   2.943549807198076e-07   -1.152655848978164e-05
-4.427431527126441e-06   2.943549807198076e-07   -1.152655848978164e-05
-4.427431527126441e-06   2.943549807198076e-07   -1.152655848978164e-05
-5.404571163182496e-06   1.137296313032392e-06   -1.0403757229076292e-05
-5.404571163182496e-06   1.137296313032392e-06   -1.0403757229076292e-05
-5.404571163182496e-06   1.137296313032392e-06   -1.0403757229076292e-05
-5.404571163182496e-06   1.137296313032392e-06   -1.0403757229076292e-05
-4.427431527126441e-06   2.2758941339544184e-06   -9.06459688586721e-06
-4.427431527126441e-06   2.2758941339544184e-06   -9.06459688586721e-06
-4.427431527126441e-06   2.2758941339544184e-06   -9.06459688586721e-06
-4.427431527126441e-06   2.2758941339544184e-06   -9.06459688586721e-06
-5.904608489475159e-06   2.943549807198076e-07   -1.271548198172244e-05
-5.904608489475159e-06   2.943549807198076e-07   -1.271548198172244e-05
-5.904608489475159e-06   2.943549807198076e-07   -1.271548198172244e-05
-5.904608489475159e-06   2.943549807198076e-07   -1.271548198172244e-05
-5.580073903023306e-06   2.8308415972051184e-06   -9.515274669517361e-06
-5.580073903023306e-06   2.8308415972051184e-06   -9.515274669517361e-06
-5.580073903023306e-06   2.8308415972051184e-06   -9.515274669517361e-06
-5.580073903023306e-06   2.8308415972051184e-06   -9.515274669517361e-06
-3.2581646024751115e-06   9.258584090596905e-07   -1.2242133590877058e-05
-3.2581646024751115e-06   9.258584090596905e-07   -1.2242133590877058e-05
-3.2581646024751115e-06   9.258584090596905e-07   -1.2242133590877058e-05
-3.2581646024751115e-06   9.258584090596905e-07   -1.2242133590877058e-05
-4.728668296565656e-06   1.413679661123519e-06   -1.0083986851964436e-05
-4.728668296565656e-06   1.413679661123519e-06   -1.0083986851964436e-05
-4.728668296565656e-06   1.413679661123519e-06   -1.0083986851964436e-05
-4.728668296565656e-06   1.413679661123519e-06   -1.0083986851964436e-05
-6.652958623567953e-06   7.130459468210597e-07   -2.142978976661555e-05
-6.652958623567953e-06   7.130459468210597e-07   -2.142978976661555e-05
-6.652958623567953e-06   7.130459468210597e-07   -2.142978976661555e-05
-6.652958623567953e-06   7.130459468210597e-07   -2.142978976661555e-05
-7.699532924762691e-06   -1.2281757894613658e-07   -2.3675598384067197e-05
-7.699532924762691e-06   -1.2281757894613658e-07   -2.3675598384067197e-05
-7.699532924762691e-06   -1.2281757894613658e-07   -2.3675598384067197e-05
-7.699532924762691e-06   -1.2281757894613658e-07   -2.3675598384067197e-05
-7.43333391239156e-06   1.5061879482742083e-06   -2.1444672428549928e-05
-7.43333391239156e-06   1.5061879482742083e-06   -2.1444672428549928e-05
-7.43333391239156e-06   1.5061879482742083e-06   -2.1444672428549928e-05
-7.43333391239156e-06   1.5061879482742083e-06   -2.1444672428549928e-05
-6.32227580193672e-06   5.823258452167506e-07   -2.274211868414009e-05
-6.32227580193672e-06   5.823258452167506e-07   -2.274211868414009e-05
-6.32227580193672e-06   5.823258452167506e-07   -2.274211868414009e-05
-6.32227580193672e-06   5.823258452167506e-07   -2.274211868414009e-05
-6.945257300409076e-06   8.253009304611935e-07   -2.1849601237833202e-05
-6.945257300409076e-06   8.253009304611935e-07   -2.1849601237833202e-05
-6.945257300409076e-06   8.253009304611935e-07   -2.1849601237833202e-05
-6.945257300409076e-06   8.253009304611935e-07   -2.1849601237833202e-05
-6.322275801936693e-06   1.5061879482742083e-06   -2.0890355166715236e-05
-6.322275801936693e-06   1.5061879482742083e-06   -2.0890355166715236e-05
-6.322275801936693e-06   1.5061879482742083e-06   -2.0890355166715236e-05
-6.322275801936693e-06   1.5061879482742083e-06   -2.0890355166715236e-05
-7.433333912391547e-06   5.823258452165338e-07   -2.32964359459747e-05
-7.433333912391547e-06   5.823258452165338e-07   -2.32964359459747e-05
-7.433333912391547e-06   5.823258452165338e-07   -2.32964359459747e-05
-7.433333912391547e-06   5.823258452165338e-07   -2.32964359459747e-05
-7.15638787853338e-06   2.244355679408439e-06   -2.1264750257871568e-05
-7.15638787853338e-06   2.244355679408439e-06   -2.1264750257871568e-05
-7.15638787853338e-06   2.244355679408439e-06   -2.1264750257871568e-05
-7.15638787853338e-06   2.244355679408439e-06   -2.1264750257871568e-05
-5.904608489475159e-06   1.261828125941316e-06   -2.2761532707554955e-05
-5.904608489475159e-06   1.261828125941316e-06   -2.2761532707554955e-05
-5.904608489475159e-06   1.261828125941316e-06   -2.2761532707554955e-05
-5.904608489475159e-06   1.261828125941316e-06   -2.2761532707554955e-05
-6.678599941857735e-06   1.3945761868294163e-06   -2.1551195790116945e-05
-6.678599941857735e-06   1.3945761868294163e-06   -2.1551195790116945e-05
-6.678599941857735e-06   1.3945761868294163e-06   -2.1551195790116945e-05
-6.678599941857735e-06   1.3945761868294163e-06   -2.1551195790116945e-05
-5.904608489475105e-06   2.244355679408439e-06   -2.0675233725791272e-05
-5.904608489475105e-06   2.244355679408439e-06   -2.0675233725791272e-05
-5.904608489475105e-06   2.244355679408439e-06   -2.0675233725791272e-05
-5.904608489475105e-06   2.244355679408439e-06   -2.0675233725791272e-05
-7.156387878533353e-06   1.261828125941316e-06   -2.3351049239635224e-05
-7.156387878533353e-06   1.261828125941316e-06   -2.3351049239635224e-05
-7.156387878533353e-06   1.261828125941316e-06   -2.3351049239635224e-05
-7.156387878533353e-06   1.261828125941316e-06   -2.3351049239635224e-05
-6.895899383873604e-06   3.0652429808124574e-06   -2.1617206905252405e-05
-6.895899383873604e-06   3.0652429808124574e-06   -2.1617206905252405e-05
-6.895899383873604e-06   3.0652429808124574e-06   -2.1617206905252405e-05
-6.895899383873604e-06   3.0652429808124574e-06   -2.1617206905252405e-05
-5.580073903023333e-06   2.03836982436709e-06   -2.3194125479468892e-05
-5.580073903023333e-06   2.03836982436709e-06   -2.3194125479468892e-05
-5.580073903023333e-06   2.03836982436709e-06   -2.3194125479468892e-05
-5.580073903023333e-06   2.03836982436709e-06   -2.3194125479468892e-05
-6.444398016330534e-06   1.992444124048875e-06   -2.172602987043264e-05
-6.444398016330534e-06   1.992444124048875e-06   -2.172602987043264e-05
-6.444398016330534e-06   1.992444124048875e-06   -2.172602987043264e-05
-6.444398016330534e-06   1.992444124048875e-06   -2.172602987043264e-05
-7.69953292476265e-06   4.115165713078307e-07   -2.4965901539197193e-05
-7.69953292476265e-06   4.115165713078307e-07   -2.4965901539197193e-05
-7.69953292476265e-06   4.115165713078307e-07   -2.4965901539197193e-05
-7.69953292476265e-06   4.115165713078307e-07   -2.4965901539197193e-05
-8.796951713105693e-06   5.889352011434566e-07   -2.6688481675200837e-05
-8.796951713105693e-06   5.889352011434566e-07   -2.6688481675200837e-05
-8.796951713105693e-06   5.889352011434566e-07   -2.6688481675200837e-05
-8.796951713105693e-06   5.889352011434566e-07   -2.6688481675200837e-05
-8.535574678223701e-06   1.2200984848100612e-06   -2.4579513360230352e-05
-8.535574678223701e-06   1.2200984848100612e-06   -2.4579513360230352e-05
-8.535574678223701e-06   1.2200984848100612e-06   -2.4579513360230352e-05
-8.535574678223701e-06   1.2200984848100612e-06   -2.4579513360230352e-05
-7.433333912391547e-06   1.3185419490673728e-06   -2.6475647381838193e-05
-7.433333912391547e-06   1.3185419490673728e-06   -2.6475647381838193e-05
-7.433333912391547e-06   1.3185419490673728e-06   -2.6475647381838193e-05
-7.433333912391547e-06   1.3185419490673728e-06   -2.6475647381838193e-05
-8.067458839856563e-06   9.986450059847052e-07   -2.522683433688061e-05
-8.067458839856563e-06   9.986450059847052e-07   -2.522683433688061e-05
-8.067458839856563e-06   9.986450059847052e-07   -2.522683433688061e-05
-8.067458839856563e-06   9.986450059847052e-07   -2.522683433688061e-05
-7.433333912391533e-06   1.2200984848100612e-06   -2.463857943878461e-05
-7.433333912391533e-06   1.2200984848100612e-06   -2.463857943878461e-05
-7.433333912391533e-06   1.2200984848100612e-06   -2.463857943878461e-05
-7.433333912391533e-06   1.2200984848100612e-06   -2.463857943878461e-05
-8.535574678223715e-06   1.3185419490673728e-06   -2.6416581303283964e-05
-8.535574678223715e-06   1.3185419490673728e-06   -2.6416581303283964e-05
-8.535574678223715e-06   1.3185419490673728e-06   -2.6416581303283964e-05
-8.535574678223715e-06   1.3185419490673728e-06   -2.6416581303283964e-05
-8.260311913966995e-06   2.035729519012314e-06   -2.465015419592304e-05
-8.260311913966995e-06   2.035729519012314e-06   -2.465015419592304e-05
-8.260311913966995e-06   2.035729519012314e-06   -2.465015419592304e-05
-8.260311913966995e-06   2.035729519012314e-06   -2.465015419592304e-05
-7.15638787853338e-06   2.0640636588598396e-06   -2.6507028072220677e-05
-7.15638787853338e-06   2.0640636588598396e-06   -2.6507028072220677e-05
-7.15638787853338e-06   2.0640636588598396e-06   -2.6507028072220677e-05
-7.15638787853338e-06   2.0640636588598396e-06   -2.6507028072220677e-05
-7.848640238319507e-06   1.6233164963516634e-06   -2.5088825841739382e-05
-7.848640238319507e-06   1.6233164963516634e-06   -2.5088825841739382e-05
-7.848640238319507e-06   1.6233164963516634e-06   -2.5088825841739382e-05
-7.848640238319507e-06   1.6233164963516634e-06   -2.5088825841739382e-05
-7.156387878533353e-06   2.035729519012314e-06   -2.4667154679831416e-05
-7.156387878533353e-06   2.035729519012314e-06   -2.4667154679831416e-05
-7.156387878533353e-06   2.035729519012314e-06   -2.4667154679831416e-05
-7.156387878533353e-06   2.035729519012314e-06   -2.4667154679831416e-05
-8.260311913966995e-06   2.0640636588598396e-06   -2.649002758831222e-05
-8.260311913966995e-06   2.0640636588598396e-06   -2.649002758831222e-05
-8.260311913966995e-06   2.0640636588598396e-06   -2.649002758831222e-05
-8.260311913966995e-06   2.0640636588598396e-06   -2.649002758831222e-05
-8.00079396521312e-06   2.8637096575769277e-06   -2.5128640801097644e-05
-8.00079396521312e-06   2.8637096575769277e-06   -2.5128640801097644e-05
-8.00079396521312e-06   2.8637096575769277e-06   -2.5128640801097644e-05
-8.00079396521312e-06   2.8637096575769277e-06   -2.5128640801097644e-05
-6.895899383873604e-06   2.819963230808742e-06   -2.6943883913935944e-05
-6.895899383873604e-06   2.819963230808742e-06   -2.6943883913935944e-05
-6.895899383873604e-06   2.819963230808742e-06   -2.6943883913935944e-05
-6.895899383873604e-06   2.819963230808742e-06   -2.6943883913935944e-05
-7.647569486876774e-06   2.2567549455823534e-06   -2.5353175437795e-05
-7.647569486876774e-06   2.2567549455823534e-06   -2.5353175437795e-05
-7.647569486876774e-06   2.2567549455823534e-06   -2.5353175437795e-05
-7.647569486876774e-06   2.2567549455823534e-06   -2.5353175437795e-05
-8.796951713105664e-06   1.8103900321702823e-07   -2.1534921877083162e-05
-8.796951713105664e-06   1.8103900321702823e-07   -2.1534921877083162e-05
-8.796951713105664e-06   1.8103900321702823e-07   -2.1534921877083162e-05
-8.796951713105664e-06   1.8103900321702823e-07   -2.1534921877083162e-05
-9.959039571123712e-06   1.3073071357743663e-06   -2.279597409424552e-05
-9.959039571123712e-06   1.3073071357743663e-06   -2.279597409424552e-05
-9.959039571123712e-06   1.3073071357743663e-06   -2.279597409424552e-05
-9.959039571123712e-06   1.3073071357743663e-06   -2.279597409424552e-05
-9.642085942617342e-06   9.648644245795505e-07   -2.058509236014264e-05
-9.642085942617342e-06   9.648644245795505e-07   -2.058509236014264e-05
-9.642085942617342e-06   9.648644245795505e-07   -2.058509236014264e-05
-9.642085942617342e-06   9.648644245795505e-07   -2.058509236014264e-05
-8.535574678223701e-06   2.039790940322906e-06   -2.3074233710244597e-05
-8.535574678223701e-06   2.039790940322906e-06   -2.3074233710244597e-05
-8.535574678223701e-06   2.039790940322906e-06   -2.3074233710244597e-05
-8.535574678223701e-06   2.039790940322906e-06   -2.3074233710244597e-05
-9.161942884296154e-06   1.2045431347779134e-06   -2.1529138016797213e-05
-9.161942884296154e-06   1.2045431347779134e-06   -2.1529138016797213e-05
-9.161942884296154e-06   1.2045431347779134e-06   -2.1529138016797213e-05
-9.161942884296154e-06   1.2045431347779134e-06   -2.1529138016797213e-05
-8.535574678223688e-06   9.648644245795505e-07   -2.1230048269588696e-05
-8.535574678223688e-06   9.648644245795505e-07   -2.1230048269588696e-05
-8.535574678223688e-06   9.648644245795505e-07   -2.1230048269588696e-05
-8.535574678223688e-06   9.648644245795505e-07   -2.1230048269588696e-05
-9.642085942617342e-06   2.039790940322906e-06   -2.2429277800798775e-05
-9.642085942617342e-06   2.039790940322906e-06   -2.2429277800798775e-05
-9.642085942617342e-06   2.039790940322906e-06   -2.2429277800798775e-05
-9.642085942617342e-06   2.039790940322906e-06   -2.2429277800798775e-05
-9.230891633753943e-06   1.7029268053840845e-06   -2.0671851531693945e-05
-9.230891633753943e-06   1.7029268053840845e-06   -2.0671851531693945e-05
-9.230891633753943e-06   1.7029268053840845e-06   -2.0671851531693945e-05
-9.230891633753943e-06   1.7029268053840845e-06   -2.0671851531693945e-05
-8.260311913966981e-06   2.715018074420138e-06   -2.289673915942704e-05
-8.260311913966981e-06   2.715018074420138e-06   -2.289673915942704e-05
-8.260311913966981e-06   2.715018074420138e-06   -2.289673915942704e-05
-8.260311913966981e-06   2.715018074420138e-06   -2.289673915942704e-05
-8.87857563747933e-06   1.7861220118117185e-06   -2.1308961982675152e-05
-8.87857563747933e-06   1.7861220118117185e-06   -2.1308961982675152e-05
-8.87857563747933e-06   1.7861220118117185e-06   -2.1308961982675152e-05
-8.87857563747933e-06   1.7861220118117185e-06   -2.1308961982675152e-05
-8.260311913966959e-06   1.702926805383976e-06   -2.1279106293115393e-05
-8.260311913966959e-06   1.702926805383976e-06   -2.1279106293115393e-05
-8.260311913966959e-06   1.702926805383976e-06   -2.1279106293115393e-05
-8.260311913966959e-06   1.702926805383976e-06   -2.1279106293115393e-05
-9.230891633753956e-06   2.7150180744199212e-06   -2.228948439800553e-05
-9.230891633753956e-06   2.7150180744199212e-06   -2.228948439800553e-05
-9.230891633753956e-06   2.7150180744199212e-06   -2.228948439800553e-05
-9.230891633753956e-06   2.7150180744199212e-06   -2.228948439800553e-05
-8.908263856782245e-06   2.5367459732928256e-06   -2.1245088778837015e-05
-8.908263856782245e-06   2.5367459732928256e-06   -2.1245088778837015e-05
-8.908263856782245e-06   2.5367459732928256e-06   -2.1245088778837015e-05
-8.908263856782245e-06   2.5367459732928256e-06   -2.1245088778837015e-05
-8.00079396521312e-06   3.4709530367753576e-06   -2.3318062836208184e-05
-8.00079396521312e-06   3.4709530367753576e-06   -2.3318062836208184e-05
-8.00079396521312e-06   3.4709530367753576e-06   -2.3318062836208184e-05
-8.00079396521312e-06   3.4709530367753576e-06   -2.3318062836208184e-05
-8.667672485968996e-06   2.3798082084437993e-06   -2.1551911737949377e-05
-8.667672485968996e-06   2.3798082084437993e-06   -2.1551911737949377e-05
-8.667672485968996e-06   2.3798082084437993e-06   -2.1551911737949377e-05
-8.667672485968996e-06   2.3798082084437993e-06   -2.1551911737949377e-05
-9.959039571123685e-06   2.5678570081508374e-07   -1.1469710006267655e-05
-9.959039571123685e-06   2.5678570081508374e-07   -1.1469710006267655e-05
-9.959039571123685e-06   2.5678570081508374e-07   -1.1469710006267655e-05
-9.959039571123685e-06   2.5678570081508374e-07   -1.1469710006267655e-05
-1.209114356894722e-05   2.199929631455837e-06   -1.3857330310922426e-05
-1.209114356894722e-05   2.199929631455837e-06   -1.3857330310922426e-05
-1.209114356894722e-05   2.199929631455837e-06   -1.3857330310922426e-05
-1.209114356894722e-05   2.199929631455837e-06   -1.3857330310922426e-05
-1.0955169946854975e-05   8.770357668165226e-07   -9.439297081363608e-06
-1.0955169946854975e-05   8.770357668165226e-07   -9.439297081363608e-06
-1.0955169946854975e-05   8.770357668165226e-07   -9.439297081363608e-06
-1.0955169946854975e-05   8.770357668165226e-07   -9.439297081363608e-06
-9.642085942617321e-06   2.864688954145895e-06   -1.2820362334157282e-05
-9.642085942617321e-06   2.864688954145895e-06   -1.2820362334157282e-05
-9.642085942617321e-06   2.864688954145895e-06   -1.2820362334157282e-05
-9.642085942617321e-06   2.864688954145895e-06   -1.2820362334157282e-05
-1.0230403102893931e-05   1.629194682081607e-06   -1.1098537170457822e-05
-1.0230403102893931e-05   1.629194682081607e-06   -1.1098537170457822e-05
-1.0230403102893931e-05   1.629194682081607e-06   -1.1098537170457822e-05
-1.0230403102893931e-05   1.629194682081607e-06   -1.1098537170457822e-05
-9.642085942617294e-06   8.770357668165226e-07   -1.0631888993761134e-05
-9.642085942617294e-06   8.770357668165226e-07   -1.0631888993761134e-05
-9.642085942617294e-06   8.770357668165226e-07   -1.0631888993761134e-05
-9.642085942617294e-06   8.770357668165226e-07   -1.0631888993761134e-05
-1.0955169946854948e-05   2.8646889541461117e-06   -1.1627770421759648e-05
-1.0955169946854948e-05   2.8646889541461117e-06   -1.1627770421759648e-05
-1.0955169946854948e-05   2.8646889541461117e-06   -1.1627770421759648e-05
-1.0955169946854948e-05   2.8646889541461117e-06   -1.1627770421759648e-05
-1.0031215441440349e-05   1.2254920316205143e-06   -9.275755450612489e-06
-1.0031215441440349e-05   1.2254920316205143e-06   -9.275755450612489e-06
-1.0031215441440349e-05   1.2254920316205143e-06   -9.275755450612489e-06
-1.0031215441440349e-05   1.2254920316205143e-06   -9.275755450612489e-06
-9.230891633753943e-06   3.1689997692862463e-06   -1.1775733106022694e-05
-9.230891633753943e-06   3.1689997692862463e-06   -1.1775733106022694e-05
-9.230891633753943e-06   3.1689997692862463e-06   -1.1775733106022694e-05
-9.230891633753943e-06   3.1689997692862463e-06   -1.1775733106022694e-05
-9.748956751889237e-06   1.937780907009662e-06   -1.017355992509789e-05
-9.748956751889237e-06   1.937780907009662e-06   -1.017355992509789e-05
-9.748956751889237e-06   1.937780907009662e-06   -1.017355992509789e-05
-9.748956751889237e-06   1.937780907009662e-06   -1.017355992509789e-05
-9.230891633753922e-06   1.2254920316205143e-06   -1.0441860093212069e-05
-9.230891633753922e-06   1.2254920316205143e-06   -1.0441860093212069e-05
-9.230891633753922e-06   1.2254920316205143e-06   -1.0441860093212069e-05
-9.230891633753922e-06   1.2254920316205143e-06   -1.0441860093212069e-05
-1.0031215441440349e-05   3.168999769286463e-06   -1.0609628463423087e-05
-1.0031215441440349e-05   3.168999769286463e-06   -1.0609628463423087e-05
-1.0031215441440349e-05   3.168999769286463e-06   -1.0609628463423087e-05
-1.0031215441440349e-05   3.168999769286463e-06   -1.0609628463423087e-05
-8.899440713089812e-06   1.8417022728496124e-06   -9.55709127755934e-06
-8.899440713089812e-06   1.8417022728496124e-06   -9.55709127755934e-06
-8.899440713089812e-06   1.8417022728496124e-06   -9.55709127755934e-06
-8.899440713089812e-06   1.8417022728496124e-06   -9.55709127755934e-06
-8.908263856782232e-06   3.6386123771470734e-06   -1.0620532100650342e-05
-8.908263856782232e-06   3.6386123771470734e-06   -1.0620532100650342e-05
-8.908263856782232e-06   3.6386123771470734e-06   -1.0620532100650342e-05
-8.908263856782232e-06   3.6386123771470734e-06   -1.0620532100650342e-05
-9.034592773951064e-06   2.1859783889712197e-06   -9.538403512463476e-06
-9.034592773951064e-06   2.1859783889712197e-06   -9.538403512463476e-06
-9.034592773951064e-06   2.1859783889712197e-06   -9.538403512463476e-06
-9.034592773951064e-06   2.1859783889712197e-06   -9.538403512463476e-06
5.880432800127542e-06   -5.808263037812827e-07   -5.912941900791907e-06
5.880432800127542e-06   -5.808263037812827e-07   -5.912941900791907e-06
5.880432800127542e-06   -5.808263037812827e-07   -5.912941900791907e-06
5.880432800127542e-06   -5.808263037812827e-07   -5.912941900791907e-06
6.114421031952239e-07   -2.4244414113736013e-06   -1.580076212690109e-05
6.114421031952239e-07   -2.4244414113736013e-06   -1.580076212690109e-05
6.114421031952239e-07   -2.4244414113736013e-06   -1.580076212690109e-05
6.114421031952239e-07   -2.4244414113736013e-06   -1.580076212690109e-05
1.0641910898532257e-06   -2.2437807332834417e-08   -6.542172303683155e-06
1.0641910898532257e-06   -2.2437807332834417e-08   -6.542172303683155e-06
1.0641910898532257e-06   -2.2437807332834417e-08   -6.542172303683155e-06
1.0641910898532257e-06   -2.2437807332834417e-08   -6.542172303683155e-06
7.1535807405057376e-06   -1.993449837575656e-06   -1.550854783662482e-05
7.1535807405057376e-06   -1.993449837575656e-06   -1.550854783662482e-05
7.1535807405057376e-06   -1.993449837575656e-06   -1.550854783662482e-05
7.1535807405057376e-06   -1.993449837575656e-06   -1.550854783662482e-05
3.5398141384160336e-06   -1.0134968174821315e-06   -1.0073575311864862e-05
3.5398141384160336e-06   -1.0134968174821315e-06   -1.0073575311864862e-05
3.5398141384160336e-06   -1.0134968174821315e-06   -1.0073575311864862e-05
3.5398141384160336e-06   -1.0134968174821315e-06   -1.0073575311864862e-05
7.1535807405057376e-06   -2.2437807332834417e-08   -5.3595650855374185e-06
7.1535807405057376e-06   -2.2437807332834417e-08   -5.3595650855374185e-06
7.1535807405057376e-06   -2.2437807332834417e-08   -5.3595650855374185e-06
7.1535807405057376e-06   -2.2437807332834417e-08   -5.3595650855374185e-06
1.0641910898531986e-06   -1.993449837575656e-06   -1.669115505477072e-05
1.0641910898531986e-06   -1.993449837575656e-06   -1.669115505477072e-05
1.0641910898531986e-06   -1.993449837575656e-06   -1.669115505477072e-05
1.0641910898531986e-06   -1.993449837575656e-06   -1.669115505477072e-05
1.5983778856764252e-06   2.943549807198076e-07   -6.595509917398318e-06
1.5983778856764252e-06   2.943549807198076e-07   -6.595509917398318e-06
1.5983778856764252e-06   2.943549807198076e-07   -6.595509917398318e-06
1.5983778856764252e-06   2.943549807198076e-07   -6.595509917398318e-06
8.228150083105357e-06   -1.7050524426342854e-06   -1.6445485792434135e-05
8.228150083105357e-06   -1.7050524426342854e-06   -1.6445485792434135e-05
8.228150083105357e-06   -1.7050524426342854e-06   -1.6445485792434135e-05
8.228150083105357e-06   -1.7050524426342854e-06   -1.6445485792434135e-05
4.346261814440152e-06   -8.114468324940498e-07   -1.051183537741009e-05
4.346261814440152e-06   -8.114468324940498e-07   -1.051183537741009e-05
4.346261814440152e-06   -8.114468324940498e-07   -1.051183537741009e-05
4.346261814440152e-06   -8.114468324940498e-07   -1.051183537741009e-05
8.22815008310533e-06   2.943549807198076e-07   -5.395865463385906e-06
8.22815008310533e-06   2.943549807198076e-07   -5.395865463385906e-06
8.22815008310533e-06   2.943549807198076e-07   -5.395865463385906e-06
8.22815008310533e-06   2.943549807198076e-07   -5.395865463385906e-06
1.5983778856763981e-06   -1.7050524426342854e-06   -1.76451302464466e-05
1.5983778856763981e-06   -1.7050524426342854e-06   -1.76451302464466e-05
1.5983778856763981e-06   -1.7050524426342854e-06   -1.76451302464466e-05
1.5983778856763981e-06   -1.7050524426342854e-06   -1.76451302464466e-05
2.036906359513611e-06   9.258584090596905e-07   -7.2355036456172575e-06
2.036906359513611e-06   9.258584090596905e-07   -7.2355036456172575e-06
2.036906359513611e-06   9.258584090596905e-07   -7.2355036456172575e-06
2.036906359513611e-06   9.258584090596905e-07   -7.2355036456172575e-06
9.519113830918935e-06   -9.794005059958998e-07   -1.856269408225951e-05
9.519113830918935e-06   -9.794005059958998e-07   -1.856269408225951e-05
9.519113830918935e-06   -9.794005059958998e-07   -1.856269408225951e-05
9.519113830918935e-06   -9.794005059958998e-07   -1.856269408225951e-05
4.98524647071895e-06   -5.13809149774256e-07   -1.1285603295659507e-05
4.98524647071895e-06   -5.13809149774256e-07   -1.1285603295659507e-05
4.98524647071895e-06   -5.13809149774256e-07   -1.1285603295659507e-05
4.98524647071895e-06   -5.13809149774256e-07   -1.1285603295659507e-05
6.114421031951968e-07   -1.2281757894613658e-07   -1.712594044865135e-05
6.114421031951968e-07   -1.2281757894613658e-07   -1.712594044865135e-05
6.114421031951968e-07   -1.2281757894613658e-07   -1.712594044865135e-05
6.114421031951968e-07   -1.2281757894613658e-07   -1.712594044865135e-05
-5.51778840799054e-06   -9.546163312404432e-07   -2.784040388533745e-05
-5.51778840799054e-06   -9.546163312404432e-07   -2.784040388533745e-05
-5.51778840799054e-06   -9.546163312404432e-07   -2.784040388533745e-05
-5.51778840799054e-06   -9.546163312404432e-07   -2.784040388533745e-05
-5.121561655225049e-06   5.823258452167506e-07   -1.7222114906211613e-05
-5.121561655225049e-06   5.823258452167506e-07   -1.7222114906211613e-05
-5.121561655225049e-06   5.823258452167506e-07   -1.7222114906211613e-05
-5.121561655225049e-06   5.823258452167506e-07   -1.7222114906211613e-05
1.0641910898531986e-06   -3.6255640635161034e-07   -2.6964773463734448e-05
1.0641910898531986e-06   -3.6255640635161034e-07   -2.6964773463734448e-05
1.0641910898531986e-06   -3.6255640635161034e-07   -2.6964773463734448e-05
1.0641910898531986e-06   -3.6255640635161034e-07   -2.6964773463734448e-05
-2.1894127130742962e-06   -3.2744200777678686e-08   -2.173998778219949e-05
-2.1894127130742962e-06   -3.2744200777678686e-08   -2.173998778219949e-05
-2.1894127130742962e-06   -3.2744200777678686e-08   -2.173998778219949e-05
-2.1894127130742962e-06   -3.2744200777678686e-08   -2.173998778219949e-05
1.0641910898532257e-06   5.823258452167506e-07   -1.6655185555270553e-05
1.0641910898532257e-06   5.823258452167506e-07   -1.6655185555270553e-05
1.0641910898532257e-06   5.823258452167506e-07   -1.6655185555270553e-05
1.0641910898532257e-06   5.823258452167506e-07   -1.6655185555270553e-05
-5.121561655225049e-06   -3.625564063513935e-07   -2.7531702814675508e-05
-5.121561655225049e-06   -3.625564063513935e-07   -2.7531702814675508e-05
-5.121561655225049e-06   -3.625564063513935e-07   -2.7531702814675508e-05
-5.121561655225049e-06   -3.625564063513935e-07   -2.7531702814675508e-05
-4.723036626748172e-06   1.261828125941316e-06   -1.724864537864222e-05
-4.723036626748172e-06   1.261828125941316e-06   -1.724864537864222e-05
-4.723036626748172e-06   1.261828125941316e-06   -1.724864537864222e-05
-4.723036626748172e-06   1.261828125941316e-06   -1.724864537864222e-05
1.5983778856764252e-06   2.5002023358870924e-07   -2.7177251497271767e-05
1.5983778856764252e-06   2.5002023358870924e-07   -2.7177251497271767e-05
1.5983778856764252e-06   2.5002023358870924e-07   -2.7177251497271767e-05
1.5983778856764252e-06   2.5002023358870924e-07   -2.7177251497271767e-05
-1.8390515093718416e-06   4.5427363533660434e-07   -2.1570754546573252e-05
-1.8390515093718416e-06   4.5427363533660434e-07   -2.1570754546573252e-05
-1.8390515093718416e-06   4.5427363533660434e-07   -2.1570754546573252e-05
-1.8390515093718416e-06   4.5427363533660434e-07   -2.1570754546573252e-05
1.5983778856764252e-06   1.261828125941316e-06   -1.6641560643230807e-05
1.5983778856764252e-06   1.261828125941316e-06   -1.6641560643230807e-05
1.5983778856764252e-06   1.261828125941316e-06   -1.6641560643230807e-05
1.5983778856764252e-06   1.261828125941316e-06   -1.6641560643230807e-05
-4.723036626748172e-06   2.500202335889261e-07   -2.7784336232683287e-05
-4.723036626748172e-06   2.500202335889261e-07   -2.7784336232683287e-05
-4.723036626748172e-06   2.500202335889261e-07   -2.7784336232683287e-05
-4.723036626748172e-06   2.500202335889261e-07   -2.7784336232683287e-05
-4.342577230031819e-06   2.03836982436709e-06   -1.7681902895147722e-05
-4.342577230031819e-06   2.03836982436709e-06   -1.7681902895147722e-05
-4.342577230031819e-06   2.03836982436709e-06   -1.7681902895147722e-05
-4.342577230031819e-06   2.03836982436709e-06   -1.7681902895147722e-05
2.036906359513611e-06   9.760410346571977e-07   -2.767697827056419e-05
2.036906359513611e-06   9.760410346571977e-07   -2.767697827056419e-05
2.036906359513611e-06   9.760410346571977e-07   -2.767697827056419e-05
2.036906359513611e-06   9.760410346571977e-07   -2.767697827056419e-05
-1.4482667977298882e-06   9.947224473122983e-07   -2.18795651894185e-05
-1.4482667977298882e-06   9.947224473122983e-07   -2.18795651894185e-05
-1.4482667977298882e-06   9.947224473122983e-07   -2.18795651894185e-05
-1.4482667977298882e-06   9.947224473122983e-07   -2.18795651894185e-05
-5.517788407990553e-06   5.889352011434566e-07   -2.074435416906295e-05
-5.517788407990553e-06   5.889352011434566e-07   -2.074435416906295e-05
-5.517788407990553e-06   5.889352011434566e-07   -2.074435416906295e-05
-5.517788407990553e-06   5.889352011434566e-07   -2.074435416906295e-05
-1.1592112140930095e-05   7.421288554642497e-07   -3.077631086470295e-05
-1.1592112140930095e-05   7.421288554642497e-07   -3.077631086470295e-05
-1.1592112140930095e-05   7.421288554642497e-07   -3.077631086470295e-05
-1.1592112140930095e-05   7.421288554642497e-07   -3.077631086470295e-05
-1.1193275889753711e-05   1.3185419490673728e-06   -2.0370878747615062e-05
-1.1193275889753711e-05   1.3185419490673728e-06   -2.0370878747615062e-05
-1.1193275889753711e-05   1.3185419490673728e-06   -2.0370878747615062e-05
-1.1193275889753711e-05   1.3185419490673728e-06   -2.0370878747615062e-05
-5.121561655225062e-06   1.3692879398342819e-06   -3.052085006628971e-05
-5.121561655225062e-06   1.3692879398342819e-06   -3.052085006628971e-05
-5.121561655225062e-06   1.3692879398342819e-06   -3.052085006628971e-05
-5.121561655225062e-06   1.3692879398342819e-06   -3.052085006628971e-05
-8.307848175980092e-06   1.1325126127227116e-06   -2.506830733543119e-05
-8.307848175980092e-06   1.1325126127227116e-06   -2.506830733543119e-05
-8.307848175980092e-06   1.1325126127227116e-06   -2.506830733543119e-05
-8.307848175980092e-06   1.1325126127227116e-06   -2.506830733543119e-05
-5.121561655225062e-06   1.3185419490673728e-06   -2.0401326342075294e-05
-5.121561655225062e-06   1.3185419490673728e-06   -2.0401326342075294e-05
-5.121561655225062e-06   1.3185419490673728e-06   -2.0401326342075294e-05
-5.121561655225062e-06   1.3185419490673728e-06   -2.0401326342075294e-05
-1.1193275889753711e-05   1.369287939834065e-06   -3.0490402471829614e-05
-1.1193275889753711e-05   1.369287939834065e-06   -3.0490402471829614e-05
-1.1193275889753711e-05   1.369287939834065e-06   -3.0490402471829614e-05
-1.1193275889753711e-05   1.369287939834065e-06   -3.0490402471829614e-05
-1.0787738303744477e-05   2.0640636588598396e-06   -2.0423300957891737e-05
-1.0787738303744477e-05   2.0640636588598396e-06   -2.0423300957891737e-05
-1.0787738303744477e-05   2.0640636588598396e-06   -2.0423300957891737e-05
-1.0787738303744477e-05   2.0640636588598396e-06   -2.0423300957891737e-05
-4.723036626748172e-06   2.032935747753274e-06   -3.0512460339554814e-05
-4.723036626748172e-06   2.032935747753274e-06   -3.0512460339554814e-05
-4.723036626748172e-06   2.032935747753274e-06   -3.0512460339554814e-05
-4.723036626748172e-06   2.032935747753274e-06   -3.0512460339554814e-05
-7.957308939425728e-06   1.6803766239520748e-06   -2.491047101081201e-05
-7.957308939425728e-06   1.6803766239520748e-06   -2.491047101081201e-05
-7.957308939425728e-06   1.6803766239520748e-06   -2.491047101081201e-05
-7.957308939425728e-06   1.6803766239520748e-06   -2.491047101081201e-05
-4.723036626748172e-06   2.0640636588598396e-06   -2.0404624211227645e-05
-4.723036626748172e-06   2.0640636588598396e-06   -2.0404624211227645e-05
-4.723036626748172e-06   2.0640636588598396e-06   -2.0404624211227645e-05
-4.723036626748172e-06   2.0640636588598396e-06   -2.0404624211227645e-05
-1.0787738303744457e-05   2.032935747753057e-06   -3.053113708621888e-05
-1.0787738303744457e-05   2.032935747753057e-06   -3.053113708621888e-05
-1.0787738303744457e-05   2.032935747753057e-06   -3.053113708621888e-05
-1.0787738303744457e-05   2.032935747753057e-06   -3.053113708621888e-05
-1.040108992246122e-05   2.819963230808742e-06   -2.088265980983888e-05
-1.040108992246122e-05   2.819963230808742e-06   -2.088265980983888e-05
-1.040108992246122e-05   2.819963230808742e-06   -2.088265980983888e-05
-1.040108992246122e-05   2.819963230808742e-06   -2.088265980983888e-05
-4.342577230031833e-06   2.708092607323206e-06   -3.0913058589796596e-05
-4.342577230031833e-06   2.708092607323206e-06   -3.0913058589796596e-05
-4.342577230031833e-06   2.708092607323206e-06   -3.0913058589796596e-05
-4.342577230031833e-06   2.708092607323206e-06   -3.0913058589796596e-05
-7.631527112561172e-06   2.2366055514257046e-06   -2.5148583218709503e-05
-7.631527112561172e-06   2.2366055514257046e-06   -2.5148583218709503e-05
-7.631527112561172e-06   2.2366055514257046e-06   -2.5148583218709503e-05
-7.631527112561172e-06   2.2366055514257046e-06   -2.5148583218709503e-05
-1.1592112140930114e-05   1.3073071357743663e-06   -1.7435691275049462e-05
-1.1592112140930114e-05   1.3073071357743663e-06   -1.7435691275049462e-05
-1.1592112140930114e-05   1.3073071357743663e-06   -1.7435691275049462e-05
-1.1592112140930114e-05   1.3073071357743663e-06   -1.7435691275049462e-05
-1.7600695676870393e-05   2.3908704990930653e-06   -2.6799859150292127e-05
-1.7600695676870393e-05   2.3908704990930653e-06   -2.6799859150292127e-05
-1.7600695676870393e-05   2.3908704990930653e-06   -2.6799859150292127e-05
-1.7600695676870393e-05   2.3908704990930653e-06   -2.6799859150292127e-05
-1.714446984180077e-05   2.039790940322906e-06   -1.6416188743200106e-05
-1.714446984180077e-05   2.039790940322906e-06   -1.6416188743200106e-05
-1.714446984180077e-05   2.039790940322906e-06   -1.6416188743200106e-05
-1.714446984180077e-05   2.039790940322906e-06   -1.6416188743200106e-05
-1.1193275889753711e-05   3.0603616259494964e-06   -2.694718774132097e-05
-1.1193275889753711e-05   3.0603616259494964e-06   -2.694718774132097e-05
-1.1193275889753711e-05   3.0603616259494964e-06   -2.694718774132097e-05
-1.1193275889753711e-05   3.0603616259494964e-06   -2.694718774132097e-05
-1.4282926750987874e-05   2.2860115913190485e-06   -2.1333159618485808e-05
-1.4282926750987874e-05   2.2860115913190485e-06   -2.1333159618485808e-05
-1.4282926750987874e-05   2.2860115913190485e-06   -2.1333159618485808e-05
-1.4282926750987874e-05   2.2860115913190485e-06   -2.1333159618485808e-05
-1.119327588975373e-05   2.039790940322906e-06   -1.7028531154576038e-05
-1.119327588975373e-05   2.039790940322906e-06   -1.7028531154576038e-05
-1.119327588975373e-05   2.039790940322906e-06   -1.7028531154576038e-05
-1.119327588975373e-05   2.039790940322906e-06   -1.7028531154576038e-05
-1.7144469841800798e-05   3.0603616259492795e-06   -2.6334845329945293e-05
-1.7144469841800798e-05   3.0603616259492795e-06   -2.6334845329945293e-05
-1.7144469841800798e-05   3.0603616259492795e-06   -2.6334845329945293e-05
-1.7144469841800798e-05   3.0603616259492795e-06   -2.6334845329945293e-05
-1.6596782084763787e-05   2.7150180744199212e-06   -1.626121915546347e-05
-1.6596782084763787e-05   2.7150180744199212e-06   -1.626121915546347e-05
-1.6596782084763787e-05   2.7150180744199212e-06   -1.626121915546347e-05
-1.6596782084763787e-05   2.7150180744199212e-06   -1.626121915546347e-05
-1.0787738303744477e-05   3.6630070303249936e-06   -2.651175216403868e-05
-1.0787738303744477e-05   3.6630070303249936e-06   -2.651175216403868e-05
-1.0787738303744477e-05   3.6630070303249936e-06   -2.651175216403868e-05
-1.0787738303744477e-05   3.6630070303249936e-06   -2.651175216403868e-05
-1.3822405696445934e-05   2.8150998099291807e-06   -2.0945228843965665e-05
-1.3822405696445934e-05   2.8150998099291807e-06   -2.0945228843965665e-05
-1.3822405696445934e-05   2.8150998099291807e-06   -2.0945228843965665e-05
-1.3822405696445934e-05   2.8150998099291807e-06   -2.0945228843965665e-05
-1.0787738303744469e-05   2.7150180744199212e-06   -1.683001252900649e-05
-1.0787738303744469e-05   2.7150180744199212e-06   -1.683001252900649e-05
-1.0787738303744469e-05   2.7150180744199212e-06   -1.683001252900649e-05
-1.0787738303744469e-05   2.7150180744199212e-06   -1.683001252900649e-05
-1.6596782084763787e-05   3.6630070303249936e-06   -2.5942958790495826e-05
-1.6596782084763787e-05   3.6630070303249936e-06   -2.5942958790495826e-05
-1.6596782084763787e-05   3.6630070303249936e-06   -2.5942958790495826e-05
-1.6596782084763787e-05   3.6630070303249936e-06   -2.5942958790495826e-05
-1.6140860916437354e-05   3.4709530367753576e-06   -1.6711324149526648e-05
-1.6140860916437354e-05   3.4709530367753576e-06   -1.6711324149526648e-05
-1.6140860916437354e-05   3.4709530367753576e-06   -1.6711324149526648e-05
-1.6140860916437354e-05   3.4709530367753576e-06   -1.6711324149526648e-05
-1.040108992246122e-05   4.3363975809815585e-06   -2.6796875866010564e-05
-1.040108992246122e-05   4.3363975809815585e-06   -2.6796875866010564e-05
-1.040108992246122e-05   4.3363975809815585e-06   -2.6796875866010564e-05
-1.040108992246122e-05   4.3363975809815585e-06   -2.6796875866010564e-05
-1.351612929657638e-05   3.3358638898456534e-06   -2.100482336113706e-05
-1.351612929657638e-05   3.3358638898456534e-06   -2.100482336113706e-05
-1.351612929657638e-05   3.3358638898456534e-06   -2.100482336113706e-05
-1.351612929657638e-05   3.3358638898456534e-06   -2.100482336113706e-05
-1.7600695676870393e-05   2.199929631455837e-06   -9.012795832119796e-06
-1.7600695676870393e-05   2.199929631455837e-06   -9.012795832119796e-06
-1.7600695676870393e-05   2.199929631455837e-06   -9.012795832119796e-06
-1.7600695676870393e-05   2.199929631455837e-06   -9.012795832119796e-06
-2.445580845772162e-05   4.1117406745238855e-06   -1.9290897174364463e-05
-2.445580845772162e-05   4.1117406745238855e-06   -1.9290897174364463e-05
-2.445580845772162e-05   4.1117406745238855e-06   -1.9290897174364463e-05
-2.445580845772162e-05   4.1117406745238855e-06   -1.9290897174364463e-05
-2.319300247995036e-05   2.8646889541461117e-06   -5.641568195164119e-06
-2.319300247995036e-05   2.8646889541461117e-06   -5.641568195164119e-06
-2.319300247995036e-05   2.8646889541461117e-06   -5.641568195164119e-06
-2.319300247995036e-05   2.8646889541461117e-06   -5.641568195164119e-06
-1.714446984180077e-05   4.807530756470359e-06   -1.6888161006808063e-05
-1.714446984180077e-05   4.807530756470359e-06   -1.6888161006808063e-05
-1.714446984180077e-05   4.807530756470359e-06   -1.6888161006808063e-05
-1.714446984180077e-05   4.807530756470359e-06   -1.6888161006808063e-05
-1.9760637425522037e-05   3.5744110655740527e-06   -1.1788009886068082e-05
-1.9760637425522037e-05   3.5744110655740527e-06   -1.1788009886068082e-05
-1.9760637425522037e-05   3.5744110655740527e-06   -1.1788009886068082e-05
-1.9760637425522037e-05   3.5744110655740527e-06   -1.1788009886068082e-05
-1.7144469841800784e-05   2.8646889541461117e-06   -6.8072732765586674e-06
-1.7144469841800784e-05   2.8646889541461117e-06   -6.8072732765586674e-06
-1.7144469841800784e-05   2.8646889541461117e-06   -6.8072732765586674e-06
-1.7144469841800784e-05   2.8646889541461117e-06   -6.8072732765586674e-06
-2.319300247995028e-05   4.807530756470359e-06   -1.572245592541344e-05
-2.319300247995028e-05   4.807530756470359e-06   -1.572245592541344e-05
-2.319300247995028e-05   4.807530756470359e-06   -1.572245592541344e-05
-2.319300247995028e-05   4.807530756470359e-06   -1.572245592541344e-05
-2.2149342203095404e-05   3.1689997692862463e-06   -4.614622336870304e-06
-2.2149342203095404e-05   3.1689997692862463e-06   -4.614622336870304e-06
-2.2149342203095404e-05   3.1689997692862463e-06   -4.614622336870304e-06
-2.2149342203095404e-05   3.1689997692862463e-06   -4.614622336870304e-06
-1.6596782084763753e-05   5.057075646970393e-06   -1.5001734727366743e-05
-1.6596782084763753e-05   5.057075646970393e-06   -1.5001734727366743e-05
-1.6596782084763753e-05   5.057075646970393e-06   -1.5001734727366743e-05
-1.6596782084763753e-05   5.057075646970393e-06   -1.5001734727366743e-05
-1.9302831984032858e-05   3.888292260302399e-06   -9.790381529917603e-06
-1.9302831984032858e-05   3.888292260302399e-06   -9.790381529917603e-06
-1.9302831984032858e-05   3.888292260302399e-06   -9.790381529917603e-06
-1.9302831984032858e-05   3.888292260302399e-06   -9.790381529917603e-06
-1.6596782084763787e-05   3.1689997692862463e-06   -5.74746786348077e-06
-1.6596782084763787e-05   3.1689997692862463e-06   -5.74746786348077e-06
-1.6596782084763787e-05   3.1689997692862463e-06   -5.74746786348077e-06
-1.6596782084763787e-05   3.1689997692862463e-06   -5.74746786348077e-06
-2.2149342203095363e-05   5.057075646970393e-06   -1.3868889200756534e-05
-2.2149342203095363e-05   5.057075646970393e-06   -1.3868889200756534e-05
-2.2149342203095363e-05   5.057075646970393e-06   -1.3868889200756534e-05
-2.2149342203095363e-05   5.057075646970393e-06   -1.3868889200756534e-05
-2.091323338309339e-05   3.6386123771470734e-06   -3.534605517771256e-06
-2.091323338309339e-05   3.6386123771470734e-06   -3.534605517771256e-06
-2.091323338309339e-05   3.6386123771470734e-06   -3.534605517771256e-06
-2.091323338309339e-05   3.6386123771470734e-06   -3.534605517771256e-06
-1.6140860916437354e-05   5.3714659342916915e-06   -1.2528271763151451e-05
-1.6140860916437354e-05   5.3714659342916915e-06   -1.2528271763151451e-05
-1.6140860916437354e-05   5.3714659342916915e-06   -1.2528271763151451e-05
-1.6140860916437354e-05   5.3714659342916915e-06   -1.2528271763151451e-05
-1.831986085876832e-05   4.039116708084338e-06   -8.097195656875725e-06
-1.831986085876832e-05   4.039116708084338e-06   -8.097195656875725e-06
-1.831986085876832e-05   4.039116708084338e-06   -8.097195656875725e-06
-1.831986085876832e-05   4.039116708084338e-06   -8.097195656875725e-06
1.8504499814949707e-05   -2.424441411373818e-06   -7.0385902469286e-08
1.8504499814949707e-05   -2.424441411373818e-06   -7.0385902469286e-08
1.8504499814949707e-05   -2.424441411373818e-06   -7.0385902469286e-08
1.8504499814949707e-05   -2.424441411373818e-06   -7.0385902469286e-08
7.874205314278328e-06   -4.364176740553373e-06   -1.8951384601096212e-05
7.874205314278328e-06   -4.364176740553373e-06   -1.8951384601096212e-05
7.874205314278328e-06   -4.364176740553373e-06   -1.8951384601096212e-05
7.874205314278328e-06   -4.364176740553373e-06   -1.8951384601096212e-05
8.425972171582143e-06   -1.993449837575656e-06   -2.016986306466271e-06
8.425972171582143e-06   -1.993449837575656e-06   -2.016986306466271e-06
8.425972171582143e-06   -1.993449837575656e-06   -2.016986306466271e-06
8.425972171582143e-06   -1.993449837575656e-06   -2.016986306466271e-06
1.9893652753366896e-05   -4.059759102602008e-06   -1.9890001717091585e-05
1.9893652753366896e-05   -4.059759102602008e-06   -1.9890001717091585e-05
1.9893652753366896e-05   -4.059759102602008e-06   -1.9890001717091585e-05
1.9893652753366896e-05   -4.059759102602008e-06   -1.9890001717091585e-05
1.3122538709831464e-05   -2.8791757293762654e-06   -9.313161668468052e-06
1.3122538709831464e-05   -2.8791757293762654e-06   -9.313161668468052e-06
1.3122538709831464e-05   -2.8791757293762654e-06   -9.313161668468052e-06
1.3122538709831464e-05   -2.8791757293762654e-06   -9.313161668468052e-06
1.989365275336695e-05   -1.993449837575656e-06   -7.772007474502211e-07
1.989365275336695e-05   -1.993449837575656e-06   -7.772007474502211e-07
1.989365275336695e-05   -1.993449837575656e-06   -7.772007474502211e-07
1.989365275336695e-05   -1.993449837575656e-06   -7.772007474502211e-07
8.425972171582143e-06   -4.059759102602008e-06   -2.1129787276107526e-05
8.425972171582143e-06   -4.059759102602008e-06   -2.1129787276107526e-05
8.425972171582143e-06   -4.059759102602008e-06   -2.1129787276107526e-05
8.425972171582143e-06   -4.059759102602008e-06   -2.1129787276107526e-05
9.037544570286937e-06   -1.7050524426340686e-06   -2.872265853330787e-06
9.037544570286937e-06   -1.7050524426340686e-06   -2.872265853330787e-06
9.037544570286937e-06   -1.7050524426340686e-06   -2.872265853330787e-06
9.037544570286937e-06   -1.7050524426340686e-06   -2.872265853330787e-06
2.105927238764109e-05   -3.7968380480434254e-06   -2.165340751900894e-05
2.105927238764109e-05   -3.7968380480434254e-06   -2.165340751900894e-05
2.105927238764109e-05   -3.7968380480434254e-06   -2.165340751900894e-05
2.105927238764109e-05   -3.7968380480434254e-06   -2.165340751900894e-05
1.4165689889787791e-05   -2.7620588060077098e-06   -1.078497090114145e-05
1.4165689889787791e-05   -2.7620588060077098e-06   -1.078497090114145e-05
1.4165689889787791e-05   -2.7620588060077098e-06   -1.078497090114145e-05
1.4165689889787791e-05   -2.7620588060077098e-06   -1.078497090114145e-05
2.1059272387641146e-05   -1.7050524426340686e-06   -1.6171944900853679e-06
2.1059272387641146e-05   -1.7050524426340686e-06   -1.6171944900853679e-06
2.1059272387641146e-05   -1.7050524426340686e-06   -1.6171944900853679e-06
2.1059272387641146e-05   -1.7050524426340686e-06   -1.6171944900853679e-06
9.037544570286937e-06   -3.7968380480432086e-06   -2.2908478882254467e-05
9.037544570286937e-06   -3.7968380480432086e-06   -2.2908478882254467e-05
9.037544570286937e-06   -3.7968380480432086e-06   -2.2908478882254467e-05
9.037544570286937e-06   -3.7968380480432086e-06   -2.2908478882254467e-05
9.54201415019211e-06   -9.794005059958998e-07   -4.841966538296884e-06
9.54201415019211e-06   -9.794005059958998e-07   -4.841966538296884e-06
9.54201415019211e-06   -9.794005059958998e-07   -4.841966538296884e-06
9.54201415019211e-06   -9.794005059958998e-07   -4.841966538296884e-06
2.2412878596483383e-05   -2.966836219036803e-06   -2.510094585429117e-05
2.2412878596483383e-05   -2.966836219036803e-06   -2.510094585429117e-05
2.2412878596483383e-05   -2.966836219036803e-06   -2.510094585429117e-05
2.2412878596483383e-05   -2.966836219036803e-06   -2.510094585429117e-05
1.472714388133787e-05   -2.4364826601065183e-06   -1.2609600131073919e-05
1.472714388133787e-05   -2.4364826601065183e-06   -1.2609600131073919e-05
1.472714388133787e-05   -2.4364826601065183e-06   -1.2609600131073919e-05
1.472714388133787e-05   -2.4364826601065183e-06   -1.2609600131073919e-05
7.874205314278355e-06   -9.546163312404432e-07   -1.27747896070371e-05
7.874205314278355e-06   -9.546163312404432e-07   -1.27747896070371e-05
7.874205314278355e-06   -9.546163312404432e-07   -1.27747896070371e-05
7.874205314278355e-06   -9.546163312404432e-07   -1.27747896070371e-05
-3.3655871537402796e-06   -2.037015910604737e-06   -3.215721680135334e-05
-3.3655871537402796e-06   -2.037015910604737e-06   -3.215721680135334e-05
-3.3655871537402796e-06   -2.037015910604737e-06   -3.215721680135334e-05
-3.3655871537402796e-06   -2.037015910604737e-06   -3.215721680135334e-05
-2.852966467440114e-06   -3.6255640635161034e-07   -1.3040326030569049e-05
-2.852966467440114e-06   -3.6255640635161034e-07   -1.3040326030569049e-05
-2.852966467440114e-06   -3.6255640635161034e-07   -1.3040326030569049e-05
-2.852966467440114e-06   -3.6255640635161034e-07   -1.3040326030569049e-05
8.425972171582143e-06   -1.6120919315834505e-06   -3.1088835780466995e-05
8.425972171582143e-06   -1.6120919315834505e-06   -3.1088835780466995e-05
8.425972171582143e-06   -1.6120919315834505e-06   -3.1088835780466995e-05
8.425972171582143e-06   -1.6120919315834505e-06   -3.1088835780466995e-05
2.548005369413481e-06   -9.837165717238062e-07   -2.1669249659435146e-05
2.548005369413481e-06   -9.837165717238062e-07   -2.1669249659435146e-05
2.548005369413481e-06   -9.837165717238062e-07   -2.1669249659435146e-05
2.548005369413481e-06   -9.837165717238062e-07   -2.1669249659435146e-05
8.425972171582116e-06   -3.6255640635161034e-07   -1.2290604715429836e-05
8.425972171582116e-06   -3.6255640635161034e-07   -1.2290604715429836e-05
8.425972171582116e-06   -3.6255640635161034e-07   -1.2290604715429836e-05
8.425972171582116e-06   -3.6255640635161034e-07   -1.2290604715429836e-05
-2.852966467440114e-06   -1.6120919315834505e-06   -3.183855709560615e-05
-2.852966467440114e-06   -1.6120919315834505e-06   -3.183855709560615e-05
-2.852966467440114e-06   -1.6120919315834505e-06   -3.183855709560615e-05
-2.852966467440114e-06   -1.6120919315834505e-06   -3.183855709560615e-05
-2.3635468970871238e-06   2.500202335889261e-07   -1.3210125095142297e-05
-2.3635468970871238e-06   2.500202335889261e-07   -1.3210125095142297e-05
-2.3635468970871238e-06   2.500202335889261e-07   -1.3210125095142297e-05
-2.3635468970871238e-06   2.500202335889261e-07   -1.3210125095142297e-05
9.037544570286937e-06   -1.0928764180549461e-06   -3.1406206216446036e-05
9.037544570286937e-06   -1.0928764180549461e-06   -3.1406206216446036e-05
9.037544570286937e-06   -1.0928764180549461e-06   -3.1406206216446036e-05
9.037544570286937e-06   -1.0928764180549461e-06   -3.1406206216446036e-05
2.953753012649973e-06   -6.073694455929497e-07   -2.155785780386132e-05
2.953753012649973e-06   -6.073694455929497e-07   -2.155785780386132e-05
2.953753012649973e-06   -6.073694455929497e-07   -2.155785780386132e-05
2.953753012649973e-06   -6.073694455929497e-07   -2.155785780386132e-05
9.037544570286937e-06   2.5002023358870924e-07   -1.2404387104155952e-05
9.037544570286937e-06   2.5002023358870924e-07   -1.2404387104155952e-05
9.037544570286937e-06   2.5002023358870924e-07   -1.2404387104155952e-05
9.037544570286937e-06   2.5002023358870924e-07   -1.2404387104155952e-05
-2.3635468970871238e-06   -1.092876418055163e-06   -3.221194420743249e-05
-2.3635468970871238e-06   -1.092876418055163e-06   -3.221194420743249e-05
-2.3635468970871238e-06   -1.092876418055163e-06   -3.221194420743249e-05
-2.3635468970871238e-06   -1.092876418055163e-06   -3.221194420743249e-05
-1.904107833944059e-06   9.760410346569808e-07   -1.3662199528001549e-05
-1.904107833944059e-06   9.760410346569808e-07   -1.3662199528001549e-05
-1.904107833944059e-06   9.760410346569808e-07   -1.3662199528001549e-05
-1.904107833944059e-06   9.760410346569808e-07   -1.3662199528001549e-05
9.542014150192084e-06   -4.391325493979716e-07   -3.188996535112871e-05
9.542014150192084e-06   -4.391325493979716e-07   -3.188996535112871e-05
9.542014150192084e-06   -4.391325493979716e-07   -3.188996535112871e-05
9.542014150192084e-06   -4.391325493979716e-07   -3.188996535112871e-05
3.4615167040588318e-06   -1.429195409915953e-07   -2.1933530745950954e-05
3.4615167040588318e-06   -1.429195409915953e-07   -2.1933530745950954e-05
3.4615167040588318e-06   -1.429195409915953e-07   -2.1933530745950954e-05
3.4615167040588318e-06   -1.429195409915953e-07   -2.1933530745950954e-05
-3.3655871537402796e-06   7.421288554644665e-07   -1.6452052526613617e-05
-3.3655871537402796e-06   7.421288554644665e-07   -1.6452052526613617e-05
-3.3655871537402796e-06   7.421288554644665e-07   -1.6452052526613617e-05
-3.3655871537402796e-06   7.421288554644665e-07   -1.6452052526613617e-05
-1.440735204343925e-05   3.8411727629845613e-07   -3.506980095694485e-05
-1.440735204343925e-05   3.8411727629845613e-07   -3.506980095694485e-05
-1.440735204343925e-05   3.8411727629845613e-07   -3.506980095694485e-05
-1.440735204343925e-05   3.8411727629845613e-07   -3.506980095694485e-05
-1.3855691496178455e-05   1.369287939834065e-06   -1.6333913266186194e-05
-1.3855691496178455e-05   1.369287939834065e-06   -1.6333913266186194e-05
-1.3855691496178455e-05   1.369287939834065e-06   -1.6333913266186194e-05
-1.3855691496178455e-05   1.369287939834065e-06   -1.6333913266186194e-05
-2.852966467440114e-06   8.618879664959098e-07   -3.4367348330080564e-05
-2.852966467440114e-06   8.618879664959098e-07   -3.4367348330080564e-05
-2.852966467440114e-06   8.618879664959098e-07   -3.4367348330080564e-05
-2.852966467440114e-06   8.618879664959098e-07   -3.4367348330080564e-05
-8.561650602861871e-06   1.0180779977343388e-06   -2.4946588789787462e-05
-8.561650602861871e-06   1.0180779977343388e-06   -2.4946588789787462e-05
-8.561650602861871e-06   1.0180779977343388e-06   -2.4946588789787462e-05
-8.561650602861871e-06   1.0180779977343388e-06   -2.4946588789787462e-05
-2.852966467440114e-06   1.3692879398342819e-06   -1.6029473282183388e-05
-2.852966467440114e-06   1.3692879398342819e-06   -1.6029473282183388e-05
-2.852966467440114e-06   1.3692879398342819e-06   -1.6029473282183388e-05
-2.852966467440114e-06   1.3692879398342819e-06   -1.6029473282183388e-05
-1.3855691496178455e-05   8.618879664959098e-07   -3.4671788314083506e-05
-1.3855691496178455e-05   8.618879664959098e-07   -3.4671788314083506e-05
-1.3855691496178455e-05   8.618879664959098e-07   -3.4671788314083506e-05
-1.3855691496178455e-05   8.618879664959098e-07   -3.4671788314083506e-05
-1.3323426515496659e-05   2.032935747753057e-06   -1.6309370164602796e-05
-1.3323426515496659e-05   2.032935747753057e-06   -1.6309370164602796e-05
-1.3323426515496659e-05   2.032935747753057e-06   -1.6309370164602796e-05
-1.3323426515496659e-05   2.032935747753057e-06   -1.6309370164602796e-05
-2.3635468970871373e-06   1.4144008101050869e-06   -3.42047152326965e-05
-2.3635468970871373e-06   1.4144008101050869e-06   -3.42047152326965e-05
-2.3635468970871373e-06   1.4144008101050869e-06   -3.42047152326965e-05
-2.3635468970871373e-06   1.4144008101050869e-06   -3.42047152326965e-05
-8.087349172643157e-06   1.465510778373997e-06   -2.4695710754397862e-05
-8.087349172643157e-06   1.465510778373997e-06   -2.4695710754397862e-05
-8.087349172643157e-06   1.465510778373997e-06   -2.4695710754397862e-05
-8.087349172643157e-06   1.465510778373997e-06   -2.4695710754397862e-05
-2.3635468970871373e-06   2.032935747753274e-06   -1.5938249202014014e-05
-2.3635468970871373e-06   2.032935747753274e-06   -1.5938249202014014e-05
-2.3635468970871373e-06   2.032935747753274e-06   -1.5938249202014014e-05
-2.3635468970871373e-06   2.032935747753274e-06   -1.5938249202014014e-05
-1.3323426515496659e-05   1.4144008101050869e-06   -3.457583619528534e-05
-1.3323426515496659e-05   1.4144008101050869e-06   -3.457583619528534e-05
-1.3323426515496659e-05   1.4144008101050869e-06   -3.457583619528534e-05
-1.3323426515496659e-05   1.4144008101050869e-06   -3.457583619528534e-05
-1.2831615615828666e-05   2.708092607323423e-06   -1.6694581224368046e-05
-1.2831615615828666e-05   2.708092607323423e-06   -1.6694581224368046e-05
-1.2831615615828666e-05   2.708092607323423e-06   -1.6694581224368046e-05
-1.2831615615828666e-05   2.708092607323423e-06   -1.6694581224368046e-05
-1.9041078339440725e-06   1.9852615223896024e-06   -3.447339554321565e-05
-1.9041078339440725e-06   1.9852615223896024e-06   -3.447339554321565e-05
-1.9041078339440725e-06   1.9852615223896024e-06   -3.447339554321565e-05
-1.9041078339440725e-06   1.9852615223896024e-06   -3.447339554321565e-05
-7.663950602130919e-06   1.9245967857785e-06   -2.4837258754271312e-05
-7.663950602130919e-06   1.9245967857785e-06   -2.4837258754271312e-05
-7.663950602130919e-06   1.9245967857785e-06   -2.4837258754271312e-05
-7.663950602130919e-06   1.9245967857785e-06   -2.4837258754271312e-05
-1.440735204343928e-05   2.3908704990930653e-06   -1.3340545777693578e-05
-1.440735204343928e-05   2.3908704990930653e-06   -1.3340545777693578e-05
-1.440735204343928e-05   2.3908704990930653e-06   -1.3340545777693578e-05
-1.440735204343928e-05   2.3908704990930653e-06   -1.3340545777693578e-05
-2.5252320263251853e-05   2.8921501189940572e-06   -3.1114725038773865e-05
-2.5252320263251853e-05   2.8921501189940572e-06   -3.1114725038773865e-05
-2.5252320263251853e-05   2.8921501189940572e-06   -3.1114725038773865e-05
-2.5252320263251853e-05   2.8921501189940572e-06   -3.1114725038773865e-05
-2.4586907008289477e-05   3.0603616259494964e-06   -1.252816380890062e-05
-2.4586907008289477e-05   3.0603616259494964e-06   -1.252816380890062e-05
-2.4586907008289477e-05   3.0603616259494964e-06   -1.252816380890062e-05
-2.4586907008289477e-05   3.0603616259494964e-06   -1.252816380890062e-05
-1.3855691496178479e-05   3.4979195039110383e-06   -3.067605772252934e-05
-1.3855691496178479e-05   3.4979195039110383e-06   -3.067605772252934e-05
-1.3855691496178479e-05   3.4979195039110383e-06   -3.067605772252934e-05
-1.3855691496178479e-05   3.4979195039110383e-06   -3.067605772252934e-05
-1.9383070493540232e-05   3.0857703911704552e-06   -2.1216469925948694e-05
-1.9383070493540232e-05   3.0857703911704552e-06   -2.1216469925948694e-05
-1.9383070493540232e-05   3.0857703911704552e-06   -2.1216469925948694e-05
-1.9383070493540232e-05   3.0857703911704552e-06   -2.1216469925948694e-05
-1.3855691496178479e-05   3.0603616259494964e-06   -1.2790698535677589e-05
-1.3855691496178479e-05   3.0603616259494964e-06   -1.2790698535677589e-05
-1.3855691496178479e-05   3.0603616259494964e-06   -1.2790698535677589e-05
-1.3855691496178479e-05   3.0603616259494964e-06   -1.2790698535677589e-05
-2.4586907008289518e-05   3.4979195039110383e-06   -3.041352299575236e-05
-2.4586907008289518e-05   3.4979195039110383e-06   -3.041352299575236e-05
-2.4586907008289518e-05   3.4979195039110383e-06   -3.041352299575236e-05
-2.4586907008289518e-05   3.4979195039110383e-06   -3.041352299575236e-05
-2.3849515998095334e-05   3.6630070303249936e-06   -1.2076111170050024e-05
-2.3849515998095334e-05   3.6630070303249936e-06   -1.2076111170050024e-05
-2.3849515998095334e-05   3.6630070303249936e-06   -1.2076111170050024e-05
-2.3849515998095334e-05   3.6630070303249936e-06   -1.2076111170050024e-05
-1.3323426515496682e-05   4.01946381761286e-06   -2.9833467713420372e-05
-1.3323426515496682e-05   4.01946381761286e-06   -2.9833467713420372e-05
-1.3323426515496682e-05   4.01946381761286e-06   -2.9833467713420372e-05
-1.3323426515496682e-05   4.01946381761286e-06   -2.9833467713420372e-05
-1.8708905370810204e-05   3.5580116430305835e-06   -2.05807983164819e-05
-1.8708905370810204e-05   3.5580116430305835e-06   -2.05807983164819e-05
-1.8708905370810204e-05   3.5580116430305835e-06   -2.05807983164819e-05
-1.8708905370810204e-05   3.5580116430305835e-06   -2.05807983164819e-05
-1.3323426515496669e-05   3.6630070303249936e-06   -1.2289985242422549e-05
-1.3323426515496669e-05   3.6630070303249936e-06   -1.2289985242422549e-05
-1.3323426515496669e-05   3.6630070303249936e-06   -1.2289985242422549e-05
-1.3323426515496669e-05   3.6630070303249936e-06   -1.2289985242422549e-05
-2.3849515998095334e-05   4.01946381761286e-06   -2.961959364104782e-05
-2.3849515998095334e-05   4.01946381761286e-06   -2.961959364104782e-05
-2.3849515998095334e-05   4.01946381761286e-06   -2.961959364104782e-05
-2.3849515998095334e-05   4.01946381761286e-06   -2.961959364104782e-05
-2.322670590954908e-05   4.3363975809815585e-06   -1.2355700476930067e-05
-2.322670590954908e-05   4.3363975809815585e-06   -1.2355700476930067e-05
-2.322670590954908e-05   4.3363975809815585e-06   -1.2355700476930067e-05
-2.322670590954908e-05   4.3363975809815585e-06   -1.2355700476930067e-05
-1.2831615615828686e-05   4.595690330249378e-06   -2.9836426616024744e-05
-1.2831615615828686e-05   4.595690330249378e-06   -2.9836426616024744e-05
-1.2831615615828686e-05   4.595690330249378e-06   -2.9836426616024744e-05
-1.2831615615828686e-05   4.595690330249378e-06   -2.9836426616024744e-05
-1.8292259505486748e-05   3.992698757351648e-06   -2.0373558522856073e-05
-1.8292259505486748e-05   3.992698757351648e-06   -2.0373558522856073e-05
-1.8292259505486748e-05   3.992698757351648e-06   -2.0373558522856073e-05
-1.8292259505486748e-05   3.992698757351648e-06   -2.0373558522856073e-05
-2.5252320263251853e-05   4.111740674523669e-06   -6.677902655665997e-06
-2.5252320263251853e-05   4.111740674523669e-06   -6.677902655665997e-06
-2.5252320263251853e-05   4.111740674523669e-06   -6.677902655665997e-06
-2.5252320263251853e-05   4.111740674523669e-06   -6.677902655665997e-06
-3.6686112098231055e-05   5.673370571155885e-06   -2.4797244442652114e-05
-3.6686112098231055e-05   5.673370571155885e-06   -2.4797244442652114e-05
-3.6686112098231055e-05   5.673370571155885e-06   -2.4797244442652114e-05
-3.6686112098231055e-05   5.673370571155885e-06   -2.4797244442652114e-05
-3.515018294248625e-05   4.807530756470359e-06   -2.0789674167432607e-06
-3.515018294248625e-05   4.807530756470359e-06   -2.0789674167432607e-06
-3.515018294248625e-05   4.807530756470359e-06   -2.0789674167432607e-06
-3.515018294248625e-05   4.807530756470359e-06   -2.0789674167432607e-06
-2.4586907008289477e-05   6.478384204837515e-06   -2.068693937609142e-05
-2.4586907008289477e-05   6.478384204837515e-06   -2.068693937609142e-05
-2.4586907008289477e-05   6.478384204837515e-06   -2.068693937609142e-05
-2.4586907008289477e-05   6.478384204837515e-06   -2.068693937609142e-05
-2.9161749878629807e-05   5.404576958379162e-06   -1.2417916910982606e-05
-2.9161749878629807e-05   5.404576958379162e-06   -1.2417916910982606e-05
-2.9161749878629807e-05   5.404576958379162e-06   -1.2417916910982606e-05
-2.9161749878629807e-05   5.404576958379162e-06   -1.2417916910982606e-05
-2.4586907008289497e-05   4.807530756470359e-06   -3.0814794857633157e-06
-2.4586907008289497e-05   4.807530756470359e-06   -3.0814794857633157e-06
-2.4586907008289497e-05   4.807530756470359e-06   -3.0814794857633157e-06
-2.4586907008289497e-05   4.807530756470359e-06   -3.0814794857633157e-06
-3.515018294248618e-05   6.478384204837515e-06   -1.9684427307071193e-05
-3.515018294248618e-05   6.478384204837515e-06   -1.9684427307071193e-05
-3.515018294248618e-05   6.478384204837515e-06   -1.9684427307071193e-05
-3.515018294248618e-05   6.478384204837515e-06   -1.9684427307071193e-05
-3.38864319468354e-05   5.057075646970393e-06   -1.5479727882307913e-07
-3.38864319468354e-05   5.057075646970393e-06   -1.5479727882307913e-07
-3.38864319468354e-05   5.057075646970393e-06   -1.5479727882307913e-07
-3.38864319468354e-05   5.057075646970393e-06   -1.5479727882307913e-07
-2.3849515998095334e-05   6.690558693800376e-06   -1.78630803548213e-05
-2.3849515998095334e-05   6.690558693800376e-06   -1.78630803548213e-05
-2.3849515998095334e-05   6.690558693800376e-06   -1.78630803548213e-05
-2.3849515998095334e-05   6.690558693800376e-06   -1.78630803548213e-05
-2.864460917923827e-05   5.726593101047827e-06   -9.292879030597815e-06
-2.864460917923827e-05   5.726593101047827e-06   -9.292879030597815e-06
-2.864460917923827e-05   5.726593101047827e-06   -9.292879030597815e-06
-2.864460917923827e-05   5.726593101047827e-06   -9.292879030597815e-06
-2.3849515998095334e-05   5.057075646970393e-06   -1.1348871069211987e-06
-2.3849515998095334e-05   5.057075646970393e-06   -1.1348871069211987e-06
-2.3849515998095334e-05   5.057075646970393e-06   -1.1348871069211987e-06
-2.3849515998095334e-05   5.057075646970393e-06   -1.1348871069211987e-06
-3.3886431946835295e-05   6.690558693800376e-06   -1.6882990526723217e-05
-3.3886431946835295e-05   6.690558693800376e-06   -1.6882990526723217e-05
-3.3886431946835295e-05   6.690558693800376e-06   -1.6882990526723217e-05
-3.3886431946835295e-05   6.690558693800376e-06   -1.6882990526723217e-05
-3.25211404103045e-05   5.3714659342916915e-06   2.2933690120501915e-06
-3.25211404103045e-05   5.3714659342916915e-06   2.2933690120501915e-06
-3.25211404103045e-05   5.3714659342916915e-06   2.2933690120501915e-06
-3.25211404103045e-05   5.3714659342916915e-06   2.2933690120501915e-06
-2.322670590954908e-05   6.871019455366662e-06   -1.4097087268520617e-05
-2.322670590954908e-05   6.871019455366662e-06   -1.4097087268520617e-05
-2.322670590954908e-05   6.871019455366662e-06   -1.4097087268520617e-05
-2.322670590954908e-05   6.871019455366662e-06   -1.4097087268520617e-05
-2.7360087503201868e-05   5.7788156092228576e-06   -6.552795638080052e-06
-2.7360087503201868e-05   5.7788156092228576e-06   -6.552795638080052e-06
-2.7360087503201868e-05   5.7788156092228576e-06   -6.552795638080052e-06
-2.7360087503201868e-05   5.7788156092228576e-06   -6.552795638080052e-06
3.13257916097334e-05   -4.364176740553373e-06   6.278237783320889e-06
3.13257916097334e-05   -4.364176740553373e-06   6.278237783320889e-06
3.13257916097334e-05   -4.364176740553373e-06   6.278237783320889e-06
3.13257916097334e-05   -4.364176740553373e-06   6.278237783320889e-06
1.5081215818821202e-05   -6.451831504158696e-06   -2.2048648059695957e-05
1.5081215818821202e-05   -6.451831504158696e-06   -2.2048648059695957e-05
1.5081215818821202e-05   -6.451831504158696e-06   -2.2048648059695957e-05
1.5081215818821202e-05   -6.451831504158696e-06   -2.2048648059695957e-05
1.569229562606166e-05   -4.059759102602008e-06   3.0632559343702487e-06
1.569229562606166e-05   -4.059759102602008e-06   3.0632559343702487e-06
1.569229562606166e-05   -4.059759102602008e-06   3.0632559343702487e-06
1.569229562606166e-05   -4.059759102602008e-06   3.0632559343702487e-06
3.2750438867145244e-05   -6.302363697259939e-06   -2.4021420043974367e-05
3.2750438867145244e-05   -6.302363697259939e-06   -2.4021420043974367e-05
3.2750438867145244e-05   -6.302363697259939e-06   -2.4021420043974367e-05
3.2750438867145244e-05   -6.302363697259939e-06   -2.4021420043974367e-05
2.2747653293906356e-05   -4.7761463401723575e-06   -8.265841169495525e-06
2.2747653293906356e-05   -4.7761463401723575e-06   -8.265841169495525e-06
2.2747653293906356e-05   -4.7761463401723575e-06   -8.265841169495525e-06
2.2747653293906356e-05   -4.7761463401723575e-06   -8.265841169495525e-06
3.275043886714527e-05   -4.059759102602008e-06   4.408818691165007e-06
3.275043886714527e-05   -4.059759102602008e-06   4.408818691165007e-06
3.275043886714527e-05   -4.059759102602008e-06   4.408818691165007e-06
3.275043886714527e-05   -4.059759102602008e-06   4.408818691165007e-06
1.569229562606166e-05   -6.302363697259939e-06   -2.5366982800769235e-05
1.569229562606166e-05   -6.302363697259939e-06   -2.5366982800769235e-05
1.569229562606166e-05   -6.302363697259939e-06   -2.5366982800769235e-05
1.569229562606166e-05   -6.302363697259939e-06   -2.5366982800769235e-05
1.6300350324015473e-05   -3.7968380480432086e-06   1.4875366683624134e-06
1.6300350324015473e-05   -3.7968380480432086e-06   1.4875366683624134e-06
1.6300350324015473e-05   -3.7968380480432086e-06   1.4875366683624134e-06
1.6300350324015473e-05   -3.7968380480432086e-06   1.4875366683624134e-06
3.3843048317271714e-05   -6.083157708155389e-06   -2.6378501524330878e-05
3.3843048317271714e-05   -6.083157708155389e-06   -2.6378501524330878e-05
3.3843048317271714e-05   -6.083157708155389e-06   -2.6378501524330878e-05
3.3843048317271714e-05   -6.083157708155389e-06   -2.6378501524330878e-05
2.3948462205756546e-05   -4.760110289258549e-06   -1.0681353123143534e-05
2.3948462205756546e-05   -4.760110289258549e-06   -1.0681353123143534e-05
2.3948462205756546e-05   -4.760110289258549e-06   -1.0681353123143534e-05
2.3948462205756546e-05   -4.760110289258549e-06   -1.0681353123143534e-05
3.3843048317271714e-05   -3.7968380480432086e-06   2.8593284644296132e-06
3.3843048317271714e-05   -3.7968380480432086e-06   2.8593284644296132e-06
3.3843048317271714e-05   -3.7968380480432086e-06   2.8593284644296132e-06
3.3843048317271714e-05   -3.7968380480432086e-06   2.8593284644296132e-06
1.6300350324015473e-05   -6.083157708155389e-06   -2.7750293320398024e-05
1.6300350324015473e-05   -6.083157708155389e-06   -2.7750293320398024e-05
1.6300350324015473e-05   -6.083157708155389e-06   -2.7750293320398024e-05
1.6300350324015473e-05   -6.083157708155389e-06   -2.7750293320398024e-05
1.6712314384180336e-05   -2.96683621903702e-06   -1.6815338470400464e-06
1.6712314384180336e-05   -2.96683621903702e-06   -1.6815338470400464e-06
1.6712314384180336e-05   -2.96683621903702e-06   -1.6815338470400464e-06
1.6712314384180336e-05   -2.96683621903702e-06   -1.6815338470400464e-06
3.4998750200546656e-05   -5.229623403861343e-06   -3.0801254563422485e-05
3.4998750200546656e-05   -5.229623403861343e-06   -3.0801254563422485e-05
3.4998750200546656e-05   -5.229623403861343e-06   -3.0801254563422485e-05
3.4998750200546656e-05   -5.229623403861343e-06   -3.0801254563422485e-05
2.427961364867877e-05   -4.3934787763008284e-06   -1.3437713753512931e-05
2.427961364867877e-05   -4.3934787763008284e-06   -1.3437713753512931e-05
2.427961364867877e-05   -4.3934787763008284e-06   -1.3437713753512931e-05
2.427961364867877e-05   -4.3934787763008284e-06   -1.3437713753512931e-05
1.5081215818821229e-05   -2.037015910604737e-06   -7.530747527480838e-06
1.5081215818821229e-05   -2.037015910604737e-06   -7.530747527480838e-06
1.5081215818821229e-05   -2.037015910604737e-06   -7.530747527480838e-06
1.5081215818821229e-05   -2.037015910604737e-06   -7.530747527480838e-06
-9.396663337624171e-07   -4.164977937518369e-06   -3.550899499793524e-05
-9.396663337624171e-07   -4.164977937518369e-06   -3.550899499793524e-05
-9.396663337624171e-07   -4.164977937518369e-06   -3.550899499793524e-05
-9.396663337624171e-07   -4.164977937518369e-06   -3.550899499793524e-05
-3.12983340533139e-07   -1.6120919315836674e-06   -8.306544639611214e-06
-3.12983340533139e-07   -1.6120919315836674e-06   -8.306544639611214e-06
-3.12983340533139e-07   -1.6120919315836674e-06   -8.306544639611214e-06
-3.12983340533139e-07   -1.6120919315836674e-06   -8.306544639611214e-06
1.569229562606166e-05   -3.963345380953278e-06   -3.3571257514314025e-05
1.569229562606166e-05   -3.963345380953278e-06   -3.3571257514314025e-05
1.569229562606166e-05   -3.963345380953278e-06   -3.3571257514314025e-05
1.569229562606166e-05   -3.963345380953278e-06   -3.3571257514314025e-05
7.401929099636594e-06   -2.520531682571013e-06   -2.0619668189301727e-05
7.401929099636594e-06   -2.520531682571013e-06   -2.0619668189301727e-05
7.401929099636594e-06   -2.520531682571013e-06   -2.0619668189301727e-05
7.401929099636594e-06   -2.520531682571013e-06   -2.0619668189301727e-05
1.569229562606166e-05   -1.6120919315836674e-06   -6.895792569989274e-06
1.569229562606166e-05   -1.6120919315836674e-06   -6.895792569989274e-06
1.569229562606166e-05   -1.6120919315836674e-06   -6.895792569989274e-06
1.569229562606166e-05   -1.6120919315836674e-06   -6.895792569989274e-06
-3.12983340533139e-07   -3.963345380953278e-06   -3.498200958393599e-05
-3.12983340533139e-07   -3.963345380953278e-06   -3.498200958393599e-05
-3.12983340533139e-07   -3.963345380953278e-06   -3.498200958393599e-05
-3.12983340533139e-07   -3.963345380953278e-06   -3.498200958393599e-05
2.3902076042375754e-07   -1.092876418055163e-06   -8.508220058640967e-06
2.3902076042375754e-07   -1.092876418055163e-06   -8.508220058640967e-06
2.3902076042375754e-07   -1.092876418055163e-06   -8.508220058640967e-06
2.3902076042375754e-07   -1.092876418055163e-06   -8.508220058640967e-06
1.6300350324015473e-05   -3.5895920727411178e-06   -3.377907327181546e-05
1.6300350324015473e-05   -3.5895920727411178e-06   -3.377907327181546e-05
1.6300350324015473e-05   -3.5895920727411178e-06   -3.377907327181546e-05
1.6300350324015473e-05   -3.5895920727411178e-06   -3.377907327181546e-05
7.827122154469264e-06   -2.311351418769151e-06   -2.042397071495448e-05
7.827122154469264e-06   -2.311351418769151e-06   -2.042397071495448e-05
7.827122154469264e-06   -2.311351418769151e-06   -2.042397071495448e-05
7.827122154469264e-06   -2.311351418769151e-06   -2.042397071495448e-05
1.6300350324015473e-05   -1.092876418055163e-06   -7.0101906658292645e-06
1.6300350324015473e-05   -1.092876418055163e-06   -7.0101906658292645e-06
1.6300350324015473e-05   -1.092876418055163e-06   -7.0101906658292645e-06
1.6300350324015473e-05   -1.092876418055163e-06   -7.0101906658292645e-06
2.390207604237711e-07   -3.5895920727411178e-06   -3.527710266462724e-05
2.390207604237711e-07   -3.5895920727411178e-06   -3.527710266462724e-05
2.390207604237711e-07   -3.5895920727411178e-06   -3.527710266462724e-05
2.390207604237711e-07   -3.5895920727411178e-06   -3.527710266462724e-05
6.315367072952529e-07   -4.391325493977548e-07   -8.849231235423397e-06
6.315367072952529e-07   -4.391325493977548e-07   -8.849231235423397e-06
6.315367072952529e-07   -4.391325493977548e-07   -8.849231235423397e-06
6.315367072952529e-07   -4.391325493977548e-07   -8.849231235423397e-06
1.671231438418039e-05   -3.057698081681756e-06   -3.407938804419504e-05
1.671231438418039e-05   -3.057698081681756e-06   -3.407938804419504e-05
1.671231438418039e-05   -3.057698081681756e-06   -3.407938804419504e-05
1.671231438418039e-05   -3.057698081681756e-06   -3.407938804419504e-05
8.338226593161722e-06   -1.9437690625733004e-06   -2.0790932470629543e-05
8.338226593161722e-06   -1.9437690625733004e-06   -2.0790932470629543e-05
8.338226593161722e-06   -1.9437690625733004e-06   -2.0790932470629543e-05
8.338226593161722e-06   -1.9437690625733004e-06   -2.0790932470629543e-05
-9.396663337624171e-07   3.8411727629845613e-07   -1.1505301951721092e-05
-9.396663337624171e-07   3.8411727629845613e-07   -1.1505301951721092e-05
-9.396663337624171e-07   3.8411727629845613e-07   -1.1505301951721092e-05
-9.396663337624171e-07   3.8411727629845613e-07   -1.1505301951721092e-05
-1.6723961077705445e-05   -2.1621270288570485e-06   -3.934020644138624e-05
-1.6723961077705445e-05   -2.1621270288570485e-06   -3.934020644138624e-05
-1.6723961077705445e-05   -2.1621270288570485e-06   -3.934020644138624e-05
-1.6723961077705445e-05   -2.1621270288570485e-06   -3.934020644138624e-05
-1.597184176296333e-05   8.618879664961266e-07   -1.2506780335742006e-05
-1.597184176296333e-05   8.618879664961266e-07   -1.2506780335742006e-05
-1.597184176296333e-05   8.618879664961266e-07   -1.2506780335742006e-05
-1.597184176296333e-05   8.618879664961266e-07   -1.2506780335742006e-05
-3.12983340533139e-07   -1.923852802931383e-06   -3.693343324480267e-05
-3.12983340533139e-07   -1.923852802931383e-06   -3.693343324480267e-05
-3.12983340533139e-07   -1.923852802931383e-06   -3.693343324480267e-05
-3.12983340533139e-07   -1.923852802931383e-06   -3.693343324480267e-05
-8.387245395785048e-06   -4.0186451133635004e-07   -2.4389522794339652e-05
-8.387245395785048e-06   -4.0186451133635004e-07   -2.4389522794339652e-05
-8.387245395785048e-06   -4.0186451133635004e-07   -2.4389522794339652e-05
-8.387245395785048e-06   -4.0186451133635004e-07   -2.4389522794339652e-05
-3.12983340533139e-07   8.618879664961266e-07   -1.0835335874085652e-05
-3.12983340533139e-07   8.618879664961266e-07   -1.0835335874085652e-05
-3.12983340533139e-07   8.618879664961266e-07   -1.0835335874085652e-05
-3.12983340533139e-07   8.618879664961266e-07   -1.0835335874085652e-05
-1.597184176296333e-05   -1.923852802931383e-06   -3.860487770645919e-05
-1.597184176296333e-05   -1.923852802931383e-06   -3.860487770645919e-05
-1.597184176296333e-05   -1.923852802931383e-06   -3.860487770645919e-05
-1.597184176296333e-05   -1.923852802931383e-06   -3.860487770645919e-05
-1.528183706860446e-05   1.4144008101050869e-06   -1.2282800011801558e-05
-1.528183706860446e-05   1.4144008101050869e-06   -1.2282800011801558e-05
-1.528183706860446e-05   1.4144008101050869e-06   -1.2282800011801558e-05
-1.528183706860446e-05   1.4144008101050869e-06   -1.2282800011801558e-05
2.390207604237711e-07   -1.5552807363888692e-06   -3.6369087465618695e-05
2.390207604237711e-07   -1.5552807363888692e-06   -3.6369087465618695e-05
2.390207604237711e-07   -1.5552807363888692e-06   -3.6369087465618695e-05
2.390207604237711e-07   -1.5552807363888692e-06   -3.6369087465618695e-05
-7.775140180579166e-06   -1.299369042115188e-07   -2.386735886325352e-05
-7.775140180579166e-06   -1.299369042115188e-07   -2.386735886325352e-05
-7.775140180579166e-06   -1.299369042115188e-07   -2.386735886325352e-05
-7.775140180579166e-06   -1.299369042115188e-07   -2.386735886325352e-05
2.390207604237711e-07   1.4144008101050869e-06   -1.0500991083905033e-05
2.390207604237711e-07   1.4144008101050869e-06   -1.0500991083905033e-05
2.390207604237711e-07   1.4144008101050869e-06   -1.0500991083905033e-05
2.390207604237711e-07   1.4144008101050869e-06   -1.0500991083905033e-05
-1.528183706860448e-05   -1.5552807363888692e-06   -3.815089639351522e-05
-1.528183706860448e-05   -1.5552807363888692e-06   -3.815089639351522e-05
-1.528183706860448e-05   -1.5552807363888692e-06   -3.815089639351522e-05
-1.528183706860448e-05   -1.5552807363888692e-06   -3.815089639351522e-05
-1.4816798208180917e-05   1.9852615223896024e-06   -1.2497974219856248e-05
-1.4816798208180917e-05   1.9852615223896024e-06   -1.2497974219856248e-05
-1.4816798208180917e-05   1.9852615223896024e-06   -1.2497974219856248e-05
-1.4816798208180917e-05   1.9852615223896024e-06   -1.2497974219856248e-05
6.315367072952664e-07   -1.2054333822424188e-06   -3.633078213620427e-05
6.315367072952664e-07   -1.2054333822424188e-06   -3.633078213620427e-05
6.315367072952664e-07   -1.2054333822424188e-06   -3.633078213620427e-05
6.315367072952664e-07   -1.2054333822424188e-06   -3.633078213620427e-05
-7.339072151289126e-06   1.7507696242779515e-07   -2.3874740245366044e-05
-7.339072151289126e-06   1.7507696242779515e-07   -2.3874740245366044e-05
-7.339072151289126e-06   1.7507696242779515e-07   -2.3874740245366044e-05
-7.339072151289126e-06   1.7507696242779515e-07   -2.3874740245366044e-05
-1.6723961077705418e-05   2.8921501189940572e-06   -9.378740388584091e-06
-1.6723961077705418e-05   2.8921501189940572e-06   -9.378740388584091e-06
-1.6723961077705418e-05   2.8921501189940572e-06   -9.378740388584091e-06
-1.6723961077705418e-05   2.8921501189940572e-06   -9.378740388584091e-06
-3.273163043997853e-05   6.021761277408017e-07   -3.7432173720457836e-05
-3.273163043997853e-05   6.021761277408017e-07   -3.7432173720457836e-05
-3.273163043997853e-05   6.021761277408017e-07   -3.7432173720457836e-05
-3.273163043997853e-05   6.021761277408017e-07   -3.7432173720457836e-05
-3.166063943306044e-05   3.497919503911255e-06   -9.986121852549232e-06
-3.166063943306044e-05   3.497919503911255e-06   -9.986121852549232e-06
-3.166063943306044e-05   3.497919503911255e-06   -9.986121852549232e-06
-3.166063943306044e-05   3.497919503911255e-06   -9.986121852549232e-06
-1.59718417629633e-05   1.0394659899759778e-06   -3.465904586101657e-05
-1.59718417629633e-05   1.0394659899759778e-06   -3.465904586101657e-05
-1.59718417629633e-05   1.0394659899759778e-06   -3.465904586101657e-05
-1.59718417629633e-05   1.0394659899759778e-06   -3.465904586101657e-05
-2.4021364869207997e-05   2.2140630743291284e-06   -2.194793226788737e-05
-2.4021364869207997e-05   2.2140630743291284e-06   -2.194793226788737e-05
-2.4021364869207997e-05   2.2140630743291284e-06   -2.194793226788737e-05
-2.4021364869207997e-05   2.2140630743291284e-06   -2.194793226788737e-05
-1.59718417629633e-05   3.497919503911255e-06   -8.511049744187936e-06
-1.59718417629633e-05   3.497919503911255e-06   -8.511049744187936e-06
-1.59718417629633e-05   3.497919503911255e-06   -8.511049744187936e-06
-1.59718417629633e-05   3.497919503911255e-06   -8.511049744187936e-06
-3.16606394330605e-05   1.0394659899759778e-06   -3.6134117969377814e-05
-3.16606394330605e-05   1.0394659899759778e-06   -3.6134117969377814e-05
-3.16606394330605e-05   1.0394659899759778e-06   -3.6134117969377814e-05
-3.16606394330605e-05   1.0394659899759778e-06   -3.6134117969377814e-05
-3.062420438080233e-05   4.01946381761286e-06   -9.087105058889827e-06
-3.062420438080233e-05   4.01946381761286e-06   -9.087105058889827e-06
-3.062420438080233e-05   4.01946381761286e-06   -9.087105058889827e-06
-3.062420438080233e-05   4.01946381761286e-06   -9.087105058889827e-06
-1.528183706860448e-05   1.4416746026905784e-06   -3.311104371693295e-05
-1.528183706860448e-05   1.4416746026905784e-06   -3.311104371693295e-05
-1.528183706860448e-05   1.4416746026905784e-06   -3.311104371693295e-05
-1.528183706860448e-05   1.4416746026905784e-06   -3.311104371693295e-05
-2.3051761680799924e-05   2.5945861455026545e-06   -2.0852916288960962e-05
-2.3051761680799924e-05   2.5945861455026545e-06   -2.0852916288960962e-05
-2.3051761680799924e-05   2.5945861455026545e-06   -2.0852916288960962e-05
-2.3051761680799924e-05   2.5945861455026545e-06   -2.0852916288960962e-05
-1.528183706860444e-05   4.01946381761286e-06   -7.540431529936349e-06
-1.528183706860444e-05   4.01946381761286e-06   -7.540431529936349e-06
-1.528183706860444e-05   4.01946381761286e-06   -7.540431529936349e-06
-1.528183706860444e-05   4.01946381761286e-06   -7.540431529936349e-06
-3.0624204380802386e-05   1.4416746026905784e-06   -3.4657717245886385e-05
-3.0624204380802386e-05   1.4416746026905784e-06   -3.4657717245886385e-05
-3.0624204380802386e-05   1.4416746026905784e-06   -3.4657717245886385e-05
-3.0624204380802386e-05   1.4416746026905784e-06   -3.4657717245886385e-05
-2.9839615732745213e-05   4.595690330249161e-06   -9.116023047362181e-06
-2.9839615732745213e-05   4.595690330249161e-06   -9.116023047362181e-06
-2.9839615732745213e-05   4.595690330249161e-06   -9.116023047362181e-06
-2.9839615732745213e-05   4.595690330249161e-06   -9.116023047362181e-06
-1.4816798208180944e-05   1.7811629874878339e-06   -3.24653358493126e-05
-1.4816798208180944e-05   1.7811629874878339e-06   -3.24653358493126e-05
-1.4816798208180944e-05   1.7811629874878339e-06   -3.24653358493126e-05
-1.4816798208180944e-05   1.7811629874878339e-06   -3.24653358493126e-05
-2.251242009919956e-05   2.8603999719777756e-06   -2.0286841554975285e-05
-2.251242009919956e-05   2.8603999719777756e-06   -2.0286841554975285e-05
-2.251242009919956e-05   2.8603999719777756e-06   -2.0286841554975285e-05
-2.251242009919956e-05   2.8603999719777756e-06   -2.0286841554975285e-05
-3.273163043997853e-05   5.673370571155885e-06   -5.37222212519358e-06
-3.273163043997853e-05   5.673370571155885e-06   -5.37222212519358e-06
-3.273163043997853e-05   5.673370571155885e-06   -5.37222212519358e-06
-3.273163043997853e-05   5.673370571155885e-06   -5.37222212519358e-06
-4.946585124671258e-05   5.36647277376537e-06   -3.3446728814851695e-05
-4.946585124671258e-05   5.36647277376537e-06   -3.3446728814851695e-05
-4.946585124671258e-05   5.36647277376537e-06   -3.3446728814851695e-05
-4.946585124671258e-05   5.36647277376537e-06   -3.3446728814851695e-05
-4.734414120686701e-05   6.478384204837298e-06   -7.896188444311662e-08
-4.734414120686701e-05   6.478384204837298e-06   -7.896188444311662e-08
-4.734414120686701e-05   6.478384204837298e-06   -7.896188444311662e-08
-4.734414120686701e-05   6.478384204837298e-06   -7.896188444311662e-08
-3.1660639433060393e-05   6.779344785579587e-06   -2.6398707855899405e-05
-3.1660639433060393e-05   6.779344785579587e-06   -2.6398707855899405e-05
-3.1660639433060393e-05   6.779344785579587e-06   -2.6398707855899405e-05
-3.1660639433060393e-05   6.779344785579587e-06   -2.6398707855899405e-05
-3.856312614879229e-05   6.390372936870836e-06   -1.4661180220454405e-05
-3.856312614879229e-05   6.390372936870836e-06   -1.4661180220454405e-05
-3.856312614879229e-05   6.390372936870836e-06   -1.4661180220454405e-05
-3.856312614879229e-05   6.390372936870836e-06   -1.4661180220454405e-05
-3.1660639433060475e-05   6.478384204837515e-06   -2.595382328883381e-07
-3.1660639433060475e-05   6.478384204837515e-06   -2.595382328883381e-07
-3.1660639433060475e-05   6.478384204837515e-06   -2.595382328883381e-07
-3.1660639433060475e-05   6.478384204837515e-06   -2.595382328883381e-07
-4.734414120686701e-05   6.779344785579587e-06   -2.6218131507454068e-05
-4.734414120686701e-05   6.779344785579587e-06   -2.6218131507454068e-05
-4.734414120686701e-05   6.779344785579587e-06   -2.6218131507454068e-05
-4.734414120686701e-05   6.779344785579587e-06   -2.6218131507454068e-05
-4.558575609077307e-05   6.690558693800376e-06   2.9135838987290677e-06
-4.558575609077307e-05   6.690558693800376e-06   2.9135838987290677e-06
-4.558575609077307e-05   6.690558693800376e-06   2.9135838987290677e-06
-4.558575609077307e-05   6.690558693800376e-06   2.9135838987290677e-06
-3.062420438080233e-05   7.097518146120807e-06   -2.226651128928107e-05
-3.062420438080233e-05   7.097518146120807e-06   -2.226651128928107e-05
-3.062420438080233e-05   7.097518146120807e-06   -2.226651128928107e-05
-3.062420438080233e-05   7.097518146120807e-06   -2.226651128928107e-05
-3.7767957470864176e-05   6.853072417187071e-06   -1.021358870181751e-05
-3.7767957470864176e-05   6.853072417187071e-06   -1.021358870181751e-05
-3.7767957470864176e-05   6.853072417187071e-06   -1.021358870181751e-05
-3.7767957470864176e-05   6.853072417187071e-06   -1.021358870181751e-05
-3.0624204380802386e-05   6.690558693800376e-06   2.669408227336657e-06
-3.0624204380802386e-05   6.690558693800376e-06   2.669408227336657e-06
-3.0624204380802386e-05   6.690558693800376e-06   2.669408227336657e-06
-3.0624204380802386e-05   6.690558693800376e-06   2.669408227336657e-06
-4.558575609077299e-05   7.097518146120807e-06   -2.2022335617888963e-05
-4.558575609077299e-05   7.097518146120807e-06   -2.2022335617888963e-05
-4.558575609077299e-05   7.097518146120807e-06   -2.2022335617888963e-05
-4.558575609077299e-05   7.097518146120807e-06   -2.2022335617888963e-05
-4.374530723408593e-05   6.871019455366662e-06   6.928947479093242e-06
-4.374530723408593e-05   6.871019455366662e-06   6.928947479093242e-06
-4.374530723408593e-05   6.871019455366662e-06   6.928947479093242e-06
-4.374530723408593e-05   6.871019455366662e-06   6.928947479093242e-06
-2.9839615732745213e-05   7.639697502886652e-06   -1.6708411851653367e-05
-2.9839615732745213e-05   7.639697502886652e-06   -1.6708411851653367e-05
-2.9839615732745213e-05   7.639697502886652e-06   -1.6708411851653367e-05
-2.9839615732745213e-05   7.639697502886652e-06   -1.6708411851653367e-05
-3.59882743824538e-05   7.006845603851203e-06   -6.080936296051537e-06
-3.59882743824538e-05   7.006845603851203e-06   -6.080936296051537e-06
-3.59882743824538e-05   7.006845603851203e-06   -6.080936296051537e-06
-3.59882743824538e-05   7.006845603851203e-06   -6.080936296051537e-06
4.300553922089295e-05   -6.451831504158696e-06   1.4724737214614797e-05
4.300553922089295e-05   -6.451831504158696e-06   1.4724737214614797e-05
4.300553922089295e-05   -6.451831504158696e-06   1.4724737214614797e-05
4.300553922089295e-05   -6.451831504158696e-06   1.4724737214614797e-05
2.1600998723970803e-05   -8.151396586967988e-06   -2.196923599660761e-05
2.1600998723970803e-05   -8.151396586967988e-06   -2.196923599660761e-05
2.1600998723970803e-05   -8.151396586967988e-06   -2.196923599660761e-05
2.1600998723970803e-05   -8.151396586967988e-06   -2.196923599660761e-05
2.212340401510451e-05   -6.302363697259939e-06   1.057520887741718e-05
2.212340401510451e-05   -6.302363697259939e-06   1.057520887741718e-05
2.212340401510451e-05   -6.302363697259939e-06   1.057520887741718e-05
2.212340401510451e-05   -6.302363697259939e-06   1.057520887741718e-05
4.407022219097816e-05   -8.355367429721018e-06   -2.4771019176228948e-05
4.407022219097816e-05   -8.355367429721018e-06   -2.4771019176228948e-05
4.407022219097816e-05   -8.355367429721018e-06   -2.4771019176228948e-05
4.407022219097816e-05   -8.355367429721018e-06   -2.4771019176228948e-05
3.1396297568921864e-05   -6.590109967605012e-06   -4.706965950071387e-06
3.1396297568921864e-05   -6.590109967605012e-06   -4.706965950071387e-06
3.1396297568921864e-05   -6.590109967605012e-06   -4.706965950071387e-06
3.1396297568921864e-05   -6.590109967605012e-06   -4.706965950071387e-06
4.407022219097816e-05   -6.302363697259939e-06   1.1807011116893827e-05
4.407022219097816e-05   -6.302363697259939e-06   1.1807011116893827e-05
4.407022219097816e-05   -6.302363697259939e-06   1.1807011116893827e-05
4.407022219097816e-05   -6.302363697259939e-06   1.1807011116893827e-05
2.212340401510451e-05   -8.355367429721018e-06   -2.6002821415705758e-05
2.212340401510451e-05   -8.355367429721018e-06   -2.6002821415705758e-05
2.212340401510451e-05   -8.355367429721018e-06   -2.6002821415705758e-05
2.212340401510451e-05   -8.355367429721018e-06   -2.6002821415705758e-05
2.2564839231141147e-05   -6.083157708155389e-06   8.351254318473156e-06
2.2564839231141147e-05   -6.083157708155389e-06   8.351254318473156e-06
2.2564839231141147e-05   -6.083157708155389e-06   8.351254318473156e-06
2.2564839231141147e-05   -6.083157708155389e-06   8.351254318473156e-06
4.4733196655183843e-05   -8.278624617262878e-06   -2.7278727909466554e-05
4.4733196655183843e-05   -8.278624617262878e-06   -2.7278727909466554e-05
4.4733196655183843e-05   -8.278624617262878e-06   -2.7278727909466554e-05
4.4733196655183843e-05   -8.278624617262878e-06   -2.7278727909466554e-05
3.249832094514951e-05   -6.796975351640918e-06   -7.776257952115968e-06
3.249832094514951e-05   -6.796975351640918e-06   -7.776257952115968e-06
3.249832094514951e-05   -6.796975351640918e-06   -7.776257952115968e-06
3.249832094514951e-05   -6.796975351640918e-06   -7.776257952115968e-06
4.4733196655183843e-05   -6.083157708155389e-06   9.668534463937845e-06
4.4733196655183843e-05   -6.083157708155389e-06   9.668534463937845e-06
4.4733196655183843e-05   -6.083157708155389e-06   9.668534463937845e-06
4.4733196655183843e-05   -6.083157708155389e-06   9.668534463937845e-06
2.2564839231141147e-05   -8.278624617262878e-06   -2.859600805493127e-05
2.2564839231141147e-05   -8.278624617262878e-06   -2.859600805493127e-05
2.2564839231141147e-05   -8.278624617262878e-06   -2.859600805493127e-05
2.2564839231141147e-05   -8.278624617262878e-06   -2.859600805493127e-05
2.3025248007022353e-05   -5.22962340386156e-06   4.042143166862154e-06
2.3025248007022353e-05   -5.22962340386156e-06   4.042143166862154e-06
2.3025248007022353e-05   -5.22962340386156e-06   4.042143166862154e-06
2.3025248007022353e-05   -5.22962340386156e-06   4.042143166862154e-06
4.5386062715303195e-05   -7.815031575066772e-06   -3.1674636444216185e-05
4.5386062715303195e-05   -7.815031575066772e-06   -3.1674636444216185e-05
4.5386062715303195e-05   -7.815031575066772e-06   -3.1674636444216185e-05
4.5386062715303195e-05   -7.815031575066772e-06   -3.1674636444216185e-05
3.250928571750076e-05   -6.5396704880095816e-06   -1.0978558100113191e-05
3.250928571750076e-05   -6.5396704880095816e-06   -1.0978558100113191e-05
3.250928571750076e-05   -6.5396704880095816e-06   -1.0978558100113191e-05
3.250928571750076e-05   -6.5396704880095816e-06   -1.0978558100113191e-05
2.1600998723970803e-05   -4.164977937518369e-06   1.5214284428381611e-06
2.1600998723970803e-05   -4.164977937518369e-06   1.5214284428381611e-06
2.1600998723970803e-05   -4.164977937518369e-06   1.5214284428381611e-06
2.1600998723970803e-05   -4.164977937518369e-06   1.5214284428381611e-06
2.5198277970585824e-06   -8.139480179841741e-06   -3.266522444740931e-05
2.5198277970585824e-06   -8.139480179841741e-06   -3.266522444740931e-05
2.5198277970585824e-06   -8.139480179841741e-06   -3.266522444740931e-05
2.5198277970585824e-06   -8.139480179841741e-06   -3.266522444740931e-05
3.1281773935229e-06   -3.963345380953278e-06   -1.084010231341536e-07
3.1281773935229e-06   -3.963345380953278e-06   -1.084010231341536e-07
3.1281773935229e-06   -3.963345380953278e-06   -1.084010231341536e-07
3.1281773935229e-06   -3.963345380953278e-06   -1.084010231341536e-07
2.2123404015104552e-05   -8.09557069263037e-06   -2.9287776872097325e-05
2.2123404015104552e-05   -8.09557069263037e-06   -2.9287776872097325e-05
2.2123404015104552e-05   -8.09557069263037e-06   -2.9287776872097325e-05
2.2123404015104552e-05   -8.09557069263037e-06   -2.9287776872097325e-05
1.2390202512233824e-05   -5.493504140565526e-06   -1.4627014298551676e-05
1.2390202512233824e-05   -5.493504140565526e-06   -1.4627014298551676e-05
1.2390202512233824e-05   -5.493504140565526e-06   -1.4627014298551676e-05
1.2390202512233824e-05   -5.493504140565526e-06   -1.4627014298551676e-05
2.2123404015104498e-05   -3.963345380953278e-06   2.370934163872145e-06
2.2123404015104498e-05   -3.963345380953278e-06   2.370934163872145e-06
2.2123404015104498e-05   -3.963345380953278e-06   2.370934163872145e-06
2.2123404015104498e-05   -3.963345380953278e-06   2.370934163872145e-06
3.1281773935229e-06   -8.095570692630586e-06   -3.176711205910346e-05
3.1281773935229e-06   -8.095570692630586e-06   -3.176711205910346e-05
3.1281773935229e-06   -8.095570692630586e-06   -3.176711205910346e-05
3.1281773935229e-06   -8.095570692630586e-06   -3.176711205910346e-05
3.677248850702725e-06   -3.5895920727413346e-06   -3.1417105693051263e-07
3.677248850702725e-06   -3.5895920727413346e-06   -3.1417105693051263e-07
3.677248850702725e-06   -3.5895920727413346e-06   -3.1417105693051263e-07
3.677248850702725e-06   -3.5895920727413346e-06   -3.1417105693051263e-07
2.2564839231141147e-05   -7.984001112718367e-06   -2.915684293367497e-05
2.2564839231141147e-05   -7.984001112718367e-06   -2.915684293367497e-05
2.2564839231141147e-05   -7.984001112718367e-06   -2.915684293367497e-05
2.2564839231141147e-05   -7.984001112718367e-06   -2.915684293367497e-05
1.2733765095631749e-05   -5.551386029538537e-06   -1.423128842439989e-05
1.2733765095631749e-05   -5.551386029538537e-06   -1.423128842439989e-05
1.2733765095631749e-05   -5.551386029538537e-06   -1.423128842439989e-05
1.2733765095631749e-05   -5.551386029538537e-06   -1.423128842439989e-05
2.2564839231141147e-05   -3.5895920727411178e-06   2.3224743670556417e-06
2.2564839231141147e-05   -3.5895920727411178e-06   2.3224743670556417e-06
2.2564839231141147e-05   -3.5895920727411178e-06   2.3224743670556417e-06
2.2564839231141147e-05   -3.5895920727411178e-06   2.3224743670556417e-06
3.6772488507027113e-06   -7.984001112718367e-06   -3.179348835766118e-05
3.6772488507027113e-06   -7.984001112718367e-06   -3.179348835766118e-05
3.6772488507027113e-06   -7.984001112718367e-06   -3.179348835766118e-05
3.6772488507027113e-06   -7.984001112718367e-06   -3.179348835766118e-05
4.497156380934807e-06   -3.057698081681756e-06   -7.014892901779056e-07
4.497156380934807e-06   -3.057698081681756e-06   -7.014892901779056e-07
4.497156380934807e-06   -3.057698081681756e-06   -7.014892901779056e-07
4.497156380934807e-06   -3.057698081681756e-06   -7.014892901779056e-07
2.302524800702234e-05   -7.762983560286084e-06   -2.8758470713161413e-05
2.302524800702234e-05   -7.762983560286084e-06   -2.8758470713161413e-05
2.302524800702234e-05   -7.762983560286084e-06   -2.8758470713161413e-05
2.302524800702234e-05   -7.762983560286084e-06   -2.8758470713161413e-05
1.3393556826897632e-05   -5.461834293960964e-06   -1.4086341639415285e-05
1.3393556826897632e-05   -5.461834293960964e-06   -1.4086341639415285e-05
1.3393556826897632e-05   -5.461834293960964e-06   -1.4086341639415285e-05
1.3393556826897632e-05   -5.461834293960964e-06   -1.4086341639415285e-05
2.5198277970585824e-06   -2.1621270288570485e-06   -3.1667377629131287e-06
2.5198277970585824e-06   -2.1621270288570485e-06   -3.1667377629131287e-06
2.5198277970585824e-06   -2.1621270288570485e-06   -3.1667377629131287e-06
2.5198277970585824e-06   -2.1621270288570485e-06   -3.1667377629131287e-06
-1.6362247527368187e-05   -9.778651993718563e-06   -3.920677828254135e-05
-1.6362247527368187e-05   -9.778651993718563e-06   -3.920677828254135e-05
-1.6362247527368187e-05   -9.778651993718563e-06   -3.920677828254135e-05
-1.6362247527368187e-05   -9.778651993718563e-06   -3.920677828254135e-05
-1.5414156652075072e-05   -1.923852802931383e-06   -6.900504595096181e-06
-1.5414156652075072e-05   -1.923852802931383e-06   -6.900504595096181e-06
-1.5414156652075072e-05   -1.923852802931383e-06   -6.900504595096181e-06
-1.5414156652075072e-05   -1.923852802931383e-06   -6.900504595096181e-06
3.1281773935229e-06   -9.99165265475662e-06   -3.296371475999737e-05
3.1281773935229e-06   -9.99165265475662e-06   -3.296371475999737e-05
3.1281773935229e-06   -9.99165265475662e-06   -3.296371475999737e-05
3.1281773935229e-06   -9.99165265475662e-06   -3.296371475999737e-05
-6.315937614174015e-06   -5.518981201974851e-06   -1.9907125952171596e-05
-6.315937614174015e-06   -5.518981201974851e-06   -1.9907125952171596e-05
-6.315937614174015e-06   -5.518981201974851e-06   -1.9907125952171596e-05
-6.315937614174015e-06   -5.518981201974851e-06   -1.9907125952171596e-05
3.1281773935229e-06   -1.923852802931383e-06   -2.059824684000778e-06
3.1281773935229e-06   -1.923852802931383e-06   -2.059824684000778e-06
3.1281773935229e-06   -1.923852802931383e-06   -2.059824684000778e-06
3.1281773935229e-06   -1.923852802931383e-06   -2.059824684000778e-06
-1.54141566520751e-05   -9.991652654756837e-06   -3.78043946710928e-05
-1.54141566520751e-05   -9.991652654756837e-06   -3.78043946710928e-05
-1.54141566520751e-05   -9.991652654756837e-06   -3.78043946710928e-05
-1.54141566520751e-05   -9.991652654756837e-06   -3.78043946710928e-05
-1.4596626401412681e-05   -1.5552807363886523e-06   -6.437575620071119e-06
-1.4596626401412681e-05   -1.5552807363886523e-06   -6.437575620071119e-06
-1.4596626401412681e-05   -1.5552807363886523e-06   -6.437575620071119e-06
-1.4596626401412681e-05   -1.5552807363886523e-06   -6.437575620071119e-06
3.6772488507027113e-06   -9.940980339970392e-06   -3.186261461144774e-05
3.6772488507027113e-06   -9.940980339970392e-06   -3.186261461144774e-05
3.6772488507027113e-06   -9.940980339970392e-06   -3.186261461144774e-05
3.6772488507027113e-06   -9.940980339970392e-06   -3.186261461144774e-05
-5.6429541832542915e-06   -5.641221218303681e-06   -1.890879836118623e-05
-5.6429541832542915e-06   -5.641221218303681e-06   -1.890879836118623e-05
-5.6429541832542915e-06   -5.641221218303681e-06   -1.890879836118623e-05
-5.6429541832542915e-06   -5.641221218303681e-06   -1.890879836118623e-05
3.6772488507027113e-06   -1.5552807363888692e-06   -1.406155857922183e-06
3.6772488507027113e-06   -1.5552807363888692e-06   -1.406155857922183e-06
3.6772488507027113e-06   -1.5552807363888692e-06   -1.406155857922183e-06
3.6772488507027113e-06   -1.5552807363888692e-06   -1.406155857922183e-06
-1.4596626401412728e-05   -9.94098033997061e-06   -3.689403437359684e-05
-1.4596626401412728e-05   -9.94098033997061e-06   -3.689403437359684e-05
-1.4596626401412728e-05   -9.94098033997061e-06   -3.689403437359684e-05
-1.4596626401412728e-05   -9.94098033997061e-06   -3.689403437359684e-05
-1.3185749133695273e-05   -1.205433382242202e-06   -6.411160601649821e-06
-1.3185749133695273e-05   -1.205433382242202e-06   -6.411160601649821e-06
-1.3185749133695273e-05   -1.205433382242202e-06   -6.411160601649821e-06
-1.3185749133695273e-05   -1.205433382242202e-06   -6.411160601649821e-06
4.497156380934807e-06   -9.587794280297053e-06   -3.0853253253867026e-05
4.497156380934807e-06   -9.587794280297053e-06   -3.0853253253867026e-05
4.497156380934807e-06   -9.587794280297053e-06   -3.0853253253867026e-05
4.497156380934807e-06   -9.587794280297053e-06   -3.0853253253867026e-05
-4.768172112130814e-06   -5.512522205103863e-06   -1.7856202343873658e-05
-4.768172112130814e-06   -5.512522205103863e-06   -1.7856202343873658e-05
-4.768172112130814e-06   -5.512522205103863e-06   -1.7856202343873658e-05
-4.768172112130814e-06   -5.512522205103863e-06   -1.7856202343873658e-05
-1.6362247527368167e-05   6.021761277408017e-07   -4.454635626149786e-06
-1.6362247527368167e-05   6.021761277408017e-07   -4.454635626149786e-06
-1.6362247527368167e-05   6.021761277408017e-07   -4.454635626149786e-06
-1.6362247527368167e-05   6.021761277408017e-07   -4.454635626149786e-06
-3.7412243237759545e-05   -1.2153038346604311e-05   -4.719109049474259e-05
-3.7412243237759545e-05   -1.2153038346604311e-05   -4.719109049474259e-05
-3.7412243237759545e-05   -1.2153038346604311e-05   -4.719109049474259e-05
-3.7412243237759545e-05   -1.2153038346604311e-05   -4.719109049474259e-05
-3.627685949464424e-05   1.0394659899759778e-06   -1.1730069407668792e-05
-3.627685949464424e-05   1.0394659899759778e-06   -1.1730069407668792e-05
-3.627685949464424e-05   1.0394659899759778e-06   -1.1730069407668792e-05
-3.627685949464424e-05   1.0394659899759778e-06   -1.1730069407668792e-05
-1.5414156652075072e-05   -1.3586195106715833e-05   -3.772584415393567e-05
-1.5414156652075072e-05   -1.3586195106715833e-05   -3.772584415393567e-05
-1.5414156652075072e-05   -1.3586195106715833e-05   -3.772584415393567e-05
-1.5414156652075072e-05   -1.3586195106715833e-05   -3.772584415393567e-05
-2.5989182278743282e-05   -6.159738293137502e-06   -2.4556675530968796e-05
-2.5989182278743282e-05   -6.159738293137502e-06   -2.4556675530968796e-05
-2.5989182278743282e-05   -6.159738293137502e-06   -2.4556675530968796e-05
-2.5989182278743282e-05   -6.159738293137502e-06   -2.4556675530968796e-05
-1.5414156652075072e-05   1.0394659899759778e-06   -2.9546727496537273e-06
-1.5414156652075072e-05   1.0394659899759778e-06   -2.9546727496537273e-06
-1.5414156652075072e-05   1.0394659899759778e-06   -2.9546727496537273e-06
-1.5414156652075072e-05   1.0394659899759778e-06   -2.9546727496537273e-06
-3.627685949464424e-05   -1.3586195106715616e-05   -4.6501240811950575e-05
-3.627685949464424e-05   -1.3586195106715616e-05   -4.6501240811950575e-05
-3.627685949464424e-05   -1.3586195106715616e-05   -4.6501240811950575e-05
-3.627685949464424e-05   -1.3586195106715616e-05   -4.6501240811950575e-05
-3.518883871955308e-05   1.4416746026905784e-06   -1.0457541413353127e-05
-3.518883871955308e-05   1.4416746026905784e-06   -1.0457541413353127e-05
-3.518883871955308e-05   1.4416746026905784e-06   -1.0457541413353127e-05
-3.518883871955308e-05   1.4416746026905784e-06   -1.0457541413353127e-05
-1.4596626401412708e-05   -1.3658022847083326e-05   -3.5718076807056266e-05
-1.4596626401412708e-05   -1.3658022847083326e-05   -3.5718076807056266e-05
-1.4596626401412708e-05   -1.3658022847083326e-05   -3.5718076807056266e-05
-1.4596626401412708e-05   -1.3658022847083326e-05   -3.5718076807056266e-05
-2.488202111578155e-05   -6.1770329512845015e-06   -2.3064346220587405e-05
-2.488202111578155e-05   -6.1770329512845015e-06   -2.3064346220587405e-05
-2.488202111578155e-05   -6.1770329512845015e-06   -2.3064346220587405e-05
-2.488202111578155e-05   -6.1770329512845015e-06   -2.3064346220587405e-05
-1.4596626401412688e-05   1.4416746026905784e-06   -1.3977229434889143e-06
-1.4596626401412688e-05   1.4416746026905784e-06   -1.3977229434889143e-06
-1.4596626401412688e-05   1.4416746026905784e-06   -1.3977229434889143e-06
-1.4596626401412688e-05   1.4416746026905784e-06   -1.3977229434889143e-06
-3.5188838719553135e-05   -1.3658022847083109e-05   -4.477789527692049e-05
-3.5188838719553135e-05   -1.3658022847083109e-05   -4.477789527692049e-05
-3.5188838719553135e-05   -1.3658022847083109e-05   -4.477789527692049e-05
-3.5188838719553135e-05   -1.3658022847083109e-05   -4.477789527692049e-05
-3.340304978921727e-05   1.7811629874878339e-06   -9.164453363676552e-06
-3.340304978921727e-05   1.7811629874878339e-06   -9.164453363676552e-06
-3.340304978921727e-05   1.7811629874878339e-06   -9.164453363676552e-06
-3.340304978921727e-05   1.7811629874878339e-06   -9.164453363676552e-06
-1.3185749133695313e-05   -1.244076366534153e-05   -3.432679846451572e-05
-1.3185749133695313e-05   -1.244076366534153e-05   -3.432679846451572e-05
-1.3185749133695313e-05   -1.244076366534153e-05   -3.432679846451572e-05
-1.3185749133695313e-05   -1.244076366534153e-05   -3.432679846451572e-05
-2.379175690002291e-05   -5.438859875323042e-06   -2.0851261127980303e-05
-2.379175690002291e-05   -5.438859875323042e-06   -2.0851261127980303e-05
-2.379175690002291e-05   -5.438859875323042e-06   -2.0851261127980303e-05
-2.379175690002291e-05   -5.438859875323042e-06   -2.0851261127980303e-05
-3.7412243237759545e-05   5.366472773765153e-06   -7.938180726716447e-06
-3.7412243237759545e-05   5.366472773765153e-06   -7.938180726716447e-06
-3.7412243237759545e-05   5.366472773765153e-06   -7.938180726716447e-06
-3.7412243237759545e-05   5.366472773765153e-06   -7.938180726716447e-06
-6.432439433996722e-05   0.0   -5.601164956132185e-05
-6.432439433996722e-05   0.0   -5.601164956132185e-05
-6.432439433996722e-05   0.0   -5.601164956132185e-05
-6.432439433996722e-05   0.0   -5.601164956132185e-05
-6.266602531426257e-05   6.779344785579587e-06   -6.06226616553789e-06
-6.266602531426257e-05   6.779344785579587e-06   -6.06226616553789e-06
-6.266602531426257e-05   6.779344785579587e-06   -6.06226616553789e-06
-6.266602531426257e-05   6.779344785579587e-06   -6.06226616553789e-06
-3.627685949464418e-05   0.0   -4.597660232688762e-05
-3.627685949464418e-05   0.0   -4.597660232688762e-05
-3.627685949464418e-05   0.0   -4.597660232688762e-05
-3.627685949464418e-05   0.0   -4.597660232688762e-05
-4.803901508491676e-05   2.0802842720592414e-06   -2.762118023966881e-05
-4.803901508491676e-05   2.0802842720592414e-06   -2.762118023966881e-05
-4.803901508491676e-05   2.0802842720592414e-06   -2.762118023966881e-05
-4.803901508491676e-05   2.0802842720592414e-06   -2.762118023966881e-05
-3.6276859494644215e-05   6.779344785579587e-06   -1.9946592941901594e-06
-3.6276859494644215e-05   6.779344785579587e-06   -1.9946592941901594e-06
-3.6276859494644215e-05   6.779344785579587e-06   -1.9946592941901594e-06
-3.6276859494644215e-05   6.779344785579587e-06   -1.9946592941901594e-06
-6.266602531426246e-05   0.0   -5.004420919823508e-05
-6.266602531426246e-05   0.0   -5.004420919823508e-05
-6.266602531426246e-05   0.0   -5.004420919823508e-05
-6.266602531426246e-05   0.0   -5.004420919823508e-05
-6.126125292332333e-05   7.097518146120807e-06   -2.3248463444204906e-06
-6.126125292332333e-05   7.097518146120807e-06   -2.3248463444204906e-06
-6.126125292332333e-05   7.097518146120807e-06   -2.3248463444204906e-06
-6.126125292332333e-05   7.097518146120807e-06   -2.3248463444204906e-06
-3.5188838719553135e-05   0.0   -4.1520359129698536e-05
-3.5188838719553135e-05   0.0   -4.1520359129698536e-05
-3.5188838719553135e-05   0.0   -4.1520359129698536e-05
-3.5188838719553135e-05   0.0   -4.1520359129698536e-05
-4.75528408860132e-05   3.2848996935179193e-06   -2.288462866837515e-05
-4.75528408860132e-05   3.2848996935179193e-06   -2.288462866837515e-05
-4.75528408860132e-05   3.2848996935179193e-06   -2.288462866837515e-05
-4.75528408860132e-05   3.2848996935179193e-06   -2.288462866837515e-05
-3.5188838719553135e-05   7.097518146120807e-06   1.9336645432519936e-06
-3.5188838719553135e-05   7.097518146120807e-06   1.9336645432519936e-06
-3.5188838719553135e-05   7.097518146120807e-06   1.9336645432519936e-06
-3.5188838719553135e-05   7.097518146120807e-06   1.9336645432519936e-06
-6.126125292332322e-05   0.0   -4.577887001737087e-05
-6.126125292332322e-05   0.0   -4.577887001737087e-05
-6.126125292332322e-05   0.0   -4.577887001737087e-05
-6.126125292332322e-05   0.0   -4.577887001737087e-05
-5.845653214308433e-05   7.639697502886435e-06   3.697368537907645e-06
-5.845653214308433e-05   7.639697502886435e-06   3.697368537907645e-06
-5.845653214308433e-05   7.639697502886435e-06   3.697368537907645e-06
-5.845653214308433e-05   7.639697502886435e-06   3.697368537907645e-06
-3.340304978921733e-05   0.0   -3.3474616883472417e-05
-3.340304978921733e-05   0.0   -3.3474616883472417e-05
-3.340304978921733e-05   0.0   -3.3474616883472417e-05
-3.340304978921733e-05   0.0   -3.3474616883472417e-05
-4.509827390201336e-05   4.048329127535324e-06   -1.6411574171999906e-05
-4.509827390201336e-05   4.048329127535324e-06   -1.6411574171999906e-05
-4.509827390201336e-05   4.048329127535324e-06   -1.6411574171999906e-05
-4.509827390201336e-05   4.048329127535324e-06   -1.6411574171999906e-05
4.757734823478806e-05   -8.151396586967988e-06   2.836633461096832e-05
4.757734823478806e-05   -8.151396586967988e-06   2.836633461096832e-05
4.757734823478806e-05   -8.151396586967988e-06   2.836633461096832e-05
4.757734823478806e-05   -8.151396586967988e-06   2.836633461096832e-05
2.466326388452761e-05   -6.297932362663581e-06   -8.711727438216331e-06
2.466326388452761e-05   -6.297932362663581e-06   -8.711727438216331e-06
2.466326388452761e-05   -6.297932362663581e-06   -8.711727438216331e-06
2.466326388452761e-05   -6.297932362663581e-06   -8.711727438216331e-06
2.4047179980598793e-05   -8.355367429721018e-06   2.503332698065722e-05
2.4047179980598793e-05   -8.355367429721018e-06   2.503332698065722e-05
2.4047179980598793e-05   -8.355367429721018e-06   2.503332698065722e-05
2.4047179980598793e-05   -8.355367429721018e-06   2.503332698065722e-05
4.70745667851518e-05   -6.921234496064287e-06   -1.4206130787125439e-05
4.70745667851518e-05   -6.921234496064287e-06   -1.4206130787125439e-05
4.70745667851518e-05   -6.921234496064287e-06   -1.4206130787125439e-05
4.70745667851518e-05   -6.921234496064287e-06   -1.4206130787125439e-05
3.437295121914081e-05   -7.03279700984649e-06   7.030165997829081e-06
3.437295121914081e-05   -7.03279700984649e-06   7.030165997829081e-06
3.437295121914081e-05   -7.03279700984649e-06   7.030165997829081e-06
3.437295121914081e-05   -7.03279700984649e-06   7.030165997829081e-06
4.70745667851518e-05   -8.355367429721018e-06   2.4172847220462986e-05
4.70745667851518e-05   -8.355367429721018e-06   2.4172847220462986e-05
4.70745667851518e-05   -8.355367429721018e-06   2.4172847220462986e-05
4.70745667851518e-05   -8.355367429721018e-06   2.4172847220462986e-05
2.4047179980598793e-05   -6.921234496064287e-06   -1.3345651026931151e-05
2.4047179980598793e-05   -6.921234496064287e-06   -1.3345651026931151e-05
2.4047179980598793e-05   -6.921234496064287e-06   -1.3345651026931151e-05
2.4047179980598793e-05   -6.921234496064287e-06   -1.3345651026931151e-05
2.3489443587235728e-05   -8.278624617262878e-06   2.2465891821932e-05
2.3489443587235728e-05   -8.278624617262878e-06   2.2465891821932e-05
2.3489443587235728e-05   -8.278624617262878e-06   2.2465891821932e-05
2.3489443587235728e-05   -8.278624617262878e-06   2.2465891821932e-05
4.6491501906192076e-05   -6.977316765983911e-06   -1.6651656753762607e-05
4.6491501906192076e-05   -6.977316765983911e-06   -1.6651656753762607e-05
4.6491501906192076e-05   -6.977316765983911e-06   -1.6651656753762607e-05
4.6491501906192076e-05   -6.977316765983911e-06   -1.6651656753762607e-05
3.43520257961991e-05   -7.1561827722826845e-06   3.6881230333381926e-06
3.43520257961991e-05   -7.1561827722826845e-06   3.6881230333381926e-06
3.43520257961991e-05   -7.1561827722826845e-06   3.6881230333381926e-06
3.43520257961991e-05   -7.1561827722826845e-06   3.6881230333381926e-06
4.649150190619216e-05   -8.278624617263095e-06   2.1685107111164685e-05
4.649150190619216e-05   -8.278624617263095e-06   2.1685107111164685e-05
4.649150190619216e-05   -8.278624617263095e-06   2.1685107111164685e-05
4.649150190619216e-05   -8.278624617263095e-06   2.1685107111164685e-05
2.3489443587235728e-05   -6.977316765983911e-06   -1.5870872042995183e-05
2.3489443587235728e-05   -6.977316765983911e-06   -1.5870872042995183e-05
2.3489443587235728e-05   -6.977316765983911e-06   -1.5870872042995183e-05
2.3489443587235728e-05   -6.977316765983911e-06   -1.5870872042995183e-05
2.2808767611350503e-05   -7.815031575066772e-06   1.8288852889358732e-05
2.2808767611350503e-05   -7.815031575066772e-06   1.8288852889358732e-05
2.2808767611350503e-05   -7.815031575066772e-06   1.8288852889358732e-05
2.2808767611350503e-05   -7.815031575066772e-06   1.8288852889358732e-05
4.557779670161004e-05   -6.82740334124912e-06   -2.0252105868030903e-05
4.557779670161004e-05   -6.82740334124912e-06   -2.0252105868030903e-05
4.557779670161004e-05   -6.82740334124912e-06   -2.0252105868030903e-05
4.557779670161004e-05   -6.82740334124912e-06   -2.0252105868030903e-05
3.3183969503049894e-05   -6.804358681776999e-06   3.9044600055258534e-07
3.3183969503049894e-05   -6.804358681776999e-06   3.9044600055258534e-07
3.3183969503049894e-05   -6.804358681776999e-06   3.9044600055258534e-07
3.3183969503049894e-05   -6.804358681776999e-06   3.9044600055258534e-07
2.466326388452761e-05   -8.139480179841741e-06   2.116712604014338e-05
2.466326388452761e-05   -8.139480179841741e-06   2.116712604014338e-05
2.466326388452761e-05   -8.139480179841741e-06   2.116712604014338e-05
2.466326388452761e-05   -8.139480179841741e-06   2.116712604014338e-05
5.192563537513055e-06   -3.875067280400841e-06   -8.72539346521658e-06
5.192563537513055e-06   -3.875067280400841e-06   -8.72539346521658e-06
5.192563537513055e-06   -3.875067280400841e-06   -8.72539346521658e-06
5.192563537513055e-06   -3.875067280400841e-06   -8.72539346521658e-06
4.217624732418186e-06   -8.095570692630586e-06   2.414048123409681e-05
4.217624732418186e-06   -8.095570692630586e-06   2.414048123409681e-05
4.217624732418186e-06   -8.095570692630586e-06   2.414048123409681e-05
4.217624732418186e-06   -8.095570692630586e-06   2.414048123409681e-05
2.4047179980598793e-05   -4.108721176245304e-06   -1.1300887222701913e-05
2.4047179980598793e-05   -4.108721176245304e-06   -1.1300887222701913e-05
2.4047179980598793e-05   -4.108721176245304e-06   -1.1300887222701913e-05
2.4047179980598793e-05   -4.108721176245304e-06   -1.1300887222701913e-05
1.4509030914625175e-05   -5.830247791697822e-06   5.628943856525578e-06
1.4509030914625175e-05   -5.830247791697822e-06   5.628943856525578e-06
1.4509030914625175e-05   -5.830247791697822e-06   5.628943856525578e-06
1.4509030914625175e-05   -5.830247791697822e-06   5.628943856525578e-06
2.4047179980598806e-05   -8.09557069263037e-06   2.1748371524265816e-05
2.4047179980598806e-05   -8.09557069263037e-06   2.1748371524265816e-05
2.4047179980598806e-05   -8.09557069263037e-06   2.1748371524265816e-05
2.4047179980598806e-05   -8.09557069263037e-06   2.1748371524265816e-05
4.217624732418186e-06   -4.108721176245304e-06   -8.90877751287089e-06
4.217624732418186e-06   -4.108721176245304e-06   -8.90877751287089e-06
4.217624732418186e-06   -4.108721176245304e-06   -8.90877751287089e-06
4.217624732418186e-06   -4.108721176245304e-06   -8.90877751287089e-06
3.5217136949992672e-06   -7.984001112718367e-06   2.4168909983939522e-05
3.5217136949992672e-06   -7.984001112718367e-06   2.4168909983939522e-05
3.5217136949992672e-06   -7.984001112718367e-06   2.4168909983939522e-05
3.5217136949992672e-06   -7.984001112718367e-06   2.4168909983939522e-05
2.3489443587235728e-05   -4.210912711466452e-06   -1.1374492877205862e-05
2.3489443587235728e-05   -4.210912711466452e-06   -1.1374492877205862e-05
2.3489443587235728e-05   -4.210912711466452e-06   -1.1374492877205862e-05
2.3489443587235728e-05   -4.210912711466452e-06   -1.1374492877205862e-05
1.3671703621098728e-05   -5.7094949176676214e-06   5.887556390077016e-06
1.3671703621098728e-05   -5.7094949176676214e-06   5.887556390077016e-06
1.3671703621098728e-05   -5.7094949176676214e-06   5.887556390077016e-06
1.3671703621098728e-05   -5.7094949176676214e-06   5.887556390077016e-06
2.348944358723577e-05   -7.98400111271815e-06   2.1905056943188244e-05
2.348944358723577e-05   -7.98400111271815e-06   2.1905056943188244e-05
2.348944358723577e-05   -7.98400111271815e-06   2.1905056943188244e-05
2.348944358723577e-05   -7.98400111271815e-06   2.1905056943188244e-05
3.5217136949992672e-06   -4.210912711466452e-06   -9.110639836454651e-06
3.5217136949992672e-06   -4.210912711466452e-06   -9.110639836454651e-06
3.5217136949992672e-06   -4.210912711466452e-06   -9.110639836454651e-06
3.5217136949992672e-06   -4.210912711466452e-06   -9.110639836454651e-06
2.747856400109471e-06   -7.762983560286084e-06   2.494629917060092e-05
2.747856400109471e-06   -7.762983560286084e-06   2.494629917060092e-05
2.747856400109471e-06   -7.762983560286084e-06   2.494629917060092e-05
2.747856400109471e-06   -7.762983560286084e-06   2.494629917060092e-05
2.280876761135049e-05   -4.1129241478458315e-06   -1.0678588495598466e-05
2.280876761135049e-05   -4.1129241478458315e-06   -1.0678588495598466e-05
2.280876761135049e-05   -4.1129241478458315e-06   -1.0678588495598466e-05
2.280876761135049e-05   -4.1129241478458315e-06   -1.0678588495598466e-05
1.3160958391707706e-05   -5.45664714153354e-06   6.207327333352362e-06
1.3160958391707706e-05   -5.45664714153354e-06   6.207327333352362e-06
1.3160958391707706e-05   -5.45664714153354e-06   6.207327333352362e-06
1.3160958391707706e-05   -5.45664714153354e-06   6.207327333352362e-06
5.1925635375130684e-06   -9.778651993718563e-06   2.1754134923592612e-05
5.1925635375130684e-06   -9.778651993718563e-06   2.1754134923592612e-05
5.1925635375130684e-06   -9.778651993718563e-06   2.1754134923592612e-05
5.1925635375130684e-06   -9.778651993718563e-06   2.1754134923592612e-05
-1.35158573560302e-05   -1.6000108786183576e-06   -4.519381896585998e-06
-1.35158573560302e-05   -1.6000108786183576e-06   -4.519381896585998e-06
-1.35158573560302e-05   -1.6000108786183576e-06   -4.519381896585998e-06
-1.35158573560302e-05   -1.6000108786183576e-06   -4.519381896585998e-06
-1.50319839847461e-05   -9.991652654756837e-06   2.792571726837191e-05
-1.50319839847461e-05   -9.991652654756837e-06   2.792571726837191e-05
-1.50319839847461e-05   -9.991652654756837e-06   2.792571726837191e-05
-1.50319839847461e-05   -9.991652654756837e-06   2.792571726837191e-05
4.217624732418199e-06   -1.6885880961422205e-06   -9.138802662070984e-06
4.217624732418199e-06   -1.6885880961422205e-06   -9.138802662070984e-06
4.217624732418199e-06   -1.6885880961422205e-06   -9.138802662070984e-06
4.217624732418199e-06   -1.6885880961422205e-06   -9.138802662070984e-06
-4.61861277086789e-06   -5.5785488501125e-06   7.922236295788e-06
-4.61861277086789e-06   -5.5785488501125e-06   7.922236295788e-06
-4.61861277086789e-06   -5.5785488501125e-06   7.922236295788e-06
-4.61861277086789e-06   -5.5785488501125e-06   7.922236295788e-06
4.217624732418186e-06   -9.99165265475662e-06   2.2943878533202662e-05
4.217624732418186e-06   -9.99165265475662e-06   2.2943878533202662e-05
4.217624732418186e-06   -9.99165265475662e-06   2.2943878533202662e-05
4.217624732418186e-06   -9.99165265475662e-06   2.2943878533202662e-05
-1.5031983984746072e-05   -1.6885880961420036e-06   -4.156963926902116e-06
-1.5031983984746072e-05   -1.6885880961420036e-06   -4.156963926902116e-06
-1.5031983984746072e-05   -1.6885880961420036e-06   -4.156963926902116e-06
-1.5031983984746072e-05   -1.6885880961420036e-06   -4.156963926902116e-06
-1.595976702888667e-05   -9.94098033997061e-06   2.898584827175951e-05
-1.595976702888667e-05   -9.94098033997061e-06   2.898584827175951e-05
-1.595976702888667e-05   -9.94098033997061e-06   2.898584827175951e-05
-1.595976702888667e-05   -9.94098033997061e-06   2.898584827175951e-05
3.5217136949992672e-06   -1.7975394372925745e-06   -8.369350809657081e-06
3.5217136949992672e-06   -1.7975394372925745e-06   -8.369350809657081e-06
3.5217136949992672e-06   -1.7975394372925745e-06   -8.369350809657081e-06
3.5217136949992672e-06   -1.7975394372925745e-06   -8.369350809657081e-06
-5.6455714308023525e-06   -5.557729819210275e-06   9.165571962496297e-06
-5.6455714308023525e-06   -5.557729819210275e-06   9.165571962496297e-06
-5.6455714308023525e-06   -5.557729819210275e-06   9.165571962496297e-06
-5.6455714308023525e-06   -5.557729819210275e-06   9.165571962496297e-06
3.5217136949992537e-06   -9.940980339970392e-06   2.409978373015269e-05
3.5217136949992537e-06   -9.940980339970392e-06   2.409978373015269e-05
3.5217136949992537e-06   -9.940980339970392e-06   2.409978373015269e-05
3.5217136949992537e-06   -9.940980339970392e-06   2.409978373015269e-05
-1.595976702888664e-05   -1.7975394372925745e-06   -3.4832862680502603e-06
-1.595976702888664e-05   -1.7975394372925745e-06   -3.4832862680502603e-06
-1.595976702888664e-05   -1.7975394372925745e-06   -3.4832862680502603e-06
-1.595976702888664e-05   -1.7975394372925745e-06   -3.4832862680502603e-06
-1.7049642227088478e-05   -9.587794280297053e-06   3.035666842874274e-05
-1.7049642227088478e-05   -9.587794280297053e-06   3.035666842874274e-05
-1.7049642227088478e-05   -9.587794280297053e-06   3.035666842874274e-05
-1.7049642227088478e-05   -9.587794280297053e-06   3.035666842874274e-05
2.747856400109471e-06   -1.7844934274890891e-06   -7.3211431282720855e-06
2.747856400109471e-06   -1.7844934274890891e-06   -7.3211431282720855e-06
2.747856400109471e-06   -1.7844934274890891e-06   -7.3211431282720855e-06
2.747856400109471e-06   -1.7844934274890891e-06   -7.3211431282720855e-06
-6.4824013679364554e-06   -5.332435889386904e-06   1.0191385295609976e-05
-6.4824013679364554e-06   -5.332435889386904e-06   1.0191385295609976e-05
-6.4824013679364554e-06   -5.332435889386904e-06   1.0191385295609976e-05
-6.4824013679364554e-06   -5.332435889386904e-06   1.0191385295609976e-05
-1.3515857356030228e-05   -1.2153038346604311e-05   2.6330136065058607e-05
-1.3515857356030228e-05   -1.2153038346604311e-05   2.6330136065058607e-05
-1.3515857356030228e-05   -1.2153038346604311e-05   2.6330136065058607e-05
-1.3515857356030228e-05   -1.2153038346604311e-05   2.6330136065058607e-05
-3.4786621633039574e-05   1.804800454841514e-06   -7.464344490892621e-07
-3.4786621633039574e-05   1.804800454841514e-06   -7.464344490892621e-07
-3.4786621633039574e-05   1.804800454841514e-06   -7.464344490892621e-07
-3.4786621633039574e-05   1.804800454841514e-06   -7.464344490892621e-07
-3.66126936722342e-05   -1.3586195106715616e-05   3.717880094631309e-05
-3.66126936722342e-05   -1.3586195106715616e-05   3.717880094631309e-05
-3.66126936722342e-05   -1.3586195106715616e-05   3.717880094631309e-05
-3.66126936722342e-05   -1.3586195106715616e-05   3.717880094631309e-05
-1.5031983984746072e-05   1.7046934945913386e-06   -7.96358169361788e-06
-1.5031983984746072e-05   1.7046934945913386e-06   -7.96358169361788e-06
-1.5031983984746072e-05   1.7046934945913386e-06   -7.96358169361788e-06
-1.5031983984746072e-05   1.7046934945913386e-06   -7.96358169361788e-06
-2.4640257847958216e-05   -5.006889509431281e-06   1.2077157880815883e-05
-2.4640257847958216e-05   -5.006889509431281e-06   1.2077157880815883e-05
-2.4640257847958216e-05   -5.006889509431281e-06   1.2077157880815883e-05
-2.4640257847958216e-05   -5.006889509431281e-06   1.2077157880815883e-05
-1.50319839847461e-05   -1.3586195106715616e-05   2.800426778552887e-05
-1.50319839847461e-05   -1.3586195106715616e-05   2.800426778552887e-05
-1.50319839847461e-05   -1.3586195106715616e-05   2.800426778552887e-05
-1.50319839847461e-05   -1.3586195106715616e-05   2.800426778552887e-05
-3.66126936722342e-05   1.7046934945915554e-06   1.2109514671664176e-06
-3.66126936722342e-05   1.7046934945915554e-06   1.2109514671664176e-06
-3.66126936722342e-05   1.7046934945915554e-06   1.2109514671664176e-06
-3.66126936722342e-05   1.7046934945915554e-06   1.2109514671664176e-06
-3.7724875587608894e-05   -1.3658022847083109e-05   3.926553208826334e-05
-3.7724875587608894e-05   -1.3658022847083109e-05   3.926553208826334e-05
-3.7724875587608894e-05   -1.3658022847083109e-05   3.926553208826334e-05
-3.7724875587608894e-05   -1.3658022847083109e-05   3.926553208826334e-05
-1.595976702888664e-05   1.5148542361884988e-06   -6.113375092903515e-06
-1.595976702888664e-05   1.5148542361884988e-06   -6.113375092903515e-06
-1.595976702888664e-05   1.5148542361884988e-06   -6.113375092903515e-06
-1.595976702888664e-05   1.5148542361884988e-06   -6.113375092903515e-06
-2.582370795393056e-05   -5.778616036417961e-06   1.4702608612400124e-05
-2.582370795393056e-05   -5.778616036417961e-06   1.4702608612400124e-05
-2.582370795393056e-05   -5.778616036417961e-06   1.4702608612400124e-05
-2.582370795393056e-05   -5.778616036417961e-06   1.4702608612400124e-05
-1.5959767028886628e-05   -1.3658022847083326e-05   3.016180583830007e-05
-1.5959767028886628e-05   -1.3658022847083326e-05   3.016180583830007e-05
-1.5959767028886628e-05   -1.3658022847083326e-05   3.016180583830007e-05
-1.5959767028886628e-05   -1.3658022847083326e-05   3.016180583830007e-05
-3.772487558760883e-05   1.5148542361884988e-06   2.9903511570596175e-06
-3.772487558760883e-05   1.5148542361884988e-06   2.9903511570596175e-06
-3.772487558760883e-05   1.5148542361884988e-06   2.9903511570596175e-06
-3.772487558760883e-05   1.5148542361884988e-06   2.9903511570596175e-06
-3.8924158145207394e-05   -1.244076366534153e-05   4.0156532875834997e-05
-3.8924158145207394e-05   -1.244076366534153e-05   4.0156532875834997e-05
-3.8924158145207394e-05   -1.244076366534153e-05   4.0156532875834997e-05
-3.8924158145207394e-05   -1.244076366534153e-05   4.0156532875834997e-05
-1.704964222708841e-05   1.2992248661714348e-06   -4.544986773271075e-06
-1.704964222708841e-05   1.2992248661714348e-06   -4.544986773271075e-06
-1.704964222708841e-05   1.2992248661714348e-06   -4.544986773271075e-06
-1.704964222708841e-05   1.2992248661714348e-06   -4.544986773271075e-06
-2.704642556044569e-05   -5.819168021048036e-06   1.6387354514656486e-05
-2.704642556044569e-05   -5.819168021048036e-06   1.6387354514656486e-05
-2.704642556044569e-05   -5.819168021048036e-06   1.6387354514656486e-05
-2.704642556044569e-05   -5.819168021048036e-06   1.6387354514656486e-05
-3.478662163303945e-05   0.0   2.9104163943605827e-05
-3.478662163303945e-05   0.0   2.9104163943605827e-05
-3.478662163303945e-05   0.0   2.9104163943605827e-05
-3.478662163303945e-05   0.0   2.9104163943605827e-05
-6.116832304068495e-05   8.031716468453933e-06   -1.0046308521397657e-05
-6.116832304068495e-05   8.031716468453933e-06   -1.0046308521397657e-05
-6.116832304068495e-05   8.031716468453933e-06   -1.0046308521397657e-05
-6.116832304068495e-05   8.031716468453933e-06   -1.0046308521397657e-05
-6.367881278215599e-05   0.0   4.2360222030509397e-05
-6.367881278215599e-05   0.0   4.2360222030509397e-05
-6.367881278215599e-05   0.0   4.2360222030509397e-05
-6.367881278215599e-05   0.0   4.2360222030509397e-05
-3.6612693672234136e-05   7.761304331889343e-06   -7.406759085160401e-06
-3.6612693672234136e-05   7.761304331889343e-06   -7.406759085160401e-06
-3.6612693672234136e-05   7.761304331889343e-06   -7.406759085160401e-06
-3.6612693672234136e-05   7.761304331889343e-06   -7.406759085160401e-06
-4.697110537520881e-05   4.76445998245055e-06   1.1655367029460653e-05
-4.697110537520881e-05   4.76445998245055e-06   1.1655367029460653e-05
-4.697110537520881e-05   4.76445998245055e-06   1.1655367029460653e-05
-4.697110537520881e-05   4.76445998245055e-06   1.1655367029460653e-05
-3.66126936722341e-05   0.0   3.77034394313762e-05
-3.66126936722341e-05   0.0   3.77034394313762e-05
-3.66126936722341e-05   0.0   3.77034394313762e-05
-3.66126936722341e-05   0.0   3.77034394313762e-05
-6.367881278215608e-05   7.761304331889343e-06   -2.749976486026936e-06
-6.367881278215608e-05   7.761304331889343e-06   -2.749976486026936e-06
-6.367881278215608e-05   7.761304331889343e-06   -2.749976486026936e-06
-6.367881278215608e-05   7.761304331889343e-06   -2.749976486026936e-06
-6.494221021532582e-05   0.0   4.706252529073176e-05
-6.494221021532582e-05   0.0   4.706252529073176e-05
-6.494221021532582e-05   0.0   4.706252529073176e-05
-6.494221021532582e-05   0.0   4.706252529073176e-05
-3.772487558760883e-05   7.5657617587445835e-06   -2.8391561440432834e-06
-3.772487558760883e-05   7.5657617587445835e-06   -2.8391561440432834e-06
-3.772487558760883e-05   7.5657617587445835e-06   -2.8391561440432834e-06
-3.772487558760883e-05   7.5657617587445835e-06   -2.8391561440432834e-06
-4.940286081288538e-05   3.980929519200541e-06   1.877505190847796e-05
-4.940286081288538e-05   3.980929519200541e-06   1.877505190847796e-05
-4.940286081288538e-05   3.980929519200541e-06   1.877505190847796e-05
-4.940286081288538e-05   3.980929519200541e-06   1.877505190847796e-05
-3.772487558760883e-05   0.0   4.252306823548523e-05
-3.772487558760883e-05   0.0   4.252306823548523e-05
-3.772487558760883e-05   0.0   4.252306823548523e-05
-3.772487558760883e-05   0.0   4.252306823548523e-05
-6.494221021532604e-05   7.565761758744367e-06   1.7003009112033854e-06
-6.494221021532604e-05   7.565761758744367e-06   1.7003009112033854e-06
-6.494221021532604e-05   7.565761758744367e-06   1.7003009112033854e-06
-6.494221021532604e-05   7.565761758744367e-06   1.7003009112033854e-06
-6.634538422977865e-05   0.0   5.3331030031332884e-05
-6.634538422977865e-05   0.0   5.3331030031332884e-05
-6.634538422977865e-05   0.0   5.3331030031332884e-05
-6.634538422977865e-05   0.0   5.3331030031332884e-05
-3.8924158145207394e-05   6.315265971262168e-06   3.839826974290101e-06
-3.8924158145207394e-05   6.315265971262168e-06   3.839826974290101e-06
-3.8924158145207394e-05   6.315265971262168e-06   3.839826974290101e-06
-3.8924158145207394e-05   6.315265971262168e-06   3.839826974290101e-06
-4.9801252454436865e-05   2.8014196791596724e-06   2.407662526493422e-05
-4.9801252454436865e-05   2.8014196791596724e-06   2.407662526493422e-05
-4.9801252454436865e-05   2.8014196791596724e-06   2.407662526493422e-05
-4.9801252454436865e-05   2.8014196791596724e-06   2.407662526493422e-05
4.191934674783597e-05   -6.297932362663364e-06   2.9697356431968112e-05
4.191934674783597e-05   -6.297932362663364e-06   2.9697356431968112e-05
4.191934674783597e-05   -6.297932362663364e-06   2.9697356431968112e-05
4.191934674783597e-05   -6.297932362663364e-06   2.9697356431968112e-05
2.1185959148958975e-05   -4.7635768898582256e-06   -3.937676282477257e-06
2.1185959148958975e-05   -4.7635768898582256e-06   -3.937676282477257e-06
2.1185959148958975e-05   -4.7635768898582256e-06   -3.937676282477257e-06
2.1185959148958975e-05   -4.7635768898582256e-06   -3.937676282477257e-06
2.063109867173391e-05   -6.921234496064287e-06   2.5907917143502997e-05
2.063109867173391e-05   -6.921234496064287e-06   2.5907917143502997e-05
2.063109867173391e-05   -6.921234496064287e-06   2.5907917143502997e-05
2.063109867173391e-05   -6.921234496064287e-06   2.5907917143502997e-05
4.093057375840739e-05   -5.395307601690699e-06   -8.840097470910327e-06
4.093057375840739e-05   -5.395307601690699e-06   -8.840097470910327e-06
4.093057375840739e-05   -5.395307601690699e-06   -8.840097470910327e-06
4.093057375840739e-05   -5.395307601690699e-06   -8.840097470910327e-06
2.9779258594086063e-05   -5.611993626143154e-06   9.875439417630276e-06
2.9779258594086063e-05   -5.611993626143154e-06   9.875439417630276e-06
2.9779258594086063e-05   -5.611993626143154e-06   9.875439417630276e-06
2.9779258594086063e-05   -5.611993626143154e-06   9.875439417630276e-06
4.093057375840734e-05   -6.921234496064287e-06   2.4992361006878844e-05
4.093057375840734e-05   -6.921234496064287e-06   2.4992361006878844e-05
4.093057375840734e-05   -6.921234496064287e-06   2.4992361006878844e-05
4.093057375840734e-05   -6.921234496064287e-06   2.4992361006878844e-05
2.0631098671733944e-05   -5.395307601690699e-06   -7.924541334286181e-06
2.0631098671733944e-05   -5.395307601690699e-06   -7.924541334286181e-06
2.0631098671733944e-05   -5.395307601690699e-06   -7.924541334286181e-06
2.0631098671733944e-05   -5.395307601690699e-06   -7.924541334286181e-06
1.991620990212736e-05   -6.977316765983911e-06   2.3246346242050426e-05
1.991620990212736e-05   -6.977316765983911e-06   2.3246346242050426e-05
1.991620990212736e-05   -6.977316765983911e-06   2.3246346242050426e-05
1.991620990212736e-05   -6.977316765983911e-06   2.3246346242050426e-05
3.992969504092453e-05   -5.488332789886684e-06   -1.1002852708269914e-05
3.992969504092453e-05   -5.488332789886684e-06   -1.1002852708269914e-05
3.992969504092453e-05   -5.488332789886684e-06   -1.1002852708269914e-05
3.992969504092453e-05   -5.488332789886684e-06   -1.1002852708269914e-05
2.9506076683071e-05   -5.85619030394691e-06   6.590559063255274e-06
2.9506076683071e-05   -5.85619030394691e-06   6.590559063255274e-06
2.9506076683071e-05   -5.85619030394691e-06   6.590559063255274e-06
2.9506076683071e-05   -5.85619030394691e-06   6.590559063255274e-06
3.992969504092453e-05   -6.977316765983911e-06   2.235295585639198e-05
3.992969504092453e-05   -6.977316765983911e-06   2.235295585639198e-05
3.992969504092453e-05   -6.977316765983911e-06   2.235295585639198e-05
3.992969504092453e-05   -6.977316765983911e-06   2.235295585639198e-05
1.991620990212736e-05   -5.488332789886684e-06   -1.0109462322611517e-05
1.991620990212736e-05   -5.488332789886684e-06   -1.0109462322611517e-05
1.991620990212736e-05   -5.488332789886684e-06   -1.0109462322611517e-05
1.991620990212736e-05   -5.488332789886684e-06   -1.0109462322611517e-05
1.9165843967178807e-05   -6.82740334124912e-06   1.9295044772695436e-05
1.9165843967178807e-05   -6.82740334124912e-06   1.9295044772695436e-05
1.9165843967178807e-05   -6.82740334124912e-06   1.9295044772695436e-05
1.9165843967178807e-05   -6.82740334124912e-06   1.9295044772695436e-05
3.8676542574915695e-05   -5.449728460632346e-06   -1.4049391168569453e-05
3.8676542574915695e-05   -5.449728460632346e-06   -1.4049391168569453e-05
3.8676542574915695e-05   -5.449728460632346e-06   -1.4049391168569453e-05
3.8676542574915695e-05   -5.449728460632346e-06   -1.4049391168569453e-05
2.819811886267873e-05   -5.701589730660239e-06   3.5657651138428035e-06
2.819811886267873e-05   -5.701589730660239e-06   3.5657651138428035e-06
2.819811886267873e-05   -5.701589730660239e-06   3.5657651138428035e-06
2.819811886267873e-05   -5.701589730660239e-06   3.5657651138428035e-06
2.1185959148959016e-05   -3.875067280400841e-06   2.8045655948986405e-05
2.1185959148959016e-05   -3.875067280400841e-06   2.8045655948986405e-05
2.1185959148959016e-05   -3.875067280400841e-06   2.8045655948986405e-05
2.1185959148959016e-05   -3.875067280400841e-06   2.8045655948986405e-05
2.2861235062342092e-06   -1.6760267722874464e-06   -2.1346458173534697e-06
2.2861235062342092e-06   -1.6760267722874464e-06   -2.1346458173534697e-06
2.2861235062342092e-06   -1.6760267722874464e-06   -2.1346458173534697e-06
2.2861235062342092e-06   -1.6760267722874464e-06   -2.1346458173534697e-06
1.7345033594053121e-06   -4.108721176245304e-06   2.920912867620932e-05
1.7345033594053121e-06   -4.108721176245304e-06   2.920912867620932e-05
1.7345033594053121e-06   -4.108721176245304e-06   2.920912867620932e-05
1.7345033594053121e-06   -4.108721176245304e-06   2.920912867620932e-05
2.0631098671733944e-05   -2.0146416287833598e-06   -3.5416445728155314e-06
2.0631098671733944e-05   -2.0146416287833598e-06   -3.5416445728155314e-06
2.0631098671733944e-05   -2.0146416287833598e-06   -3.5416445728155314e-06
2.0631098671733944e-05   -2.0146416287833598e-06   -3.5416445728155314e-06
1.1349390409751375e-05   -2.714442387773998e-06   1.234774965254979e-05
1.1349390409751375e-05   -2.714442387773998e-06   1.234774965254979e-05
1.1349390409751375e-05   -2.714442387773998e-06   1.234774965254979e-05
1.1349390409751375e-05   -2.714442387773998e-06   1.234774965254979e-05
2.0631098671733937e-05   -4.108721176245304e-06   2.7952680947732154e-05
2.0631098671733937e-05   -4.108721176245304e-06   2.7952680947732154e-05
2.0631098671733937e-05   -4.108721176245304e-06   2.7952680947732154e-05
2.0631098671733937e-05   -4.108721176245304e-06   2.7952680947732154e-05
1.7345033594053121e-06   -2.0146416287833598e-06   -2.285196844338446e-06
1.7345033594053121e-06   -2.0146416287833598e-06   -2.285196844338446e-06
1.7345033594053121e-06   -2.0146416287833598e-06   -2.285196844338446e-06
1.7345033594053121e-06   -2.0146416287833598e-06   -2.285196844338446e-06
1.0308053755482565e-06   -4.210912711466452e-06   2.892797287908414e-05
1.0308053755482565e-06   -4.210912711466452e-06   2.892797287908414e-05
1.0308053755482565e-06   -4.210912711466452e-06   2.892797287908414e-05
1.0308053755482565e-06   -4.210912711466452e-06   2.892797287908414e-05
1.991620990212736e-05   -2.2355002593926754e-06   -3.7329488031253113e-06
1.991620990212736e-05   -2.2355002593926754e-06   -3.7329488031253113e-06
1.991620990212736e-05   -2.2355002593926754e-06   -3.7329488031253113e-06
1.991620990212736e-05   -2.2355002593926754e-06   -3.7329488031253113e-06
1.0649121484912871e-05   -2.841988837928378e-06   1.207609170602084e-05
1.0649121484912871e-05   -2.841988837928378e-06   1.207609170602084e-05
1.0649121484912871e-05   -2.841988837928378e-06   1.207609170602084e-05
1.0649121484912871e-05   -2.841988837928378e-06   1.207609170602084e-05
1.9916209902127333e-05   -4.210912711466452e-06   2.7742725407839787e-05
1.9916209902127333e-05   -4.210912711466452e-06   2.7742725407839787e-05
1.9916209902127333e-05   -4.210912711466452e-06   2.7742725407839787e-05
1.9916209902127333e-05   -4.210912711466452e-06   2.7742725407839787e-05
1.0308053755482565e-06   -2.2355002593926754e-06   -2.5477013318810126e-06
1.0308053755482565e-06   -2.2355002593926754e-06   -2.5477013318810126e-06
1.0308053755482565e-06   -2.2355002593926754e-06   -2.5477013318810126e-06
1.0308053755482565e-06   -2.2355002593926754e-06   -2.5477013318810126e-06
2.534919669137936e-07   -4.1129241478458315e-06   2.9346704254541375e-05
2.534919669137936e-07   -4.1129241478458315e-06   2.9346704254541375e-05
2.534919669137936e-07   -4.1129241478458315e-06   2.9346704254541375e-05
2.534919669137936e-07   -4.1129241478458315e-06   2.9346704254541375e-05
1.91658439671788e-05   -2.328392398339308e-06   -3.2446014622710046e-06
1.91658439671788e-05   -2.328392398339308e-06   -3.2446014622710046e-06
1.91658439671788e-05   -2.328392398339308e-06   -3.2446014622710046e-06
1.91658439671788e-05   -2.328392398339308e-06   -3.2446014622710046e-06
1.0080568673053382e-05   -2.8133742199954338e-06   1.2188513120932136e-05
1.0080568673053382e-05   -2.8133742199954338e-06   1.2188513120932136e-05
1.0080568673053382e-05   -2.8133742199954338e-06   1.2188513120932136e-05
1.0080568673053382e-05   -2.8133742199954338e-06   1.2188513120932136e-05
2.2861235062342092e-06   -1.6000108786183576e-06   2.866390715342503e-05
2.2861235062342092e-06   -1.6000108786183576e-06   2.866390715342503e-05
2.2861235062342092e-06   -1.6000108786183576e-06   2.866390715342503e-05
2.2861235062342092e-06   -1.6000108786183576e-06   2.866390715342503e-05
-1.6027218439339615e-05   1.4999386376628957e-06   1.6402872373083924e-09
-1.6027218439339615e-05   1.4999386376628957e-06   1.6402872373083924e-09
-1.6027218439339615e-05   1.4999386376628957e-06   1.6402872373083924e-09
-1.6027218439339615e-05   1.4999386376628957e-06   1.6402872373083924e-09
-1.664891409555315e-05   -1.6885880961420036e-06   3.073767350541211e-05
-1.664891409555315e-05   -1.6885880961420036e-06   3.073767350541211e-05
-1.664891409555315e-05   -1.6885880961420036e-06   3.073767350541211e-05
-1.664891409555315e-05   -1.6885880961420036e-06   3.073767350541211e-05
1.7345033594053121e-06   1.2423618678627547e-06   -1.6599255645881263e-06
1.7345033594053121e-06   1.2423618678627547e-06   -1.6599255645881263e-06
1.7345033594053121e-06   1.2423618678627547e-06   -1.6599255645881263e-06
1.7345033594053121e-06   1.2423618678627547e-06   -1.6599255645881263e-06
-7.15089175372134e-06   -8.929188857493414e-10   1.389501916267198e-05
-7.15089175372134e-06   -8.929188857493414e-10   1.389501916267198e-05
-7.15089175372134e-06   -8.929188857493414e-10   1.389501916267198e-05
-7.15089175372134e-06   -8.929188857493414e-10   1.389501916267198e-05
1.7345033594053121e-06   -1.6885880961420036e-06   2.897910352700928e-05
1.7345033594053121e-06   -1.6885880961420036e-06   2.897910352700928e-05
1.7345033594053121e-06   -1.6885880961420036e-06   2.897910352700928e-05
1.7345033594053121e-06   -1.6885880961420036e-06   2.897910352700928e-05
-1.664891409555315e-05   1.2423618678627547e-06   9.864441381465285e-08
-1.664891409555315e-05   1.2423618678627547e-06   9.864441381465285e-08
-1.664891409555315e-05   1.2423618678627547e-06   9.864441381465285e-08
-1.664891409555315e-05   1.2423618678627547e-06   9.864441381465285e-08
-1.748133726048079e-05   -1.7975394372925745e-06   3.134934578553905e-05
-1.748133726048079e-05   -1.7975394372925745e-06   3.134934578553905e-05
-1.748133726048079e-05   -1.7975394372925745e-06   3.134934578553905e-05
-1.748133726048079e-05   -1.7975394372925745e-06   3.134934578553905e-05
1.0308053755482565e-06   1.0026003621358207e-06   -1.1843091541666434e-06
1.0308053755482565e-06   1.0026003621358207e-06   -1.1843091541666434e-06
1.0308053755482565e-06   1.0026003621358207e-06   -1.1843091541666434e-06
1.0308053755482565e-06   1.0026003621358207e-06   -1.1843091541666434e-06
-7.763853236466669e-06   -7.22055348066717e-08   1.4118338737357096e-05
-7.763853236466669e-06   -7.22055348066717e-08   1.4118338737357096e-05
-7.763853236466669e-06   -7.22055348066717e-08   1.4118338737357096e-05
-7.763853236466669e-06   -7.22055348066717e-08   1.4118338737357096e-05
1.0308053755482565e-06   -1.7975394372925745e-06   2.966926190588171e-05
1.0308053755482565e-06   -1.7975394372925745e-06   2.966926190588171e-05
1.0308053755482565e-06   -1.7975394372925745e-06   2.966926190588171e-05
1.0308053755482565e-06   -1.7975394372925745e-06   2.966926190588171e-05
-1.748133726048075e-05   1.0026003621358207e-06   4.957747254904533e-07
-1.748133726048075e-05   1.0026003621358207e-06   4.957747254904533e-07
-1.748133726048075e-05   1.0026003621358207e-06   4.957747254904533e-07
-1.748133726048075e-05   1.0026003621358207e-06   4.957747254904533e-07
-1.836819737794214e-05   -1.7844934274888723e-06   3.208298841557368e-05
-1.836819737794214e-05   -1.7844934274888723e-06   3.208298841557368e-05
-1.836819737794214e-05   -1.7844934274888723e-06   3.208298841557368e-05
-1.836819737794214e-05   -1.7844934274888723e-06   3.208298841557368e-05
2.534919669137936e-07   8.302973077943272e-07   -5.220349336896007e-07
2.534919669137936e-07   8.302973077943272e-07   -5.220349336896007e-07
2.534919669137936e-07   8.302973077943272e-07   -5.220349336896007e-07
2.534919669137936e-07   8.302973077943272e-07   -5.220349336896007e-07
-8.545142054744792e-06   -1.2278308112508712e-07   1.4714203335760212e-05
-8.545142054744792e-06   -1.2278308112508712e-07   1.4714203335760212e-05
-8.545142054744792e-06   -1.2278308112508712e-07   1.4714203335760212e-05
-8.545142054744792e-06   -1.2278308112508712e-07   1.4714203335760212e-05
-1.6027218439339548e-05   1.804800454841514e-06   2.592212102982272e-05
-1.6027218439339548e-05   1.804800454841514e-06   2.592212102982272e-05
-1.6027218439339548e-05   1.804800454841514e-06   2.592212102982272e-05
-1.6027218439339548e-05   1.804800454841514e-06   2.592212102982272e-05
-3.398044713669435e-05   4.872769751229503e-06   -2.159145221268988e-06
-3.398044713669435e-05   4.872769751229503e-06   -2.159145221268988e-06
-3.398044713669435e-05   4.872769751229503e-06   -2.159145221268988e-06
-3.398044713669435e-05   4.872769751229503e-06   -2.159145221268988e-06
-3.4883657271318384e-05   1.7046934945913386e-06   2.867749838431164e-05
-3.4883657271318384e-05   1.7046934945913386e-06   2.867749838431164e-05
-3.4883657271318384e-05   1.7046934945913386e-06   2.867749838431164e-05
-3.4883657271318384e-05   1.7046934945913386e-06   2.867749838431164e-05
-1.6648914095553096e-05   4.615431237283427e-06   -3.4601828875790476e-06
-1.6648914095553096e-05   4.615431237283427e-06   -3.4601828875790476e-06
-1.6648914095553096e-05   4.615431237283427e-06   -3.4601828875790476e-06
-1.6648914095553096e-05   4.615431237283427e-06   -3.4601828875790476e-06
-2.5186392894394325e-05   3.3035476564161666e-06   1.1556078592343214e-05
-2.5186392894394325e-05   3.3035476564161666e-06   1.1556078592343214e-05
-2.5186392894394325e-05   3.3035476564161666e-06   1.1556078592343214e-05
-2.5186392894394325e-05   3.3035476564161666e-06   1.1556078592343214e-05
-1.6648914095553123e-05   1.7046934945913386e-06   2.693105573869643e-05
-1.6648914095553123e-05   1.7046934945913386e-06   2.693105573869643e-05
-1.6648914095553123e-05   1.7046934945913386e-06   2.693105573869643e-05
-1.6648914095553123e-05   1.7046934945913386e-06   2.693105573869643e-05
-3.48836572713183e-05   4.61543123728321e-06   -1.7137402419639463e-06
-3.48836572713183e-05   4.61543123728321e-06   -1.7137402419639463e-06
-3.48836572713183e-05   4.61543123728321e-06   -1.7137402419639463e-06
-3.48836572713183e-05   4.61543123728321e-06   -1.7137402419639463e-06
-3.599131721200643e-05   1.5148542361884988e-06   3.0436315344123648e-05
-3.599131721200643e-05   1.5148542361884988e-06   3.0436315344123648e-05
-3.599131721200643e-05   1.5148542361884988e-06   3.0436315344123648e-05
-3.599131721200643e-05   1.5148542361884988e-06   3.0436315344123648e-05
-1.748133726048075e-05   4.376618208585181e-06   -2.1307096251902693e-06
-1.748133726048075e-05   4.376618208585181e-06   -2.1307096251902693e-06
-1.748133726048075e-05   4.376618208585181e-06   -2.1307096251902693e-06
-1.748133726048075e-05   4.376618208585181e-06   -2.1307096251902693e-06
-2.5857593257149962e-05   3.246039101496498e-06   1.2508064500178144e-05
-2.5857593257149962e-05   3.246039101496498e-06   1.2508064500178144e-05
-2.5857593257149962e-05   3.246039101496498e-06   1.2508064500178144e-05
-2.5857593257149962e-05   3.246039101496498e-06   1.2508064500178144e-05
-1.748133726048075e-05   1.5148542361884988e-06   2.871925696068566e-05
-1.748133726048075e-05   1.5148542361884988e-06   2.871925696068566e-05
-1.748133726048075e-05   1.5148542361884988e-06   2.871925696068566e-05
-1.748133726048075e-05   1.5148542361884988e-06   2.871925696068566e-05
-3.599131721200643e-05   4.376618208585181e-06   -4.1365124175247146e-07
-3.599131721200643e-05   4.376618208585181e-06   -4.1365124175247146e-07
-3.599131721200643e-05   4.376618208585181e-06   -4.1365124175247146e-07
-3.599131721200643e-05   4.376618208585181e-06   -4.1365124175247146e-07
-3.716244614106796e-05   1.2992248661714348e-06   3.183042008428295e-05
-3.716244614106796e-05   1.2992248661714348e-06   3.183042008428295e-05
-3.716244614106796e-05   1.2992248661714348e-06   3.183042008428295e-05
-3.716244614106796e-05   1.2992248661714348e-06   3.183042008428295e-05
-1.8368197377942072e-05   4.054651241826822e-06   -1.1465836796532402e-06
-1.8368197377942072e-05   4.054651241826822e-06   -1.1465836796532402e-06
-1.8368197377942072e-05   4.054651241826822e-06   -1.1465836796532402e-06
-1.8368197377942072e-05   4.054651241826822e-06   -1.1465836796532402e-06
-2.698105835387141e-05   3.052916190558882e-06   1.380922564432369e-05
-2.698105835387141e-05   3.052916190558882e-06   1.380922564432369e-05
-2.698105835387141e-05   3.052916190558882e-06   1.380922564432369e-05
-2.698105835387141e-05   3.052916190558882e-06   1.380922564432369e-05
-3.398044713669435e-05   8.031716468453933e-06   1.3643998654274975e-05
-3.398044713669435e-05   8.031716468453933e-06   1.3643998654274975e-05
-3.398044713669435e-05   8.031716468453933e-06   1.3643998654274975e-05
-3.398044713669435e-05   8.031716468453933e-06   1.3643998654274975e-05
-5.118945319810169e-05   7.924741303708604e-06   -1.5101863213584383e-05
-5.118945319810169e-05   7.924741303708604e-06   -1.5101863213584383e-05
-5.118945319810169e-05   7.924741303708604e-06   -1.5101863213584383e-05
-5.118945319810169e-05   7.924741303708604e-06   -1.5101863213584383e-05
-5.2812110236014255e-05   7.761304331889343e-06   2.025153061138707e-05
-5.2812110236014255e-05   7.761304331889343e-06   2.025153061138707e-05
-5.2812110236014255e-05   7.761304331889343e-06   2.025153061138707e-05
-5.2812110236014255e-05   7.761304331889343e-06   2.025153061138707e-05
-3.48836572713183e-05   8.080875630893467e-06   -9.820967109175441e-06
-3.48836572713183e-05   8.080875630893467e-06   -9.820967109175441e-06
-3.48836572713183e-05   8.080875630893467e-06   -9.820967109175441e-06
-3.48836572713183e-05   8.080875630893467e-06   -9.820967109175441e-06
-4.147687570510361e-05   8.07111208317923e-06   1.1735884090949235e-06
-4.147687570510361e-05   8.07111208317923e-06   1.1735884090949235e-06
-4.147687570510361e-05   8.07111208317923e-06   1.1735884090949235e-06
-4.147687570510361e-05   8.07111208317923e-06   1.1735884090949235e-06
-3.4883657271318275e-05   7.761304331889126e-06   2.0059787831984443e-05
-3.4883657271318275e-05   7.761304331889126e-06   2.0059787831984443e-05
-3.4883657271318275e-05   7.761304331889126e-06   2.0059787831984443e-05
-3.4883657271318275e-05   7.761304331889126e-06   2.0059787831984443e-05
-5.2812110236014255e-05   8.08087563089325e-06   -9.629224329773005e-06
-5.2812110236014255e-05   8.08087563089325e-06   -9.629224329773005e-06
-5.2812110236014255e-05   8.08087563089325e-06   -9.629224329773005e-06
-5.2812110236014255e-05   8.08087563089325e-06   -9.629224329773005e-06
-5.440327731627804e-05   7.565761758744367e-06   2.4881756088702316e-05
-5.440327731627804e-05   7.565761758744367e-06   2.4881756088702316e-05
-5.440327731627804e-05   7.565761758744367e-06   2.4881756088702316e-05
-5.440327731627804e-05   7.565761758744367e-06   2.4881756088702316e-05
-3.5991317212006365e-05   8.024008501547261e-06   -6.07979213076553e-06
-3.5991317212006365e-05   8.024008501547261e-06   -6.07979213076553e-06
-3.5991317212006365e-05   8.024008501547261e-06   -6.07979213076553e-06
-3.5991317212006365e-05   8.024008501547261e-06   -6.07979213076553e-06
-4.334448392180111e-05   8.073552781478728e-06   6.145759150933891e-06
-4.334448392180111e-05   8.073552781478728e-06   6.145759150933891e-06
-4.334448392180111e-05   8.073552781478728e-06   6.145759150933891e-06
-4.334448392180111e-05   8.073552781478728e-06   6.145759150933891e-06
-3.5991317212006365e-05   7.5657617587445835e-06   2.4606808043020774e-05
-3.5991317212006365e-05   7.5657617587445835e-06   2.4606808043020774e-05
-3.5991317212006365e-05   7.5657617587445835e-06   2.4606808043020774e-05
-3.5991317212006365e-05   7.5657617587445835e-06   2.4606808043020774e-05
-5.440327731627804e-05   8.024008501547044e-06   -5.804844085083825e-06
-5.440327731627804e-05   8.024008501547044e-06   -5.804844085083825e-06
-5.440327731627804e-05   8.024008501547044e-06   -5.804844085083825e-06
-5.440327731627804e-05   8.024008501547044e-06   -5.804844085083825e-06
-5.6280515941865196e-05   6.315265971262168e-06   3.2616534250726626e-05
-5.6280515941865196e-05   6.315265971262168e-06   3.2616534250726626e-05
-5.6280515941865196e-05   6.315265971262168e-06   3.2616534250726626e-05
-5.6280515941865196e-05   6.315265971262168e-06   3.2616534250726626e-05
-3.716244614106782e-05   7.390755200913221e-06   1.0779104494043883e-07
-3.716244614106782e-05   7.390755200913221e-06   1.0779104494043883e-07
-3.716244614106782e-05   7.390755200913221e-06   1.0779104494043883e-07
-3.716244614106782e-05   7.390755200913221e-06   1.0779104494043883e-07
-4.400398485110607e-05   7.693253133009585e-06   1.1328856802413426e-05
-4.400398485110607e-05   7.693253133009585e-06   1.1328856802413426e-05
-4.400398485110607e-05   7.693253133009585e-06   1.1328856802413426e-05
-4.400398485110607e-05   7.693253133009585e-06   1.1328856802413426e-05
3.407721947406149e-05   -4.7635768898582256e-06   2.623038568873022e-05
3.407721947406149e-05   -4.7635768898582256e-06   2.623038568873022e-05
3.407721947406149e-05   -4.7635768898582256e-06   2.623038568873022e-05
3.407721947406149e-05   -4.7635768898582256e-06   2.623038568873022e-05
1.6859114514760768e-05   -3.5030811019619214e-06   -1.7101584373664528e-06
1.6859114514760768e-05   -3.5030811019619214e-06   -1.7101584373664528e-06
1.6859114514760768e-05   -3.5030811019619214e-06   -1.7101584373664528e-06
1.6859114514760768e-05   -3.5030811019619214e-06   -1.7101584373664528e-06
1.6219732310454527e-05   -5.395307601690482e-06   2.2800078475548446e-05
1.6219732310454527e-05   -5.395307601690482e-06   2.2800078475548446e-05
1.6219732310454527e-05   -5.395307601690482e-06   2.2800078475548446e-05
1.6219732310454527e-05   -5.395307601690482e-06   2.2800078475548446e-05
3.290191044542852e-05   -4.061277867085109e-06   -5.803969590171318e-06
3.290191044542852e-05   -4.061277867085109e-06   -5.803969590171318e-06
3.290191044542852e-05   -4.061277867085109e-06   -5.803969590171318e-06
3.290191044542852e-05   -4.061277867085109e-06   -5.803969590171318e-06
2.386946803266087e-05   -4.385231980100473e-06   9.444473565583882e-06
2.386946803266087e-05   -4.385231980100473e-06   9.444473565583882e-06
2.386946803266087e-05   -4.385231980100473e-06   9.444473565583882e-06
2.386946803266087e-05   -4.385231980100473e-06   9.444473565583882e-06
3.290191044542846e-05   -5.395307601690699e-06   2.1999660634785135e-05
3.290191044542846e-05   -5.395307601690699e-06   2.1999660634785135e-05
3.290191044542846e-05   -5.395307601690699e-06   2.1999660634785135e-05
3.290191044542846e-05   -5.395307601690699e-06   2.1999660634785135e-05
1.621973231045458e-05   -4.061277867085109e-06   -5.003551749408158e-06
1.621973231045458e-05   -4.061277867085109e-06   -5.003551749408158e-06
1.621973231045458e-05   -4.061277867085109e-06   -5.003551749408158e-06
1.621973231045458e-05   -4.061277867085109e-06   -5.003551749408158e-06
1.550890267719837e-05   -5.488332789886684e-06   2.0426582781479796e-05
1.550890267719837e-05   -5.488332789886684e-06   2.0426582781479796e-05
1.550890267719837e-05   -5.488332789886684e-06   2.0426582781479796e-05
1.550890267719837e-05   -5.488332789886684e-06   2.0426582781479796e-05
3.1836892219527885e-05   -4.172827452931464e-06   -7.576036324575719e-06
3.1836892219527885e-05   -4.172827452931464e-06   -7.576036324575719e-06
3.1836892219527885e-05   -4.172827452931464e-06   -7.576036324575719e-06
3.1836892219527885e-05   -4.172827452931464e-06   -7.576036324575719e-06
2.3431086388055224e-05   -4.6018290367148395e-06   6.691041011481938e-06
2.3431086388055224e-05   -4.6018290367148395e-06   6.691041011481938e-06
2.3431086388055224e-05   -4.6018290367148395e-06   6.691041011481938e-06
2.3431086388055224e-05   -4.6018290367148395e-06   6.691041011481938e-06
3.183689221952778e-05   -5.488332789886467e-06   1.963727957930673e-05
3.183689221952778e-05   -5.488332789886467e-06   1.963727957930673e-05
3.183689221952778e-05   -5.488332789886467e-06   1.963727957930673e-05
3.183689221952778e-05   -5.488332789886467e-06   1.963727957930673e-05
1.5508902677198398e-05   -4.172827452931464e-06   -6.786733122402574e-06
1.5508902677198398e-05   -4.172827452931464e-06   -6.786733122402574e-06
1.5508902677198398e-05   -4.172827452931464e-06   -6.786733122402574e-06
1.5508902677198398e-05   -4.172827452931464e-06   -6.786733122402574e-06
1.4824896086435663e-05   -5.449728460632346e-06   1.711185780601328e-05
1.4824896086435663e-05   -5.449728460632346e-06   1.711185780601328e-05
1.4824896086435663e-05   -5.449728460632346e-06   1.711185780601328e-05
1.4824896086435663e-05   -5.449728460632346e-06   1.711185780601328e-05
3.062997385443143e-05   -4.214912567493357e-06   -9.970828009862993e-06
3.062997385443143e-05   -4.214912567493357e-06   -9.970828009862993e-06
3.062997385443143e-05   -4.214912567493357e-06   -9.970828009862993e-06
3.062997385443143e-05   -4.214912567493357e-06   -9.970828009862993e-06
2.2232636777138932e-05   -4.522833836773359e-06   4.2094865471928615e-06
2.2232636777138932e-05   -4.522833836773359e-06   4.2094865471928615e-06
2.2232636777138932e-05   -4.522833836773359e-06   4.2094865471928615e-06
2.2232636777138932e-05   -4.522833836773359e-06   4.2094865471928615e-06
1.6859114514760768e-05   -1.6760267722874464e-06   2.747028932172384e-05
1.6859114514760768e-05   -1.6760267722874464e-06   2.747028932172384e-05
1.6859114514760768e-05   -1.6760267722874464e-06   2.747028932172384e-05
1.6859114514760768e-05   -1.6760267722874464e-06   2.747028932172384e-05
6.967102972961812e-07   -6.712170489192506e-07   1.1358347933036923e-06
6.967102972961812e-07   -6.712170489192506e-07   1.1358347933036923e-06
6.967102972961812e-07   -6.712170489192506e-07   1.1358347933036923e-06
6.967102972961812e-07   -6.712170489192506e-07   1.1358347933036923e-06
8.254798075635599e-08   -2.0146416287833598e-06   2.775199594440541e-05
8.254798075635599e-08   -2.0146416287833598e-06   2.775199594440541e-05
8.254798075635599e-08   -2.0146416287833598e-06   2.775199594440541e-05
8.254798075635599e-08   -2.0146416287833598e-06   2.775199594440541e-05
1.621973231045458e-05   -1.0662737831392596e-06   2.8766802085539427e-07
1.621973231045458e-05   -1.0662737831392596e-06   2.8766802085539427e-07
1.621973231045458e-05   -1.0662737831392596e-06   2.8766802085539427e-07
1.621973231045458e-05   -1.0662737831392596e-06   2.8766802085539427e-07
8.361610568525867e-06   -1.3071879059879492e-06   1.3529086064445472e-05
8.361610568525867e-06   -1.3071879059879492e-06   1.3529086064445472e-05
8.361610568525867e-06   -1.3071879059879492e-06   1.3529086064445472e-05
8.361610568525867e-06   -1.3071879059879492e-06   1.3529086064445472e-05
1.6219732310454567e-05   -2.0146416287833598e-06   2.7182975237018906e-05
1.6219732310454567e-05   -2.0146416287833598e-06   2.7182975237018906e-05
1.6219732310454567e-05   -2.0146416287833598e-06   2.7182975237018906e-05
1.6219732310454567e-05   -2.0146416287833598e-06   2.7182975237018906e-05
8.254798075635599e-08   -1.0662737831392596e-06   8.566887282417893e-07
8.254798075635599e-08   -1.0662737831392596e-06   8.566887282417893e-07
8.254798075635599e-08   -1.0662737831392596e-06   8.566887282417893e-07
8.254798075635599e-08   -1.0662737831392596e-06   8.566887282417893e-07
-5.558623810845092e-07   -2.2355002593926754e-06   2.732912431842923e-05
-5.558623810845092e-07   -2.2355002593926754e-06   2.732912431842923e-05
-5.558623810845092e-07   -2.2355002593926754e-06   2.732912431842923e-05
-5.558623810845092e-07   -2.2355002593926754e-06   2.732912431842923e-05
1.5508902677198398e-05   -1.3587868969541957e-06   2.8487870494417434e-08
1.5508902677198398e-05   -1.3587868969541957e-06   2.8487870494417434e-08
1.5508902677198398e-05   -1.3587868969541957e-06   2.8487870494417434e-08
1.5508902677198398e-05   -1.3587868969541957e-06   2.8487870494417434e-08
7.65569981883155e-06   -1.513737971097287e-06   1.3210129945592417e-05
7.65569981883155e-06   -1.513737971097287e-06   1.3210129945592417e-05
7.65569981883155e-06   -1.513737971097287e-06   1.3210129945592417e-05
7.65569981883155e-06   -1.513737971097287e-06   1.3210129945592417e-05
1.550890267719837e-05   -2.2355002593926754e-06   2.6803096300965948e-05
1.550890267719837e-05   -2.2355002593926754e-06   2.6803096300965948e-05
1.550890267719837e-05   -2.2355002593926754e-06   2.6803096300965948e-05
1.550890267719837e-05   -2.2355002593926754e-06   2.6803096300965948e-05
-5.558623810845092e-07   -1.3587868969539788e-06   5.545158879577275e-07
-5.558623810845092e-07   -1.3587868969539788e-06   5.545158879577275e-07
-5.558623810845092e-07   -1.3587868969539788e-06   5.545158879577275e-07
-5.558623810845092e-07   -1.3587868969539788e-06   5.545158879577275e-07
-1.2205028140835605e-06   -2.328392398339308e-06   2.7534044501308303e-05
-1.2205028140835605e-06   -2.328392398339308e-06   2.7534044501308303e-05
-1.2205028140835605e-06   -2.328392398339308e-06   2.7534044501308303e-05
-1.2205028140835605e-06   -2.328392398339308e-06   2.7534044501308303e-05
1.4824896086435697e-05   -1.5883892027280556e-06   3.4771108307619204e-07
1.4824896086435697e-05   -1.5883892027280556e-06   3.4771108307619204e-07
1.4824896086435697e-05   -1.5883892027280556e-06   3.4771108307619204e-07
1.4824896086435697e-05   -1.5883892027280556e-06   3.4771108307619204e-07
7.126443933247231e-06   -1.6235006110516034e-06   1.3199531516718314e-05
7.126443933247231e-06   -1.6235006110516034e-06   1.3199531516718314e-05
7.126443933247231e-06   -1.6235006110516034e-06   1.3199531516718314e-05
7.126443933247231e-06   -1.6235006110516034e-06   1.3199531516718314e-05
6.967102972961812e-07   1.4999386376628957e-06   2.8349491550566522e-05
6.967102972961812e-07   1.4999386376628957e-06   2.8349491550566522e-05
6.967102972961812e-07   1.4999386376628957e-06   2.8349491550566522e-05
6.967102972961812e-07   1.4999386376628957e-06   2.8349491550566522e-05
-1.4996213809332208e-05   2.16950686836412e-06   2.5963589779401473e-06
-1.4996213809332208e-05   2.16950686836412e-06   2.5963589779401473e-06
-1.4996213809332208e-05   2.16950686836412e-06   2.5963589779401473e-06
-1.4996213809332208e-05   2.16950686836412e-06   2.5963589779401473e-06
-1.563813771867929e-05   1.2423618678627547e-06   2.8736973453684107e-05
-1.563813771867929e-05   1.2423618678627547e-06   2.8736973453684107e-05
-1.563813771867929e-05   1.2423618678627547e-06   2.8736973453684107e-05
-1.563813771867929e-05   1.2423618678627547e-06   2.8736973453684107e-05
8.254798075635599e-08   1.8418722504099597e-06   2.1761243917630313e-06
8.254798075635599e-08   1.8418722504099597e-06   2.1761243917630313e-06
8.254798075635599e-08   1.8418722504099597e-06   2.1761243917630313e-06
8.254798075635599e-08   1.8418722504099597e-06   2.1761243917630313e-06
-7.475247924445756e-06   1.7066468769003258e-06   1.4853586124538988e-05
-7.475247924445756e-06   1.7066468769003258e-06   1.4853586124538988e-05
-7.475247924445756e-06   1.7066468769003258e-06   1.4853586124538988e-05
-7.475247924445756e-06   1.7066468769003258e-06   1.4853586124538988e-05
8.254798075635599e-08   1.2423618678627547e-06   2.8377267224155675e-05
8.254798075635599e-08   1.2423618678627547e-06   2.8377267224155675e-05
8.254798075635599e-08   1.2423618678627547e-06   2.8377267224155675e-05
8.254798075635599e-08   1.2423618678627547e-06   2.8377267224155675e-05
-1.563813771867929e-05   1.8418722504099597e-06   2.535830621291273e-06
-1.563813771867929e-05   1.8418722504099597e-06   2.535830621291273e-06
-1.563813771867929e-05   1.8418722504099597e-06   2.535830621291273e-06
-1.563813771867929e-05   1.8418722504099597e-06   2.535830621291273e-06
-1.6315699426018468e-05   1.0026003621358207e-06   2.900522976734374e-05
-1.6315699426018468e-05   1.0026003621358207e-06   2.900522976734374e-05
-1.6315699426018468e-05   1.0026003621358207e-06   2.900522976734374e-05
-1.6315699426018468e-05   1.0026003621358207e-06   2.900522976734374e-05
-5.558623810845092e-07   1.5237891474693954e-06   2.4261214212538363e-06
-5.558623810845092e-07   1.5237891474693954e-06   2.4261214212538363e-06
-5.558623810845092e-07   1.5237891474693954e-06   2.4261214212538363e-06
-5.558623810845092e-07   1.5237891474693954e-06   2.4261214212538363e-06
-8.071374599095291e-06   1.5202245578344303e-06   1.4954113871719365e-05
-8.071374599095291e-06   1.5202245578344303e-06   1.4954113871719365e-05
-8.071374599095291e-06   1.5202245578344303e-06   1.4954113871719365e-05
-8.071374599095291e-06   1.5202245578344303e-06   1.4954113871719365e-05
-5.558623810845092e-07   1.0026003621360375e-06   2.869251649614368e-05
-5.558623810845092e-07   1.0026003621360375e-06   2.869251649614368e-05
-5.558623810845092e-07   1.0026003621360375e-06   2.869251649614368e-05
-5.558623810845092e-07   1.0026003621360375e-06   2.869251649614368e-05
-1.6315699426018495e-05   1.5237891474693954e-06   2.7388346924538945e-06
-1.6315699426018495e-05   1.5237891474693954e-06   2.7388346924538945e-06
-1.6315699426018495e-05   1.5237891474693954e-06   2.7388346924538945e-06
-1.6315699426018495e-05   1.5237891474693954e-06   2.7388346924538945e-06
-1.7014718972058088e-05   8.302973077943272e-07   2.9432149475668848e-05
-1.7014718972058088e-05   8.302973077943272e-07   2.9432149475668848e-05
-1.7014718972058088e-05   8.302973077943272e-07   2.9432149475668848e-05
-1.7014718972058088e-05   8.302973077943272e-07   2.9432149475668848e-05
-1.2205028140835605e-06   1.2407264669330592e-06   2.8621983835614914e-06
-1.2205028140835605e-06   1.2407264669330592e-06   2.8621983835614914e-06
-1.2205028140835605e-06   1.2407264669330592e-06   2.8621983835614914e-06
-1.2205028140835605e-06   1.2407264669330592e-06   2.8621983835614914e-06
-8.716510084532619e-06   1.3417524511293716e-06   1.529492824379271e-05
-8.716510084532619e-06   1.3417524511293716e-06   1.529492824379271e-05
-8.716510084532619e-06   1.3417524511293716e-06   1.529492824379271e-05
-8.716510084532619e-06   1.3417524511293716e-06   1.529492824379271e-05
-1.4996213809332262e-05   4.87276975122972e-06   2.4749665402648254e-05
-1.4996213809332262e-05   4.87276975122972e-06   2.4749665402648254e-05
-1.4996213809332262e-05   4.87276975122972e-06   2.4749665402648254e-05
-1.4996213809332262e-05   4.87276975122972e-06   2.4749665402648254e-05
-3.020612813418798e-05   4.934706635019654e-06   -5.630296751706065e-07
-3.020612813418798e-05   4.934706635019654e-06   -5.630296751706065e-07
-3.020612813418798e-05   4.934706635019654e-06   -5.630296751706065e-07
-3.020612813418798e-05   4.934706635019654e-06   -5.630296751706065e-07
-3.095121481127945e-05   4.61543123728321e-06   2.518257757511285e-05
-3.095121481127945e-05   4.61543123728321e-06   2.518257757511285e-05
-3.095121481127945e-05   4.61543123728321e-06   2.518257757511285e-05
-3.095121481127945e-05   4.61543123728321e-06   2.518257757511285e-05
-1.5638137718679317e-05   4.6228169419874985e-06   -3.436490020432487e-07
-1.5638137718679317e-05   4.6228169419874985e-06   -3.436490020432487e-07
-1.5638137718679317e-05   4.6228169419874985e-06   -3.436490020432487e-07
-1.5638137718679317e-05   4.6228169419874985e-06   -3.436490020432487e-07
-2.284542658857637e-05   4.748505855395281e-06   1.1593085766407277e-05
-2.284542658857637e-05   4.748505855395281e-06   1.1593085766407277e-05
-2.284542658857637e-05   4.748505855395281e-06   1.1593085766407277e-05
-2.284542658857637e-05   4.748505855395281e-06   1.1593085766407277e-05
-1.5638137718679317e-05   4.61543123728321e-06   2.5178146152290515e-05
-1.5638137718679317e-05   4.61543123728321e-06   2.5178146152290515e-05
-1.5638137718679317e-05   4.61543123728321e-06   2.5178146152290515e-05
-1.5638137718679317e-05   4.61543123728321e-06   2.5178146152290515e-05
-3.095121481127942e-05   4.6228169419874985e-06   -3.392175792207245e-07
-3.095121481127942e-05   4.6228169419874985e-06   -3.392175792207245e-07
-3.095121481127942e-05   4.6228169419874985e-06   -3.392175792207245e-07
-3.095121481127942e-05   4.6228169419874985e-06   -3.392175792207245e-07
-3.177646136726307e-05   4.376618208585181e-06   2.6353444290650938e-05
-3.177646136726307e-05   4.376618208585181e-06   2.6353444290650938e-05
-3.177646136726307e-05   4.376618208585181e-06   2.6353444290650938e-05
-3.177646136726307e-05   4.376618208585181e-06   2.6353444290650938e-05
-1.6315699426018495e-05   4.334449665231634e-06   6.10808847922162e-07
-1.6315699426018495e-05   4.334449665231634e-06   6.10808847922162e-07
-1.6315699426018495e-05   4.334449665231634e-06   6.10808847922162e-07
-1.6315699426018495e-05   4.334449665231634e-06   6.10808847922162e-07
-2.3382395534221567e-05   4.572928702819071e-06   1.2245548272374687e-05
-2.3382395534221567e-05   4.572928702819071e-06   1.2245548272374687e-05
-2.3382395534221567e-05   4.572928702819071e-06   1.2245548272374687e-05
-2.3382395534221567e-05   4.572928702819071e-06   1.2245548272374687e-05
-1.6315699426018468e-05   4.376618208585181e-06   2.6378745416663044e-05
-1.6315699426018468e-05   4.376618208585181e-06   2.6378745416663044e-05
-1.6315699426018468e-05   4.376618208585181e-06   2.6378745416663044e-05
-1.6315699426018468e-05   4.376618208585181e-06   2.6378745416663044e-05
-3.177646136726301e-05   4.3344496652314175e-06   5.855077219097575e-07
-3.177646136726301e-05   4.3344496652314175e-06   5.855077219097575e-07
-3.177646136726301e-05   4.3344496652314175e-06   5.855077219097575e-07
-3.177646136726301e-05   4.3344496652314175e-06   5.855077219097575e-07
-3.2562631679434594e-05   4.054651241826605e-06   2.7194849862475882e-05
-3.2562631679434594e-05   4.054651241826605e-06   2.7194849862475882e-05
-3.2562631679434594e-05   4.054651241826605e-06   2.7194849862475882e-05
-3.2562631679434594e-05   4.054651241826605e-06   2.7194849862475882e-05
-1.7014718972058142e-05   3.98152386506148e-06   1.3255384429077107e-06
-1.7014718972058142e-05   3.98152386506148e-06   1.3255384429077107e-06
-1.7014718972058142e-05   3.98152386506148e-06   1.3255384429077107e-06
-1.7014718972058142e-05   3.98152386506148e-06   1.3255384429077107e-06
-2.4240466611623653e-05   4.343780260320732e-06   1.3151097338362343e-05
-2.4240466611623653e-05   4.343780260320732e-06   1.3151097338362343e-05
-2.4240466611623653e-05   4.343780260320732e-06   1.3151097338362343e-05
-2.4240466611623653e-05   4.343780260320732e-06   1.3151097338362343e-05
-3.0206128134187927e-05   7.924741303708604e-06   1.1908294639453821e-05
-3.0206128134187927e-05   7.924741303708604e-06   1.1908294639453821e-05
-3.0206128134187927e-05   7.924741303708604e-06   1.1908294639453821e-05
-3.0206128134187927e-05   7.924741303708604e-06   1.1908294639453821e-05
-4.4678480134813914e-05   7.11430040618204e-06   -1.269855656677206e-05
-4.4678480134813914e-05   7.11430040618204e-06   -1.269855656677206e-05
-4.4678480134813914e-05   7.11430040618204e-06   -1.269855656677206e-05
-4.4678480134813914e-05   7.11430040618204e-06   -1.269855656677206e-05
-4.585205701122862e-05   8.08087563089325e-06   1.6542511295857248e-05
-4.585205701122862e-05   8.08087563089325e-06   1.6542511295857248e-05
-4.585205701122862e-05   8.08087563089325e-06   1.6542511295857248e-05
-4.585205701122862e-05   8.08087563089325e-06   1.6542511295857248e-05
-3.095121481127945e-05   7.192809944153462e-06   -7.759386292014359e-06
-3.095121481127945e-05   7.192809944153462e-06   -7.759386292014359e-06
-3.095121481127945e-05   7.192809944153462e-06   -7.759386292014359e-06
-3.095121481127945e-05   7.192809944153462e-06   -7.759386292014359e-06
-3.646941304310187e-05   7.532212543175099e-06   1.2339692016103592e-06
-3.646941304310187e-05   7.532212543175099e-06   1.2339692016103592e-06
-3.646941304310187e-05   7.532212543175099e-06   1.2339692016103592e-06
-3.646941304310187e-05   7.532212543175099e-06   1.2339692016103592e-06
-3.0951214811279396e-05   8.080875630893467e-06   1.7075350707901164e-05
-3.0951214811279396e-05   8.080875630893467e-06   1.7075350707901164e-05
-3.0951214811279396e-05   8.080875630893467e-06   1.7075350707901164e-05
-3.0951214811279396e-05   8.080875630893467e-06   1.7075350707901164e-05
-4.585205701122875e-05   7.192809944153462e-06   -8.292225704058221e-06
-4.585205701122875e-05   7.192809944153462e-06   -8.292225704058221e-06
-4.585205701122875e-05   7.192809944153462e-06   -8.292225704058221e-06
-4.585205701122875e-05   7.192809944153462e-06   -8.292225704058221e-06
-4.699718309024491e-05   8.024008501547044e-06   2.0141598136976576e-05
-4.699718309024491e-05   8.024008501547044e-06   2.0141598136976576e-05
-4.699718309024491e-05   8.024008501547044e-06   2.0141598136976576e-05
-4.699718309024491e-05   8.024008501547044e-06   2.0141598136976576e-05
-3.177646136726307e-05   7.114499727112027e-06   -4.680566136665667e-06
-3.177646136726307e-05   7.114499727112027e-06   -4.680566136665667e-06
-3.177646136726307e-05   7.114499727112027e-06   -4.680566136665667e-06
-3.177646136726307e-05   7.114499727112027e-06   -4.680566136665667e-06
-3.7916969148552935e-05   7.670898806535261e-06   5.21977405116414e-06
-3.7916969148552935e-05   7.670898806535261e-06   5.21977405116414e-06
-3.7916969148552935e-05   7.670898806535261e-06   5.21977405116414e-06
-3.7916969148552935e-05   7.670898806535261e-06   5.21977405116414e-06
-3.177646136726307e-05   8.024008501547044e-06   2.0687303401637717e-05
-3.177646136726307e-05   8.024008501547044e-06   2.0687303401637717e-05
-3.177646136726307e-05   8.024008501547044e-06   2.0687303401637717e-05
-3.177646136726307e-05   8.024008501547044e-06   2.0687303401637717e-05
-4.699718309024507e-05   7.114499727112027e-06   -5.226271401326862e-06
-4.699718309024507e-05   7.114499727112027e-06   -5.226271401326862e-06
-4.699718309024507e-05   7.114499727112027e-06   -5.226271401326862e-06
-4.699718309024507e-05   7.114499727112027e-06   -5.226271401326862e-06
-4.833373597533887e-05   7.390755200913221e-06   2.6302368786565488e-05
-4.833373597533887e-05   7.390755200913221e-06   2.6302368786565488e-05
-4.833373597533887e-05   7.390755200913221e-06   2.6302368786565488e-05
-4.833373597533887e-05   7.390755200913221e-06   2.6302368786565488e-05
-3.2562631679434594e-05   6.568088575728331e-06   5.107949351692924e-07
-3.2562631679434594e-05   6.568088575728331e-06   5.107949351692924e-07
-3.2562631679434594e-05   6.568088575728331e-06   5.107949351692924e-07
-3.2562631679434594e-05   6.568088575728331e-06   5.107949351692924e-07
-3.827622179373396e-05   7.445278345429192e-06   9.507131263848277e-06
-3.827622179373396e-05   7.445278345429192e-06   9.507131263848277e-06
-3.827622179373396e-05   7.445278345429192e-06   9.507131263848277e-06
-3.827622179373396e-05   7.445278345429192e-06   9.507131263848277e-06
2.5943660489755556e-05   -3.5030811019619214e-06   2.1953637047383498e-05
2.5943660489755556e-05   -3.5030811019619214e-06   2.1953637047383498e-05
2.5943660489755556e-05   -3.5030811019619214e-06   2.1953637047383498e-05
2.5943660489755556e-05   -3.5030811019619214e-06   2.1953637047383498e-05
1.2207002695400306e-05   -2.324249677532501e-06   -2.3349375521779236e-07
1.2207002695400306e-05   -2.324249677532501e-06   -2.3349375521779236e-07
1.2207002695400306e-05   -2.324249677532501e-06   -2.3349375521779236e-07
1.2207002695400306e-05   -2.324249677532501e-06   -2.3349375521779236e-07
1.163532470442049e-05   -4.061277867085326e-06   1.92819465231949e-05
1.163532470442049e-05   -4.061277867085326e-06   1.92819465231949e-05
1.163532470442049e-05   -4.061277867085326e-06   1.92819465231949e-05
1.163532470442049e-05   -4.061277867085326e-06   1.92819465231949e-05
2.48370770027443e-05   -2.817688288009497e-06   -3.46712772145685e-06
2.48370770027443e-05   -2.817688288009497e-06   -3.46712772145685e-06
2.48370770027443e-05   -2.817688288009497e-06   -3.46712772145685e-06
2.48370770027443e-05   -2.817688288009497e-06   -3.46712772145685e-06
1.77784481496543e-05   -3.2001314562535126e-06   8.526719601306243e-06
1.77784481496543e-05   -3.2001314562535126e-06   8.526719601306243e-06
1.77784481496543e-05   -3.2001314562535126e-06   8.526719601306243e-06
1.77784481496543e-05   -3.2001314562535126e-06   8.526719601306243e-06
2.48370770027443e-05   -4.061277867085109e-06   1.853579277574964e-05
2.48370770027443e-05   -4.061277867085109e-06   1.853579277574964e-05
2.48370770027443e-05   -4.061277867085109e-06   1.853579277574964e-05
2.48370770027443e-05   -4.061277867085109e-06   1.853579277574964e-05
1.1635324704420513e-05   -2.817688288009497e-06   -2.720973974011361e-06
1.1635324704420513e-05   -2.817688288009497e-06   -2.720973974011361e-06
1.1635324704420513e-05   -2.817688288009497e-06   -2.720973974011361e-06
1.1635324704420513e-05   -2.817688288009497e-06   -2.720973974011361e-06
1.1003846122688894e-05   -4.172827452931464e-06   1.7404774325899134e-05
1.1003846122688894e-05   -4.172827452931464e-06   1.7404774325899134e-05
1.1003846122688894e-05   -4.172827452931464e-06   1.7404774325899134e-05
1.1003846122688894e-05   -4.172827452931464e-06   1.7404774325899134e-05
2.3866657332118456e-05   -2.94901608488031e-06   -4.767531177314173e-06
2.3866657332118456e-05   -2.94901608488031e-06   -4.767531177314173e-06
2.3866657332118456e-05   -2.94901608488031e-06   -4.767531177314173e-06
2.3866657332118456e-05   -2.94901608488031e-06   -4.767531177314173e-06
1.73232356857806e-05   -3.400607265616456e-06   6.409126275024317e-06
1.73232356857806e-05   -3.400607265616456e-06   6.409126275024317e-06
1.73232356857806e-05   -3.400607265616456e-06   6.409126275024317e-06
1.73232356857806e-05   -3.400607265616456e-06   6.409126275024317e-06
2.386665733211841e-05   -4.172827452931464e-06   1.667048750506842e-05
2.386665733211841e-05   -4.172827452931464e-06   1.667048750506842e-05
2.386665733211841e-05   -4.172827452931464e-06   1.667048750506842e-05
2.386665733211841e-05   -4.172827452931464e-06   1.667048750506842e-05
1.1003846122688911e-05   -2.94901608488031e-06   -4.033244356483365e-06
1.1003846122688911e-05   -2.94901608488031e-06   -4.033244356483365e-06
1.1003846122688911e-05   -2.94901608488031e-06   -4.033244356483365e-06
1.1003846122688911e-05   -2.94901608488031e-06   -4.033244356483365e-06
1.0420486904204786e-05   -4.2149125674931405e-06   1.4857811782880456e-05
1.0420486904204786e-05   -4.2149125674931405e-06   1.4857811782880456e-05
1.0420486904204786e-05   -4.2149125674931405e-06   1.4857811782880456e-05
1.0420486904204786e-05   -4.2149125674931405e-06   1.4857811782880456e-05
2.2781511568507137e-05   -3.0694586017391244e-06   -6.431168370409093e-06
2.2781511568507137e-05   -3.0694586017391244e-06   -6.431168370409093e-06
2.2781511568507137e-05   -3.0694586017391244e-06   -6.431168370409093e-06
2.2781511568507137e-05   -3.0694586017391244e-06   -6.431168370409093e-06
1.6306770629485653e-05   -3.379984532379636e-06   4.546382086344572e-06
1.6306770629485653e-05   -3.379984532379636e-06   4.546382086344572e-06
1.6306770629485653e-05   -3.379984532379636e-06   4.546382086344572e-06
1.6306770629485653e-05   -3.379984532379636e-06   4.546382086344572e-06
1.2207002695400266e-05   -6.712170489192506e-07   2.4904043298690226e-05
1.2207002695400266e-05   -6.712170489192506e-07   2.4904043298690226e-05
1.2207002695400266e-05   -6.712170489192506e-07   2.4904043298690226e-05
1.2207002695400266e-05   -6.712170489192506e-07   2.4904043298690226e-05
-7.912379610844442e-07   -1.6712183118069643e-08   3.6330117906965224e-06
-7.912379610844442e-07   -1.6712183118069643e-08   3.6330117906965224e-06
-7.912379610844442e-07   -1.6712183118069643e-08   3.6330117906965224e-06
-7.912379610844442e-07   -1.6712183118069643e-08   3.6330117906965224e-06
-1.3289663871283725e-06   -1.0662737831392596e-06   2.494589769755839e-05
-1.3289663871283725e-06   -1.0662737831392596e-06   2.494589769755839e-05
-1.3289663871283725e-06   -1.0662737831392596e-06   2.494589769755839e-05
-1.3289663871283725e-06   -1.0662737831392596e-06   2.494589769755839e-05
1.1635324704420513e-05   -4.450547763058463e-07   2.9660144742101928e-06
1.1635324704420513e-05   -4.450547763058463e-07   2.9660144742101928e-06
1.1635324704420513e-05   -4.450547763058463e-07   2.9660144742101928e-06
1.1635324704420513e-05   -4.450547763058463e-07   2.9660144742101928e-06
5.342407418786454e-06   -5.655035965573645e-07   1.352647924241781e-05
5.342407418786454e-06   -5.655035965573645e-07   1.352647924241781e-05
5.342407418786454e-06   -5.655035965573645e-07   1.352647924241781e-05
5.342407418786454e-06   -5.655035965573645e-07   1.352647924241781e-05
1.1635324704420486e-05   -1.0662737831392596e-06   2.4573166293458235e-05
1.1635324704420486e-05   -1.0662737831392596e-06   2.4573166293458235e-05
1.1635324704420486e-05   -1.0662737831392596e-06   2.4573166293458235e-05
1.1635324704420486e-05   -1.0662737831392596e-06   2.4573166293458235e-05
-1.3289663871283725e-06   -4.450547763058463e-07   3.338745878310261e-06
-1.3289663871283725e-06   -4.450547763058463e-07   3.338745878310261e-06
-1.3289663871283725e-06   -4.450547763058463e-07   3.338745878310261e-06
-1.3289663871283725e-06   -4.450547763058463e-07   3.338745878310261e-06
-1.8782465272844379e-06   -1.3587868969539788e-06   2.456614021943953e-05
-1.8782465272844379e-06   -1.3587868969539788e-06   2.456614021943953e-05
-1.8782465272844379e-06   -1.3587868969539788e-06   2.456614021943953e-05
-1.8782465272844379e-06   -1.3587868969539788e-06   2.456614021943953e-05
1.1003846122688911e-05   -7.818787292153059e-07   2.749840902174109e-06
1.1003846122688911e-05   -7.818787292153059e-07   2.749840902174109e-06
1.1003846122688911e-05   -7.818787292153059e-07   2.749840902174109e-06
1.1003846122688911e-05   -7.818787292153059e-07   2.749840902174109e-06
4.738513578422219e-06   -8.294256513231499e-07   1.3220589962550857e-05
4.738513578422219e-06   -8.294256513231499e-07   1.3220589962550857e-05
4.738513578422219e-06   -8.294256513231499e-07   1.3220589962550857e-05
4.738513578422219e-06   -8.294256513231499e-07   1.3220589962550857e-05
1.1003846122688894e-05   -1.3587868969539788e-06   2.421999531879637e-05
1.1003846122688894e-05   -1.3587868969539788e-06   2.421999531879637e-05
1.1003846122688894e-05   -1.3587868969539788e-06   2.421999531879637e-05
1.1003846122688894e-05   -1.3587868969539788e-06   2.421999531879637e-05
-1.8782465272844379e-06   -7.818787292153059e-07   3.0959858028173576e-06
-1.8782465272844379e-06   -7.818787292153059e-07   3.0959858028173576e-06
-1.8782465272844379e-06   -7.818787292153059e-07   3.0959858028173576e-06
-1.8782465272844379e-06   -7.818787292153059e-07   3.0959858028173576e-06
-2.4305745187189643e-06   -1.5883892027280556e-06   2.473280594747257e-05
-2.4305745187189643e-06   -1.5883892027280556e-06   2.473280594747257e-05
-2.4305745187189643e-06   -1.5883892027280556e-06   2.473280594747257e-05
-2.4305745187189643e-06   -1.5883892027280556e-06   2.473280594747257e-05
1.0420486904204796e-05   -1.0928148568344152e-06   3.017025635063403e-06
1.0420486904204796e-05   -1.0928148568344152e-06   3.017025635063403e-06
1.0420486904204796e-05   -1.0928148568344152e-06   3.017025635063403e-06
1.0420486904204796e-05   -1.0928148568344152e-06   3.017025635063403e-06
4.278562882556602e-06   -1.0238210830871078e-06   1.321216940689576e-05
4.278562882556602e-06   -1.0238210830871078e-06   1.321216940689576e-05
4.278562882556602e-06   -1.0238210830871078e-06   1.321216940689576e-05
4.278562882556602e-06   -1.0238210830871078e-06   1.321216940689576e-05
-7.912379610844578e-07   2.16950686836412e-06   2.6355529464386655e-05
-7.912379610844578e-07   2.16950686836412e-06   2.6355529464386655e-05
-7.912379610844578e-07   2.16950686836412e-06   2.6355529464386655e-05
-7.912379610844578e-07   2.16950686836412e-06   2.6355529464386655e-05
-1.3516660691342697e-05   2.2349034937128344e-06   5.1857295558321945e-06
-1.3516660691342697e-05   2.2349034937128344e-06   5.1857295558321945e-06
-1.3516660691342697e-05   2.2349034937128344e-06   5.1857295558321945e-06
-1.3516660691342697e-05   2.2349034937128344e-06   5.1857295558321945e-06
-1.4057558035690524e-05   1.8418722504099597e-06   2.6275873652689772e-05
-1.4057558035690524e-05   1.8418722504099597e-06   2.6275873652689772e-05
-1.4057558035690524e-05   1.8418722504099597e-06   2.6275873652689772e-05
-1.4057558035690524e-05   1.8418722504099597e-06   2.6275873652689772e-05
-1.3289663871283725e-06   1.8594394030934432e-06   5.051013946809341e-06
-1.3289663871283725e-06   1.8594394030934432e-06   5.051013946809341e-06
-1.3289663871283725e-06   1.8594394030934432e-06   5.051013946809341e-06
-1.3289663871283725e-06   1.8594394030934432e-06   5.051013946809341e-06
-7.442813008545314e-06   1.990462522300082e-06   1.5162144444313486e-05
-7.442813008545314e-06   1.990462522300082e-06   1.5162144444313486e-05
-7.442813008545314e-06   1.990462522300082e-06   1.5162144444313486e-05
-7.442813008545314e-06   1.990462522300082e-06   1.5162144444313486e-05
-1.3289663871283725e-06   1.8418722504099597e-06   2.626533336107977e-05
-1.3289663871283725e-06   1.8418722504099597e-06   2.626533336107977e-05
-1.3289663871283725e-06   1.8418722504099597e-06   2.626533336107977e-05
-1.3289663871283725e-06   1.8418722504099597e-06   2.626533336107977e-05
-1.4057558035690524e-05   1.8594394030934432e-06   5.061554238419371e-06
-1.4057558035690524e-05   1.8594394030934432e-06   5.061554238419371e-06
-1.4057558035690524e-05   1.8594394030934432e-06   5.061554238419371e-06
-1.4057558035690524e-05   1.8594394030934432e-06   5.061554238419371e-06
-1.4611813493269315e-05   1.5237891474693954e-06   2.6417458488968296e-05
-1.4611813493269315e-05   1.5237891474693954e-06   2.6417458488968296e-05
-1.4611813493269315e-05   1.5237891474693954e-06   2.6417458488968296e-05
-1.4611813493269315e-05   1.5237891474693954e-06   2.6417458488968296e-05
-1.8782465272844379e-06   1.489977041190492e-06   5.215134142760739e-06
-1.8782465272844379e-06   1.489977041190492e-06   5.215134142760739e-06
-1.8782465272844379e-06   1.489977041190492e-06   5.215134142760739e-06
-1.8782465272844379e-06   1.489977041190492e-06   5.215134142760739e-06
-7.944764489412236e-06   1.7384198311067717e-06   1.5176931739024468e-05
-7.944764489412236e-06   1.7384198311067717e-06   1.5176931739024468e-05
-7.944764489412236e-06   1.7384198311067717e-06   1.5176931739024468e-05
-7.944764489412236e-06   1.7384198311067717e-06   1.5176931739024468e-05
-1.8782465272844379e-06   1.5237891474693954e-06   2.6437745752735746e-05
-1.8782465272844379e-06   1.5237891474693954e-06   2.6437745752735746e-05
-1.8782465272844379e-06   1.5237891474693954e-06   2.6437745752735746e-05
-1.8782465272844379e-06   1.5237891474693954e-06   2.6437745752735746e-05
-1.4611813493269315e-05   1.489977041190492e-06   5.194846878993505e-06
-1.4611813493269315e-05   1.489977041190492e-06   5.194846878993505e-06
-1.4611813493269315e-05   1.489977041190492e-06   5.194846878993505e-06
-1.4611813493269315e-05   1.489977041190492e-06   5.194846878993505e-06
-1.5165712026549315e-05   1.2407264669330592e-06   2.6742530636546702e-05
-1.5165712026549315e-05   1.2407264669330592e-06   2.6742530636546702e-05
-1.5165712026549315e-05   1.2407264669330592e-06   2.6742530636546702e-05
-1.5165712026549315e-05   1.2407264669330592e-06   2.6742530636546702e-05
-2.430574518718978e-06   1.1394586435257634e-06   5.578062150873918e-06
-2.430574518718978e-06   1.1394586435257634e-06   5.578062150873918e-06
-2.430574518718978e-06   1.1394586435257634e-06   5.578062150873918e-06
-2.430574518718978e-06   1.1394586435257634e-06   5.578062150873918e-06
-8.470388241398501e-06   1.4929367783823692e-06   1.543233147442637e-05
-8.470388241398501e-06   1.4929367783823692e-06   1.543233147442637e-05
-8.470388241398501e-06   1.4929367783823692e-06   1.543233147442637e-05
-8.470388241398501e-06   1.4929367783823692e-06   1.543233147442637e-05
-1.351666069134267e-05   4.934706635019654e-06   2.3198216656211083e-05
-1.351666069134267e-05   4.934706635019654e-06   2.3198216656211083e-05
-1.351666069134267e-05   4.934706635019654e-06   2.3198216656211083e-05
-1.351666069134267e-05   4.934706635019654e-06   2.3198216656211083e-05
-2.5968771802483705e-05   4.4030013065629765e-06   2.1256749405687775e-06
-2.5968771802483705e-05   4.4030013065629765e-06   2.1256749405687775e-06
-2.5968771802483705e-05   4.4030013065629765e-06   2.1256749405687775e-06
-2.5968771802483705e-05   4.4030013065629765e-06   2.1256749405687775e-06
-2.6551020591055184e-05   4.6228169419874985e-06   2.304922753534628e-05
-2.6551020591055184e-05   4.6228169419874985e-06   2.304922753534628e-05
-2.6551020591055184e-05   4.6228169419874985e-06   2.304922753534628e-05
-2.6551020591055184e-05   4.6228169419874985e-06   2.304922753534628e-05
-1.4057558035690564e-05   4.0442061186390064e-06   2.573956437080892e-06
-1.4057558035690564e-05   4.0442061186390064e-06   2.573956437080892e-06
-1.4057558035690564e-05   4.0442061186390064e-06   2.573956437080892e-06
-1.4057558035690564e-05   4.0442061186390064e-06   2.573956437080892e-06
-1.9957134303341674e-05   4.441531027068232e-06   1.2168188604775199e-05
-1.9957134303341674e-05   4.441531027068232e-06   1.2168188604775199e-05
-1.9957134303341674e-05   4.441531027068232e-06   1.2168188604775199e-05
-1.9957134303341674e-05   4.441531027068232e-06   1.2168188604775199e-05
-1.4057558035690524e-05   4.6228169419874985e-06   2.3396394029355223e-05
-1.4057558035690524e-05   4.6228169419874985e-06   2.3396394029355223e-05
-1.4057558035690524e-05   4.6228169419874985e-06   2.3396394029355223e-05
-1.4057558035690524e-05   4.6228169419874985e-06   2.3396394029355223e-05
-2.6551020591055184e-05   4.0442061186390064e-06   2.226789943071813e-06
-2.6551020591055184e-05   4.0442061186390064e-06   2.226789943071813e-06
-2.6551020591055184e-05   4.0442061186390064e-06   2.226789943071813e-06
-2.6551020591055184e-05   4.0442061186390064e-06   2.226789943071813e-06
-2.719161735186687e-05   4.334449665231634e-06   2.3914262543353474e-05
-2.719161735186687e-05   4.334449665231634e-06   2.3914262543353474e-05
-2.719161735186687e-05   4.334449665231634e-06   2.3914262543353474e-05
-2.719161735186687e-05   4.334449665231634e-06   2.3914262543353474e-05
-1.4611813493269356e-05   3.7091661634267286e-06   3.3230928801072327e-06
-1.4611813493269356e-05   3.7091661634267286e-06   3.3230928801072327e-06
-1.4611813493269356e-05   3.7091661634267286e-06   3.3230928801072327e-06
-1.4611813493269356e-05   3.7091661634267286e-06   3.3230928801072327e-06
-2.0373526109351264e-05   4.212797108532574e-06   1.2623768673180789e-05
-2.0373526109351264e-05   4.212797108532574e-06   1.2623768673180789e-05
-2.0373526109351264e-05   4.212797108532574e-06   1.2623768673180789e-05
-2.0373526109351264e-05   4.212797108532574e-06   1.2623768673180789e-05
-1.4611813493269329e-05   4.334449665231634e-06   2.4289432644436374e-05
-1.4611813493269329e-05   4.334449665231634e-06   2.4289432644436374e-05
-1.4611813493269329e-05   4.334449665231634e-06   2.4289432644436374e-05
-1.4611813493269329e-05   4.334449665231634e-06   2.4289432644436374e-05
-2.719161735186687e-05   3.7091661634267286e-06   2.9479227790243055e-06
-2.719161735186687e-05   3.7091661634267286e-06   2.9479227790243055e-06
-2.719161735186687e-05   3.7091661634267286e-06   2.9479227790243055e-06
-2.719161735186687e-05   3.7091661634267286e-06   2.9479227790243055e-06
-2.7776914283912034e-05   3.98152386506148e-06   2.4561701215604012e-05
-2.7776914283912034e-05   3.98152386506148e-06   2.4561701215604012e-05
-2.7776914283912034e-05   3.98152386506148e-06   2.4561701215604012e-05
-2.7776914283912034e-05   3.98152386506148e-06   2.4561701215604012e-05
-1.5165712026549356e-05   3.3183372237185517e-06   3.940942771472021e-06
-1.5165712026549356e-05   3.3183372237185517e-06   3.940942771472021e-06
-1.5165712026549356e-05   3.3183372237185517e-06   3.940942771472021e-06
-1.5165712026549356e-05   3.3183372237185517e-06   3.940942771472021e-06
-2.1039240330553682e-05   3.95397846879547e-06   1.3348771864434071e-05
-2.1039240330553682e-05   3.95397846879547e-06   1.3348771864434071e-05
-2.1039240330553682e-05   3.95397846879547e-06   1.3348771864434071e-05
-2.1039240330553682e-05   3.95397846879547e-06   1.3348771864434071e-05
-2.5968771802483705e-05   7.11430040618204e-06   1.1229931106051605e-05
-2.5968771802483705e-05   7.11430040618204e-06   1.1229931106051605e-05
-2.5968771802483705e-05   7.11430040618204e-06   1.1229931106051605e-05
-2.5968771802483705e-05   7.11430040618204e-06   1.1229931106051605e-05
-3.781109467362466e-05   6.0776028896552484e-06   -9.12929218909917e-06
-3.781109467362466e-05   6.0776028896552484e-06   -9.12929218909917e-06
-3.781109467362466e-05   6.0776028896552484e-06   -9.12929218909917e-06
-3.781109467362466e-05   6.0776028896552484e-06   -9.12929218909917e-06
-3.885836948123631e-05   7.192809944153462e-06   1.4943383922672417e-05
-3.885836948123631e-05   7.192809944153462e-06   1.4943383922672417e-05
-3.885836948123631e-05   7.192809944153462e-06   1.4943383922672417e-05
-3.885836948123631e-05   7.192809944153462e-06   1.4943383922672417e-05
-2.6551020591055184e-05   6.050018444353315e-06   -4.883189327749401e-06
-2.6551020591055184e-05   6.050018444353315e-06   -4.883189327749401e-06
-2.6551020591055184e-05   6.050018444353315e-06   -4.883189327749401e-06
-2.6551020591055184e-05   6.050018444353315e-06   -4.883189327749401e-06
-3.106813621191525e-05   6.510781328060563e-06   2.3688789767930315e-06
-3.106813621191525e-05   6.510781328060563e-06   2.3688789767930315e-06
-3.106813621191525e-05   6.510781328060563e-06   2.3688789767930315e-06
-3.106813621191525e-05   6.510781328060563e-06   2.3688789767930315e-06
-2.6551020591055157e-05   7.1928099441536785e-06   1.56290588225527e-05
-2.6551020591055157e-05   7.1928099441536785e-06   1.56290588225527e-05
-2.6551020591055157e-05   7.1928099441536785e-06   1.56290588225527e-05
-2.6551020591055157e-05   7.1928099441536785e-06   1.56290588225527e-05
-3.885836948123639e-05   6.050018444353315e-06   -5.568864227629522e-06
-3.885836948123639e-05   6.050018444353315e-06   -5.568864227629522e-06
-3.885836948123639e-05   6.050018444353315e-06   -5.568864227629522e-06
-3.885836948123639e-05   6.050018444353315e-06   -5.568864227629522e-06
-3.9795242932334426e-05   7.11449972711181e-06   1.7936086623989963e-05
-3.9795242932334426e-05   7.11449972711181e-06   1.7936086623989963e-05
-3.9795242932334426e-05   7.11449972711181e-06   1.7936086623989963e-05
-3.9795242932334426e-05   7.11449972711181e-06   1.7936086623989963e-05
-2.719161735186687e-05   5.927662959132225e-06   -2.357853949334725e-06
-2.719161735186687e-05   5.927662959132225e-06   -2.357853949334725e-06
-2.719161735186687e-05   5.927662959132225e-06   -2.357853949334725e-06
-2.719161735186687e-05   5.927662959132225e-06   -2.357853949334725e-06
-3.22758417210019e-05   6.583705668240314e-06   5.722227707093304e-06
-3.22758417210019e-05   6.583705668240314e-06   5.722227707093304e-06
-3.22758417210019e-05   6.583705668240314e-06   5.722227707093304e-06
-3.22758417210019e-05   6.583705668240314e-06   5.722227707093304e-06
-2.719161735186687e-05   7.114499727112027e-06   1.8648188684778104e-05
-2.719161735186687e-05   7.114499727112027e-06   1.8648188684778104e-05
-2.719161735186687e-05   7.114499727112027e-06   1.8648188684778104e-05
-2.719161735186687e-05   7.114499727112027e-06   1.8648188684778104e-05
-3.979524293233448e-05   5.927662959132225e-06   -3.069956010122595e-06
-3.979524293233448e-05   5.927662959132225e-06   -3.069956010122595e-06
-3.979524293233448e-05   5.927662959132225e-06   -3.069956010122595e-06
-3.979524293233448e-05   5.927662959132225e-06   -3.069956010122595e-06
-4.0870984688577076e-05   6.568088575728331e-06   2.3081395718775556e-05
-4.0870984688577076e-05   6.568088575728331e-06   2.3081395718775556e-05
-4.0870984688577076e-05   6.568088575728331e-06   2.3081395718775556e-05
-4.0870984688577076e-05   6.568088575728331e-06   2.3081395718775556e-05
-2.7776914283912034e-05   5.385691217146566e-06   1.9673834594828793e-06
-2.7776914283912034e-05   5.385691217146566e-06   1.9673834594828793e-06
-2.7776914283912034e-05   5.385691217146566e-06   1.9673834594828793e-06
-2.7776914283912034e-05   5.385691217146566e-06   1.9673834594828793e-06
-3.252761542911625e-05   6.358728926680879e-06   9.301396075769971e-06
-3.252761542911625e-05   6.358728926680879e-06   9.301396075769971e-06
-3.252761542911625e-05   6.358728926680879e-06   9.301396075769971e-06
-3.252761542911625e-05   6.358728926680879e-06   9.301396075769971e-06
1.7944603241234227e-05   -2.324249677532718e-06   1.7919804948588174e-05
1.7944603241234227e-05   -2.324249677532718e-06   1.7919804948588174e-05
1.7944603241234227e-05   -2.324249677532718e-06   1.7919804948588174e-05
1.7944603241234227e-05   -2.324249677532718e-06   1.7919804948588174e-05
7.450321109244244e-06   -1.1525962473975162e-06   1.1323267866860786e-06
7.450321109244244e-06   -1.1525962473975162e-06   1.1323267866860786e-06
7.450321109244244e-06   -1.1525962473975162e-06   1.1323267866860786e-06
7.450321109244244e-06   -1.1525962473975162e-06   1.1323267866860786e-06
6.989644670310099e-06   -2.817688288009497e-06   1.6103372657358698e-05
6.989644670310099e-06   -2.817688288009497e-06   1.6103372657358698e-05
6.989644670310099e-06   -2.817688288009497e-06   1.6103372657358698e-05
6.989644670310099e-06   -2.817688288009497e-06   1.6103372657358698e-05
1.6962868712030958e-05   -1.5950346485072223e-06   -1.2522595958773541e-06
1.6962868712030958e-05   -1.5950346485072223e-06   -1.2522595958773541e-06
1.6962868712030958e-05   -1.5950346485072223e-06   -1.2522595958773541e-06
1.6962868712030958e-05   -1.5950346485072223e-06   -1.2522595958773541e-06
1.1723532256354177e-05   -2.019130060411682e-06   7.734425077393604e-06
1.1723532256354177e-05   -2.019130060411682e-06   7.734425077393604e-06
1.1723532256354177e-05   -2.019130060411682e-06   7.734425077393604e-06
1.1723532256354177e-05   -2.019130060411682e-06   7.734425077393604e-06
1.6962868712030992e-05   -2.817688288009497e-06   1.5369780473657377e-05
1.6962868712030992e-05   -2.817688288009497e-06   1.5369780473657377e-05
1.6962868712030992e-05   -2.817688288009497e-06   1.5369780473657377e-05
1.6962868712030992e-05   -2.817688288009497e-06   1.5369780473657377e-05
6.9896446703100755e-06   -1.5950346485072223e-06   -5.18667412176114e-07
6.9896446703100755e-06   -1.5950346485072223e-06   -5.18667412176114e-07
6.9896446703100755e-06   -1.5950346485072223e-06   -5.18667412176114e-07
6.9896446703100755e-06   -1.5950346485072223e-06   -5.18667412176114e-07
6.471687892448383e-06   -2.94901608488031e-06   1.4755553692717086e-05
6.471687892448383e-06   -2.94901608488031e-06   1.4755553692717086e-05
6.471687892448383e-06   -2.94901608488031e-06   1.4755553692717086e-05
6.471687892448383e-06   -2.94901608488031e-06   1.4755553692717086e-05
1.611955263522223e-05   -1.746774798796905e-06   -2.0455656502226367e-06
1.611955263522223e-05   -1.746774798796905e-06   -2.0455656502226367e-06
1.611955263522223e-05   -1.746774798796905e-06   -2.0455656502226367e-06
1.611955263522223e-05   -1.746774798796905e-06   -2.0455656502226367e-06
1.1289522969750841e-05   -2.2069985803141803e-06   6.280618061140571e-06
1.1289522969750841e-05   -2.2069985803141803e-06   6.280618061140571e-06
1.1289522969750841e-05   -2.2069985803141803e-06   6.280618061140571e-06
1.1289522969750841e-05   -2.2069985803141803e-06   6.280618061140571e-06
1.6119552635222265e-05   -2.94901608488031e-06   1.4034208921067087e-05
1.6119552635222265e-05   -2.94901608488031e-06   1.4034208921067087e-05
1.6119552635222265e-05   -2.94901608488031e-06   1.4034208921067087e-05
1.6119552635222265e-05   -2.94901608488031e-06   1.4034208921067087e-05
6.471687892448373e-06   -1.746774798796905e-06   -1.3242208785726236e-06
6.471687892448373e-06   -1.746774798796905e-06   -1.3242208785726236e-06
6.471687892448373e-06   -1.746774798796905e-06   -1.3242208785726236e-06
6.471687892448373e-06   -1.746774798796905e-06   -1.3242208785726236e-06
6.0071606470060825e-06   -3.0694586017391244e-06   1.3001190572153659e-05
6.0071606470060825e-06   -3.0694586017391244e-06   1.3001190572153659e-05
6.0071606470060825e-06   -3.0694586017391244e-06   1.3001190572153659e-05
6.0071606470060825e-06   -3.0694586017391244e-06   1.3001190572153659e-05
1.5162095275486781e-05   -1.945535459822907e-06   -2.9313876937972483e-06
1.5162095275486781e-05   -1.945535459822907e-06   -2.9313876937972483e-06
1.5162095275486781e-05   -1.945535459822907e-06   -2.9313876937972483e-06
1.5162095275486781e-05   -1.945535459822907e-06   -2.9313876937972483e-06
1.0477448425001826e-05   -2.2425631448701015e-06   5.054573668039175e-06
1.0477448425001826e-05   -2.2425631448701015e-06   5.054573668039175e-06
1.0477448425001826e-05   -2.2425631448701015e-06   5.054573668039175e-06
1.0477448425001826e-05   -2.2425631448701015e-06   5.054573668039175e-06
7.4503211092442715e-06   -1.6712183118069643e-08   2.2096599633102815e-05
7.4503211092442715e-06   -1.6712183118069643e-08   2.2096599633102815e-05
7.4503211092442715e-06   -1.6712183118069643e-08   2.2096599633102815e-05
7.4503211092442715e-06   -1.6712183118069643e-08   2.2096599633102815e-05
-2.39228279201184e-06   5.79673889437209e-07   6.050091441209163e-06
-2.39228279201184e-06   5.79673889437209e-07   6.050091441209163e-06
-2.39228279201184e-06   5.79673889437209e-07   6.050091441209163e-06
-2.39228279201184e-06   5.79673889437209e-07   6.050091441209163e-06
-2.815820505156825e-06   -4.450547763058463e-07   2.21370583585453e-05
-2.815820505156825e-06   -4.450547763058463e-07   2.21370583585453e-05
-2.815820505156825e-06   -4.450547763058463e-07   2.21370583585453e-05
-2.815820505156825e-06   -4.450547763058463e-07   2.21370583585453e-05
6.9896446703100755e-06   1.3277397863586601e-07   5.447919146468752e-06
6.9896446703100755e-06   1.3277397863586601e-07   5.447919146468752e-06
6.9896446703100755e-06   1.3277397863586601e-07   5.447919146468752e-06
6.9896446703100755e-06   1.3277397863586601e-07   5.447919146468752e-06
2.237614349162155e-06   2.4043105050722963e-08   1.3433208205866859e-05
2.237614349162155e-06   2.4043105050722963e-08   1.3433208205866859e-05
2.237614349162155e-06   2.4043105050722963e-08   1.3433208205866859e-05
2.237614349162155e-06   2.4043105050722963e-08   1.3433208205866859e-05
6.989644670310092e-06   -4.450547763058463e-07   2.179036110558038e-05
6.989644670310092e-06   -4.450547763058463e-07   2.179036110558038e-05
6.989644670310092e-06   -4.450547763058463e-07   2.179036110558038e-05
6.989644670310092e-06   -4.450547763058463e-07   2.179036110558038e-05
-2.8158205051568387e-06   1.3277397863586601e-07   5.7946163994339285e-06
-2.8158205051568387e-06   1.3277397863586601e-07   5.7946163994339285e-06
-2.8158205051568387e-06   1.3277397863586601e-07   5.7946163994339285e-06
-2.8158205051568387e-06   1.3277397863586601e-07   5.7946163994339285e-06
-3.248980127636665e-06   -7.818787292153059e-07   2.1868477263999563e-05
-3.248980127636665e-06   -7.818787292153059e-07   2.1868477263999563e-05
-3.248980127636665e-06   -7.818787292153059e-07   2.1868477263999563e-05
-3.248980127636665e-06   -7.818787292153059e-07   2.1868477263999563e-05
6.471687892448373e-06   -2.3214820817334808e-07   5.337525584566151e-06
6.471687892448373e-06   -2.3214820817334808e-07   5.337525584566151e-06
6.471687892448373e-06   -2.3214820817334808e-07   5.337525584566151e-06
6.471687892448373e-06   -2.3214820817334808e-07   5.337525584566151e-06
1.7714059819786704e-06   -2.7357470586001145e-07   1.3196184667295168e-05
1.7714059819786704e-06   -2.7357470586001145e-07   1.3196184667295168e-05
1.7714059819786704e-06   -2.7357470586001145e-07   1.3196184667295168e-05
1.7714059819786704e-06   -2.7357470586001145e-07   1.3196184667295168e-05
6.471687892448396e-06   -7.818787292153059e-07   2.1538638951374648e-05
6.471687892448396e-06   -7.818787292153059e-07   2.1538638951374648e-05
6.471687892448396e-06   -7.818787292153059e-07   2.1538638951374648e-05
6.471687892448396e-06   -7.818787292153059e-07   2.1538638951374648e-05
-3.2489801276366784e-06   -2.3214820817356492e-07   5.667363897191241e-06
-3.2489801276366784e-06   -2.3214820817356492e-07   5.667363897191241e-06
-3.2489801276366784e-06   -2.3214820817356492e-07   5.667363897191241e-06
-3.2489801276366784e-06   -2.3214820817356492e-07   5.667363897191241e-06
-3.6785941182308096e-06   -1.0928148568344152e-06   2.206332324488768e-05
-3.6785941182308096e-06   -1.0928148568344152e-06   2.206332324488768e-05
-3.6785941182308096e-06   -1.0928148568344152e-06   2.206332324488768e-05
-3.6785941182308096e-06   -1.0928148568344152e-06   2.206332324488768e-05
6.007160647006059e-06   -5.907964456442101e-07   5.619187589445674e-06
6.007160647006059e-06   -5.907964456442101e-07   5.619187589445674e-06
6.007160647006059e-06   -5.907964456442101e-07   5.619187589445674e-06
6.007160647006059e-06   -5.907964456442101e-07   5.619187589445674e-06
1.4039895812052096e-06   -5.207840320315196e-07   1.3249131917612692e-05
1.4039895812052096e-06   -5.207840320315196e-07   1.3249131917612692e-05
1.4039895812052096e-06   -5.207840320315196e-07   1.3249131917612692e-05
1.4039895812052096e-06   -5.207840320315196e-07   1.3249131917612692e-05
-2.39228279201184e-06   2.2349034937128344e-06   2.3967911066562317e-05
-2.39228279201184e-06   2.2349034937128344e-06   2.3967911066562317e-05
-2.39228279201184e-06   2.2349034937128344e-06   2.3967911066562317e-05
-2.39228279201184e-06   2.2349034937128344e-06   2.3967911066562317e-05
-1.207082681601058e-05   2.201932369892733e-06   7.817221685605768e-06
-1.207082681601058e-05   2.201932369892733e-06   7.817221685605768e-06
-1.207082681601058e-05   2.201932369892733e-06   7.817221685605768e-06
-1.207082681601058e-05   2.201932369892733e-06   7.817221685605768e-06
-1.2488949406464829e-05   1.8594394030934432e-06   2.3811673515463662e-05
-1.2488949406464829e-05   1.8594394030934432e-06   2.3811673515463662e-05
-1.2488949406464829e-05   1.8594394030934432e-06   2.3811673515463662e-05
-1.2488949406464829e-05   1.8594394030934432e-06   2.3811673515463662e-05
-2.815820505156825e-06   1.796684550458942e-06   7.727444924864437e-06
-2.815820505156825e-06   1.796684550458942e-06   7.727444924864437e-06
-2.815820505156825e-06   1.796684550458942e-06   7.727444924864437e-06
-2.815820505156825e-06   1.796684550458942e-06   7.727444924864437e-06
-7.460615568548127e-06   1.9725275705708215e-06   1.5363264218449862e-05
-7.460615568548127e-06   1.9725275705708215e-06   1.5363264218449862e-05
-7.460615568548127e-06   1.9725275705708215e-06   1.5363264218449862e-05
-7.460615568548127e-06   1.9725275705708215e-06   1.5363264218449862e-05
-2.815820505156825e-06   1.8594394030934432e-06   2.3849326427044406e-05
-2.815820505156825e-06   1.8594394030934432e-06   2.3849326427044406e-05
-2.815820505156825e-06   1.8594394030934432e-06   2.3849326427044406e-05
-2.815820505156825e-06   1.8594394030934432e-06   2.3849326427044406e-05
-1.2488949406464829e-05   1.796684550458942e-06   7.689792013283693e-06
-1.2488949406464829e-05   1.796684550458942e-06   7.689792013283693e-06
-1.2488949406464829e-05   1.796684550458942e-06   7.689792013283693e-06
-1.2488949406464829e-05   1.796684550458942e-06   7.689792013283693e-06
-1.2917020825046072e-05   1.489977041190492e-06   2.393130665480608e-05
-1.2917020825046072e-05   1.489977041190492e-06   2.393130665480608e-05
-1.2917020825046072e-05   1.489977041190492e-06   2.393130665480608e-05
-1.2917020825046072e-05   1.489977041190492e-06   2.393130665480608e-05
-3.248980127636665e-06   1.3961121259620235e-06   7.874224441594188e-06
-3.248980127636665e-06   1.3961121259620235e-06   7.874224441594188e-06
-3.248980127636665e-06   1.3961121259620235e-06   7.874224441594188e-06
-3.248980127636665e-06   1.3961121259620235e-06   7.874224441594188e-06
-7.843282873026204e-06   1.6787534339571166e-06   1.536181089911335e-05
-7.843282873026204e-06   1.6787534339571166e-06   1.536181089911335e-05
-7.843282873026204e-06   1.6787534339571166e-06   1.536181089911335e-05
-7.843282873026204e-06   1.6787534339571166e-06   1.536181089911335e-05
-3.2489801276366784e-06   1.489977041190492e-06   2.398762560394316e-05
-3.2489801276366784e-06   1.489977041190492e-06   2.398762560394316e-05
-3.2489801276366784e-06   1.489977041190492e-06   2.398762560394316e-05
-3.2489801276366784e-06   1.489977041190492e-06   2.398762560394316e-05
-1.2917020825046072e-05   1.3961121259620235e-06   7.81790549245708e-06
-1.2917020825046072e-05   1.3961121259620235e-06   7.81790549245708e-06
-1.2917020825046072e-05   1.3961121259620235e-06   7.81790549245708e-06
-1.2917020825046072e-05   1.3961121259620235e-06   7.81790549245708e-06
-1.3340001741312177e-05   1.1394586435257634e-06   2.424969423173867e-05
-1.3340001741312177e-05   1.1394586435257634e-06   2.424969423173867e-05
-1.3340001741312177e-05   1.1394586435257634e-06   2.424969423173867e-05
-1.3340001741312177e-05   1.1394586435257634e-06   2.424969423173867e-05
-3.6785941182308096e-06   1.0105904411535083e-06   8.224669114693077e-06
-3.6785941182308096e-06   1.0105904411535083e-06   8.224669114693077e-06
-3.6785941182308096e-06   1.0105904411535083e-06   8.224669114693077e-06
-3.6785941182308096e-06   1.0105904411535083e-06   8.224669114693077e-06
-8.243685169878762e-06   1.3919812416440368e-06   1.5604319720478508e-05
-8.243685169878762e-06   1.3919812416440368e-06   1.5604319720478508e-05
-8.243685169878762e-06   1.3919812416440368e-06   1.5604319720478508e-05
-8.243685169878762e-06   1.3919812416440368e-06   1.5604319720478508e-05
-1.207082681601058e-05   4.4030013065629765e-06   2.1207096974080976e-05
-1.207082681601058e-05   4.4030013065629765e-06   2.1207096974080976e-05
-1.207082681601058e-05   4.4030013065629765e-06   2.1207096974080976e-05
-1.207082681601058e-05   4.4030013065629765e-06   2.1207096974080976e-05
-2.159227486144382e-05   3.7807753780609056e-06   4.964681341257599e-06
-2.159227486144382e-05   3.7807753780609056e-06   4.964681341257599e-06
-2.159227486144382e-05   3.7807753780609056e-06   4.964681341257599e-06
-2.159227486144382e-05   3.7807753780609056e-06   4.964681341257599e-06
-2.2041100414009967e-05   4.0442061186390064e-06   2.0928838469355714e-05
-2.2041100414009967e-05   4.0442061186390064e-06   2.0928838469355714e-05
-2.2041100414009967e-05   4.0442061186390064e-06   2.0928838469355714e-05
-2.2041100414009967e-05   4.0442061186390064e-06   2.0928838469355714e-05
-1.2488949406464802e-05   3.385477377356892e-06   5.403824034883232e-06
-1.2488949406464802e-05   3.385477377356892e-06   5.403824034883232e-06
-1.2488949406464802e-05   3.385477377356892e-06   5.403824034883232e-06
-1.2488949406464802e-05   3.385477377356892e-06   5.403824034883232e-06
-1.6999932999264806e-05   3.836081026037559e-06   1.2651767833675247e-05
-1.6999932999264806e-05   3.836081026037559e-06   1.2651767833675247e-05
-1.6999932999264806e-05   3.836081026037559e-06   1.2651767833675247e-05
-1.6999932999264806e-05   3.836081026037559e-06   1.2651767833675247e-05
-1.2488949406464829e-05   4.0442061186390064e-06   2.1324075714125156e-05
-1.2488949406464829e-05   4.0442061186390064e-06   2.1324075714125156e-05
-1.2488949406464829e-05   4.0442061186390064e-06   2.1324075714125156e-05
-1.2488949406464829e-05   4.0442061186390064e-06   2.1324075714125156e-05
-2.2041100414009913e-05   3.385477377356675e-06   5.0085867901139254e-06
-2.2041100414009913e-05   3.385477377356675e-06   5.0085867901139254e-06
-2.2041100414009913e-05   3.385477377356675e-06   5.0085867901139254e-06
-2.2041100414009913e-05   3.385477377356675e-06   5.0085867901139254e-06
-2.2545932265601395e-05   3.7091661634267286e-06   2.1645508021898244e-05
-2.2545932265601395e-05   3.7091661634267286e-06   2.1645508021898244e-05
-2.2545932265601395e-05   3.7091661634267286e-06   2.1645508021898244e-05
-2.2545932265601395e-05   3.7091661634267286e-06   2.1645508021898244e-05
-1.2917020825046045e-05   3.0190917733904747e-06   6.0113669216610714e-06
-1.2917020825046045e-05   3.0190917733904747e-06   6.0113669216610714e-06
-1.2917020825046045e-05   3.0190917733904747e-06   6.0113669216610714e-06
-1.2917020825046045e-05   3.0190917733904747e-06   6.0113669216610714e-06
-1.7309549903222126e-05   3.567071584147357e-06   1.3003460832167603e-05
-1.7309549903222126e-05   3.567071584147357e-06   1.3003460832167603e-05
-1.7309549903222126e-05   3.567071584147357e-06   1.3003460832167603e-05
-1.7309549903222126e-05   3.567071584147357e-06   1.3003460832167603e-05
-1.29170208250461e-05   3.7091661634267286e-06   2.205955265591978e-05
-1.29170208250461e-05   3.7091661634267286e-06   2.205955265591978e-05
-1.29170208250461e-05   3.7091661634267286e-06   2.205955265591978e-05
-1.29170208250461e-05   3.7091661634267286e-06   2.205955265591978e-05
-2.2545932265601368e-05   3.0190917733906916e-06   5.597322287639482e-06
-2.2545932265601368e-05   3.0190917733906916e-06   5.597322287639482e-06
-2.2545932265601368e-05   3.0190917733906916e-06   5.597322287639482e-06
-2.2545932265601368e-05   3.0190917733906916e-06   5.597322287639482e-06
-2.2994312873188922e-05   3.3183372237185517e-06   2.2247679877117474e-05
-2.2994312873188922e-05   3.3183372237185517e-06   2.2247679877117474e-05
-2.2994312873188922e-05   3.3183372237185517e-06   2.2247679877117474e-05
-2.2994312873188922e-05   3.3183372237185517e-06   2.2247679877117474e-05
-1.3340001741312123e-05   2.608911108278964e-06   6.582816993253444e-06
-1.3340001741312123e-05   2.608911108278964e-06   6.582816993253444e-06
-1.3340001741312123e-05   2.608911108278964e-06   6.582816993253444e-06
-1.3340001741312123e-05   2.608911108278964e-06   6.582816993253444e-06
-1.7816242490463087e-05   3.283234492753098e-06   1.3638624211154127e-05
-1.7816242490463087e-05   3.283234492753098e-06   1.3638624211154127e-05
-1.7816242490463087e-05   3.283234492753098e-06   1.3638624211154127e-05
-1.7816242490463087e-05   3.283234492753098e-06   1.3638624211154127e-05
-2.159227486144382e-05   6.0776028896552484e-06   1.0200812797227666e-05
-2.159227486144382e-05   6.0776028896552484e-06   1.0200812797227666e-05
-2.159227486144382e-05   6.0776028896552484e-06   1.0200812797227666e-05
-2.159227486144382e-05   6.0776028896552484e-06   1.0200812797227666e-05
-3.0536388169405426e-05   4.96823934988881e-06   -5.371660839901572e-06
-3.0536388169405426e-05   4.96823934988881e-06   -5.371660839901572e-06
-3.0536388169405426e-05   4.96823934988881e-06   -5.371660839901572e-06
-3.0536388169405426e-05   4.96823934988881e-06   -5.371660839901572e-06
-3.147599545036368e-05   6.050018444353315e-06   1.3094640263005544e-05
-3.147599545036368e-05   6.050018444353315e-06   1.3094640263005544e-05
-3.147599545036368e-05   6.050018444353315e-06   1.3094640263005544e-05
-3.147599545036368e-05   6.050018444353315e-06   1.3094640263005544e-05
-2.204110041400986e-05   4.8429868851384075e-06   -1.9059658620551741e-06
-2.204110041400986e-05   4.8429868851384075e-06   -1.9059658620551741e-06
-2.204110041400986e-05   4.8429868851384075e-06   -1.9059658620551741e-06
-2.204110041400986e-05   4.8429868851384075e-06   -1.9059658620551741e-06
-2.5421213735479117e-05   5.3838851650845395e-06   3.4030173724263813e-06
-2.5421213735479117e-05   5.3838851650845395e-06   3.4030173724263813e-06
-2.5421213735479117e-05   5.3838851650845395e-06   3.4030173724263813e-06
-2.5421213735479117e-05   5.3838851650845395e-06   3.4030173724263813e-06
-2.204110041400994e-05   6.050018444353315e-06   1.3818859198534445e-05
-2.204110041400994e-05   6.050018444353315e-06   1.3818859198534445e-05
-2.204110041400994e-05   6.050018444353315e-06   1.3818859198534445e-05
-2.204110041400994e-05   6.050018444353315e-06   1.3818859198534445e-05
-3.147599545036373e-05   4.8429868851384075e-06   -2.6301847975840754e-06
-3.147599545036373e-05   4.8429868851384075e-06   -2.6301847975840754e-06
-3.147599545036373e-05   4.8429868851384075e-06   -2.6301847975840754e-06
-3.147599545036373e-05   4.8429868851384075e-06   -2.6301847975840754e-06
-3.229500434914279e-05   5.927662959132225e-06   1.5595649608077158e-05
-3.229500434914279e-05   5.927662959132225e-06   1.5595649608077158e-05
-3.229500434914279e-05   5.927662959132225e-06   1.5595649608077158e-05
-3.229500434914279e-05   5.927662959132225e-06   1.5595649608077158e-05
-2.254593226560134e-05   4.687526816695917e-06   9.127782097019142e-08
-2.254593226560134e-05   4.687526816695917e-06   9.127782097019142e-08
-2.254593226560134e-05   4.687526816695917e-06   9.127782097019142e-08
-2.254593226560134e-05   4.687526816695917e-06   9.127782097019142e-08
-2.6418900686026647e-05   5.388522444280163e-06   6.1256278117960395e-06
-2.6418900686026647e-05   5.388522444280163e-06   6.1256278117960395e-06
-2.6418900686026647e-05   5.388522444280163e-06   6.1256278117960395e-06
-2.6418900686026647e-05   5.388522444280163e-06   6.1256278117960395e-06
-2.2545932265601395e-05   5.927662959132225e-06   1.633973129353905e-05
-2.2545932265601395e-05   5.927662959132225e-06   1.633973129353905e-05
-2.2545932265601395e-05   5.927662959132225e-06   1.633973129353905e-05
-2.2545932265601395e-05   5.927662959132225e-06   1.633973129353905e-05
-3.229500434914279e-05   4.687526816695917e-06   -6.528038644917564e-07
-3.229500434914279e-05   4.687526816695917e-06   -6.528038644917564e-07
-3.229500434914279e-05   4.687526816695917e-06   -6.528038644917564e-07
-3.229500434914279e-05   4.687526816695917e-06   -6.528038644917564e-07
-3.3244370888111356e-05   5.385691217146566e-06   1.9939018382133123e-05
-3.3244370888111356e-05   5.385691217146566e-06   1.9939018382133123e-05
-3.3244370888111356e-05   5.385691217146566e-06   1.9939018382133123e-05
-3.3244370888111356e-05   5.385691217146566e-06   1.9939018382133123e-05
-2.299431287318884e-05   4.164000937478471e-06   3.588602525063107e-06
-2.299431287318884e-05   4.164000937478471e-06   3.588602525063107e-06
-2.299431287318884e-05   4.164000937478471e-06   3.588602525063107e-06
-2.299431287318884e-05   4.164000937478471e-06   3.588602525063107e-06
-2.6636688397849392e-05   5.160351942503933e-06   9.061417796482184e-06
-2.6636688397849392e-05   5.160351942503933e-06   9.061417796482184e-06
-2.6636688397849392e-05   5.160351942503933e-06   9.061417796482184e-06
-2.6636688397849392e-05   5.160351942503933e-06   9.061417796482184e-06
1.0039454104130956e-05   -1.1525962473975162e-06   1.4141633006484102e-05
1.0039454104130956e-05   -1.1525962473975162e-06   1.4141633006484102e-05
1.0039454104130956e-05   -1.1525962473975162e-06   1.4141633006484102e-05
1.0039454104130956e-05   -1.1525962473975162e-06   1.4141633006484102e-05
2.6538616583259753e-06   1.0232772399277994e-08   2.530009675353771e-06
2.6538616583259753e-06   1.0232772399277994e-08   2.530009675353771e-06
2.6538616583259753e-06   1.0232772399277994e-08   2.530009675353771e-06
2.6538616583259753e-06   1.0232772399277994e-08   2.530009675353771e-06
2.3081006114879543e-06   -1.5950346485072223e-06   1.3175256833842315e-05
2.3081006114879543e-06   -1.5950346485072223e-06   1.3175256833842315e-05
2.3081006114879543e-06   -1.5950346485072223e-06   1.3175256833842315e-05
2.3081006114879543e-06   -1.5950346485072223e-06   1.3175256833842315e-05
9.183953147614102e-06   -3.869371454966273e-07   9.906441051591987e-07
9.183953147614102e-06   -3.869371454966273e-07   9.906441051591987e-07
9.183953147614102e-06   -3.869371454966273e-07   9.906441051591987e-07
9.183953147614102e-06   -3.869371454966273e-07   9.906441051591987e-07
5.690714703526014e-06   -8.372882188099895e-07   7.082918822627789e-06
5.690714703526014e-06   -8.372882188099895e-07   7.082918822627789e-06
5.690714703526014e-06   -8.372882188099895e-07   7.082918822627789e-06
5.690714703526014e-06   -8.372882188099895e-07   7.082918822627789e-06
9.183953147614116e-06   -1.5950346485072223e-06   1.2450398332036088e-05
9.183953147614116e-06   -1.5950346485072223e-06   1.2450398332036088e-05
9.183953147614116e-06   -1.5950346485072223e-06   1.2450398332036088e-05
9.183953147614116e-06   -1.5950346485072223e-06   1.2450398332036088e-05
2.3081006114879543e-06   -3.869371454966273e-07   1.7155026069656017e-06
2.3081006114879543e-06   -3.869371454966273e-07   1.7155026069656017e-06
2.3081006114879543e-06   -3.869371454966273e-07   1.7155026069656017e-06
2.3081006114879543e-06   -3.869371454966273e-07   1.7155026069656017e-06
1.9046468880841699e-06   -1.746774798796688e-06   1.2359018330259709e-05
1.9046468880841699e-06   -1.746774798796688e-06   1.2359018330259709e-05
1.9046468880841699e-06   -1.746774798796688e-06   1.2359018330259709e-05
1.9046468880841699e-06   -1.746774798796688e-06   1.2359018330259709e-05
8.459038719427161e-06   -5.573792291803815e-07   7.213946029182888e-07
8.459038719427161e-06   -5.573792291803815e-07   7.213946029182888e-07
8.459038719427161e-06   -5.573792291803815e-07   7.213946029182888e-07
8.459038719427161e-06   -5.573792291803815e-07   7.213946029182888e-07
5.279224334833807e-06   -1.0107333834230743e-06   6.293097736452709e-06
5.279224334833807e-06   -1.0107333834230743e-06   6.293097736452709e-06
5.279224334833807e-06   -1.0107333834230743e-06   6.293097736452709e-06
5.279224334833807e-06   -1.0107333834230743e-06   6.293097736452709e-06
8.459038719427175e-06   -1.746774798796905e-06   1.1645380988489795e-05
8.459038719427175e-06   -1.746774798796905e-06   1.1645380988489795e-05
8.459038719427175e-06   -1.746774798796905e-06   1.1645380988489795e-05
8.459038719427175e-06   -1.746774798796905e-06   1.1645380988489795e-05
1.904646888084163e-06   -5.573792291803815e-07   1.4350319446881487e-06
1.904646888084163e-06   -5.573792291803815e-07   1.4350319446881487e-06
1.904646888084163e-06   -5.573792291803815e-07   1.4350319446881487e-06
1.904646888084163e-06   -5.573792291803815e-07   1.4350319446881487e-06
1.5548298369646733e-06   -1.945535459822907e-06   1.141079528201212e-05
1.5548298369646733e-06   -1.945535459822907e-06   1.141079528201212e-05
1.5548298369646733e-06   -1.945535459822907e-06   1.141079528201212e-05
1.5548298369646733e-06   -1.945535459822907e-06   1.141079528201212e-05
7.609344703165806e-06   -8.397716026865669e-07   6.564788573952665e-07
7.609344703165806e-06   -8.397716026865669e-07   6.564788573952665e-07
7.609344703165806e-06   -8.397716026865669e-07   6.564788573952665e-07
7.609344703165806e-06   -8.397716026865669e-07   6.564788573952665e-07
4.667491119230154e-06   -1.0987455542469694e-06   5.714952534891112e-06
4.667491119230154e-06   -1.0987455542469694e-06   5.714952534891112e-06
4.667491119230154e-06   -1.0987455542469694e-06   5.714952534891112e-06
4.667491119230154e-06   -1.0987455542469694e-06   5.714952534891112e-06
2.6538616583259787e-06   5.796738894369921e-07   1.939926342935203e-05
2.6538616583259787e-06   5.796738894369921e-07   1.939926342935203e-05
2.6538616583259787e-06   5.796738894369921e-07   1.939926342935203e-05
2.6538616583259787e-06   5.796738894369921e-07   1.939926342935203e-05
-4.069898420176095e-06   1.1078445681084572e-06   8.50989903905129e-06
-4.069898420176095e-06   1.1078445681084572e-06   8.50989903905129e-06
-4.069898420176095e-06   1.1078445681084572e-06   8.50989903905129e-06
-4.069898420176095e-06   1.1078445681084572e-06   8.50989903905129e-06
-4.373910675769502e-06   1.3277397863608285e-07   1.94582432781038e-05
-4.373910675769502e-06   1.3277397863608285e-07   1.94582432781038e-05
-4.373910675769502e-06   1.3277397863608285e-07   1.94582432781038e-05
-4.373910675769502e-06   1.3277397863608285e-07   1.94582432781038e-05
2.3081006114879543e-06   6.601071213302358e-07   8.005157913725013e-06
2.3081006114879543e-06   6.601071213302358e-07   8.005157913725013e-06
2.3081006114879543e-06   6.601071213302358e-07   8.005157913725013e-06
2.3081006114879543e-06   6.601071213302358e-07   8.005157913725013e-06
-9.210910987087312e-07   5.750032246278677e-07   1.3438206435408104e-05
-9.210910987087312e-07   5.750032246278677e-07   1.3438206435408104e-05
-9.210910987087312e-07   5.750032246278677e-07   1.3438206435408104e-05
-9.210910987087312e-07   5.750032246278677e-07   1.3438206435408104e-05
2.3081006114879576e-06   1.3277397863586601e-07   1.9141843392487222e-05
2.3081006114879576e-06   1.3277397863586601e-07   1.9141843392487222e-05
2.3081006114879576e-06   1.3277397863586601e-07   1.9141843392487222e-05
2.3081006114879576e-06   1.3277397863586601e-07   1.9141843392487222e-05
-4.373910675769502e-06   6.601071213302358e-07   8.321557799341591e-06
-4.373910675769502e-06   6.601071213302358e-07   8.321557799341591e-06
-4.373910675769502e-06   6.601071213302358e-07   8.321557799341591e-06
-4.373910675769502e-06   6.601071213302358e-07   8.321557799341591e-06
-4.686913643297237e-06   -2.3214820817334808e-07   1.9328919433573427e-05
-4.686913643297237e-06   -2.3214820817334808e-07   1.9328919433573427e-05
-4.686913643297237e-06   -2.3214820817334808e-07   1.9328919433573427e-05
-4.686913643297237e-06   -2.3214820817334808e-07   1.9328919433573427e-05
1.904646888084163e-06   2.814428587846708e-07   8.034830574429612e-06
1.904646888084163e-06   2.814428587846708e-07   8.034830574429612e-06
1.904646888084163e-06   2.814428587846708e-07   8.034830574429612e-06
1.904646888084163e-06   2.814428587846708e-07   8.034830574429612e-06
-1.245934227571743e-06   2.632310074340144e-07   1.3296726211333462e-05
-1.245934227571743e-06   2.632310074340144e-07   1.3296726211333462e-05
-1.245934227571743e-06   2.632310074340144e-07   1.3296726211333462e-05
-1.245934227571743e-06   2.632310074340144e-07   1.3296726211333462e-05
1.9046468880841699e-06   -2.3214820817356492e-07   1.9020764793398442e-05
1.9046468880841699e-06   -2.3214820817356492e-07   1.9020764793398442e-05
1.9046468880841699e-06   -2.3214820817356492e-07   1.9020764793398442e-05
1.9046468880841699e-06   -2.3214820817356492e-07   1.9020764793398442e-05
-4.686913643297237e-06   2.814428587847792e-07   8.34298521460461e-06
-4.686913643297237e-06   2.814428587847792e-07   8.34298521460461e-06
-4.686913643297237e-06   2.814428587847792e-07   8.34298521460461e-06
-4.686913643297237e-06   2.814428587847792e-07   8.34298521460461e-06
-4.995376135011066e-06   -5.907964456442101e-07   1.9578762761365484e-05
-4.995376135011066e-06   -5.907964456442101e-07   1.9578762761365484e-05
-4.995376135011066e-06   -5.907964456442101e-07   1.9578762761365484e-05
-4.995376135011066e-06   -5.907964456442101e-07   1.9578762761365484e-05
1.5548298369646665e-06   -1.045529768771902e-07   8.370006726812554e-06
1.5548298369646665e-06   -1.045529768771902e-07   8.370006726812554e-06
1.5548298369646665e-06   -1.045529768771902e-07   8.370006726812554e-06
1.5548298369646665e-06   -1.045529768771902e-07   8.370006726812554e-06
-1.5204653019429437e-06   -1.5638802270540042e-08   1.3442150120228217e-05
-1.5204653019429437e-06   -1.5638802270540042e-08   1.3442150120228217e-05
-1.5204653019429437e-06   -1.5638802270540042e-08   1.3442150120228217e-05
-1.5204653019429437e-06   -1.5638802270540042e-08   1.3442150120228217e-05
-4.069898420176095e-06   2.201932369892733e-06   2.150307875524351e-05
-4.069898420176095e-06   2.201932369892733e-06   2.150307875524351e-05
-4.069898420176095e-06   2.201932369892733e-06   2.150307875524351e-05
-4.069898420176095e-06   2.201932369892733e-06   2.150307875524351e-05
-1.067662751800375e-05   2.0782231441042985e-06   1.0417638056724459e-05
-1.067662751800375e-05   2.0782231441042985e-06   1.0417638056724459e-05
-1.067662751800375e-05   2.0782231441042985e-06   1.0417638056724459e-05
-1.067662751800375e-05   2.0782231441042985e-06   1.0417638056724459e-05
-1.0968563819363519e-05   1.7966845504587253e-06   2.1312811088228484e-05
-1.0968563819363519e-05   1.7966845504587253e-06   2.1312811088228484e-05
-1.0968563819363519e-05   1.7966845504587253e-06   2.1312811088228484e-05
-1.0968563819363519e-05   1.7966845504587253e-06   2.1312811088228484e-05
-4.373910675769488e-06   1.6662500249489806e-06   1.039998323087792e-05
-4.373910675769488e-06   1.6662500249489806e-06   1.039998323087792e-05
-4.373910675769488e-06   1.6662500249489806e-06   1.039998323087792e-05
-4.373910675769488e-06   1.6662500249489806e-06   1.039998323087792e-05
-7.536523027734218e-06   1.8887851486765628e-06   1.553748274324998e-05
-7.536523027734218e-06   1.8887851486765628e-06   1.553748274324998e-05
-7.536523027734218e-06   1.8887851486765628e-06   1.553748274324998e-05
-7.536523027734218e-06   1.8887851486765628e-06   1.553748274324998e-05
-4.373910675769502e-06   1.796684550458942e-06   2.1391071803534417e-05
-4.373910675769502e-06   1.796684550458942e-06   2.1391071803534417e-05
-4.373910675769502e-06   1.796684550458942e-06   2.1391071803534417e-05
-4.373910675769502e-06   1.796684550458942e-06   2.1391071803534417e-05
-1.0968563819363492e-05   1.6662500249489806e-06   1.0321722515572041e-05
-1.0968563819363492e-05   1.6662500249489806e-06   1.0321722515572041e-05
-1.0968563819363492e-05   1.6662500249489806e-06   1.0321722515572041e-05
-1.0968563819363492e-05   1.6662500249489806e-06   1.0321722515572041e-05
-1.126997934264095e-05   1.3961121259620235e-06   2.1451958811533013e-05
-1.126997934264095e-05   1.3961121259620235e-06   2.1451958811533013e-05
-1.126997934264095e-05   1.3961121259620235e-06   2.1451958811533013e-05
-1.126997934264095e-05   1.3961121259620235e-06   2.1451958811533013e-05
-4.6869136432972234e-06   1.2564101818897996e-06   1.0564003812403642e-05
-4.6869136432972234e-06   1.2564101818897996e-06   1.0564003812403642e-05
-4.6869136432972234e-06   1.2564101818897996e-06   1.0564003812403642e-05
-4.6869136432972234e-06   1.2564101818897996e-06   1.0564003812403642e-05
-7.796263115180669e-06   1.5757989170299413e-06   1.5554619691125163e-05
-7.796263115180669e-06   1.5757989170299413e-06   1.5554619691125163e-05
-7.796263115180669e-06   1.5757989170299413e-06   1.5554619691125163e-05
-7.796263115180669e-06   1.5757989170299413e-06   1.5554619691125163e-05
-4.686913643297237e-06   1.3961121259620235e-06   2.1535779977976347e-05
-4.686913643297237e-06   1.3961121259620235e-06   2.1535779977976347e-05
-4.686913643297237e-06   1.3961121259620235e-06   2.1535779977976347e-05
-4.686913643297237e-06   1.3961121259620235e-06   2.1535779977976347e-05
-1.1269979342640922e-05   1.2564101818896911e-06   1.0480182645960308e-05
-1.1269979342640922e-05   1.2564101818896911e-06   1.0480182645960308e-05
-1.1269979342640922e-05   1.2564101818896911e-06   1.0480182645960308e-05
-1.1269979342640922e-05   1.2564101818896911e-06   1.0480182645960308e-05
-1.1566624185178767e-05   1.0105904411535083e-06   2.179519122191126e-05
-1.1566624185178767e-05   1.0105904411535083e-06   2.179519122191126e-05
-1.1566624185178767e-05   1.0105904411535083e-06   2.179519122191126e-05
-1.1566624185178767e-05   1.0105904411535083e-06   2.179519122191126e-05
-4.995376135011052e-06   8.641870778406833e-07   1.0930953156286407e-05
-4.995376135011052e-06   8.641870778406833e-07   1.0930953156286407e-05
-4.995376135011052e-06   8.641870778406833e-07   1.0930953156286407e-05
-4.995376135011052e-06   8.641870778406833e-07   1.0930953156286407e-05
-8.07264661247831e-06   1.2691875930603662e-06   1.5816736976266782e-05
-8.07264661247831e-06   1.2691875930603662e-06   1.5816736976266782e-05
-8.07264661247831e-06   1.2691875930603662e-06   1.5816736976266782e-05
-8.07264661247831e-06   1.2691875930603662e-06   1.5816736976266782e-05
-1.067662751800375e-05   3.7807753780609056e-06   1.8949648432523697e-05
-1.067662751800375e-05   3.7807753780609056e-06   1.8949648432523697e-05
-1.067662751800375e-05   3.7807753780609056e-06   1.8949648432523697e-05
-1.067662751800375e-05   3.7807753780609056e-06   1.8949648432523697e-05
-1.716751027485249e-05   3.092584723919027e-06   7.71859611195725e-06
-1.716751027485249e-05   3.092584723919027e-06   7.71859611195725e-06
-1.716751027485249e-05   3.092584723919027e-06   7.71859611195725e-06
-1.716751027485249e-05   3.092584723919027e-06   7.71859611195725e-06
-1.7485976648140615e-05   3.385477377356892e-06   1.860204513309035e-05
-1.7485976648140615e-05   3.385477377356892e-06   1.860204513309035e-05
-1.7485976648140615e-05   3.385477377356892e-06   1.860204513309035e-05
-1.7485976648140615e-05   3.385477377356892e-06   1.860204513309035e-05
-1.0968563819363465e-05   2.677480749460723e-06   8.164488395199674e-06
-1.0968563819363465e-05   2.677480749460723e-06   8.164488395199674e-06
-1.0968563819363465e-05   2.677480749460723e-06   8.164488395199674e-06
-1.0968563819363465e-05   2.677480749460723e-06   8.164488395199674e-06
-1.4040622948382651e-05   3.1804593651554858e-06   1.298279977414885e-05
-1.4040622948382651e-05   3.1804593651554858e-06   1.298279977414885e-05
-1.4040622948382651e-05   3.1804593651554858e-06   1.298279977414885e-05
-1.4040622948382651e-05   3.1804593651554858e-06   1.298279977414885e-05
-1.0968563819363519e-05   3.385477377356675e-06   1.902684310982816e-05
-1.0968563819363519e-05   3.385477377356675e-06   1.902684310982816e-05
-1.0968563819363519e-05   3.385477377356675e-06   1.902684310982816e-05
-1.0968563819363519e-05   3.385477377356675e-06   1.902684310982816e-05
-1.7485976648140588e-05   2.677480749460723e-06   7.739690418462136e-06
-1.7485976648140588e-05   2.677480749460723e-06   7.739690418462136e-06
-1.7485976648140588e-05   2.677480749460723e-06   7.739690418462136e-06
-1.7485976648140588e-05   2.677480749460723e-06   7.739690418462136e-06
-1.786281730066497e-05   3.0190917733906916e-06   1.9213709020773862e-05
-1.786281730066497e-05   3.0190917733906916e-06   1.9213709020773862e-05
-1.786281730066497e-05   3.0190917733906916e-06   1.9213709020773862e-05
-1.786281730066497e-05   3.0190917733906916e-06   1.9213709020773862e-05
-1.1269979342640895e-05   2.299573073452285e-06   8.657356977363707e-06
-1.1269979342640895e-05   2.299573073452285e-06   8.657356977363707e-06
-1.1269979342640895e-05   2.299573073452285e-06   8.657356977363707e-06
-1.1269979342640895e-05   2.299573073452285e-06   8.657356977363707e-06
-1.4246179843708352e-05   2.887143066978865e-06   1.3265149149693399e-05
-1.4246179843708352e-05   2.887143066978865e-06   1.3265149149693399e-05
-1.4246179843708352e-05   2.887143066978865e-06   1.3265149149693399e-05
-1.4246179843708352e-05   2.887143066978865e-06   1.3265149149693399e-05
-1.1269979342640922e-05   3.0190917733906916e-06   1.964542024073695e-05
-1.1269979342640922e-05   3.0190917733906916e-06   1.964542024073695e-05
-1.1269979342640922e-05   3.0190917733906916e-06   1.964542024073695e-05
-1.1269979342640922e-05   3.0190917733906916e-06   1.964542024073695e-05
-1.786281730066489e-05   2.299573073452285e-06   8.22564575740062e-06
-1.786281730066489e-05   2.299573073452285e-06   8.22564575740062e-06
-1.786281730066489e-05   2.299573073452285e-06   8.22564575740062e-06
-1.786281730066489e-05   2.299573073452285e-06   8.22564575740062e-06
-1.818579806449672e-05   2.608911108278964e-06   1.9802421472693956e-05
-1.818579806449672e-05   2.608911108278964e-06   1.9802421472693956e-05
-1.818579806449672e-05   2.608911108278964e-06   1.9802421472693956e-05
-1.818579806449672e-05   2.608911108278964e-06   1.9802421472693956e-05
-1.156662418517874e-05   1.895180192943921e-06   9.198703556365215e-06
-1.156662418517874e-05   1.895180192943921e-06   9.198703556365215e-06
-1.156662418517874e-05   1.895180192943921e-06   9.198703556365215e-06
-1.156662418517874e-05   1.895180192943921e-06   9.198703556365215e-06
-1.4601164190575108e-05   2.5928232647062354e-06   1.3837684388969213e-05
-1.4601164190575108e-05   2.5928232647062354e-06   1.3837684388969213e-05
-1.4601164190575108e-05   2.5928232647062354e-06   1.3837684388969213e-05
-1.4601164190575108e-05   2.5928232647062354e-06   1.3837684388969213e-05
-1.7167510274852544e-05   4.96823934988881e-06   8.866009982739197e-06
-1.7167510274852544e-05   4.96823934988881e-06   8.866009982739197e-06
-1.7167510274852544e-05   4.96823934988881e-06   8.866009982739197e-06
-1.7167510274852544e-05   4.96823934988881e-06   8.866009982739197e-06
-2.3037515526940367e-05   3.8131643644870533e-06   -1.6103770953148874e-06
-2.3037515526940367e-05   3.8131643644870533e-06   -1.6103770953148874e-06
-2.3037515526940367e-05   3.8131643644870533e-06   -1.6103770953148874e-06
-2.3037515526940367e-05   3.8131643644870533e-06   -1.6103770953148874e-06
-2.385463433046697e-05   4.8429868851384075e-06   1.094242372564171e-05
-2.385463433046697e-05   4.8429868851384075e-06   1.094242372564171e-05
-2.385463433046697e-05   4.8429868851384075e-06   1.094242372564171e-05
-2.385463433046697e-05   4.8429868851384075e-06   1.094242372564171e-05
-1.748597664814056e-05   3.6012056263394097e-06   1.0730630103774415e-06
-1.748597664814056e-05   3.6012056263394097e-06   1.0730630103774415e-06
-1.748597664814056e-05   3.6012056263394097e-06   1.0730630103774415e-06
-1.748597664814056e-05   3.6012056263394097e-06   1.0730630103774415e-06
-1.9643541746431164e-05   4.22615080263207e-06   4.294037735087038e-06
-1.9643541746431164e-05   4.22615080263207e-06   4.294037735087038e-06
-1.9643541746431164e-05   4.22615080263207e-06   4.294037735087038e-06
-1.9643541746431164e-05   4.22615080263207e-06   4.294037735087038e-06
-1.748597664814056e-05   4.8429868851384075e-06   1.1687492480921195e-05
-1.748597664814056e-05   4.8429868851384075e-06   1.1687492480921195e-05
-1.748597664814056e-05   4.8429868851384075e-06   1.1687492480921195e-05
-1.748597664814056e-05   4.8429868851384075e-06   1.1687492480921195e-05
-2.3854634330467024e-05   3.6012056263394097e-06   3.279942550979832e-07
-2.3854634330467024e-05   3.6012056263394097e-06   3.279942550979832e-07
-2.3854634330467024e-05   3.6012056263394097e-06   3.279942550979832e-07
-2.3854634330467024e-05   3.6012056263394097e-06   3.279942550979832e-07
-2.4557440211934046e-05   4.687526816695917e-06   1.2948993968753047e-05
-2.4557440211934046e-05   4.687526816695917e-06   1.2948993968753047e-05
-2.4557440211934046e-05   4.687526816695917e-06   1.2948993968753047e-05
-2.4557440211934046e-05   4.687526816695917e-06   1.2948993968753047e-05
-1.786281730066489e-05   3.423075841110096e-06   2.549959701989284e-06
-1.786281730066489e-05   3.423075841110096e-06   2.549959701989284e-06
-1.786281730066489e-05   3.423075841110096e-06   2.549959701989284e-06
-1.786281730066489e-05   3.423075841110096e-06   2.549959701989284e-06
-2.042964525808144e-05   4.171888168677355e-06   6.378718901143394e-06
-2.042964525808144e-05   4.171888168677355e-06   6.378718901143394e-06
-2.042964525808144e-05   4.171888168677355e-06   6.378718901143394e-06
-2.042964525808144e-05   4.171888168677355e-06   6.378718901143394e-06
-1.7862817300664944e-05   4.6875268166957e-06   1.370766455410441e-05
-1.7862817300664944e-05   4.6875268166957e-06   1.370766455410441e-05
-1.7862817300664944e-05   4.6875268166957e-06   1.370766455410441e-05
-1.7862817300664944e-05   4.6875268166957e-06   1.370766455410441e-05
-2.4557440211934155e-05   3.423075841110096e-06   1.7912891166379488e-06
-2.4557440211934155e-05   3.423075841110096e-06   1.7912891166379488e-06
-2.4557440211934155e-05   3.423075841110096e-06   1.7912891166379488e-06
-2.4557440211934155e-05   3.423075841110096e-06   1.7912891166379488e-06
-2.539778462059552e-05   4.164000937478688e-06   1.64976010915334e-05
-2.539778462059552e-05   4.164000937478688e-06   1.64976010915334e-05
-2.539778462059552e-05   4.164000937478688e-06   1.64976010915334e-05
-2.539778462059552e-05   4.164000937478688e-06   1.64976010915334e-05
-1.818579806449664e-05   2.936898300421936e-06   5.213885080269335e-06
-1.818579806449664e-05   2.936898300421936e-06   5.213885080269335e-06
-1.818579806449664e-05   2.936898300421936e-06   5.213885080269335e-06
-1.818579806449664e-05   2.936898300421936e-06   5.213885080269335e-06
-2.0622330747313794e-05   3.950793732399212e-06   8.666435625778507e-06
-2.0622330747313794e-05   3.950793732399212e-06   8.666435625778507e-06
-2.0622330747313794e-05   3.950793732399212e-06   8.666435625778507e-06
-2.0622330747313794e-05   3.950793732399212e-06   8.666435625778507e-06
2.1155138051741774e-06   1.0232772399277994e-08   1.0590431630605164e-05
2.1155138051741774e-06   1.0232772399277994e-08   1.0590431630605164e-05
2.1155138051741774e-06   1.0232772399277994e-08   1.0590431630605164e-05
2.1155138051741774e-06   1.0232772399277994e-08   1.0590431630605164e-05
-2.141712916929496e-06   1.129247399571636e-06   4.166462536735801e-06
-2.141712916929496e-06   1.129247399571636e-06   4.166462536735801e-06
-2.141712916929496e-06   1.129247399571636e-06   4.166462536735801e-06
-2.141712916929496e-06   1.129247399571636e-06   4.166462536735801e-06
-2.3881752113617646e-06   -3.869371454966273e-07   1.043256428700449e-05
-2.3881752113617646e-06   -3.869371454966273e-07   1.043256428700449e-05
-2.3881752113617646e-06   -3.869371454966273e-07   1.043256428700449e-05
-2.3881752113617646e-06   -3.869371454966273e-07   1.043256428700449e-05
1.3667314104018758e-06   7.586301200291886e-07   3.4870462247495757e-06
1.3667314104018758e-06   7.586301200291886e-07   3.4870462247495757e-06
1.3667314104018758e-06   7.586301200291886e-07   3.4870462247495757e-06
1.3667314104018758e-06   7.586301200291886e-07   3.4870462247495757e-06
-3.645234025378266e-07   3.1396030335077707e-07   6.639272802989415e-06
-3.645234025378266e-07   3.1396030335077707e-07   6.639272802989415e-06
-3.645234025378266e-07   3.1396030335077707e-07   6.639272802989415e-06
-3.645234025378266e-07   3.1396030335077707e-07   6.639272802989415e-06
1.3667314104018758e-06   -3.869371454966273e-07   9.745223927688914e-06
1.3667314104018758e-06   -3.869371454966273e-07   9.745223927688914e-06
1.3667314104018758e-06   -3.869371454966273e-07   9.745223927688914e-06
1.3667314104018758e-06   -3.869371454966273e-07   9.745223927688914e-06
-2.3881752113617646e-06   7.586301200291886e-07   4.174386584065125e-06
-2.3881752113617646e-06   7.586301200291886e-07   4.174386584065125e-06
-2.3881752113617646e-06   7.586301200291886e-07   4.174386584065125e-06
-2.3881752113617646e-06   7.586301200291886e-07   4.174386584065125e-06
-2.6929006027747873e-06   -5.573792291803815e-07   1.0151346387671277e-05
-2.6929006027747873e-06   -5.573792291803815e-07   1.0151346387671277e-05
-2.6929006027747873e-06   -5.573792291803815e-07   1.0151346387671277e-05
-2.6929006027747873e-06   -5.573792291803815e-07   1.0151346387671277e-05
7.162850463687088e-07   5.557510484484329e-07   3.8014921391881255e-06
7.162850463687088e-07   5.557510484484329e-07   3.8014921391881255e-06
7.162850463687088e-07   5.557510484484329e-07   3.8014921391881255e-06
7.162850463687088e-07   5.557510484484329e-07   3.8014921391881255e-06
-7.674299268102116e-07   1.5612533660162853e-07   6.5141258549277425e-06
-7.674299268102116e-07   1.5612533660162853e-07   6.5141258549277425e-06
-7.674299268102116e-07   1.5612533660162853e-07   6.5141258549277425e-06
-7.674299268102116e-07   1.5612533660162853e-07   6.5141258549277425e-06
7.162850463687088e-07   -5.573792291803815e-07   9.483468221093859e-06
7.162850463687088e-07   -5.573792291803815e-07   9.483468221093859e-06
7.162850463687088e-07   -5.573792291803815e-07   9.483468221093859e-06
7.162850463687088e-07   -5.573792291803815e-07   9.483468221093859e-06
-2.692900602774784e-06   5.557510484484329e-07   4.469370305765327e-06
-2.692900602774784e-06   5.557510484484329e-07   4.469370305765327e-06
-2.692900602774784e-06   5.557510484484329e-07   4.469370305765327e-06
-2.692900602774784e-06   5.557510484484329e-07   4.469370305765327e-06
-2.9480273848125805e-06   -8.397716026865669e-07   1.0039136453065091e-05
-2.9480273848125805e-06   -8.397716026865669e-07   1.0039136453065091e-05
-2.9480273848125805e-06   -8.397716026865669e-07   1.0039136453065091e-05
-2.9480273848125805e-06   -8.397716026865669e-07   1.0039136453065091e-05
-1.0029026606425229e-07   1.2654916519111003e-07   4.713115461091392e-06
-1.0029026606425229e-07   1.2654916519111003e-07   4.713115461091392e-06
-1.0029026606425229e-07   1.2654916519111003e-07   4.713115461091392e-06
-1.0029026606425229e-07   1.2654916519111003e-07   4.713115461091392e-06
-1.2053758456167796e-06   1.310554513934796e-08   6.622990932376565e-06
-1.2053758456167796e-06   1.310554513934796e-08   6.622990932376565e-06
-1.2053758456167796e-06   1.310554513934796e-08   6.622990932376565e-06
-1.2053758456167796e-06   1.310554513934796e-08   6.622990932376565e-06
-2.141712916929496e-06   1.1078445681084572e-06   1.6924827363403458e-05
-2.141712916929496e-06   1.1078445681084572e-06   1.6924827363403458e-05
-2.141712916929496e-06   1.1078445681084572e-06   1.6924827363403458e-05
-2.141712916929496e-06   1.1078445681084572e-06   1.6924827363403458e-05
-5.702825143472532e-06   1.3307827333019096e-06   1.1123403218281066e-05
-5.702825143472532e-06   1.3307827333019096e-06   1.1123403218281066e-05
-5.702825143472532e-06   1.3307827333019096e-06   1.1123403218281066e-05
-5.702825143472532e-06   1.3307827333019096e-06   1.1123403218281066e-05
-5.889253235751783e-06   6.601071213302358e-07   1.687666082952411e-05
-5.889253235751783e-06   6.601071213302358e-07   1.687666082952411e-05
-5.889253235751783e-06   6.601071213302358e-07   1.687666082952411e-05
-5.889253235751783e-06   6.601071213302358e-07   1.687666082952411e-05
-2.3881752113617646e-06   9.175091809305105e-07   1.0887089553113927e-05
-2.3881752113617646e-06   9.175091809305105e-07   1.0887089553113927e-05
-2.3881752113617646e-06   9.175091809305105e-07   1.0887089553113927e-05
-2.3881752113617646e-06   9.175091809305105e-07   1.0887089553113927e-05
-4.055675270705293e-06   9.554820508328107e-07   1.3643472596745082e-05
-4.055675270705293e-06   9.554820508328107e-07   1.3643472596745082e-05
-4.055675270705293e-06   9.554820508328107e-07   1.3643472596745082e-05
-4.055675270705293e-06   9.554820508328107e-07   1.3643472596745082e-05
-2.388175211361768e-06   6.601071213302358e-07   1.6722219593763793e-05
-2.388175211361768e-06   6.601071213302358e-07   1.6722219593763793e-05
-2.388175211361768e-06   6.601071213302358e-07   1.6722219593763793e-05
-2.388175211361768e-06   6.601071213302358e-07   1.6722219593763793e-05
-5.889253235751769e-06   9.175091809305105e-07   1.1041530788874108e-05
-5.889253235751769e-06   9.175091809305105e-07   1.1041530788874108e-05
-5.889253235751769e-06   9.175091809305105e-07   1.1041530788874108e-05
-5.889253235751769e-06   9.175091809305105e-07   1.1041530788874108e-05
-6.0816231875560685e-06   2.814428587847792e-07   1.690449740552821e-05
-6.0816231875560685e-06   2.814428587847792e-07   1.690449740552821e-05
-6.0816231875560685e-06   2.814428587847792e-07   1.690449740552821e-05
-6.0816231875560685e-06   2.814428587847792e-07   1.690449740552821e-05
-2.692900602774784e-06   5.370301723102867e-07   1.1103274042777273e-05
-2.692900602774784e-06   5.370301723102867e-07   1.1103274042777273e-05
-2.692900602774784e-06   5.370301723102867e-07   1.1103274042777273e-05
-2.692900602774784e-06   5.370301723102867e-07   1.1103274042777273e-05
-4.2462015331879935e-06   6.54068537997432e-07   1.3621885907387309e-05
-4.2462015331879935e-06   6.54068537997432e-07   1.3621885907387309e-05
-4.2462015331879935e-06   6.54068537997432e-07   1.3621885907387309e-05
-4.2462015331879935e-06   6.54068537997432e-07   1.3621885907387309e-05
-2.6929006027747873e-06   2.814428587847792e-07   1.6751145017412645e-05
-2.6929006027747873e-06   2.814428587847792e-07   1.6751145017412645e-05
-2.6929006027747873e-06   2.814428587847792e-07   1.6751145017412645e-05
-2.6929006027747873e-06   2.814428587847792e-07   1.6751145017412645e-05
-6.0816231875560685e-06   5.370301723102867e-07   1.1256626430892634e-05
-6.0816231875560685e-06   5.370301723102867e-07   1.1256626430892634e-05
-6.0816231875560685e-06   5.370301723102867e-07   1.1256626430892634e-05
-6.0816231875560685e-06   5.370301723102867e-07   1.1256626430892634e-05
-6.270538421606676e-06   -1.045529768771902e-07   1.722747729609043e-05
-6.270538421606676e-06   -1.045529768771902e-07   1.722747729609043e-05
-6.270538421606676e-06   -1.045529768771902e-07   1.722747729609043e-05
-6.270538421606676e-06   -1.045529768771902e-07   1.722747729609043e-05
-2.948027384812577e-06   1.2589916960597646e-07   1.1551687613543861e-05
-2.948027384812577e-06   1.2589916960597646e-07   1.1551687613543861e-05
-2.948027384812577e-06   1.2589916960597646e-07   1.1551687613543861e-05
-2.948027384812577e-06   1.2589916960597646e-07   1.1551687613543861e-05
-4.436142910967405e-06   3.5878683645373857e-07   1.3892147557026515e-05
-4.436142910967405e-06   3.5878683645373857e-07   1.3892147557026515e-05
-4.436142910967405e-06   3.5878683645373857e-07   1.3892147557026515e-05
-4.436142910967405e-06   3.5878683645373857e-07   1.3892147557026515e-05
-5.702825143472532e-06   2.0782231441042985e-06   1.9040554815665748e-05
-5.702825143472532e-06   2.0782231441042985e-06   1.9040554815665748e-05
-5.702825143472532e-06   2.0782231441042985e-06   1.9040554815665748e-05
-5.702825143472532e-06   2.0782231441042985e-06   1.9040554815665748e-05
-9.246086603956427e-06   1.6025540907452533e-06   1.2849717616176984e-05
-9.246086603956427e-06   1.6025540907452533e-06   1.2849717616176984e-05
-9.246086603956427e-06   1.6025540907452533e-06   1.2849717616176984e-05
-9.246086603956427e-06   1.6025540907452533e-06   1.2849717616176984e-05
-9.404237318198615e-06   1.666250024949089e-06   1.8687561672373304e-05
-9.404237318198615e-06   1.666250024949089e-06   1.8687561672373304e-05
-9.404237318198615e-06   1.666250024949089e-06   1.8687561672373304e-05
-9.404237318198615e-06   1.666250024949089e-06   1.8687561672373304e-05
-5.889253235751769e-06   1.2203757104706746e-06   1.3096779456982368e-05
-5.889253235751769e-06   1.2203757104706746e-06   1.3096779456982368e-05
-5.889253235751769e-06   1.2203757104706746e-06   1.3096779456982368e-05
-5.889253235751769e-06   1.2203757104706746e-06   1.3096779456982368e-05
-7.564785161683165e-06   1.609336550804333e-06   1.565595616266784e-05
-7.564785161683165e-06   1.609336550804333e-06   1.565595616266784e-05
-7.564785161683165e-06   1.609336550804333e-06   1.565595616266784e-05
-7.564785161683165e-06   1.609336550804333e-06   1.565595616266784e-05
-5.889253235751769e-06   1.666250024949089e-06   1.895508626106033e-05
-5.889253235751769e-06   1.666250024949089e-06   1.895508626106033e-05
-5.889253235751769e-06   1.666250024949089e-06   1.895508626106033e-05
-5.889253235751769e-06   1.666250024949089e-06   1.895508626106033e-05
-9.404237318198615e-06   1.2203757104706746e-06   1.2829254868295368e-05
-9.404237318198615e-06   1.2203757104706746e-06   1.2829254868295368e-05
-9.404237318198615e-06   1.2203757104706746e-06   1.2829254868295368e-05
-9.404237318198615e-06   1.2203757104706746e-06   1.2829254868295368e-05
-9.573563809540909e-06   1.2564101818897996e-06   1.8870889860289446e-05
-9.573563809540909e-06   1.2564101818897996e-06   1.8870889860289446e-05
-9.573563809540909e-06   1.2564101818897996e-06   1.8870889860289446e-05
-9.573563809540909e-06   1.2564101818897996e-06   1.8870889860289446e-05
-6.0816231875560685e-06   8.320332768269132e-07   1.3305614966685779e-05
-6.0816231875560685e-06   8.320332768269132e-07   1.3305614966685779e-05
-6.0816231875560685e-06   8.320332768269132e-07   1.3305614966685779e-05
-6.0816231875560685e-06   8.320332768269132e-07   1.3305614966685779e-05
-7.699932906496644e-06   1.3037341690277883e-06   1.5719777296266228e-05
-7.699932906496644e-06   1.3037341690277883e-06   1.5719777296266228e-05
-7.699932906496644e-06   1.3037341690277883e-06   1.5719777296266228e-05
-7.699932906496644e-06   1.3037341690277883e-06   1.5719777296266228e-05
-6.0816231875560685e-06   1.2564101818897996e-06   1.9125516003327134e-05
-6.0816231875560685e-06   1.2564101818897996e-06   1.9125516003327134e-05
-6.0816231875560685e-06   1.2564101818897996e-06   1.9125516003327134e-05
-6.0816231875560685e-06   1.2564101818897996e-06   1.9125516003327134e-05
-9.573563809540882e-06   8.320332768269132e-07   1.3050988823648036e-05
-9.573563809540882e-06   8.320332768269132e-07   1.3050988823648036e-05
-9.573563809540882e-06   8.320332768269132e-07   1.3050988823648036e-05
-9.573563809540882e-06   8.320332768269132e-07   1.3050988823648036e-05
-9.739402894259793e-06   8.641870778406833e-07   1.9256736088468437e-05
-9.739402894259793e-06   8.641870778406833e-07   1.9256736088468437e-05
-9.739402894259793e-06   8.641870778406833e-07   1.9256736088468437e-05
-9.739402894259793e-06   8.641870778406833e-07   1.9256736088468437e-05
-6.270538421606663e-06   4.6428448478115156e-07   1.3715236856548887e-05
-6.270538421606663e-06   4.6428448478115156e-07   1.3715236856548887e-05
-6.270538421606663e-06   4.6428448478115156e-07   1.3715236856548887e-05
-6.270538421606663e-06   4.6428448478115156e-07   1.3715236856548887e-05
-7.850481914560233e-06   1.00289557207272e-06   1.602530935909655e-05
-7.850481914560233e-06   1.00289557207272e-06   1.602530935909655e-05
-7.850481914560233e-06   1.00289557207272e-06   1.602530935909655e-05
-7.850481914560233e-06   1.00289557207272e-06   1.602530935909655e-05
-9.246086603956454e-06   3.0925847239189185e-06   1.6469025831368045e-05
-9.246086603956454e-06   3.0925847239189185e-06   1.6469025831368045e-05
-9.246086603956454e-06   3.0925847239189185e-06   1.6469025831368045e-05
-9.246086603956454e-06   3.0925847239189185e-06   1.6469025831368045e-05
-1.2733686706507049e-05   2.1708304428353893e-06   1.010330642513358e-05
-1.2733686706507049e-05   2.1708304428353893e-06   1.010330642513358e-05
-1.2733686706507049e-05   2.1708304428353893e-06   1.010330642513358e-05
-1.2733686706507049e-05   2.1708304428353893e-06   1.010330642513358e-05
-1.2907584821322246e-05   2.677480749460723e-06   1.5985145528893342e-05
-1.2907584821322246e-05   2.677480749460723e-06   1.5985145528893342e-05
-1.2907584821322246e-05   2.677480749460723e-06   1.5985145528893342e-05
-1.2907584821322246e-05   2.677480749460723e-06   1.5985145528893342e-05
-9.404237318198615e-06   1.7688440442810557e-06   1.069141504679512e-05
-9.404237318198615e-06   1.7688440442810557e-06   1.069141504679512e-05
-9.404237318198615e-06   1.7688440442810557e-06   1.069141504679512e-05
-9.404237318198615e-06   1.7688440442810557e-06   1.069141504679512e-05
-1.104942161391397e-05   2.405648877057149e-06   1.3051305973321692e-05
-1.104942161391397e-05   2.405648877057149e-06   1.3051305973321692e-05
-1.104942161391397e-05   2.405648877057149e-06   1.3051305973321692e-05
-1.104942161391397e-05   2.405648877057149e-06   1.3051305973321692e-05
-9.404237318198615e-06   2.677480749460723e-06   1.6530327552001208e-05
-9.404237318198615e-06   2.677480749460723e-06   1.6530327552001208e-05
-9.404237318198615e-06   2.677480749460723e-06   1.6530327552001208e-05
-9.404237318198615e-06   2.677480749460723e-06   1.6530327552001208e-05
-1.2907584821322192e-05   1.7688440442810557e-06   1.0146233023687308e-05
-1.2907584821322192e-05   1.7688440442810557e-06   1.0146233023687308e-05
-1.2907584821322192e-05   1.7688440442810557e-06   1.0146233023687308e-05
-1.2907584821322192e-05   1.7688440442810557e-06   1.0146233023687308e-05
-1.3147144052728542e-05   2.299573073452285e-06   1.651481808875746e-05
-1.3147144052728542e-05   2.299573073452285e-06   1.651481808875746e-05
-1.3147144052728542e-05   2.299573073452285e-06   1.651481808875746e-05
-1.3147144052728542e-05   2.299573073452285e-06   1.651481808875746e-05
-9.573563809540909e-06   1.4108295685598708e-06   1.1092097119713511e-05
-9.573563809540909e-06   1.4108295685598708e-06   1.1092097119713511e-05
-9.573563809540909e-06   1.4108295685598708e-06   1.1092097119713511e-05
-9.573563809540909e-06   1.4108295685598708e-06   1.1092097119713511e-05
-1.1143892533781175e-05   2.109496381857848e-06   1.3290111572135269e-05
-1.1143892533781175e-05   2.109496381857848e-06   1.3290111572135269e-05
-1.1143892533781175e-05   2.109496381857848e-06   1.3290111572135269e-05
-1.1143892533781175e-05   2.109496381857848e-06   1.3290111572135269e-05
-9.573563809540909e-06   2.299573073452285e-06   1.7048064191692736e-05
-9.573563809540909e-06   2.299573073452285e-06   1.7048064191692736e-05
-9.573563809540909e-06   2.299573073452285e-06   1.7048064191692736e-05
-9.573563809540909e-06   2.299573073452285e-06   1.7048064191692736e-05
-1.3147144052728487e-05   1.4108295685598708e-06   1.0558851016778073e-05
-1.3147144052728487e-05   1.4108295685598708e-06   1.0558851016778073e-05
-1.3147144052728487e-05   1.4108295685598708e-06   1.0558851016778073e-05
-1.3147144052728487e-05   1.4108295685598708e-06   1.0558851016778073e-05
-1.3339015250446809e-05   1.895180192943921e-06   1.710263902122023e-05
-1.3339015250446809e-05   1.895180192943921e-06   1.710263902122023e-05
-1.3339015250446809e-05   1.895180192943921e-06   1.710263902122023e-05
-1.3339015250446809e-05   1.895180192943921e-06   1.710263902122023e-05
-9.739402894259766e-06   1.0456977174195126e-06   1.1612974579556633e-05
-9.739402894259766e-06   1.0456977174195126e-06   1.1612974579556633e-05
-9.739402894259766e-06   1.0456977174195126e-06   1.1612974579556633e-05
-9.739402894259766e-06   1.0456977174195126e-06   1.1612974579556633e-05
-1.1342732977647139e-05   1.827420790174658e-06   1.381615754154935e-05
-1.1342732977647139e-05   1.827420790174658e-06   1.381615754154935e-05
-1.1342732977647139e-05   1.827420790174658e-06   1.381615754154935e-05
-1.1342732977647139e-05   1.827420790174658e-06   1.381615754154935e-05
-1.2733686706507049e-05   3.8131643644870533e-06   7.2800450466867835e-06
-1.2733686706507049e-05   3.8131643644870533e-06   7.2800450466867835e-06
-1.2733686706507049e-05   3.8131643644870533e-06   7.2800450466867835e-06
-1.2733686706507049e-05   3.8131643644870533e-06   7.2800450466867835e-06
-1.54912200386729e-05   2.572293087046984e-06   1.939633393279767e-06
-1.54912200386729e-05   2.572293087046984e-06   1.939633393279767e-06
-1.54912200386729e-05   2.572293087046984e-06   1.939633393279767e-06
-1.54912200386729e-05   2.572293087046984e-06   1.939633393279767e-06
-1.6148570002630608e-05   3.6012056263394097e-06   8.540742658071348e-06
-1.6148570002630608e-05   3.6012056263394097e-06   8.540742658071348e-06
-1.6148570002630608e-05   3.6012056263394097e-06   8.540742658071348e-06
-1.6148570002630608e-05   3.6012056263394097e-06   8.540742658071348e-06
-1.2907584821322219e-05   2.3049131884437645e-06   3.916876151961279e-06
-1.2907584821322219e-05   2.3049131884437645e-06   3.916876151961279e-06
-1.2907584821322219e-05   2.3049131884437645e-06   3.916876151961279e-06
-1.2907584821322219e-05   2.3049131884437645e-06   3.916876151961279e-06
-1.3822924013459569e-05   3.0405320573744475e-06   5.001070150831787e-06
-1.3822924013459569e-05   3.0405320573744475e-06   5.001070150831787e-06
-1.3822924013459569e-05   3.0405320573744475e-06   5.001070150831787e-06
-1.3822924013459569e-05   3.0405320573744475e-06   5.001070150831787e-06
-1.2907584821322219e-05   3.6012056263394097e-06   9.31851812080854e-06
-1.2907584821322219e-05   3.6012056263394097e-06   9.31851812080854e-06
-1.2907584821322219e-05   3.6012056263394097e-06   9.31851812080854e-06
-1.2907584821322219e-05   3.6012056263394097e-06   9.31851812080854e-06
-1.6148570002630662e-05   2.304913188443873e-06   3.1391006892239365e-06
-1.6148570002630662e-05   2.304913188443873e-06   3.1391006892239365e-06
-1.6148570002630662e-05   2.304913188443873e-06   3.1391006892239365e-06
-1.6148570002630662e-05   2.304913188443873e-06   3.1391006892239365e-06
-1.6712359070133217e-05   3.423075841110096e-06   1.0057851206028896e-05
-1.6712359070133217e-05   3.423075841110096e-06   1.0057851206028896e-05
-1.6712359070133217e-05   3.423075841110096e-06   1.0057851206028896e-05
-1.6712359070133217e-05   3.423075841110096e-06   1.0057851206028896e-05
-1.3147144052728514e-05   2.1209411289148036e-06   4.897107004338242e-06
-1.3147144052728514e-05   2.1209411289148036e-06   4.897107004338242e-06
-1.3147144052728514e-05   2.1209411289148036e-06   4.897107004338242e-06
-1.3147144052728514e-05   2.1209411289148036e-06   4.897107004338242e-06
-1.4380891388243201e-05   2.9363612006182843e-06   6.464100520507633e-06
-1.4380891388243201e-05   2.9363612006182843e-06   6.464100520507633e-06
-1.4380891388243201e-05   2.9363612006182843e-06   6.464100520507633e-06
-1.4380891388243201e-05   2.9363612006182843e-06   6.464100520507633e-06
-1.3147144052728514e-05   3.423075841110096e-06   1.0839132033346071e-05
-1.3147144052728514e-05   3.423075841110096e-06   1.0839132033346071e-05
-1.3147144052728514e-05   3.423075841110096e-06   1.0839132033346071e-05
-1.3147144052728514e-05   3.423075841110096e-06   1.0839132033346071e-05
-1.671235907013327e-05   2.120941128914695e-06   4.115826177020975e-06
-1.671235907013327e-05   2.120941128914695e-06   4.115826177020975e-06
-1.671235907013327e-05   2.120941128914695e-06   4.115826177020975e-06
-1.671235907013327e-05   2.120941128914695e-06   4.115826177020975e-06
-1.7428983797715706e-05   2.9368983004220443e-06   1.2801998416205182e-05
-1.7428983797715706e-05   2.9368983004220443e-06   1.2801998416205182e-05
-1.7428983797715706e-05   2.9368983004220443e-06   1.2801998416205182e-05
-1.7428983797715706e-05   2.9368983004220443e-06   1.2801998416205182e-05
-1.3339015250446782e-05   1.6967971702216847e-06   6.729444848877213e-06
-1.3339015250446782e-05   1.6967971702216847e-06   6.729444848877213e-06
-1.3339015250446782e-05   1.6967971702216847e-06   6.729444848877213e-06
-1.3339015250446782e-05   1.6967971702216847e-06   6.729444848877213e-06
-1.4538775534320576e-05   2.7343524150888693e-06   8.106512175079874e-06
-1.4538775534320576e-05   2.7343524150888693e-06   8.106512175079874e-06
-1.4538775534320576e-05   2.7343524150888693e-06   8.106512175079874e-06
-1.4538775534320576e-05   2.7343524150888693e-06   8.106512175079874e-06
-6.170437160599038e-06   1.129247399571636e-06   7.590701136025676e-06
-6.170437160599038e-06   1.129247399571636e-06   7.590701136025676e-06
-6.170437160599038e-06   1.129247399571636e-06   7.590701136025676e-06
-6.170437160599038e-06   1.129247399571636e-06   7.590701136025676e-06
-6.822706884963406e-06   2.1465100429035448e-06   7.113942514750814e-06
-6.822706884963406e-06   2.1465100429035448e-06   7.113942514750814e-06
-6.822706884963406e-06   2.1465100429035448e-06   7.113942514750814e-06
-6.822706884963406e-06   2.1465100429035448e-06   7.113942514750814e-06
-7.001935097214531e-06   7.586301200291886e-07   8.133611572773175e-06
-7.001935097214531e-06   7.586301200291886e-07   8.133611572773175e-06
-7.001935097214531e-06   7.586301200291886e-07   8.133611572773175e-06
-7.001935097214531e-06   7.586301200291886e-07   8.133611572773175e-06
-6.917304031907887e-06   1.674283862783876e-06   7.4431675516092546e-06
-6.917304031907887e-06   1.674283862783876e-06   7.4431675516092546e-06
-6.917304031907887e-06   1.674283862783876e-06   7.4431675516092546e-06
-6.917304031907887e-06   1.674283862783876e-06   7.4431675516092546e-06
-6.563218778180801e-06   1.3325659272956335e-06   7.058056223357078e-06
-6.563218778180801e-06   1.3325659272956335e-06   7.058056223357078e-06
-6.563218778180801e-06   1.3325659272956335e-06   7.058056223357078e-06
-6.563218778180801e-06   1.3325659272956335e-06   7.058056223357078e-06
-6.917304031907894e-06   7.586301200291886e-07   7.584219327120309e-06
-6.917304031907894e-06   7.586301200291886e-07   7.584219327120309e-06
-6.917304031907894e-06   7.586301200291886e-07   7.584219327120309e-06
-6.917304031907894e-06   7.586301200291886e-07   7.584219327120309e-06
-7.001935097214531e-06   1.674283862783876e-06   7.992559797262053e-06
-7.001935097214531e-06   1.674283862783876e-06   7.992559797262053e-06
-7.001935097214531e-06   1.674283862783876e-06   7.992559797262053e-06
-7.001935097214531e-06   1.674283862783876e-06   7.992559797262053e-06
-7.234410997244978e-06   5.557510484484329e-07   8.3790197695562e-06
-7.234410997244978e-06   5.557510484484329e-07   8.3790197695562e-06
-7.234410997244978e-06   5.557510484484329e-07   8.3790197695562e-06
-7.234410997244978e-06   5.557510484484329e-07   8.3790197695562e-06
-7.644569753091748e-06   1.3489077380318508e-06   8.58672368221733e-06
-7.644569753091748e-06   1.3489077380318508e-06   8.58672368221733e-06
-7.644569753091748e-06   1.3489077380318508e-06   8.58672368221733e-06
-7.644569753091748e-06   1.3489077380318508e-06   8.58672368221733e-06
-7.007342358890126e-06   1.1292044093617198e-06   7.656500022416466e-06
-7.007342358890126e-06   1.1292044093617198e-06   7.656500022416466e-06
-7.007342358890126e-06   1.1292044093617198e-06   7.656500022416466e-06
-7.007342358890126e-06   1.1292044093617198e-06   7.656500022416466e-06
-7.644569753091762e-06   5.557510484484329e-07   7.903125755805965e-06
-7.644569753091762e-06   5.557510484484329e-07   7.903125755805965e-06
-7.644569753091762e-06   5.557510484484329e-07   7.903125755805965e-06
-7.644569753091762e-06   5.557510484484329e-07   7.903125755805965e-06
-7.234410997244978e-06   1.3489077380318508e-06   9.062617695967349e-06
-7.234410997244978e-06   1.3489077380318508e-06   9.062617695967349e-06
-7.234410997244978e-06   1.3489077380318508e-06   9.062617695967349e-06
-7.234410997244978e-06   1.3489077380318508e-06   9.062617695967349e-06
-7.383738135884318e-06   1.2654916519121845e-07   9.188311135334708e-06
-7.383738135884318e-06   1.2654916519121845e-07   9.188311135334708e-06
-7.383738135884318e-06   1.2654916519121845e-07   9.188311135334708e-06
-7.383738135884318e-06   1.2654916519121845e-07   9.188311135334708e-06
-8.419456616191447e-06   5.492089736818082e-07   1.0660912717418744e-05
-8.419456616191447e-06   5.492089736818082e-07   1.0660912717418744e-05
-8.419456616191447e-06   5.492089736818082e-07   1.0660912717418744e-05
-8.419456616191447e-06   5.492089736818082e-07   1.0660912717418744e-05
-7.322934355685291e-06   8.809723986411867e-07   8.634317561599317e-06
-7.322934355685291e-06   8.809723986411867e-07   8.634317561599317e-06
-7.322934355685291e-06   8.809723986411867e-07   8.634317561599317e-06
-7.322934355685291e-06   8.809723986411867e-07   8.634317561599317e-06
-6.822706884963396e-06   1.3307827333019096e-06   1.5024236504453971e-05
-6.822706884963396e-06   1.3307827333019096e-06   1.5024236504453971e-05
-6.822706884963396e-06   1.3307827333019096e-06   1.5024236504453971e-05
-6.822706884963396e-06   1.3307827333019096e-06   1.5024236504453971e-05
-6.961502098685237e-06   5.562958352573594e-07   1.4328219009424205e-05
-6.961502098685237e-06   5.562958352573594e-07   1.4328219009424205e-05
-6.961502098685237e-06   5.562958352573594e-07   1.4328219009424205e-05
-6.961502098685237e-06   5.562958352573594e-07   1.4328219009424205e-05
-7.018925056387319e-06   9.17509180930619e-07   1.445453557038785e-05
-7.018925056387319e-06   9.17509180930619e-07   1.445453557038785e-05
-7.018925056387319e-06   9.17509180930619e-07   1.445453557038785e-05
-7.018925056387319e-06   9.17509180930619e-07   1.445453557038785e-05
-7.001935097214531e-06   2.6454422854041686e-07   1.4817997943200688e-05
-7.001935097214531e-06   2.6454422854041686e-07   1.4817997943200688e-05
-7.001935097214531e-06   2.6454422854041686e-07   1.4817997943200688e-05
-7.001935097214531e-06   2.6454422854041686e-07   1.4817997943200688e-05
-6.930991063963514e-06   6.776593267504571e-07   1.4451888828856274e-05
-6.930991063963514e-06   6.776593267504571e-07   1.4451888828856274e-05
-6.930991063963514e-06   6.776593267504571e-07   1.4451888828856274e-05
-6.930991063963514e-06   6.776593267504571e-07   1.4451888828856274e-05
-7.001935097214528e-06   9.175091809305105e-07   1.484631454182168e-05
-7.001935097214528e-06   9.175091809305105e-07   1.484631454182168e-05
-7.001935097214528e-06   9.175091809305105e-07   1.484631454182168e-05
-7.001935097214528e-06   9.175091809305105e-07   1.484631454182168e-05
-7.018925056387319e-06   2.6454422854041686e-07   1.4426218971766555e-05
-7.018925056387319e-06   2.6454422854041686e-07   1.4426218971766555e-05
-7.018925056387319e-06   2.6454422854041686e-07   1.4426218971766555e-05
-7.018925056387319e-06   2.6454422854041686e-07   1.4426218971766555e-05
-7.089680576291354e-06   5.370301723102867e-07   1.464763742316938e-05
-7.089680576291354e-06   5.370301723102867e-07   1.464763742316938e-05
-7.089680576291354e-06   5.370301723102867e-07   1.464763742316938e-05
-7.089680576291354e-06   5.370301723102867e-07   1.464763742316938e-05
-7.234410997244978e-06   -7.177996668746153e-08   1.5254140874823932e-05
-7.234410997244978e-06   -7.177996668746153e-08   1.5254140874823932e-05
-7.234410997244978e-06   -7.177996668746153e-08   1.5254140874823932e-05
-7.234410997244978e-06   -7.177996668746153e-08   1.5254140874823932e-05
-7.0009324506776526e-06   4.370515608670628e-07   1.4559711047345495e-05
-7.0009324506776526e-06   4.370515608670628e-07   1.4559711047345495e-05
-7.0009324506776526e-06   4.370515608670628e-07   1.4559711047345495e-05
-7.0009324506776526e-06   4.370515608670628e-07   1.4559711047345495e-05
-7.234410997244978e-06   5.370301723103951e-07   1.5012923506567833e-05
-7.234410997244978e-06   5.370301723103951e-07   1.5012923506567833e-05
-7.234410997244978e-06   5.370301723103951e-07   1.5012923506567833e-05
-7.234410997244978e-06   5.370301723103951e-07   1.5012923506567833e-05
-7.08968057629134e-06   -7.177996668746153e-08   1.4888854791425261e-05
-7.08968057629134e-06   -7.177996668746153e-08   1.4888854791425261e-05
-7.08968057629134e-06   -7.177996668746153e-08   1.4888854791425261e-05
-7.08968057629134e-06   -7.177996668746153e-08   1.4888854791425261e-05
-7.142300245823762e-06   1.2589916960597646e-07   1.5064040292222158e-05
-7.142300245823762e-06   1.2589916960597646e-07   1.5064040292222158e-05
-7.142300245823762e-06   1.2589916960597646e-07   1.5064040292222158e-05
-7.142300245823762e-06   1.2589916960597646e-07   1.5064040292222158e-05
-7.383738135884311e-06   -5.125183884580661e-07   1.5849487310494668e-05
-7.383738135884311e-06   -5.125183884580661e-07   1.5849487310494668e-05
-7.383738135884311e-06   -5.125183884580661e-07   1.5849487310494668e-05
-7.383738135884311e-06   -5.125183884580661e-07   1.5849487310494668e-05
-7.109673246317442e-06   1.5549983895576241e-07   1.4991901558101265e-05
-7.109673246317442e-06   1.5549983895576241e-07   1.4991901558101265e-05
-7.109673246317442e-06   1.5549983895576241e-07   1.4991901558101265e-05
-7.109673246317442e-06   1.5549983895576241e-07   1.4991901558101265e-05
-6.961502098685264e-06   1.6025540907452533e-06   1.6571260195538673e-05
-6.961502098685264e-06   1.6025540907452533e-06   1.6571260195538673e-05
-6.961502098685264e-06   1.6025540907452533e-06   1.6571260195538673e-05
-6.961502098685264e-06   1.6025540907452533e-06   1.6571260195538673e-05
-7.533874490249363e-06   1.557627424517735e-07   1.4749231400622368e-05
-7.533874490249363e-06   1.557627424517735e-07   1.4749231400622368e-05
-7.533874490249363e-06   1.557627424517735e-07   1.4749231400622368e-05
-7.533874490249363e-06   1.557627424517735e-07   1.4749231400622368e-05
-7.555135634256584e-06   1.2203757104706746e-06   1.5723886389519656e-05
-7.555135634256584e-06   1.2203757104706746e-06   1.5723886389519656e-05
-7.555135634256584e-06   1.2203757104706746e-06   1.5723886389519656e-05
-7.555135634256584e-06   1.2203757104706746e-06   1.5723886389519656e-05
-7.018925056387319e-06   -8.945403782366053e-08   1.561609994204732e-05
-7.018925056387319e-06   -8.945403782366053e-08   1.561609994204732e-05
-7.018925056387319e-06   -8.945403782366053e-08   1.561609994204732e-05
-7.018925056387319e-06   -8.945403782366053e-08   1.561609994204732e-05
-7.255434108299984e-06   6.973068451172643e-07   1.553822516547066e-05
-7.255434108299984e-06   6.973068451172643e-07   1.553822516547066e-05
-7.255434108299984e-06   6.973068451172643e-07   1.553822516547066e-05
-7.255434108299984e-06   6.973068451172643e-07   1.553822516547066e-05
-7.018925056387319e-06   1.2203757104706746e-06   1.6509784238496084e-05
-7.018925056387319e-06   1.2203757104706746e-06   1.6509784238496084e-05
-7.018925056387319e-06   1.2203757104706746e-06   1.6509784238496084e-05
-7.018925056387319e-06   1.2203757104706746e-06   1.6509784238496084e-05
-7.555135634256584e-06   -8.945403782366053e-08   1.4830202093070745e-05
-7.555135634256584e-06   -8.945403782366053e-08   1.4830202093070745e-05
-7.555135634256584e-06   -8.945403782366053e-08   1.4830202093070745e-05
-7.555135634256584e-06   -8.945403782366053e-08   1.4830202093070745e-05
-7.591515390530969e-06   8.320332768270216e-07   1.5967605532535875e-05
-7.591515390530969e-06   8.320332768270216e-07   1.5967605532535875e-05
-7.591515390530969e-06   8.320332768270216e-07   1.5967605532535875e-05
-7.591515390530969e-06   8.320332768270216e-07   1.5967605532535875e-05
-7.089680576291354e-06   -3.8300076721741166e-07   1.586023460189634e-05
-7.089680576291354e-06   -3.8300076721741166e-07   1.586023460189634e-05
-7.089680576291354e-06   -3.8300076721741166e-07   1.586023460189634e-05
-7.089680576291354e-06   -3.8300076721741166e-07   1.586023460189634e-05
-7.262222877078446e-06   4.549518320683425e-07   1.564503354363627e-05
-7.262222877078446e-06   4.549518320683425e-07   1.564503354363627e-05
-7.262222877078446e-06   4.549518320683425e-07   1.564503354363627e-05
-7.262222877078446e-06   4.549518320683425e-07   1.564503354363627e-05
-7.089680576291354e-06   8.320332768269132e-07   1.669662595896236e-05
-7.089680576291354e-06   8.320332768269132e-07   1.669662595896236e-05
-7.089680576291354e-06   8.320332768269132e-07   1.669662595896236e-05
-7.089680576291354e-06   8.320332768269132e-07   1.669662595896236e-05
-7.591515390530969e-06   -3.8300076721735745e-07   1.5131214175469746e-05
-7.591515390530969e-06   -3.8300076721735745e-07   1.5131214175469746e-05
-7.591515390530969e-06   -3.8300076721735745e-07   1.5131214175469746e-05
-7.591515390530969e-06   -3.8300076721735745e-07   1.5131214175469746e-05
-7.615928646639283e-06   4.6428448478115156e-07   1.6404549195307315e-05
-7.615928646639283e-06   4.6428448478115156e-07   1.6404549195307315e-05
-7.615928646639283e-06   4.6428448478115156e-07   1.6404549195307315e-05
-7.615928646639283e-06   4.6428448478115156e-07   1.6404549195307315e-05
-7.142300245823762e-06   -6.769972686022441e-07   1.629993757931139e-05
-7.142300245823762e-06   -6.769972686022441e-07   1.629993757931139e-05
-7.142300245823762e-06   -6.769972686022441e-07   1.629993757931139e-05
-7.142300245823762e-06   -6.769972686022441e-07   1.629993757931139e-05
-7.2812354104517525e-06   2.0595824160875818e-07   1.60017228808975e-05
-7.2812354104517525e-06   2.0595824160875818e-07   1.60017228808975e-05
-7.2812354104517525e-06   2.0595824160875818e-07   1.60017228808975e-05
-7.2812354104517525e-06   2.0595824160875818e-07   1.60017228808975e-05
-7.533874490249363e-06   2.1708304428353893e-06   1.350982676416926e-05
-7.533874490249363e-06   2.1708304428353893e-06   1.350982676416926e-05
-7.533874490249363e-06   2.1708304428353893e-06   1.350982676416926e-05
-7.533874490249363e-06   2.1708304428353893e-06   1.350982676416926e-05
-8.344680672520247e-06   7.149603360216087e-07   1.1284961062962976e-05
-8.344680672520247e-06   7.149603360216087e-07   1.1284961062962976e-05
-8.344680672520247e-06   7.149603360216087e-07   1.1284961062962976e-05
-8.344680672520247e-06   7.149603360216087e-07   1.1284961062962976e-05
-8.361341713017877e-06   1.7688440442809473e-06   1.2759624632402216e-05
-8.361341713017877e-06   1.7688440442809473e-06   1.2759624632402216e-05
-8.361341713017877e-06   1.7688440442809473e-06   1.2759624632402216e-05
-8.361341713017877e-06   1.7688440442809473e-06   1.2759624632402216e-05
-7.555135634256584e-06   3.9147415158564654e-07   1.2242369770083946e-05
-7.555135634256584e-06   3.9147415158564654e-07   1.2242369770083946e-05
-7.555135634256584e-06   3.9147415158564654e-07   1.2242369770083946e-05
-7.555135634256584e-06   3.9147415158564654e-07   1.2242369770083946e-05
-7.928067703194745e-06   1.2903899158664498e-06   1.2324573759745687e-05
-7.928067703194745e-06   1.2903899158664498e-06   1.2324573759745687e-05
-7.928067703194745e-06   1.2903899158664498e-06   1.2324573759745687e-05
-7.928067703194745e-06   1.2903899158664498e-06   1.2324573759745687e-05
-7.555135634256584e-06   1.7688440442810557e-06   1.358604656801919e-05
-7.555135634256584e-06   1.7688440442810557e-06   1.358604656801919e-05
-7.555135634256584e-06   1.7688440442810557e-06   1.358604656801919e-05
-7.555135634256584e-06   1.7688440442810557e-06   1.358604656801919e-05
-8.361341713017877e-06   3.9147415158564654e-07   1.1415947834466687e-05
-8.361341713017877e-06   3.9147415158564654e-07   1.1415947834466687e-05
-8.361341713017877e-06   3.9147415158564654e-07   1.1415947834466687e-05
-8.361341713017877e-06   3.9147415158564654e-07   1.1415947834466687e-05
-8.454405445174827e-06   1.4108295685597624e-06   1.3230764957669725e-05
-8.454405445174827e-06   1.4108295685597624e-06   1.3230764957669725e-05
-8.454405445174827e-06   1.4108295685597624e-06   1.3230764957669725e-05
-8.454405445174827e-06   1.4108295685597624e-06   1.3230764957669725e-05
-7.591515390530969e-06   1.1424811700698088e-07   1.2570563737528172e-05
-7.591515390530969e-06   1.1424811700698088e-07   1.2570563737528172e-05
-7.591515390530969e-06   1.1424811700698088e-07   1.2570563737528172e-05
-7.591515390530969e-06   1.1424811700698088e-07   1.2570563737528172e-05
-7.908088758065289e-06   1.0252082932106802e-06   1.2551609911029202e-05
-7.908088758065289e-06   1.0252082932106802e-06   1.2551609911029202e-05
-7.908088758065289e-06   1.0252082932106802e-06   1.2551609911029202e-05
-7.908088758065289e-06   1.0252082932106802e-06   1.2551609911029202e-05
-7.591515390530942e-06   1.4108295685598708e-06   1.4008713828601025e-05
-7.591515390530942e-06   1.4108295685598708e-06   1.4008713828601025e-05
-7.591515390530942e-06   1.4108295685598708e-06   1.4008713828601025e-05
-7.591515390530942e-06   1.4108295685598708e-06   1.4008713828601025e-05
-8.454405445174827e-06   1.1424811700698088e-07   1.1792614866596442e-05
-8.454405445174827e-06   1.1424811700698088e-07   1.1792614866596442e-05
-8.454405445174827e-06   1.1424811700698088e-07   1.1792614866596442e-05
-8.454405445174827e-06   1.1424811700698088e-07   1.1792614866596442e-05
-8.510694754348464e-06   1.0456977174195126e-06   1.3815590937600966e-05
-8.510694754348464e-06   1.0456977174195126e-06   1.3815590937600966e-05
-8.510694754348464e-06   1.0456977174195126e-06   1.3815590937600966e-05
-8.510694754348464e-06   1.0456977174195126e-06   1.3815590937600966e-05
-7.615928646639256e-06   -1.6536484349688116e-07   1.3050951627968611e-05
-7.615928646639256e-06   -1.6536484349688116e-07   1.3050951627968611e-05
-7.615928646639256e-06   -1.6536484349688116e-07   1.3050951627968611e-05
-7.615928646639256e-06   -1.6536484349688116e-07   1.3050951627968611e-05
-7.950564576592688e-06   7.88048745358383e-07   1.30366300245775e-05
-7.950564576592688e-06   7.88048745358383e-07   1.30366300245775e-05
-7.950564576592688e-06   7.88048745358383e-07   1.30366300245775e-05
-7.950564576592688e-06   7.88048745358383e-07   1.30366300245775e-05
-8.34468067252022e-06   2.572293087046984e-06   5.2171544346912326e-06
-8.34468067252022e-06   2.572293087046984e-06   5.2171544346912326e-06
-8.34468067252022e-06   2.572293087046984e-06   5.2171544346912326e-06
-8.34468067252022e-06   2.572293087046984e-06   5.2171544346912326e-06
-8.283363801969712e-06   1.18337219280417e-06   4.485996682396373e-06
-8.283363801969712e-06   1.18337219280417e-06   4.485996682396373e-06
-8.283363801969712e-06   1.18337219280417e-06   4.485996682396373e-06
-8.283363801969712e-06   1.18337219280417e-06   4.485996682396373e-06
-8.709519411858929e-06   2.3049131884437645e-06   5.719605834200248e-06
-8.709519411858929e-06   2.3049131884437645e-06   5.719605834200248e-06
-8.709519411858929e-06   2.3049131884437645e-06   5.719605834200248e-06
-8.709519411858929e-06   2.3049131884437645e-06   5.719605834200248e-06
-8.36134171301785e-06   9.538099776507493e-07   5.949971595940848e-06
-8.36134171301785e-06   9.538099776507493e-07   5.949971595940848e-06
-8.36134171301785e-06   9.538099776507493e-07   5.949971595940848e-06
-8.36134171301785e-06   9.538099776507493e-07   5.949971595940848e-06
-8.150621625651583e-06   1.8115392580640927e-06   5.084133882082484e-06
-8.150621625651583e-06   1.8115392580640927e-06   5.084133882082484e-06
-8.150621625651583e-06   1.8115392580640927e-06   5.084133882082484e-06
-8.150621625651583e-06   1.8115392580640927e-06   5.084133882082484e-06
-8.361341713017823e-06   2.304913188443873e-06   6.530267760675862e-06
-8.361341713017823e-06   2.304913188443873e-06   6.530267760675862e-06
-8.361341713017823e-06   2.304913188443873e-06   6.530267760675862e-06
-8.361341713017823e-06   2.304913188443873e-06   6.530267760675862e-06
-8.709519411858983e-06   9.538099776507493e-07   5.139309669465126e-06
-8.709519411858983e-06   9.538099776507493e-07   5.139309669465126e-06
-8.709519411858983e-06   9.538099776507493e-07   5.139309669465126e-06
-8.709519411858983e-06   9.538099776507493e-07   5.139309669465126e-06
-9.083402283278637e-06   2.1209411289148036e-06   6.778774512000143e-06
-9.083402283278637e-06   2.1209411289148036e-06   6.778774512000143e-06
-9.083402283278637e-06   2.1209411289148036e-06   6.778774512000143e-06
-9.083402283278637e-06   2.1209411289148036e-06   6.778774512000143e-06
-8.4544054451748e-06   8.038637401986261e-07   6.5206928817232814e-06
-8.4544054451748e-06   8.038637401986261e-07   6.5206928817232814e-06
-8.4544054451748e-06   8.038637401986261e-07   6.5206928817232814e-06
-8.4544054451748e-06   8.038637401986261e-07   6.5206928817232814e-06
-8.455406358711857e-06   1.6784448974592253e-06   5.997612376595007e-06
-8.455406358711857e-06   1.6784448974592253e-06   5.997612376595007e-06
-8.455406358711857e-06   1.6784448974592253e-06   5.997612376595007e-06
-8.455406358711857e-06   1.6784448974592253e-06   5.997612376595007e-06
-8.4544054451748e-06   2.120941128914695e-06   7.5690209452294595e-06
-8.4544054451748e-06   2.120941128914695e-06   7.5690209452294595e-06
-8.4544054451748e-06   2.120941128914695e-06   7.5690209452294595e-06
-8.4544054451748e-06   2.120941128914695e-06   7.5690209452294595e-06
-9.08340228327869e-06   8.038637401986261e-07   5.730446448493667e-06
-9.08340228327869e-06   8.038637401986261e-07   5.730446448493667e-06
-9.08340228327869e-06   8.038637401986261e-07   5.730446448493667e-06
-9.08340228327869e-06   8.038637401986261e-07   5.730446448493667e-06
-9.636811765891418e-06   1.6967971702216847e-06   8.723934484778924e-06
-9.636811765891418e-06   1.6967971702216847e-06   8.723934484778924e-06
-9.636811765891418e-06   1.6967971702216847e-06   8.723934484778924e-06
-9.636811765891418e-06   1.6967971702216847e-06   8.723934484778924e-06
-8.510694754348464e-06   5.004368244597543e-07   7.564889006331005e-06
-8.510694754348464e-06   5.004368244597543e-07   7.564889006331005e-06
-8.510694754348464e-06   5.004368244597543e-07   7.564889006331005e-06
-8.510694754348464e-06   5.004368244597543e-07   7.564889006331005e-06
-8.558696979563631e-06   1.5187648048324695e-06   7.033895926798718e-06
-8.558696979563631e-06   1.5187648048324695e-06   7.033895926798718e-06
-8.558696979563631e-06   1.5187648048324695e-06   7.033895926798718e-06
-8.558696979563631e-06   1.5187648048324695e-06   7.033895926798718e-06
-1.6203594507172767e-05   2.1465100429035448e-06   6.37639793859456e-06
-1.6203594507172767e-05   2.1465100429035448e-06   6.37639793859456e-06
-1.6203594507172767e-05   2.1465100429035448e-06   6.37639793859456e-06
-1.6203594507172767e-05   2.1465100429035448e-06   6.37639793859456e-06
-1.0972096940078583e-05   2.9682129497284645e-06   1.5588582294513172e-05
-1.0972096940078583e-05   2.9682129497284645e-06   1.5588582294513172e-05
-1.0972096940078583e-05   2.9682129497284645e-06   1.5588582294513172e-05
-1.0972096940078583e-05   2.9682129497284645e-06   1.5588582294513172e-05
-1.0969113468004469e-05   1.674283862783876e-06   7.212794630503391e-06
-1.0969113468004469e-05   1.674283862783876e-06   7.212794630503391e-06
-1.0969113468004469e-05   1.674283862783876e-06   7.212794630503391e-06
-1.0969113468004469e-05   1.674283862783876e-06   7.212794630503391e-06
-1.7866521003508898e-05   1.1864726665812748e-06   1.900116057406584e-05
-1.7866521003508898e-05   1.1864726665812748e-06   1.900116057406584e-05
-1.7866521003508898e-05   1.1864726665812748e-06   1.900116057406584e-05
-1.7866521003508898e-05   1.1864726665812748e-06   1.900116057406584e-05
-1.3279567307333794e-05   1.7552089731711642e-06   1.1014995963153367e-05
-1.3279567307333794e-05   1.7552089731711642e-06   1.1014995963153367e-05
-1.3279567307333794e-05   1.7552089731711642e-06   1.1014995963153367e-05
-1.3279567307333794e-05   1.7552089731711642e-06   1.1014995963153367e-05
-1.7866521003508925e-05   1.674283862783876e-06   7.505481348224941e-06
-1.7866521003508925e-05   1.674283862783876e-06   7.505481348224941e-06
-1.7866521003508925e-05   1.674283862783876e-06   7.505481348224941e-06
-1.7866521003508925e-05   1.674283862783876e-06   7.505481348224941e-06
-1.0969113468004469e-05   1.1864726665812748e-06   1.870847385634423e-05
-1.0969113468004469e-05   1.1864726665812748e-06   1.870847385634423e-05
-1.0969113468004469e-05   1.1864726665812748e-06   1.870847385634423e-05
-1.0969113468004469e-05   1.1864726665812748e-06   1.870847385634423e-05
-1.1124484367705921e-05   1.3489077380318508e-06   8.053415371639508e-06
-1.1124484367705921e-05   1.3489077380318508e-06   8.053415371639508e-06
-1.1124484367705921e-05   1.3489077380318508e-06   8.053415371639508e-06
-1.1124484367705921e-05   1.3489077380318508e-06   8.053415371639508e-06
-1.7934604617167078e-05   8.45719364952612e-07   1.970552881125555e-05
-1.7934604617167078e-05   8.45719364952612e-07   1.970552881125555e-05
-1.7934604617167078e-05   8.45719364952612e-07   1.970552881125555e-05
-1.7934604617167078e-05   8.45719364952612e-07   1.970552881125555e-05
-1.41795926193444e-05   1.0906795247445024e-06   1.3300199385675814e-05
-1.41795926193444e-05   1.0906795247445024e-06   1.3300199385675814e-05
-1.41795926193444e-05   1.0906795247445024e-06   1.3300199385675814e-05
-1.41795926193444e-05   1.0906795247445024e-06   1.3300199385675814e-05
-1.793460461716711e-05   1.3489077380318508e-06   8.355328395487002e-06
-1.793460461716711e-05   1.3489077380318508e-06   8.355328395487002e-06
-1.793460461716711e-05   1.3489077380318508e-06   8.355328395487002e-06
-1.793460461716711e-05   1.3489077380318508e-06   8.355328395487002e-06
-1.1124484367705901e-05   8.45719364952612e-07   1.940361578740802e-05
-1.1124484367705901e-05   8.45719364952612e-07   1.940361578740802e-05
-1.1124484367705901e-05   8.45719364952612e-07   1.940361578740802e-05
-1.1124484367705901e-05   8.45719364952612e-07   1.940361578740802e-05
-1.1011386329906383e-05   5.492089736818082e-07   9.522627749911604e-06
-1.1011386329906383e-05   5.492089736818082e-07   9.522627749911604e-06
-1.1011386329906383e-05   5.492089736818082e-07   9.522627749911604e-06
-1.1011386329906383e-05   5.492089736818082e-07   9.522627749911604e-06
-1.8137679201571066e-05   -6.067266463916858e-07   2.209334390806341e-05
-1.8137679201571066e-05   -6.067266463916858e-07   2.209334390806341e-05
-1.8137679201571066e-05   -6.067266463916858e-07   2.209334390806341e-05
-1.8137679201571066e-05   -6.067266463916858e-07   2.209334390806341e-05
-1.3968996022503826e-05   5.218093427858416e-07   1.446841701611154e-05
-1.3968996022503826e-05   5.218093427858416e-07   1.446841701611154e-05
-1.3968996022503826e-05   5.218093427858416e-07   1.446841701611154e-05
-1.3968996022503826e-05   5.218093427858416e-07   1.446841701611154e-05
-1.0972096940078604e-05   5.562958352573594e-07   1.4548388316189612e-05
-1.0972096940078604e-05   5.562958352573594e-07   1.4548388316189612e-05
-1.0972096940078604e-05   5.562958352573594e-07   1.4548388316189612e-05
-1.0972096940078604e-05   5.562958352573594e-07   1.4548388316189612e-05
-6.748139268646417e-06   -3.4031165816561884e-06   1.9212670318428414e-05
-6.748139268646417e-06   -3.4031165816561884e-06   1.9212670318428414e-05
-6.748139268646417e-06   -3.4031165816561884e-06   1.9212670318428414e-05
-6.748139268646417e-06   -3.4031165816561884e-06   1.9212670318428414e-05
-6.7655190948795555e-06   2.6454422854041686e-07   1.220418615990171e-05
-6.7655190948795555e-06   2.6454422854041686e-07   1.220418615990171e-05
-6.7655190948795555e-06   2.6454422854041686e-07   1.220418615990171e-05
-6.7655190948795555e-06   2.6454422854041686e-07   1.220418615990171e-05
-1.0969113468004469e-05   -2.792200132360062e-06   2.1044223398316946e-05
-1.0969113468004469e-05   -2.792200132360062e-06   2.1044223398316946e-05
-1.0969113468004469e-05   -2.792200132360062e-06   2.1044223398316946e-05
-1.0969113468004469e-05   -2.792200132360062e-06   2.1044223398316946e-05
-8.818080483492696e-06   -1.6839915816363438e-06   1.6794243293696498e-05
-8.818080483492696e-06   -1.6839915816363438e-06   1.6794243293696498e-05
-8.818080483492696e-06   -1.6839915816363438e-06   1.6794243293696498e-05
-8.818080483492696e-06   -1.6839915816363438e-06   1.6794243293696498e-05
-1.0969113468004472e-05   2.6454422854041686e-07   1.4038232776441856e-05
-1.0969113468004472e-05   2.6454422854041686e-07   1.4038232776441856e-05
-1.0969113468004472e-05   2.6454422854041686e-07   1.4038232776441856e-05
-1.0969113468004472e-05   2.6454422854041686e-07   1.4038232776441856e-05
-6.765519094879542e-06   -2.792200132360062e-06   1.921017678177665e-05
-6.765519094879542e-06   -2.792200132360062e-06   1.921017678177665e-05
-6.765519094879542e-06   -2.792200132360062e-06   1.921017678177665e-05
-6.765519094879542e-06   -2.792200132360062e-06   1.921017678177665e-05
-6.797390827469613e-06   -7.177996668746153e-08   1.2575829650409483e-05
-6.797390827469613e-06   -7.177996668746153e-08   1.2575829650409483e-05
-6.797390827469613e-06   -7.177996668746153e-08   1.2575829650409483e-05
-6.797390827469613e-06   -7.177996668746153e-08   1.2575829650409483e-05
-1.1124484367705901e-05   -2.8536281334985106e-06   2.1456761117556532e-05
-1.1124484367705901e-05   -2.8536281334985106e-06   2.1456761117556532e-05
-1.1124484367705901e-05   -2.8536281334985106e-06   2.1456761117556532e-05
-1.1124484367705901e-05   -2.8536281334985106e-06   2.1456761117556532e-05
-8.757516571598554e-06   -1.4715526300410802e-06   1.6682569488636384e-05
-8.757516571598554e-06   -1.4715526300410802e-06   1.6682569488636384e-05
-8.757516571598554e-06   -1.4715526300410802e-06   1.6682569488636384e-05
-8.757516571598554e-06   -1.4715526300410802e-06   1.6682569488636384e-05
-1.1124484367705921e-05   -7.177996668746153e-08   1.4244938550496118e-05
-1.1124484367705921e-05   -7.177996668746153e-08   1.4244938550496118e-05
-1.1124484367705921e-05   -7.177996668746153e-08   1.4244938550496118e-05
-1.1124484367705921e-05   -7.177996668746153e-08   1.4244938550496118e-05
-6.797390827469613e-06   -2.8536281334985106e-06   1.978765221746987e-05
-6.797390827469613e-06   -2.8536281334985106e-06   1.978765221746987e-05
-6.797390827469613e-06   -2.8536281334985106e-06   1.978765221746987e-05
-6.797390827469613e-06   -2.8536281334985106e-06   1.978765221746987e-05
-6.737394667282064e-06   -5.125183884580661e-07   1.3040572463347475e-05
-6.737394667282064e-06   -5.125183884580661e-07   1.3040572463347475e-05
-6.737394667282064e-06   -5.125183884580661e-07   1.3040572463347475e-05
-6.737394667282064e-06   -5.125183884580661e-07   1.3040572463347475e-05
-1.1011386329906356e-05   -2.8742417127008394e-06   2.158092589560012e-05
-1.1011386329906356e-05   -2.8742417127008394e-06   2.158092589560012e-05
-1.1011386329906356e-05   -2.8742417127008394e-06   2.158092589560012e-05
-1.1011386329906356e-05   -2.8742417127008394e-06   2.158092589560012e-05
-8.803903407723597e-06   -1.648665666225573e-06   1.7166442064077067e-05
-8.803903407723597e-06   -1.648665666225573e-06   1.7166442064077067e-05
-8.803903407723597e-06   -1.648665666225573e-06   1.7166442064077067e-05
-8.803903407723597e-06   -1.648665666225573e-06   1.7166442064077067e-05
-6.748139268646417e-06   1.557627424518277e-07   1.346182806621568e-05
-6.748139268646417e-06   1.557627424518277e-07   1.346182806621568e-05
-6.748139268646417e-06   1.557627424518277e-07   1.346182806621568e-05
-6.748139268646417e-06   1.557627424518277e-07   1.346182806621568e-05
-4.985016828939928e-06   -2.6591185998118183e-06   1.4711436660368412e-05
-4.985016828939928e-06   -2.6591185998118183e-06   1.4711436660368412e-05
-4.985016828939928e-06   -2.6591185998118183e-06   1.4711436660368412e-05
-4.985016828939928e-06   -2.6591185998118183e-06   1.4711436660368412e-05
-4.944850421241591e-06   -8.945403782366053e-08   1.1880784956115544e-05
-4.944850421241591e-06   -8.945403782366053e-08   1.1880784956115544e-05
-4.944850421241591e-06   -8.945403782366053e-08   1.1880784956115544e-05
-4.944850421241591e-06   -8.945403782366053e-08   1.1880784956115544e-05
-6.765519094879542e-06   -2.6115909946018278e-06   1.642851491957917e-05
-6.765519094879542e-06   -2.6115909946018278e-06   1.642851491957917e-05
-6.765519094879542e-06   -2.6115909946018278e-06   1.642851491957917e-05
-6.765519094879542e-06   -2.6115909946018278e-06   1.642851491957917e-05
-5.825529179925661e-06   -1.3426195311535259e-06   1.4100482183253792e-05
-5.825529179925661e-06   -1.3426195311535259e-06   1.4100482183253792e-05
-5.825529179925661e-06   -1.3426195311535259e-06   1.4100482183253792e-05
-5.825529179925661e-06   -1.3426195311535259e-06   1.4100482183253792e-05
-6.765519094879542e-06   -8.945403782366053e-08   1.339406713018245e-05
-6.765519094879542e-06   -8.945403782366053e-08   1.339406713018245e-05
-6.765519094879542e-06   -8.945403782366053e-08   1.339406713018245e-05
-6.765519094879542e-06   -8.945403782366053e-08   1.339406713018245e-05
-4.944850421241618e-06   -2.6115909946018278e-06   1.4915232745512301e-05
-4.944850421241618e-06   -2.6115909946018278e-06   1.4915232745512301e-05
-4.944850421241618e-06   -2.6115909946018278e-06   1.4915232745512301e-05
-4.944850421241618e-06   -2.6115909946018278e-06   1.4915232745512301e-05
-4.911870440034362e-06   -3.8300076721741166e-07   1.2162866278953759e-05
-4.911870440034362e-06   -3.8300076721741166e-07   1.2162866278953759e-05
-4.911870440034362e-06   -3.8300076721741166e-07   1.2162866278953759e-05
-4.911870440034362e-06   -3.8300076721741166e-07   1.2162866278953759e-05
-6.797390827469613e-06   -2.6902394037621306e-06   1.668974343993921e-05
-6.797390827469613e-06   -2.6902394037621306e-06   1.668974343993921e-05
-6.797390827469613e-06   -2.6902394037621306e-06   1.668974343993921e-05
-6.797390827469613e-06   -2.6902394037621306e-06   1.668974343993921e-05
-5.778509539261436e-06   -1.429409301310241e-06   1.4235109898120797e-05
-5.778509539261436e-06   -1.429409301310241e-06   1.4235109898120797e-05
-5.778509539261436e-06   -1.429409301310241e-06   1.4235109898120797e-05
-5.778509539261436e-06   -1.429409301310241e-06   1.4235109898120797e-05
-6.797390827469613e-06   -3.8300076721735745e-07   1.3547209460880536e-05
-6.797390827469613e-06   -3.8300076721735745e-07   1.3547209460880536e-05
-6.797390827469613e-06   -3.8300076721735745e-07   1.3547209460880536e-05
-6.797390827469613e-06   -3.8300076721735745e-07   1.3547209460880536e-05
-4.911870440034389e-06   -2.6902394037621306e-06   1.5305400258012386e-05
-4.911870440034389e-06   -2.6902394037621306e-06   1.5305400258012386e-05
-4.911870440034389e-06   -2.6902394037621306e-06   1.5305400258012386e-05
-4.911870440034389e-06   -2.6902394037621306e-06   1.5305400258012386e-05
-4.821700770647931e-06   -6.769972686022983e-07   1.2600351551315925e-05
-4.821700770647931e-06   -6.769972686022983e-07   1.2600351551315925e-05
-4.821700770647931e-06   -6.769972686022983e-07   1.2600351551315925e-05
-4.821700770647931e-06   -6.769972686022983e-07   1.2600351551315925e-05
-6.737394667282064e-06   -2.7998667947466813e-06   1.706689642805935e-05
-6.737394667282064e-06   -2.7998667947466813e-06   1.706689642805935e-05
-6.737394667282064e-06   -2.7998667947466813e-06   1.706689642805935e-05
-6.737394667282064e-06   -2.7998667947466813e-06   1.706689642805935e-05
-5.723873391333159e-06   -1.5570261862292499e-06   1.4631989936367447e-05
-5.723873391333159e-06   -1.5570261862292499e-06   1.4631989936367447e-05
-5.723873391333159e-06   -1.5570261862292499e-06   1.4631989936367447e-05
-5.723873391333159e-06   -1.5570261862292499e-06   1.4631989936367447e-05
-4.985016828939901e-06   7.149603360216087e-07   9.182150987286362e-06
-4.985016828939901e-06   7.149603360216087e-07   9.182150987286362e-06
-4.985016828939901e-06   7.149603360216087e-07   9.182150987286362e-06
-4.985016828939901e-06   7.149603360216087e-07   9.182150987286362e-06
-4.180270544024904e-06   -1.093189124916653e-06   9.438505118915025e-06
-4.180270544024904e-06   -1.093189124916653e-06   9.438505118915025e-06
-4.180270544024904e-06   -1.093189124916653e-06   9.438505118915025e-06
-4.180270544024904e-06   -1.093189124916653e-06   9.438505118915025e-06
-4.0955176953128e-06   3.9147415158564654e-07   8.291417436995566e-06
-4.0955176953128e-06   3.9147415158564654e-07   8.291417436995566e-06
-4.0955176953128e-06   3.9147415158564654e-07   8.291417436995566e-06
-4.0955176953128e-06   3.9147415158564654e-07   8.291417436995566e-06
-4.944850421241591e-06   -1.2777511753030526e-06   1.0708507176343518e-05
-4.944850421241591e-06   -1.2777511753030526e-06   1.0708507176343518e-05
-4.944850421241591e-06   -1.2777511753030526e-06   1.0708507176343518e-05
-4.944850421241591e-06   -1.2777511753030526e-06   1.0708507176343518e-05
-4.518426811932693e-06   -2.4972863197644064e-07   9.380987634832825e-06
-4.518426811932693e-06   -2.4972863197644064e-07   9.380987634832825e-06
-4.518426811932693e-06   -2.4972863197644064e-07   9.380987634832825e-06
-4.518426811932693e-06   -2.4972863197644064e-07   9.380987634832825e-06
-4.944850421241591e-06   3.9147415158564654e-07   9.292952633128731e-06
-4.944850421241591e-06   3.9147415158564654e-07   9.292952633128731e-06
-4.944850421241591e-06   3.9147415158564654e-07   9.292952633128731e-06
-4.944850421241591e-06   3.9147415158564654e-07   9.292952633128731e-06
-4.0955176953128e-06   -1.2777511753030526e-06   9.706971980210272e-06
-4.0955176953128e-06   -1.2777511753030526e-06   9.706971980210272e-06
-4.0955176953128e-06   -1.2777511753030526e-06   9.706971980210272e-06
-4.0955176953128e-06   -1.2777511753030526e-06   9.706971980210272e-06
-4.060266634431939e-06   1.1424811700698088e-07   8.682034451766617e-06
-4.060266634431939e-06   1.1424811700698088e-07   8.682034451766617e-06
-4.060266634431939e-06   1.1424811700698088e-07   8.682034451766617e-06
-4.060266634431939e-06   1.1424811700698088e-07   8.682034451766617e-06
-4.911870440034362e-06   -1.4193875317354966e-06   1.1021555517016124e-05
-4.911870440034362e-06   -1.4193875317354966e-06   1.1021555517016124e-05
-4.911870440034362e-06   -1.4193875317354966e-06   1.1021555517016124e-05
-4.911870440034362e-06   -1.4193875317354966e-06   1.1021555517016124e-05
-4.434218734127658e-06   -4.460701104755057e-07   9.641478887748532e-06
-4.434218734127658e-06   -4.460701104755057e-07   9.641478887748532e-06
-4.434218734127658e-06   -4.460701104755057e-07   9.641478887748532e-06
-4.434218734127658e-06   -4.460701104755057e-07   9.641478887748532e-06
-4.911870440034362e-06   1.1424811700698088e-07   9.602215841011995e-06
-4.911870440034362e-06   1.1424811700698088e-07   9.602215841011995e-06
-4.911870440034362e-06   1.1424811700698088e-07   9.602215841011995e-06
-4.911870440034362e-06   1.1424811700698088e-07   9.602215841011995e-06
-4.060266634431939e-06   -1.4193875317354966e-06   1.0101374127770583e-05
-4.060266634431939e-06   -1.4193875317354966e-06   1.0101374127770583e-05
-4.060266634431939e-06   -1.4193875317354966e-06   1.0101374127770583e-05
-4.060266634431939e-06   -1.4193875317354966e-06   1.0101374127770583e-05
-3.998842288662873e-06   -1.6536484349682695e-07   9.172556884312101e-06
-3.998842288662873e-06   -1.6536484349682695e-07   9.172556884312101e-06
-3.998842288662873e-06   -1.6536484349682695e-07   9.172556884312101e-06
-3.998842288662873e-06   -1.6536484349682695e-07   9.172556884312101e-06
-4.821700770647931e-06   -1.604661122981874e-06   1.1407565455311488e-05
-4.821700770647931e-06   -1.604661122981874e-06   1.1407565455311488e-05
-4.821700770647931e-06   -1.604661122981874e-06   1.1407565455311488e-05
-4.821700770647931e-06   -1.604661122981874e-06   1.1407565455311488e-05
-4.370753895034264e-06   -6.186143530345634e-07   1.0064359267320595e-05
-4.370753895034264e-06   -6.186143530345634e-07   1.0064359267320595e-05
-4.370753895034264e-06   -6.186143530345634e-07   1.0064359267320595e-05
-4.370753895034264e-06   -6.186143530345634e-07   1.0064359267320595e-05
-4.180270544024904e-06   1.1833721928041158e-06   2.131649466702583e-06
-4.180270544024904e-06   1.1833721928041158e-06   2.131649466702583e-06
-4.180270544024904e-06   1.1833721928041158e-06   2.131649466702583e-06
-4.180270544024904e-06   1.1833721928041158e-06   2.131649466702583e-06
-2.454811790590845e-06   -1.1900547455936722e-07   4.225987455341244e-06
-2.454811790590845e-06   -1.1900547455936722e-07   4.225987455341244e-06
-2.454811790590845e-06   -1.1900547455936722e-07   4.225987455341244e-06
-2.454811790590845e-06   -1.1900547455936722e-07   4.225987455341244e-06
-2.5981961765660718e-06   9.538099776507493e-07   2.1527661861355353e-06
-2.5981961765660718e-06   9.538099776507493e-07   2.1527661861355353e-06
-2.5981961765660718e-06   9.538099776507493e-07   2.1527661861355353e-06
-2.5981961765660718e-06   9.538099776507493e-07   2.1527661861355353e-06
-4.0955176953128e-06   -1.673150429062865e-07   5.320977063047721e-06
-4.0955176953128e-06   -1.673150429062865e-07   5.320977063047721e-06
-4.0955176953128e-06   -1.673150429062865e-07   5.320977063047721e-06
-4.0955176953128e-06   -1.673150429062865e-07   5.320977063047721e-06
-3.21750222845329e-06   6.091574296380044e-07   3.3917344680890445e-06
-3.21750222845329e-06   6.091574296380044e-07   3.3917344680890445e-06
-3.21750222845329e-06   6.091574296380044e-07   3.3917344680890445e-06
-3.21750222845329e-06   6.091574296380044e-07   3.3917344680890445e-06
-4.0955176953128e-06   9.538099776507493e-07   2.825441198469605e-06
-4.0955176953128e-06   9.538099776507493e-07   2.825441198469605e-06
-4.0955176953128e-06   9.538099776507493e-07   2.825441198469605e-06
-4.0955176953128e-06   9.538099776507493e-07   2.825441198469605e-06
-2.5981961765660718e-06   -1.673150429062594e-07   4.648302050713651e-06
-2.5981961765660718e-06   -1.673150429062594e-07   4.648302050713651e-06
-2.5981961765660718e-06   -1.673150429062594e-07   4.648302050713651e-06
-2.5981961765660718e-06   -1.673150429062594e-07   4.648302050713651e-06
-2.71653438506153e-06   8.038637401986261e-07   2.7884435290602546e-06
-2.71653438506153e-06   8.038637401986261e-07   2.7884435290602546e-06
-2.71653438506153e-06   8.038637401986261e-07   2.7884435290602546e-06
-2.71653438506153e-06   8.038637401986261e-07   2.7884435290602546e-06
-4.060266634431939e-06   -2.322511561900773e-07   5.64966621584398e-06
-4.060266634431939e-06   -2.322511561900773e-07   5.64966621584398e-06
-4.060266634431939e-06   -2.322511561900773e-07   5.64966621584398e-06
-4.060266634431939e-06   -2.322511561900773e-07   5.64966621584398e-06
-3.2794699703821574e-06   4.964608294027984e-07   3.911111251071828e-06
-3.2794699703821574e-06   4.964608294027984e-07   3.911111251071828e-06
-3.2794699703821574e-06   4.964608294027984e-07   3.911111251071828e-06
-3.2794699703821574e-06   4.964608294027984e-07   3.911111251071828e-06
-4.060266634431939e-06   8.038637401985719e-07   3.4101124668934604e-06
-4.060266634431939e-06   8.038637401985719e-07   3.4101124668934604e-06
-4.060266634431939e-06   8.038637401985719e-07   3.4101124668934604e-06
-4.060266634431939e-06   8.038637401985719e-07   3.4101124668934604e-06
-2.716534385061476e-06   -2.322511561900502e-07   5.027997278010882e-06
-2.716534385061476e-06   -2.322511561900502e-07   5.027997278010882e-06
-2.716534385061476e-06   -2.322511561900502e-07   5.027997278010882e-06
-2.716534385061476e-06   -2.322511561900502e-07   5.027997278010882e-06
-2.999105377698866e-06   5.004368244597543e-07   3.92529837815942e-06
-2.999105377698866e-06   5.004368244597543e-07   3.92529837815942e-06
-2.999105377698866e-06   5.004368244597543e-07   3.92529837815942e-06
-2.999105377698866e-06   5.004368244597543e-07   3.92529837815942e-06
-3.998842288662873e-06   -3.1261887731509706e-07   6.079359984164474e-06
-3.998842288662873e-06   -3.1261887731509706e-07   6.079359984164474e-06
-3.998842288662873e-06   -3.1261887731509706e-07   6.079359984164474e-06
-3.998842288662873e-06   -3.1261887731509706e-07   6.079359984164474e-06
-3.291334466815483e-06   4.1938426602339e-07   4.460978395082367e-06
-3.291334466815483e-06   4.1938426602339e-07   4.460978395082367e-06
-3.291334466815483e-06   4.1938426602339e-07   4.460978395082367e-06
-3.291334466815483e-06   4.1938426602339e-07   4.460978395082367e-06
-3.813788140328267e-05   2.9682129497284645e-06   1.6551113347034488e-05
-3.813788140328267e-05   2.9682129497284645e-06   1.6551113347034488e-05
-3.813788140328267e-05   2.9682129497284645e-06   1.6551113347034488e-05
-3.813788140328267e-05   2.9682129497284645e-06   1.6551113347034488e-05
-8.941850809048724e-06   -1.8891097762113403e-05   5.20955779103193e-05
-8.941850809048724e-06   -1.8891097762113403e-05   5.20955779103193e-05
-8.941850809048724e-06   -1.8891097762113403e-05   5.20955779103193e-05
-8.941850809048724e-06   -1.8891097762113403e-05   5.20955779103193e-05
-1.0511840312632901e-05   1.1864726665812748e-06   9.064523782802538e-06
-1.0511840312632901e-05   1.1864726665812748e-06   9.064523782802538e-06
-1.0511840312632901e-05   1.1864726665812748e-06   9.064523782802538e-06
-1.0511840312632901e-05   1.1864726665812748e-06   9.064523782802538e-06
-3.478301895457367e-05   -1.472159421286888e-05   5.906132831370716e-05
-3.478301895457367e-05   -1.472159421286888e-05   5.906132831370716e-05
-3.478301895457367e-05   -1.472159421286888e-05   5.906132831370716e-05
-3.478301895457367e-05   -1.472159421286888e-05   5.906132831370716e-05
-2.318511919349778e-05   -7.327430896649517e-06   3.529499738884905e-05
-2.318511919349778e-05   -7.327430896649517e-06   3.529499738884905e-05
-2.318511919349778e-05   -7.327430896649517e-06   3.529499738884905e-05
-2.318511919349778e-05   -7.327430896649517e-06   3.529499738884905e-05
-3.478301895457361e-05   1.1864726665812748e-06   1.860936391047261e-05
-3.478301895457361e-05   1.1864726665812748e-06   1.860936391047261e-05
-3.478301895457361e-05   1.1864726665812748e-06   1.860936391047261e-05
-3.478301895457361e-05   1.1864726665812748e-06   1.860936391047261e-05
-1.0511840312632921e-05   -1.472159421286888e-05   4.951648818603708e-05
-1.0511840312632921e-05   -1.472159421286888e-05   4.951648818603708e-05
-1.0511840312632921e-05   -1.472159421286888e-05   4.951648818603708e-05
-1.0511840312632921e-05   -1.472159421286888e-05   4.951648818603708e-05
-1.0757726692142495e-05   8.457193649525848e-07   9.962318636767888e-06
-1.0757726692142495e-05   8.457193649525848e-07   9.962318636767888e-06
-1.0757726692142495e-05   8.457193649525848e-07   9.962318636767888e-06
-1.0757726692142495e-05   8.457193649525848e-07   9.962318636767888e-06
-3.2820547599066766e-05   -1.2717632644101508e-05   5.487169802040738e-05
-3.2820547599066766e-05   -1.2717632644101508e-05   5.487169802040738e-05
-3.2820547599066766e-05   -1.2717632644101508e-05   5.487169802040738e-05
-3.2820547599066766e-05   -1.2717632644101508e-05   5.487169802040738e-05
-2.2498106400116654e-05   -6.946070665768658e-06   3.420469216849087e-05
-2.2498106400116654e-05   -6.946070665768658e-06   3.420469216849087e-05
-2.2498106400116654e-05   -6.946070665768658e-06   3.420469216849087e-05
-2.2498106400116654e-05   -6.946070665768658e-06   3.420469216849087e-05
-3.282054759906671e-05   8.457193649525848e-07   1.8100329842200353e-05
-3.282054759906671e-05   8.457193649525848e-07   1.8100329842200353e-05
-3.282054759906671e-05   8.457193649525848e-07   1.8100329842200353e-05
-3.282054759906671e-05   8.457193649525848e-07   1.8100329842200353e-05
-1.0757726692142515e-05   -1.2717632644101508e-05   4.673368681497493e-05
-1.0757726692142515e-05   -1.2717632644101508e-05   4.673368681497493e-05
-1.0757726692142515e-05   -1.2717632644101508e-05   4.673368681497493e-05
-1.0757726692142515e-05   -1.2717632644101508e-05   4.673368681497493e-05
-1.1800611395168707e-05   -6.067266463916858e-07   1.2467488162200063e-05
-1.1800611395168707e-05   -6.067266463916858e-07   1.2467488162200063e-05
-1.1800611395168707e-05   -6.067266463916858e-07   1.2467488162200063e-05
-1.1800611395168707e-05   -6.067266463916858e-07   1.2467488162200063e-05
-3.030223331789187e-05   -1.0053091077884941e-05   4.897134335896785e-05
-3.030223331789187e-05   -1.0053091077884941e-05   4.897134335896785e-05
-3.030223331789187e-05   -1.0053091077884941e-05   4.897134335896785e-05
-3.030223331789187e-05   -1.0053091077884941e-05   4.897134335896785e-05
-2.1648493734983023e-05   -6.413665491093921e-06   3.2364788702045206e-05
-2.1648493734983023e-05   -6.413665491093921e-06   3.2364788702045206e-05
-2.1648493734983023e-05   -6.413665491093921e-06   3.2364788702045206e-05
-2.1648493734983023e-05   -6.413665491093921e-06   3.2364788702045206e-05
-8.94185080904871e-06   -3.4031165816561884e-06   9.43526239399273e-06
-8.94185080904871e-06   -3.4031165816561884e-06   9.43526239399273e-06
-8.94185080904871e-06   -3.4031165816561884e-06   9.43526239399273e-06
-8.94185080904871e-06   -3.4031165816561884e-06   9.43526239399273e-06
-3.107807463451946e-06   -5.926619521513294e-06   1.764456620607318e-05
-3.107807463451946e-06   -5.926619521513294e-06   1.764456620607318e-05
-3.107807463451946e-06   -5.926619521513294e-06   1.764456620607318e-05
-3.107807463451946e-06   -5.926619521513294e-06   1.764456620607318e-05
-3.481376132288987e-06   -2.792200132360062e-06   8.378642362789229e-06
-3.481376132288987e-06   -2.792200132360062e-06   8.378642362789229e-06
-3.481376132288987e-06   -2.792200132360062e-06   8.378642362789229e-06
-3.481376132288987e-06   -2.792200132360062e-06   8.378642362789229e-06
-1.0511840312632921e-05   -7.828251735670085e-06   2.3117713625348378e-05
-1.0511840312632921e-05   -7.828251735670085e-06   2.3117713625348378e-05
-1.0511840312632921e-05   -7.828251735670085e-06   2.3117713625348378e-05
-1.0511840312632921e-05   -7.828251735670085e-06   2.3117713625348378e-05
-6.171067585836093e-06   -4.0908025075466045e-06   1.3640622877146195e-05
-6.171067585836093e-06   -4.0908025075466045e-06   1.3640622877146195e-05
-6.171067585836093e-06   -4.0908025075466045e-06   1.3640622877146195e-05
-6.171067585836093e-06   -4.0908025075466045e-06   1.3640622877146195e-05
-1.0511840312632894e-05   -2.792200132360062e-06   1.1400273324775091e-05
-1.0511840312632894e-05   -2.792200132360062e-06   1.1400273324775091e-05
-1.0511840312632894e-05   -2.792200132360062e-06   1.1400273324775091e-05
-1.0511840312632894e-05   -2.792200132360062e-06   1.1400273324775091e-05
-3.481376132288987e-06   -7.828251735670085e-06   2.0096082663362387e-05
-3.481376132288987e-06   -7.828251735670085e-06   2.0096082663362387e-05
-3.481376132288987e-06   -7.828251735670085e-06   2.0096082663362387e-05
-3.481376132288987e-06   -7.828251735670085e-06   2.0096082663362387e-05
-3.802171435037541e-06   -2.8536281334985106e-06   9.422150595751803e-06
-3.802171435037541e-06   -2.8536281334985106e-06   9.422150595751803e-06
-3.802171435037541e-06   -2.8536281334985106e-06   9.422150595751803e-06
-3.802171435037541e-06   -2.8536281334985106e-06   9.422150595751803e-06
-1.0757726692142515e-05   -7.1758170854394915e-06   2.360805606209127e-05
-1.0757726692142515e-05   -7.1758170854394915e-06   2.360805606209127e-05
-1.0757726692142515e-05   -7.1758170854394915e-06   2.360805606209127e-05
-1.0757726692142515e-05   -7.1758170854394915e-06   2.360805606209127e-05
-6.969520714141036e-06   -4.992141850710291e-06   1.5984174291251422e-05
-6.969520714141036e-06   -4.992141850710291e-06   1.5984174291251422e-05
-6.969520714141036e-06   -4.992141850710291e-06   1.5984174291251422e-05
-6.969520714141036e-06   -4.992141850710291e-06   1.5984174291251422e-05
-1.0757726692142495e-05   -2.8536281334985106e-06   1.2015463966916386e-05
-1.0757726692142495e-05   -2.8536281334985106e-06   1.2015463966916386e-05
-1.0757726692142495e-05   -2.8536281334985106e-06   1.2015463966916386e-05
-1.0757726692142495e-05   -2.8536281334985106e-06   1.2015463966916386e-05
-3.8021714350375545e-06   -7.1758170854394915e-06   2.1014742690926688e-05
-3.8021714350375545e-06   -7.1758170854394915e-06   2.1014742690926688e-05
-3.8021714350375545e-06   -7.1758170854394915e-06   2.1014742690926688e-05
-3.8021714350375545e-06   -7.1758170854394915e-06   2.1014742690926688e-05
-4.325611892570504e-06   -2.8742417127008665e-06   1.0315632236744483e-05
-4.325611892570504e-06   -2.8742417127008665e-06   1.0315632236744483e-05
-4.325611892570504e-06   -2.8742417127008665e-06   1.0315632236744483e-05
-4.325611892570504e-06   -2.8742417127008665e-06   1.0315632236744483e-05
-1.180061139516872e-05   -6.762573854428273e-06   2.5106964026111204e-05
-1.180061139516872e-05   -6.762573854428273e-06   2.5106964026111204e-05
-1.180061139516872e-05   -6.762573854428273e-06   2.5106964026111204e-05
-1.180061139516872e-05   -6.762573854428273e-06   2.5106964026111204e-05
-7.441184121392095e-06   -4.559586839810722e-06   1.651945969437967e-05
-7.441184121392095e-06   -4.559586839810722e-06   1.651945969437967e-05
-7.441184121392095e-06   -4.559586839810722e-06   1.651945969437967e-05
-7.441184121392095e-06   -4.559586839810722e-06   1.651945969437967e-05
-3.107807463451946e-06   -2.6591185998118183e-06   5.108855777376622e-06
-3.107807463451946e-06   -2.6591185998118183e-06   5.108855777376622e-06
-3.107807463451946e-06   -2.6591185998118183e-06   5.108855777376622e-06
-3.107807463451946e-06   -2.6591185998118183e-06   5.108855777376622e-06
-1.7382600404038042e-06   -1.695610887955889e-06   7.969539442903762e-06
-1.7382600404038042e-06   -1.695610887955889e-06   7.969539442903762e-06
-1.7382600404038042e-06   -1.695610887955889e-06   7.969539442903762e-06
-1.7382600404038042e-06   -1.695610887955889e-06   7.969539442903762e-06
-1.6758433271506798e-06   -2.6115909946018278e-06   5.840090835174843e-06
-1.6758433271506798e-06   -2.6115909946018278e-06   5.840090835174843e-06
-1.6758433271506798e-06   -2.6115909946018278e-06   5.840090835174843e-06
-1.6758433271506798e-06   -2.6115909946018278e-06   5.840090835174843e-06
-3.481376132288987e-06   -2.2064071036299128e-06   8.6062018424888e-06
-3.481376132288987e-06   -2.2064071036299128e-06   8.6062018424888e-06
-3.481376132288987e-06   -2.2064071036299128e-06   8.6062018424888e-06
-3.481376132288987e-06   -2.2064071036299128e-06   8.6062018424888e-06
-2.3420866133172456e-06   -2.164155532330804e-06   6.682035034756361e-06
-2.3420866133172456e-06   -2.164155532330804e-06   6.682035034756361e-06
-2.3420866133172456e-06   -2.164155532330804e-06   6.682035034756361e-06
-2.3420866133172456e-06   -2.164155532330804e-06   6.682035034756361e-06
-3.481376132288987e-06   -2.6115909946018278e-06   5.596980500591762e-06
-3.481376132288987e-06   -2.6115909946018278e-06   5.596980500591762e-06
-3.481376132288987e-06   -2.6115909946018278e-06   5.596980500591762e-06
-3.481376132288987e-06   -2.6115909946018278e-06   5.596980500591762e-06
-1.675843327150707e-06   -2.2064071036299128e-06   8.84931217707199e-06
-1.675843327150707e-06   -2.2064071036299128e-06   8.84931217707199e-06
-1.675843327150707e-06   -2.2064071036299128e-06   8.84931217707199e-06
-1.675843327150707e-06   -2.2064071036299128e-06   8.84931217707199e-06
-1.684067984868853e-06   -2.6902394037621306e-06   6.247712324201546e-06
-1.684067984868853e-06   -2.6902394037621306e-06   6.247712324201546e-06
-1.684067984868853e-06   -2.6902394037621306e-06   6.247712324201546e-06
-1.684067984868853e-06   -2.6902394037621306e-06   6.247712324201546e-06
-3.8021714350375545e-06   -2.817788560461453e-06   9.854414235168849e-06
-3.8021714350375545e-06   -2.817788560461453e-06   9.854414235168849e-06
-3.8021714350375545e-06   -2.817788560461453e-06   9.854414235168849e-06
-3.8021714350375545e-06   -2.817788560461453e-06   9.854414235168849e-06
-2.4901109734847536e-06   -2.365891693657655e-06   7.396508679165259e-06
-2.4901109734847536e-06   -2.365891693657655e-06   7.396508679165259e-06
-2.4901109734847536e-06   -2.365891693657655e-06   7.396508679165259e-06
-2.4901109734847536e-06   -2.365891693657655e-06   7.396508679165259e-06
-3.8021714350375274e-06   -2.6902394037621306e-06   6.324241818221089e-06
-3.8021714350375274e-06   -2.6902394037621306e-06   6.324241818221089e-06
-3.8021714350375274e-06   -2.6902394037621306e-06   6.324241818221089e-06
-3.8021714350375274e-06   -2.6902394037621306e-06   6.324241818221089e-06
-1.684067984868853e-06   -2.817788560461453e-06   9.777884741149224e-06
-1.684067984868853e-06   -2.817788560461453e-06   9.777884741149224e-06
-1.684067984868853e-06   -2.817788560461453e-06   9.777884741149224e-06
-1.684067984868853e-06   -2.817788560461453e-06   9.777884741149224e-06
-1.7194185549114212e-06   -2.7998667947466813e-06   6.8597494001286594e-06
-1.7194185549114212e-06   -2.7998667947466813e-06   6.8597494001286594e-06
-1.7194185549114212e-06   -2.7998667947466813e-06   6.8597494001286594e-06
-1.7194185549114212e-06   -2.7998667947466813e-06   6.8597494001286594e-06
-4.325611892570504e-06   -3.398012400781103e-06   1.156229232651443e-05
-4.325611892570504e-06   -3.398012400781103e-06   1.156229232651443e-05
-4.325611892570504e-06   -3.398012400781103e-06   1.156229232651443e-05
-4.325611892570504e-06   -3.398012400781103e-06   1.156229232651443e-05
-2.6600358326494205e-06   -2.5786833430121547e-06   8.294734791984608e-06
-2.6600358326494205e-06   -2.5786833430121547e-06   8.294734791984608e-06
-2.6600358326494205e-06   -2.5786833430121547e-06   8.294734791984608e-06
-2.6600358326494205e-06   -2.5786833430121547e-06   8.294734791984608e-06
-1.7382600404038042e-06   -1.0931891249166801e-06   1.498918539599855e-06
-1.7382600404038042e-06   -1.0931891249166801e-06   1.498918539599855e-06
-1.7382600404038042e-06   -1.0931891249166801e-06   1.498918539599855e-06
-1.7382600404038042e-06   -1.0931891249166801e-06   1.498918539599855e-06
-1.3010430355273376e-06   2.463024930405586e-07   3.031308518501618e-06
-1.3010430355273376e-06   2.463024930405586e-07   3.031308518501618e-06
-1.3010430355273376e-06   2.463024930405586e-07   3.031308518501618e-06
-1.3010430355273376e-06   2.463024930405586e-07   3.031308518501618e-06
-1.0573510707157928e-06   -1.2777511753030797e-06   2.4358075481455002e-06
-1.0573510707157928e-06   -1.2777511753030797e-06   2.4358075481455002e-06
-1.0573510707157928e-06   -1.2777511753030797e-06   2.4358075481455002e-06
-1.0573510707157928e-06   -1.2777511753030797e-06   2.4358075481455002e-06
-1.675843327150707e-06   5.965262826250158e-08   2.66418569339744e-06
-1.675843327150707e-06   5.965262826250158e-08   2.66418569339744e-06
-1.675843327150707e-06   5.965262826250158e-08   2.66418569339744e-06
-1.675843327150707e-06   5.965262826250158e-08   2.66418569339744e-06
-1.3536718848592441e-06   -5.273228393790129e-07   2.4794185701632315e-06
-1.3536718848592441e-06   -5.273228393790129e-07   2.4794185701632315e-06
-1.3536718848592441e-06   -5.273228393790129e-07   2.4794185701632315e-06
-1.3536718848592441e-06   -5.273228393790129e-07   2.4794185701632315e-06
-1.675843327150707e-06   -1.2777511753030797e-06   1.6333652660061244e-06
-1.675843327150707e-06   -1.2777511753030797e-06   1.6333652660061244e-06
-1.675843327150707e-06   -1.2777511753030797e-06   1.6333652660061244e-06
-1.675843327150707e-06   -1.2777511753030797e-06   1.6333652660061244e-06
-1.0573510707157928e-06   5.965262826250158e-08   3.466627975536843e-06
-1.0573510707157928e-06   5.965262826250158e-08   3.466627975536843e-06
-1.0573510707157928e-06   5.965262826250158e-08   3.466627975536843e-06
-1.0573510707157928e-06   5.965262826250158e-08   3.466627975536843e-06
-9.256230079058799e-07   -1.4193875317355237e-06   2.676339155000375e-06
-9.256230079058799e-07   -1.4193875317355237e-06   2.676339155000375e-06
-9.256230079058799e-07   -1.4193875317355237e-06   2.676339155000375e-06
-9.256230079058799e-07   -1.4193875317355237e-06   2.676339155000375e-06
-1.684067984868853e-06   -2.3193491207696635e-07   3.2279425448101195e-06
-1.684067984868853e-06   -2.3193491207696635e-07   3.2279425448101195e-06
-1.684067984868853e-06   -2.3193491207696635e-07   3.2279425448101195e-06
-1.684067984868853e-06   -2.3193491207696635e-07   3.2279425448101195e-06
-1.2312578339823568e-06   -6.724114836516326e-07   2.737544902944053e-06
-1.2312578339823568e-06   -6.724114836516326e-07   2.737544902944053e-06
-1.2312578339823568e-06   -6.724114836516326e-07   2.737544902944053e-06
-1.2312578339823568e-06   -6.724114836516326e-07   2.737544902944053e-06
-1.68406798486888e-06   -1.4193875317355237e-06   1.9638675832051283e-06
-1.68406798486888e-06   -1.4193875317355237e-06   1.9638675832051283e-06
-1.68406798486888e-06   -1.4193875317355237e-06   1.9638675832051283e-06
-1.68406798486888e-06   -1.4193875317355237e-06   1.9638675832051283e-06
-9.256230079058799e-07   -2.3193491207696635e-07   3.940414116605285e-06
-9.256230079058799e-07   -2.3193491207696635e-07   3.940414116605285e-06
-9.256230079058799e-07   -2.3193491207696635e-07   3.940414116605285e-06
-9.256230079058799e-07   -2.3193491207696635e-07   3.940414116605285e-06
-7.238552763950078e-07   -1.604661122981874e-06   2.9416763187005987e-06
-7.238552763950078e-07   -1.604661122981874e-06   2.9416763187005987e-06
-7.238552763950078e-07   -1.604661122981874e-06   2.9416763187005987e-06
-7.238552763950078e-07   -1.604661122981874e-06   2.9416763187005987e-06
-1.7194185549114212e-06   -8.254341635931858e-07   4.133412273928019e-06
-1.7194185549114212e-06   -8.254341635931858e-07   4.133412273928019e-06
-1.7194185549114212e-06   -8.254341635931858e-07   4.133412273928019e-06
-1.7194185549114212e-06   -8.254341635931858e-07   4.133412273928019e-06
-1.1337318231262729e-06   -8.92266513072439e-07   3.197367130640535e-06
-1.1337318231262729e-06   -8.92266513072439e-07   3.197367130640535e-06
-1.1337318231262729e-06   -8.92266513072439e-07   3.197367130640535e-06
-1.1337318231262729e-06   -8.92266513072439e-07   3.197367130640535e-06
-1.3010430355273376e-06   -1.1900547455936722e-07   -2.1284775527816114e-06
-1.3010430355273376e-06   -1.1900547455936722e-07   -2.1284775527816114e-06
-1.3010430355273376e-06   -1.1900547455936722e-07   -2.1284775527816114e-06
-1.3010430355273376e-06   -1.1900547455936722e-07   -2.1284775527816114e-06
-2.528030170061992e-07   1.8195241854210457e-07   -2.0083611938553816e-07
-2.528030170061992e-07   1.8195241854210457e-07   -2.0083611938553816e-07
-2.528030170061992e-07   1.8195241854210457e-07   -2.0083611938553816e-07
-2.528030170061992e-07   1.8195241854210457e-07   -2.0083611938553816e-07
-1.3901009141036643e-08   -1.673150429062865e-07   -1.661957226829075e-06
-1.3901009141036643e-08   -1.673150429062865e-07   -1.661957226829075e-06
-1.3901009141036643e-08   -1.673150429062865e-07   -1.661957226829075e-06
-1.3901009141036643e-08   -1.673150429062865e-07   -1.661957226829075e-06
-1.0573510707157928e-06   3.1306852740704453e-07   -2.1110393305927722e-07
-1.0573510707157928e-06   3.1306852740704453e-07   -2.1110393305927722e-07
-1.0573510707157928e-06   3.1306852740704453e-07   -2.1110393305927722e-07
-1.0573510707157928e-06   3.1306852740704453e-07   -2.1110393305927722e-07
-5.998095078356815e-07   8.543302817607106e-08   -8.370919049876949e-07
-5.998095078356815e-07   8.543302817607106e-08   -8.370919049876949e-07
-5.998095078356815e-07   8.543302817607106e-08   -8.370919049876949e-07
-5.998095078356815e-07   8.543302817607106e-08   -8.370919049876949e-07
-1.0573510707157928e-06   -1.673150429062594e-07   -1.9501873690171048e-06
-1.0573510707157928e-06   -1.673150429062594e-07   -1.9501873690171048e-06
-1.0573510707157928e-06   -1.673150429062594e-07   -1.9501873690171048e-06
-1.0573510707157928e-06   -1.673150429062594e-07   -1.9501873690171048e-06
-1.3901009141036643e-08   3.1306852740704453e-07   7.712620912872547e-08
-1.3901009141036643e-08   3.1306852740704453e-07   7.712620912872547e-08
-1.3901009141036643e-08   3.1306852740704453e-07   7.712620912872547e-08
-1.3901009141036643e-08   3.1306852740704453e-07   7.712620912872547e-08
1.0915210231591263e-07   -2.322511561900773e-07   -1.4780956696003496e-06
1.0915210231591263e-07   -2.322511561900773e-07   -1.4780956696003496e-06
1.0915210231591263e-07   -2.322511561900773e-07   -1.4780956696003496e-06
1.0915210231591263e-07   -2.322511561900773e-07   -1.4780956696003496e-06
-9.256230079058799e-07   2.632039893528081e-07   -5.07435732231506e-08
-9.256230079058799e-07   2.632039893528081e-07   -5.07435732231506e-08
-9.256230079058799e-07   2.632039893528081e-07   -5.07435732231506e-08
-9.256230079058799e-07   2.632039893528081e-07   -5.07435732231506e-08
-4.243380490830649e-07   5.540044130812236e-08   -7.615363757675336e-07
-4.243380490830649e-07   5.540044130812236e-08   -7.615363757675336e-07
-4.243380490830649e-07   5.540044130812236e-08   -7.615363757675336e-07
-4.243380490830649e-07   5.540044130812236e-08   -7.615363757675336e-07
-9.256230079058799e-07   -2.322511561900502e-07   -1.7753687569261201e-06
-9.256230079058799e-07   -2.322511561900502e-07   -1.7753687569261201e-06
-9.256230079058799e-07   -2.322511561900502e-07   -1.7753687569261201e-06
-9.256230079058799e-07   -2.322511561900502e-07   -1.7753687569261201e-06
1.0915210231591263e-07   2.632039893528081e-07   2.4652951410256575e-07
1.0915210231591263e-07   2.632039893528081e-07   2.4652951410256575e-07
1.0915210231591263e-07   2.632039893528081e-07   2.4652951410256575e-07
1.0915210231591263e-07   2.632039893528081e-07   2.4652951410256575e-07
2.608992376461794e-07   -3.1261887731509706e-07   -1.2055224499325995e-06
2.608992376461794e-07   -3.1261887731509706e-07   -1.2055224499325995e-06
2.608992376461794e-07   -3.1261887731509706e-07   -1.2055224499325995e-06
2.608992376461794e-07   -3.1261887731509706e-07   -1.2055224499325995e-06
-7.238552763950078e-07   2.1642934738946151e-07   1.1830613864651169e-07
-7.238552763950078e-07   2.1642934738946151e-07   1.1830613864651169e-07
-7.238552763950078e-07   2.1642934738946151e-07   1.1830613864651169e-07
-7.238552763950078e-07   2.1642934738946151e-07   1.1830613864651169e-07
-2.6600801508310456e-07   1.8120600056673345e-08   -5.257873818069166e-07
-2.6600801508310456e-07   1.8120600056673345e-08   -5.257873818069166e-07
-2.6600801508310456e-07   1.8120600056673345e-08   -5.257873818069166e-07
-2.6600801508310456e-07   1.8120600056673345e-08   -5.257873818069166e-07
              </DataArray>   
             <DataArray type="Float64" NumberOfComponents="3" Name="Stress" format="ascii">   
-1.983525873079073   -0.49588146826976826   -0.49588146826976826
-1.983525873079073   -0.49588146826976826   -0.49588146826976826
-1.983525873079073   -0.49588146826976826   -0.49588146826976826
-1.983525873079073   -0.49588146826976826   -0.49588146826976826
-1.147673372181845   -0.03672996063995754   -0.023154986774504088
-1.147673372181845   -0.03672996063995754   -0.023154986774504088
-1.147673372181845   -0.03672996063995754   -0.023154986774504088
-1.147673372181845   -0.03672996063995754   -0.023154986774504088
-1.2367449521462612   -0.3091862380365653   -0.3091862380365653
-1.2367449521462612   -0.3091862380365653   -0.3091862380365653
-1.2367449521462612   -0.3091862380365653   -0.3091862380365653
-1.2367449521462612   -0.3091862380365653   -0.3091862380365653
-1.9115652180099798   -0.15727131204013683   -0.0602365854970468
-1.9115652180099798   -0.15727131204013683   -0.0602365854970468
-1.9115652180099798   -0.15727131204013683   -0.0602365854970468
-1.9115652180099798   -0.15727131204013683   -0.0602365854970468
-1.4991434098191105   -0.24594795697569177   -0.0041597353628721155
-1.4991434098191105   -0.24594795697569177   -0.0041597353628721155
-1.4991434098191105   -0.24594795697569177   -0.0041597353628721155
-1.4991434098191105   -0.24594795697569177   -0.0041597353628721155
-2.075626265002829   -0.5189065662507073   -0.5189065662507073
-2.075626265002829   -0.5189065662507073   -0.5189065662507073
-2.075626265002829   -0.5189065662507073   -0.5189065662507073
-2.075626265002829   -0.5189065662507073   -0.5189065662507073
-1.1116211631379116   0.013511758189508227   -0.006265289220891271
-1.1116211631379116   0.013511758189508227   -0.006265289220891271
-1.1116211631379116   0.013511758189508227   -0.006265289220891271
-1.1116211631379116   0.013511758189508227   -0.006265289220891271
-1.2400339155597764   -0.3100084788899441   -0.3100084788899441
-1.2400339155597764   -0.3100084788899441   -0.3100084788899441
-1.2400339155597764   -0.3100084788899441   -0.3100084788899441
-1.2400339155597764   -0.3100084788899441   -0.3100084788899441
-1.975585916761825   -0.15871737246309786   -0.088239456632754
-1.975585916761825   -0.15871737246309786   -0.088239456632754
-1.975585916761825   -0.15871737246309786   -0.088239456632754
-1.975585916761825   -0.15871737246309786   -0.088239456632754
-1.5548446593589675   -0.23149202690099163   -0.08249586362799728
-1.5548446593589675   -0.23149202690099163   -0.08249586362799728
-1.5548446593589675   -0.23149202690099163   -0.08249586362799728
-1.5548446593589675   -0.23149202690099163   -0.08249586362799728
-2.140216167714065   -0.5350540419285162   -0.5350540419285162
-2.140216167714065   -0.5350540419285162   -0.5350540419285162
-2.140216167714065   -0.5350540419285162   -0.5350540419285162
-2.140216167714065   -0.5350540419285162   -0.5350540419285162
-1.108204775808482   0.03352707937453203   0.005601661602050723
-1.108204775808482   0.03352707937453203   0.005601661602050723
-1.108204775808482   0.03352707937453203   0.005601661602050723
-1.108204775808482   0.03352707937453203   0.005601661602050723
-1.2391579373226913   -0.3097894843306728   -0.3097894843306728
-1.2391579373226913   -0.3097894843306728   -0.3097894843306728
-1.2391579373226913   -0.3097894843306728   -0.3097894843306728
-1.2391579373226913   -0.3097894843306728   -0.3097894843306728
-2.090025101978108   -0.1390689721036606   -0.05304564983427017
-2.090025101978108   -0.1390689721036606   -0.05304564983427017
-2.090025101978108   -0.1390689721036606   -0.05304564983427017
-2.090025101978108   -0.1390689721036606   -0.05304564983427017
-1.5960952154747268   -0.2278289761735836   -0.14905536486736276
-1.5960952154747268   -0.2278289761735836   -0.14905536486736276
-1.5960952154747268   -0.2278289761735836   -0.14905536486736276
-1.5960952154747268   -0.2278289761735836   -0.14905536486736276
-1.2618848696655052   -0.3154712174163763   -0.3154712174163763
-1.2618848696655052   -0.3154712174163763   -0.3154712174163763
-1.2618848696655052   -0.3154712174163763   -0.3154712174163763
-1.2618848696655052   -0.3154712174163763   -0.3154712174163763
-0.5267572404837416   -0.035292428024819744   -0.011447467896560405
-0.5267572404837416   -0.035292428024819744   -0.011447467896560405
-0.5267572404837416   -0.035292428024819744   -0.011447467896560405
-0.5267572404837416   -0.035292428024819744   -0.011447467896560405
-0.5527360649632482   -0.13818401624081206   -0.13818401624081206
-0.5527360649632482   -0.13818401624081206   -0.13818401624081206
-0.5527360649632482   -0.13818401624081206   -0.13818401624081206
-0.5527360649632482   -0.13818401624081206   -0.13818401624081206
-1.1487351302546591   -0.13525168362837023   -0.04307168298674898
-1.1487351302546591   -0.13525168362837023   -0.04307168298674898
-1.1487351302546591   -0.13525168362837023   -0.04307168298674898
-1.1487351302546591   -0.13525168362837023   -0.04307168298674898
-0.8473836875776222   -0.1606094570960037   0.006588122122581956
-0.8473836875776222   -0.1606094570960037   0.006588122122581956
-0.8473836875776222   -0.1606094570960037   0.006588122122581956
-0.8473836875776222   -0.1606094570960037   0.006588122122581956
-1.2367449521462603   -0.3091862380365651   -0.3091862380365651
-1.2367449521462603   -0.3091862380365651   -0.3091862380365651
-1.2367449521462603   -0.3091862380365651   -0.3091862380365651
-1.2367449521462603   -0.3091862380365651   -0.3091862380365651
-0.4967984939248467   0.0036782873141823214   -0.0003584646037985348
-0.4967984939248467   0.0036782873141823214   -0.0003584646037985348
-0.4967984939248467   0.0036782873141823214   -0.0003584646037985348
-0.4967984939248467   0.0036782873141823214   -0.0003584646037985348
-0.5402072820125652   -0.1350518205031413   -0.1350518205031413
-0.5402072820125652   -0.1350518205031413   -0.1350518205031413
-0.5402072820125652   -0.1350518205031413   -0.1350518205031413
-0.5402072820125652   -0.1350518205031413   -0.1350518205031413
-1.1456534567737344   -0.11028380355310063   -0.037830860296577576
-1.1456534567737344   -0.11028380355310063   -0.037830860296577576
-1.1456534567737344   -0.11028380355310063   -0.037830860296577576
-1.1456534567737344   -0.11028380355310063   -0.037830860296577576
-0.8353942329633577   -0.1351720757402592   -0.043656562219177256
-0.8353942329633577   -0.1351720757402592   -0.043656562219177256
-0.8353942329633577   -0.1351720757402592   -0.043656562219177256
-0.8353942329633577   -0.1351720757402592   -0.043656562219177256
-1.2400339155597764   -0.3100084788899441   -0.3100084788899441
-1.2400339155597764   -0.3100084788899441   -0.3100084788899441
-1.2400339155597764   -0.3100084788899441   -0.3100084788899441
-1.2400339155597764   -0.3100084788899441   -0.3100084788899441
-0.4768909115896771   0.03360876647054824   0.0128694446376095
-0.4768909115896771   0.03360876647054824   0.0128694446376095
-0.4768909115896771   0.03360876647054824   0.0128694446376095
-0.4768909115896771   0.03360876647054824   0.0128694446376095
-0.5287659905491101   -0.13219149763727753   -0.13219149763727753
-0.5287659905491101   -0.13219149763727753   -0.13219149763727753
-0.5287659905491101   -0.13219149763727753   -0.13219149763727753
-0.5287659905491101   -0.13219149763727753   -0.13219149763727753
-1.1370257135359143   -0.08504158992427724   -0.023876259803198123
-1.1370257135359143   -0.08504158992427724   -0.023876259803198123
-1.1370257135359143   -0.08504158992427724   -0.023876259803198123
-1.1370257135359143   -0.08504158992427724   -0.023876259803198123
-0.8393199442692852   -0.11956440351287136   -0.09723552908856196
-0.8393199442692852   -0.11956440351287136   -0.09723552908856196
-0.8393199442692852   -0.11956440351287136   -0.09723552908856196
-0.8393199442692852   -0.11956440351287136   -0.09723552908856196
-0.5748991792216294   -0.14372479480540734   -0.14372479480540734
-0.5748991792216294   -0.14372479480540734   -0.14372479480540734
-0.5748991792216294   -0.14372479480540734   -0.14372479480540734
-0.5748991792216294   -0.14372479480540734   -0.14372479480540734
0.06757782405396373   0.004311672911577417   0.0005626968800784924
0.06757782405396373   0.004311672911577417   0.0005626968800784924
0.06757782405396373   0.004311672911577417   0.0005626968800784924
0.06757782405396373   0.004311672911577417   0.0005626968800784924
0.0882421474070954   0.02206053685177385   0.02206053685177385
0.0882421474070954   0.02206053685177385   0.02206053685177385
0.0882421474070954   0.02206053685177385   0.02206053685177385
0.0882421474070954   0.02206053685177385   0.02206053685177385
-0.5196073978029541   -0.08980473577059882   -0.02091996090955871
-0.5196073978029541   -0.08980473577059882   -0.02091996090955871
-0.5196073978029541   -0.08980473577059882   -0.02091996090955871
-0.5196073978029541   -0.08980473577059882   -0.02091996090955871
-0.22276478511276357   -0.05649692555286747   0.037651321571746804
-0.22276478511276357   -0.05649692555286747   0.037651321571746804
-0.22276478511276357   -0.05649692555286747   0.037651321571746804
-0.22276478511276357   -0.05649692555286747   0.037651321571746804
-0.5527360649632482   -0.13818401624081206   -0.13818401624081206
-0.5527360649632482   -0.13818401624081206   -0.13818401624081206
-0.5527360649632482   -0.13818401624081206   -0.13818401624081206
-0.5527360649632482   -0.13818401624081206   -0.13818401624081206
0.08984480150298942   0.03891380425758752   0.013220539925429486
0.08984480150298942   0.03891380425758752   0.013220539925429486
0.08984480150298942   0.03891380425758752   0.013220539925429486
0.08984480150298942   0.03891380425758752   0.013220539925429486
0.09950665214168716   0.02487666303542179   0.02487666303542179
0.09950665214168716   0.02487666303542179   0.02487666303542179
0.09950665214168716   0.02487666303542179   0.02487666303542179
0.09950665214168716   0.02487666303542179   0.02487666303542179
-0.5010706201334787   -0.060393153585414354   -0.014027178025444382
-0.5010706201334787   -0.060393153585414354   -0.014027178025444382
-0.5010706201334787   -0.060393153585414354   -0.014027178025444382
-0.5010706201334787   -0.060393153585414354   -0.014027178025444382
-0.21351657113343797   -0.034891835650788565   -0.012924841167891004
-0.21351657113343797   -0.034891835650788565   -0.012924841167891004
-0.21351657113343797   -0.034891835650788565   -0.012924841167891004
-0.21351657113343797   -0.034891835650788565   -0.012924841167891004
-0.5402072820125652   -0.1350518205031413   -0.1350518205031413
-0.5402072820125652   -0.1350518205031413   -0.1350518205031413
-0.5402072820125652   -0.1350518205031413   -0.1350518205031413
-0.5402072820125652   -0.1350518205031413   -0.1350518205031413
0.10775229018888108   0.06864430612125745   0.02233721018555488
0.10775229018888108   0.06864430612125745   0.02233721018555488
0.10775229018888108   0.06864430612125745   0.02233721018555488
0.10775229018888108   0.06864430612125745   0.02233721018555488
0.11459707891223896   0.02864926972805974   0.02864926972805974
0.11459707891223896   0.02864926972805974   0.02864926972805974
0.11459707891223896   0.02864926972805974   0.02864926972805974
0.11459707891223896   0.02864926972805974   0.02864926972805974
-0.48090016741238595   -0.025333099808248577   0.00027922021730817856
-0.48090016741238595   -0.025333099808248577   0.00027922021730817856
-0.48090016741238595   -0.025333099808248577   0.00027922021730817856
-0.48090016741238595   -0.025333099808248577   0.00027922021730817856
-0.20694712840150947   -0.014063547202553768   -0.06304913782926182
-0.20694712840150947   -0.014063547202553768   -0.06304913782926182
-0.20694712840150947   -0.014063547202553768   -0.06304913782926182
-0.20694712840150947   -0.014063547202553768   -0.06304913782926182
0.0740032778840363   0.018500819471009074   0.018500819471009074
0.0740032778840363   0.018500819471009074   0.018500819471009074
0.0740032778840363   0.018500819471009074   0.018500819471009074
0.0740032778840363   0.018500819471009074   0.018500819471009074
0.7183304933121905   0.06593335619611347   0.022260870092875213
0.7183304933121905   0.06593335619611347   0.022260870092875213
0.7183304933121905   0.06593335619611347   0.022260870092875213
0.7183304933121905   0.06593335619611347   0.022260870092875213
0.7801685902318188   0.1950421475579547   0.1950421475579547
0.7801685902318188   0.1950421475579547   0.1950421475579547
0.7801685902318188   0.1950421475579547   0.1950421475579547
0.7801685902318188   0.1950421475579547   0.1950421475579547
0.06720845236768554   -0.05056157454500866   -0.01048582694849436
0.06720845236768554   -0.05056157454500866   -0.01048582694849436
0.06720845236768554   -0.05056157454500866   -0.01048582694849436
0.06720845236768554   -0.05056157454500866   -0.01048582694849436
0.40944204044509397   0.050986700717088156   0.07433679824770756
0.40944204044509397   0.050986700717088156   0.07433679824770756
0.40944204044509397   0.050986700717088156   0.07433679824770756
0.40944204044509397   0.050986700717088156   0.07433679824770756
0.08824214740709571   0.022060536851773928   0.022060536851773928
0.08824214740709571   0.022060536851773928   0.022060536851773928
0.08824214740709571   0.022060536851773928   0.022060536851773928
0.08824214740709571   0.022060536851773928   0.022060536851773928
0.7270845962735437   0.09036973724230725   0.03429458808222689
0.7270845962735437   0.09036973724230725   0.03429458808222689
0.7270845962735437   0.09036973724230725   0.03429458808222689
0.7270845962735437   0.09036973724230725   0.03429458808222689
0.777032283439318   0.1942580708598295   0.1942580708598295
0.777032283439318   0.1942580708598295   0.1942580708598295
0.777032283439318   0.1942580708598295   0.1942580708598295
0.777032283439318   0.1942580708598295   0.1942580708598295
0.08522834309768997   -0.021793922118329423   0.0001557029691862076
0.08522834309768997   -0.021793922118329423   0.0001557029691862076
0.08522834309768997   -0.021793922118329423   0.0001557029691862076
0.08522834309768997   -0.021793922118329423   0.0001557029691862076
0.40662922240070326   0.0669935717980256   0.019285070801059994
0.40662922240070326   0.0669935717980256   0.019285070801059994
0.40662922240070326   0.0669935717980256   0.019285070801059994
0.40662922240070326   0.0669935717980256   0.019285070801059994
0.09950665214168725   0.02487666303542181   0.02487666303542181
0.09950665214168725   0.02487666303542181   0.02487666303542181
0.09950665214168725   0.02487666303542181   0.02487666303542181
0.09950665214168725   0.02487666303542181   0.02487666303542181
0.7310128528037191   0.11584636411447681   0.042572624427188205
0.7310128528037191   0.11584636411447681   0.042572624427188205
0.7310128528037191   0.11584636411447681   0.042572624427188205
0.7310128528037191   0.11584636411447681   0.042572624427188205
0.7922780789119765   0.19806951972799414   0.19806951972799414
0.7922780789119765   0.19806951972799414   0.19806951972799414
0.7922780789119765   0.19806951972799414   0.19806951972799414
0.7922780789119765   0.19806951972799414   0.19806951972799414
0.1087999416256808   0.016245811478887016   0.012067041544440733
0.1087999416256808   0.016245811478887016   0.012067041544440733
0.1087999416256808   0.016245811478887016   0.012067041544440733
0.1087999416256808   0.016245811478887016   0.012067041544440733
0.4131382553988534   0.09093457328943526   -0.031758941165910694
0.4131382553988534   0.09093457328943526   -0.031758941165910694
0.4131382553988534   0.09093457328943526   -0.031758941165910694
0.4131382553988534   0.09093457328943526   -0.031758941165910694
0.7785462756159919   0.19463656890399797   0.19463656890399797
0.7785462756159919   0.19463656890399797   0.19463656890399797
0.7785462756159919   0.19463656890399797   0.19463656890399797
0.7785462756159919   0.19463656890399797   0.19463656890399797
1.616200882286765   0.12326245619986867   0.04252360423240895
1.616200882286765   0.12326245619986867   0.04252360423240895
1.616200882286765   0.12326245619986867   0.04252360423240895
1.616200882286765   0.12326245619986867   0.04252360423240895
1.6522351356679372   0.4130587839169843   0.4130587839169843
1.6522351356679372   0.4130587839169843   0.4130587839169843
1.6522351356679372   0.4130587839169843   0.4130587839169843
1.6522351356679372   0.4130587839169843   0.4130587839169843
0.6935396510039362   -0.03931369284625438   -0.003746708177249279
0.6935396510039362   -0.03931369284625438   -0.003746708177249279
0.6935396510039362   -0.03931369284625438   -0.003746708177249279
0.6935396510039362   -0.03931369284625438   -0.003746708177249279
1.1524928517901956   0.1631891979880402   0.13001688557409655
1.1524928517901956   0.1631891979880402   0.13001688557409655
1.1524928517901956   0.1631891979880402   0.13001688557409655
1.1524928517901956   0.1631891979880402   0.13001688557409655
0.7801685902318182   0.19504214755795454   0.19504214755795454
0.7801685902318182   0.19504214755795454   0.19504214755795454
0.7801685902318182   0.19504214755795454   0.19504214755795454
0.7801685902318182   0.19504214755795454   0.19504214755795454
1.5312450988782775   0.14434184595100297   0.07682553793469235
1.5312450988782775   0.14434184595100297   0.07682553793469235
1.5312450988782775   0.14434184595100297   0.07682553793469235
1.5312450988782775   0.14434184595100297   0.07682553793469235
1.603123065377014   0.4007807663442535   0.4007807663442535
1.603123065377014   0.4007807663442535   0.4007807663442535
1.603123065377014   0.4007807663442535   0.4007807663442535
1.603123065377014   0.4007807663442535   0.4007807663442535
0.6961591968953629   -0.021570709798538146   0.005721418798421453
0.6961591968953629   -0.021570709798538146   0.005721418798421453
0.6961591968953629   -0.021570709798538146   0.005721418798421453
0.6961591968953629   -0.021570709798538146   0.005721418798421453
1.1185405073907237   0.16796475862361937   0.06233155321012861
1.1185405073907237   0.16796475862361937   0.06233155321012861
1.1185405073907237   0.16796475862361937   0.06233155321012861
1.1185405073907237   0.16796475862361937   0.06233155321012861
0.777032283439318   0.1942580708598295   0.1942580708598295
0.777032283439318   0.1942580708598295   0.1942580708598295
0.777032283439318   0.1942580708598295   0.1942580708598295
0.777032283439318   0.1942580708598295   0.1942580708598295
1.4821743413474868   0.14487634820031856   0.051941564340577194
1.4821743413474868   0.14487634820031856   0.051941564340577194
1.4821743413474868   0.14487634820031856   0.051941564340577194
1.4821743413474868   0.14487634820031856   0.051941564340577194
1.52986569409867   0.3824664235246675   0.3824664235246675
1.52986569409867   0.3824664235246675   0.3824664235246675
1.52986569409867   0.3824664235246675   0.3824664235246675
1.52986569409867   0.3824664235246675   0.3824664235246675
0.7221293951061069   0.02314080030155785   0.022254820125081946
0.7221293951061069   0.02314080030155785   0.022254820125081946
0.7221293951061069   0.02314080030155785   0.022254820125081946
0.7221293951061069   0.02314080030155785   0.022254820125081946
1.0712602130105506   0.18219518371410331   -0.01641456812182995
1.0712602130105506   0.18219518371410331   -0.01641456812182995
1.0712602130105506   0.18219518371410331   -0.01641456812182995
1.0712602130105506   0.18219518371410331   -0.01641456812182995
-1.5659156606329883   -0.11216448260209425   0.017914691865959405
-1.5659156606329883   -0.11216448260209425   0.017914691865959405
-1.5659156606329883   -0.11216448260209425   0.017914691865959405
-1.5659156606329883   -0.11216448260209425   0.017914691865959405
-0.9970111539228893   -0.023271871640598518   -0.006548225661858531
-0.9970111539228893   -0.023271871640598518   -0.006548225661858531
-0.9970111539228893   -0.023271871640598518   -0.006548225661858531
-0.9970111539228893   -0.023271871640598518   -0.006548225661858531
-1.0035394734082421   0.040609073959647524   0.021139599900137362
-1.0035394734082421   0.040609073959647524   0.021139599900137362
-1.0035394734082421   0.040609073959647524   0.021139599900137362
-1.0035394734082421   0.040609073959647524   0.021139599900137362
-1.5891151642194334   -0.10854281509975164   -0.018943554297605518
-1.5891151642194334   -0.10854281509975164   -0.018943554297605518
-1.5891151642194334   -0.10854281509975164   -0.018943554297605518
-1.5891151642194334   -0.10854281509975164   -0.018943554297605518
-1.2382047370003466   -0.04237166090266567   -0.0050554436809051514
-1.2382047370003466   -0.04237166090266567   -0.0050554436809051514
-1.2382047370003466   -0.04237166090266567   -0.0050554436809051514
-1.2382047370003466   -0.04237166090266567   -0.0050554436809051514
-1.5774336976350973   -0.07684458180073839   0.007765545325062906
-1.5774336976350973   -0.07684458180073839   0.007765545325062906
-1.5774336976350973   -0.07684458180073839   0.007765545325062906
-1.5774336976350973   -0.07684458180073839   0.007765545325062906
-1.0168745841281535   0.007257196525062959   -0.012184076264816435
-1.0168745841281535   0.007257196525062959   -0.012184076264816435
-1.0168745841281535   0.007257196525062959   -0.012184076264816435
-1.0168745841281535   0.007257196525062959   -0.012184076264816435
-1.0046046515165556   0.05793115021416878   0.024021891508311646
-1.0046046515165556   0.05793115021416878   0.024021891508311646
-1.0046046515165556   0.05793115021416878   0.024021891508311646
-1.0046046515165556   0.05793115021416878   0.024021891508311646
-1.5985643869780388   -0.09555861518863806   -0.024994343952452397
-1.5985643869780388   -0.09555861518863806   -0.024994343952452397
-1.5985643869780388   -0.09555861518863806   -0.024994343952452397
-1.5985643869780388   -0.09555861518863806   -0.024994343952452397
-1.272812005802168   -0.02831261851949929   -0.012141648408664635
-1.272812005802168   -0.02831261851949929   -0.012141648408664635
-1.272812005802168   -0.02831261851949929   -0.012141648408664635
-1.272812005802168   -0.02831261851949929   -0.012141648408664635
-1.5697206426114916   -0.04596939480679568   0.06963515749842526
-1.5697206426114916   -0.04596939480679568   0.06963515749842526
-1.5697206426114916   -0.04596939480679568   0.06963515749842526
-1.5697206426114916   -0.04596939480679568   0.06963515749842526
-1.0214675970432825   0.020322728672145685   -0.022684414583290208
-1.0214675970432825   0.020322728672145685   -0.022684414583290208
-1.0214675970432825   0.020322728672145685   -0.022684414583290208
-1.0214675970432825   0.020322728672145685   -0.022684414583290208
-0.9861842047920519   0.10100875967342718   0.04350211186511503
-0.9861842047920519   0.10100875967342718   0.04350211186511503
-0.9861842047920519   0.10100875967342718   0.04350211186511503
-0.9861842047920519   0.10100875967342718   0.04350211186511503
-1.5541109131385267   -0.0769897277308394   -0.04082174922734269
-1.5541109131385267   -0.0769897277308394   -0.04082174922734269
-1.5541109131385267   -0.0769897277308394   -0.04082174922734269
-1.5541109131385267   -0.0769897277308394   -0.04082174922734269
-1.2239304568454448   0.011537925621143252   0.02717020812248276
-1.2239304568454448   0.011537925621143252   0.02717020812248276
-1.2239304568454448   0.011537925621143252   0.02717020812248276
-1.2239304568454448   0.011537925621143252   0.02717020812248276
-1.0216984290023596   -0.13553538890766062   -0.01772108379214777
-1.0216984290023596   -0.13553538890766062   -0.01772108379214777
-1.0216984290023596   -0.13553538890766062   -0.01772108379214777
-1.0216984290023596   -0.13553538890766062   -0.01772108379214777
-0.4710455282547081   -0.010648576452744113   0.004957465540860129
-0.4710455282547081   -0.010648576452744113   0.004957465540860129
-0.4710455282547081   -0.010648576452744113   0.004957465540860129
-0.4710455282547081   -0.010648576452744113   0.004957465540860129
-0.47779676631712015   0.008990571109200901   0.007201226763567832
-0.47779676631712015   0.008990571109200901   0.007201226763567832
-0.47779676631712015   0.008990571109200901   0.007201226763567832
-0.47779676631712015   0.008990571109200901   0.007201226763567832
-1.0418662982280809   -0.09918380837052632   -0.030701641868882384
-1.0418662982280809   -0.09918380837052632   -0.030701641868882384
-1.0418662982280809   -0.09918380837052632   -0.030701641868882384
-1.0418662982280809   -0.09918380837052632   -0.030701641868882384
-0.7530940754919895   -0.06123100294261101   -0.01733591629521015
-0.7530940754919895   -0.06123100294261101   -0.01733591629521015
-0.7530940754919895   -0.06123100294261101   -0.01733591629521015
-0.7530940754919895   -0.06123100294261101   -0.01733591629521015
-1.0408584894255815   -0.1083594167588233   -0.0164869894680919
-1.0408584894255815   -0.1083594167588233   -0.0164869894680919
-1.0408584894255815   -0.1083594167588233   -0.0164869894680919
-1.0408584894255815   -0.1083594167588233   -0.0164869894680919
-0.47695073209751365   0.020020022519604427   0.00040194645120029265
-0.47695073209751365   0.020020022519604427   0.00040194645120029265
-0.47695073209751365   0.020020022519604427   0.00040194645120029265
-0.47695073209751365   0.020020022519604427   0.00040194645120029265
-0.4758804622545516   0.033182150274516514   0.009725914322327216
-0.4758804622545516   0.033182150274516514   0.009725914322327216
-0.4758804622545516   0.033182150274516514   0.009725914322327216
-0.4758804622545516   0.033182150274516514   0.009725914322327216
-1.0421618328603421   -0.07261658306682087   -0.03321628192963197
-1.0421618328603421   -0.07261658306682087   -0.03321628192963197
-1.0421618328603421   -0.07261658306682087   -0.03321628192963197
-1.0421618328603421   -0.07261658306682087   -0.03321628192963197
-0.751516791681309   -0.03404861486327118   -0.008247064477415779
-0.751516791681309   -0.03404861486327118   -0.008247064477415779
-0.751516791681309   -0.03404861486327118   -0.008247064477415779
-0.751516791681309   -0.03404861486327118   -0.008247064477415779
-1.0380641051928905   -0.08189050542454618   -0.003453721234647357
-1.0380641051928905   -0.08189050542454618   -0.003453721234647357
-1.0380641051928905   -0.08189050542454618   -0.003453721234647357
-1.0380641051928905   -0.08189050542454618   -0.003453721234647357
-0.4765341993081178   0.04590006324612965   -0.006260683917107816
-0.4765341993081178   0.04590006324612965   -0.006260683917107816
-0.4765341993081178   0.04590006324612965   -0.006260683917107816
-0.4765341993081178   0.04590006324612965   -0.006260683917107816
-0.4678005939416021   0.05747066346859096   0.019459887566832847
-0.4678005939416021   0.05747066346859096   0.019459887566832847
-0.4678005939416021   0.05747066346859096   0.019459887566832847
-0.4678005939416021   0.05747066346859096   0.019459887566832847
-1.0308726988371906   -0.04191801500887918   -0.03701358367827697
-1.0308726988371906   -0.04191801500887918   -0.03701358367827697
-1.0308726988371906   -0.04191801500887918   -0.03701358367827697
-1.0308726988371906   -0.04191801500887918   -0.03701358367827697
-0.7482511646834255   -0.008323195959933388   0.0037503278078256305
-0.7482511646834255   -0.008323195959933388   0.0037503278078256305
-0.7482511646834255   -0.008323195959933388   0.0037503278078256305
-0.7482511646834255   -0.008323195959933388   0.0037503278078256305
-0.49666199715538917   -0.11283626815780634   -0.020937187257487423
-0.49666199715538917   -0.11283626815780634   -0.020937187257487423
-0.49666199715538917   -0.11283626815780634   -0.020937187257487423
-0.49666199715538917   -0.11283626815780634   -0.020937187257487423
0.05082021209707732   0.011545030034528742   0.01934742577733604
0.05082021209707732   0.011545030034528742   0.01934742577733604
0.05082021209707732   0.011545030034528742   0.01934742577733604
0.05082021209707732   0.011545030034528742   0.01934742577733604
0.048595033486091725   0.02833385781870813   0.0015705757479302354
0.048595033486091725   0.02833385781870813   0.0015705757479302354
0.048595033486091725   0.02833385781870813   0.0015705757479302354
0.048595033486091725   0.02833385781870813   0.0015705757479302354
-0.4986507861023437   -0.07470369192935898   -0.013374609123989956
-0.4986507861023437   -0.07470369192935898   -0.013374609123989956
-0.4986507861023437   -0.07470369192935898   -0.013374609123989956
-0.4986507861023437   -0.07470369192935898   -0.013374609123989956
-0.22614260836155511   -0.03745877039415843   -0.007191822510227042
-0.22614260836155511   -0.03745877039415843   -0.007191822510227042
-0.22614260836155511   -0.03745877039415843   -0.007191822510227042
-0.22614260836155511   -0.03745877039415843   -0.007191822510227042
-0.5021039419101272   -0.08599072369047935   -0.019353356401787262
-0.5021039419101272   -0.08599072369047935   -0.019353356401787262
-0.5021039419101272   -0.08599072369047935   -0.019353356401787262
-0.5021039419101272   -0.08599072369047935   -0.019353356401787262
0.05395670519268549   0.04152940547863792   0.015183386620969273
0.05395670519268549   0.04152940547863792   0.015183386620969273
0.05395670519268549   0.04152940547863792   0.015183386620969273
0.05395670519268549   0.04152940547863792   0.015183386620969273
0.05261537557670713   0.054945687436919785   0.008981031376039578
0.05261537557670713   0.054945687436919785   0.008981031376039578
0.05261537557670713   0.054945687436919785   0.008981031376039578
0.05261537557670713   0.054945687436919785   0.008981031376039578
-0.4969048756603187   -0.04551759638892518   -0.016696406043066644
-0.4969048756603187   -0.04551759638892518   -0.016696406043066644
-0.4969048756603187   -0.04551759638892518   -0.016696406043066644
-0.4969048756603187   -0.04551759638892518   -0.016696406043066644
-0.22248268680831115   -0.009186097798804783   0.0026300249373514793
-0.22248268680831115   -0.009186097798804783   0.0026300249373514793
-0.22248268680831115   -0.009186097798804783   0.0026300249373514793
-0.22248268680831115   -0.009186097798804783   0.0026300249373514793
-0.4982488947188545   -0.05900849370194546   -0.009925604022725078
-0.4982488947188545   -0.05900849370194546   -0.009925604022725078
-0.4982488947188545   -0.05900849370194546   -0.009925604022725078
-0.4982488947188545   -0.05900849370194546   -0.009925604022725078
0.056014247715197286   0.07049143782989442   0.010429641675515348
0.056014247715197286   0.07049143782989442   0.010429641675515348
0.056014247715197286   0.07049143782989442   0.010429641675515348
0.056014247715197286   0.07049143782989442   0.010429641675515348
0.05397570973358254   0.08453837307451297   0.014760707485146372
0.05397570973358254   0.08453837307451297   0.014760707485146372
0.05397570973358254   0.08453837307451297   0.014760707485146372
0.05397570973358254   0.08453837307451297   0.014760707485146372
-0.49026242076958887   -0.014326868538232826   -0.02105171456627452
-0.49026242076958887   -0.014326868538232826   -0.02105171456627452
-0.49026242076958887   -0.014326868538232826   -0.02105171456627452
-0.49026242076958887   -0.014326868538232826   -0.02105171456627452
-0.21677838076766415   0.020380128626854316   0.013382866974530633
-0.21677838076766415   0.020380128626854316   0.013382866974530633
-0.21677838076766415   0.020380128626854316   0.013382866974530633
-0.21677838076766415   0.020380128626854316   0.013382866974530633
0.022935212428024602   -0.08275365208831159   -0.02577889044508723
0.022935212428024602   -0.08275365208831159   -0.02577889044508723
0.022935212428024602   -0.08275365208831159   -0.02577889044508723
0.022935212428024602   -0.08275365208831159   -0.02577889044508723
0.5901282529461438   0.040650552003469245   0.03555257139830981
0.5901282529461438   0.040650552003469245   0.03555257139830981
0.5901282529461438   0.040650552003469245   0.03555257139830981
0.5901282529461438   0.040650552003469245   0.03555257139830981
0.5895373540890203   0.054858838948709465   -0.0057126612012395155
0.5895373540890203   0.054858838948709465   -0.0057126612012395155
0.5895373540890203   0.054858838948709465   -0.0057126612012395155
0.5895373540890203   0.054858838948709465   -0.0057126612012395155
0.03341571365476604   -0.049624738059965076   0.003632572469975018
0.03341571365476604   -0.049624738059965076   0.003632572469975018
0.03341571365476604   -0.049624738059965076   0.003632572469975018
0.03341571365476604   -0.049624738059965076   0.003632572469975018
0.3051879213707679   -0.007149686420352672   0.0006019431298865258
0.3051879213707679   -0.007149686420352672   0.0006019431298865258
0.3051879213707679   -0.007149686420352672   0.0006019431298865258
0.3051879213707679   -0.007149686420352672   0.0006019431298865258
0.026672029509867568   -0.06042817582480817   -0.019282410489673926
0.026672029509867568   -0.06042817582480817   -0.019282410489673926
0.026672029509867568   -0.06042817582480817   -0.019282410489673926
0.026672029509867568   -0.06042817582480817   -0.019282410489673926
0.5997194399765267   0.06910067845615889   0.0309559287288381
0.5997194399765267   0.06910067845615889   0.0309559287288381
0.5997194399765267   0.06910067845615889   0.0309559287288381
0.5997194399765267   0.06910067845615889   0.0309559287288381
0.594376910485186   0.081187991104741   0.0059167016970421114
0.594376910485186   0.081187991104741   0.0059167016970421114
0.594376910485186   0.081187991104741   0.0059167016970421114
0.594376910485186   0.081187991104741   0.0059167016970421114
0.03479132359211378   -0.023531641929278764   -0.0016618991807285976
0.03479132359211378   -0.023531641929278764   -0.0016618991807285976
0.03479132359211378   -0.023531641929278764   -0.0016618991807285976
0.03479132359211378   -0.023531641929278764   -0.0016618991807285976
0.3094419224158239   0.018011947926191964   0.012674193344899514
0.3094419224158239   0.018011947926191964   0.012674193344899514
0.3094419224158239   0.018011947926191964   0.012674193344899514
0.3094419224158239   0.018011947926191964   0.012674193344899514
0.02986313523563438   -0.03572083405254871   -0.014113648839855594
0.02986313523563438   -0.03572083405254871   -0.014113648839855594
0.02986313523563438   -0.03572083405254871   -0.014113648839855594
0.02986313523563438   -0.03572083405254871   -0.014113648839855594
0.6017946307793117   0.09586671516565559   0.028326579106745284
0.6017946307793117   0.09586671516565559   0.028326579106745284
0.6017946307793117   0.09586671516565559   0.028326579106745284
0.6017946307793117   0.09586671516565559   0.028326579106745284
0.5849830995322995   0.11157136973054627   0.012511674896118354
0.5849830995322995   0.11157136973054627   0.012511674896118354
0.5849830995322995   0.11157136973054627   0.012511674896118354
0.5849830995322995   0.11157136973054627   0.012511674896118354
0.03462826461237689   0.008756414553882074   -0.006194559600251009
0.03462826461237689   0.008756414553882074   -0.006194559600251009
0.03462826461237689   0.008756414553882074   -0.006194559600251009
0.03462826461237689   0.008756414553882074   -0.006194559600251009
0.3141941980484199   0.04677224019642772   0.023857864413224905
0.3141941980484199   0.04677224019642772   0.023857864413224905
0.3141941980484199   0.04677224019642772   0.023857864413224905
0.3141941980484199   0.04677224019642772   0.023857864413224905
0.5434656033751112   -0.10934278776635052   -0.04776733668703322
0.5434656033751112   -0.10934278776635052   -0.04776733668703322
0.5434656033751112   -0.10934278776635052   -0.04776733668703322
0.5434656033751112   -0.10934278776635052   -0.04776733668703322
1.1197559519062796   0.07397016836096301   0.03476936690044718
1.1197559519062796   0.07397016836096301   0.03476936690044718
1.1197559519062796   0.07397016836096301   0.03476936690044718
1.1197559519062796   0.07397016836096301   0.03476936690044718
1.1326161787331517   0.03487686332435516   -0.07187045505341697
1.1326161787331517   0.03487686332435516   -0.07187045505341697
1.1326161787331517   0.03487686332435516   -0.07187045505341697
1.1326161787331517   0.03487686332435516   -0.07187045505341697
0.5794313037530423   -0.022222620909520957   0.02083854697709147
0.5794313037530423   -0.022222620909520957   0.02083854697709147
0.5794313037530423   -0.022222620909520957   0.02083854697709147
0.5794313037530423   -0.022222620909520957   0.02083854697709147
0.8018389616402138   -0.014158135192098603   -0.020173041835174994
0.8018389616402138   -0.014158135192098603   -0.020173041835174994
0.8018389616402138   -0.014158135192098603   -0.020173041835174994
0.8018389616402138   -0.014158135192098603   -0.020173041835174994
0.5589899761459926   -0.07182702381327227   -0.03176368815439895
0.5589899761459926   -0.07182702381327227   -0.03176368815439895
0.5589899761459926   -0.07182702381327227   -0.03176368815439895
0.5589899761459926   -0.07182702381327227   -0.03176368815439895
1.1633721526865088   0.0947959125744158   0.021990365463308577
1.1633721526865088   0.0947959125744158   0.021990365463308577
1.1633721526865088   0.0947959125744158   0.021990365463308577
1.1633721526865088   0.0947959125744158   0.021990365463308577
1.1453670610803093   0.06383634532890256   -0.01645116974932167
1.1453670610803093   0.06383634532890256   -0.01645116974932167
1.1453670610803093   0.06383634532890256   -0.01645116974932167
1.1453670610803093   0.06383634532890256   -0.01645116974932167
0.5772787668092846   -0.009194736651576635   0.010808711073842209
0.5772787668092846   -0.009194736651576635   0.010808711073842209
0.5772787668092846   -0.009194736651576635   0.010808711073842209
0.5772787668092846   -0.009194736651576635   0.010808711073842209
0.8441100284088042   0.021100905562795175   0.013899343092877665
0.8441100284088042   0.021100905562795175   0.013899343092877665
0.8441100284088042   0.021100905562795175   0.013899343092877665
0.8441100284088042   0.021100905562795175   0.013899343092877665
0.560854954390438   -0.054897382994666344   -0.025607704677296478
0.560854954390438   -0.054897382994666344   -0.025607704677296478
0.560854954390438   -0.054897382994666344   -0.025607704677296478
0.560854954390438   -0.054897382994666344   -0.025607704677296478
1.1604420445958266   0.10819016276866383   0.014569930388502711
1.1604420445958266   0.10819016276866383   0.014569930388502711
1.1604420445958266   0.10819016276866383   0.014569930388502711
1.1604420445958266   0.10819016276866383   0.014569930388502711
1.1437610750949088   0.09799260475448077   -0.025117837599106387
1.1437610750949088   0.09799260475448077   -0.025117837599106387
1.1437610750949088   0.09799260475448077   -0.025117837599106387
1.1437610750949088   0.09799260475448077   -0.025117837599106387
0.5655328180737277   0.020775636501082176   0.006056000832713796
0.5655328180737277   0.020775636501082176   0.006056000832713796
0.5655328180737277   0.020775636501082176   0.006056000832713796
0.5655328180737277   0.020775636501082176   0.006056000832713796
0.8227410152435534   0.0370870834288137   0.010394884007039945
0.8227410152435534   0.0370870834288137   0.010394884007039945
0.8227410152435534   0.0370870834288137   0.010394884007039945
0.8227410152435534   0.0370870834288137   0.010394884007039945
-1.2292989687124383   -0.05570222906394556   0.06358780201095515
-1.2292989687124383   -0.05570222906394556   0.06358780201095515
-1.2292989687124383   -0.05570222906394556   0.06358780201095515
-1.2292989687124383   -0.05570222906394556   0.06358780201095515
-0.8168698787168327   -0.031231513028908114   -0.01654561142605697
-0.8168698787168327   -0.031231513028908114   -0.01654561142605697
-0.8168698787168327   -0.031231513028908114   -0.01654561142605697
-0.8168698787168327   -0.031231513028908114   -0.01654561142605697
-0.7872450509270834   0.06628311694929573   0.05331599265528115
-0.7872450509270834   0.06628311694929573   0.05331599265528115
-0.7872450509270834   0.06628311694929573   0.05331599265528115
-0.7872450509270834   0.06628311694929573   0.05331599265528115
-1.234899517525136   -0.08823299849044808   -0.025906816172307265
-1.234899517525136   -0.08823299849044808   -0.025906816172307265
-1.234899517525136   -0.08823299849044808   -0.025906816172307265
-1.234899517525136   -0.08823299849044808   -0.025906816172307265
-0.9758115289151773   -0.015083992285063103   -0.0019372435039665542
-0.9758115289151773   -0.015083992285063103   -0.0019372435039665542
-0.9758115289151773   -0.015083992285063103   -0.0019372435039665542
-0.9758115289151773   -0.015083992285063103   -0.0019372435039665542
-1.2003852870238336   -0.012768217693632733   0.07119955553738933
-1.2003852870238336   -0.012768217693632733   0.07119955553738933
-1.2003852870238336   -0.012768217693632733   0.07119955553738933
-1.2003852870238336   -0.012768217693632733   0.07119955553738933
-0.8163263346395795   -0.0037487170587120477   -0.02205859189919157
-0.8163263346395795   -0.0037487170587120477   -0.02205859189919157
-0.8163263346395795   -0.0037487170587120477   -0.02205859189919157
-0.8163263346395795   -0.0037487170587120477   -0.02205859189919157
-0.7839602071543408   0.08224016826206104   0.04939539347734492
-0.7839602071543408   0.08224016826206104   0.04939539347734492
-0.7839602071543408   0.08224016826206104   0.04939539347734492
-0.7839602071543408   0.08224016826206104   0.04939539347734492
-1.215613617758531   -0.07376040816528248   -0.0354489797803521
-1.215613617758531   -0.07376040816528248   -0.0354489797803521
-1.215613617758531   -0.07376040816528248   -0.0354489797803521
-1.215613617758531   -0.07376040816528248   -0.0354489797803521
-0.9777562141265494   0.0036620385260580923   0.01120232983583342
-0.9777562141265494   0.0036620385260580923   0.01120232983583342
-0.9777562141265494   0.0036620385260580923   0.01120232983583342
-0.9777562141265494   0.0036620385260580923   0.01120232983583342
-1.1834820696482296   0.002288656324157534   0.04915969628171615
-1.1834820696482296   0.002288656324157534   0.04915969628171615
-1.1834820696482296   0.002288656324157534   0.04915969628171615
-1.1834820696482296   0.002288656324157534   0.04915969628171615
-0.8143021031833353   0.007980755853929739   -0.02805467425948676
-0.8143021031833353   0.007980755853929739   -0.02805467425948676
-0.8143021031833353   0.007980755853929739   -0.02805467425948676
-0.8143021031833353   0.007980755853929739   -0.02805467425948676
-0.7846517996938981   0.09290550482706914   0.03919530011757119
-0.7846517996938981   0.09290550482706914   0.03919530011757119
-0.7846517996938981   0.09290550482706914   0.03919530011757119
-0.7846517996938981   0.09290550482706914   0.03919530011757119
-1.1906232807925505   -0.05834171523851095   -0.04518579405783099
-1.1906232807925505   -0.05834171523851095   -0.04518579405783099
-1.1906232807925505   -0.05834171523851095   -0.04518579405783099
-1.1906232807925505   -0.05834171523851095   -0.04518579405783099
-0.9495427628248566   0.02046847984997216   0.02342768210731129
-0.9495427628248566   0.02046847984997216   0.02342768210731129
-0.9495427628248566   0.02046847984997216   0.02342768210731129
-0.9495427628248566   0.02046847984997216   0.02342768210731129
-0.8192167777118039   -0.07764720278191556   0.018135583352094788
-0.8192167777118039   -0.07764720278191556   0.018135583352094788
-0.8192167777118039   -0.07764720278191556   0.018135583352094788
-0.8192167777118039   -0.07764720278191556   0.018135583352094788
-0.4141510154916602   -0.015085988913061704   0.0007725504936327392
-0.4141510154916602   -0.015085988913061704   0.0007725504936327392
-0.4141510154916602   -0.015085988913061704   0.0007725504936327392
-0.4141510154916602   -0.015085988913061704   0.0007725504936327392
-0.4023166108524019   0.04065942743829164   0.028964849799528514
-0.4023166108524019   0.04065942743829164   0.028964849799528514
-0.4023166108524019   0.04065942743829164   0.028964849799528514
-0.4023166108524019   0.04065942743829164   0.028964849799528514
-0.8322161131820993   -0.07657303829765126   -0.028683163372858905
-0.8322161131820993   -0.07657303829765126   -0.028683163372858905
-0.8322161131820993   -0.07657303829765126   -0.028683163372858905
-0.8322161131820993   -0.07657303829765126   -0.028683163372858905
-0.6147992991442072   -0.03017111036933222   -0.012523412446393465
-0.6147992991442072   -0.03017111036933222   -0.012523412446393465
-0.6147992991442072   -0.03017111036933222   -0.012523412446393465
-0.6147992991442072   -0.03017111036933222   -0.012523412446393465
-0.8165528640242569   -0.04447398694353663   0.01753403106224216
-0.8165528640242569   -0.04447398694353663   0.01753403106224216
-0.8165528640242569   -0.04447398694353663   0.01753403106224216
-0.8165528640242569   -0.04447398694353663   0.01753403106224216
-0.4148109223179815   0.011729313776441042   -0.004576593866515179
-0.4148109223179815   0.011729313776441042   -0.004576593866515179
-0.4148109223179815   0.011729313776441042   -0.004576593866515179
-0.4148109223179815   0.011729313776441042   -0.004576593866515179
-0.40097457781024015   0.06727370717715915   0.025047914240165933
-0.40097457781024015   0.06727370717715915   0.025047914240165933
-0.40097457781024015   0.06727370717715915   0.025047914240165933
-0.40097457781024015   0.06727370717715915   0.025047914240165933
-0.8274109538642955   -0.05174366623164614   -0.033874505578721605
-0.8274109538642955   -0.05174366623164614   -0.033874505578721605
-0.8274109538642955   -0.05174366623164614   -0.033874505578721605
-0.8274109538642955   -0.05174366623164614   -0.033874505578721605
-0.6080135905317741   -0.0032651998471734944   -8.100077339936312e-05
-0.6080135905317741   -0.0032651998471734944   -8.100077339936312e-05
-0.6080135905317741   -0.0032651998471734944   -8.100077339936312e-05
-0.6080135905317741   -0.0032651998471734944   -8.100077339936312e-05
-0.8114293552852156   -0.017474055790718312   0.011763876875750194
-0.8114293552852156   -0.017474055790718312   0.011763876875750194
-0.8114293552852156   -0.017474055790718312   0.011763876875750194
-0.8114293552852156   -0.017474055790718312   0.011763876875750194
-0.41437621756626114   0.03558405555929332   -0.010270632922066474
-0.41437621756626114   0.03558405555929332   -0.010270632922066474
-0.41437621756626114   0.03558405555929332   -0.010270632922066474
-0.41437621756626114   0.03558405555929332   -0.010270632922066474
-0.40078964449067334   0.09525307862032525   0.018758830121220385
-0.40078964449067334   0.09525307862032525   0.018758830121220385
-0.40078964449067334   0.09525307862032525   0.018758830121220385
-0.40078964449067334   0.09525307862032525   0.018758830121220385
-0.8233482634042993   -0.024934546777417965   -0.03644696682994948
-0.8233482634042993   -0.024934546777417965   -0.03644696682994948
-0.8233482634042993   -0.024934546777417965   -0.03644696682994948
-0.8233482634042993   -0.024934546777417965   -0.03644696682994948
-0.608327960119941   0.021431076811838534   0.009439306522276883
-0.608327960119941   0.021431076811838534   0.009439306522276883
-0.608327960119941   0.021431076811838534   0.009439306522276883
-0.608327960119941   0.021431076811838534   0.009439306522276883
-0.429540422858083   -0.08887389763523305   -0.0023865776163126406
-0.429540422858083   -0.08887389763523305   -0.0023865776163126406
-0.429540422858083   -0.08887389763523305   -0.0023865776163126406
-0.429540422858083   -0.08887389763523305   -0.0023865776163126406
-0.015129536876565547   0.0042499043369765505   0.018338219683961064
-0.015129536876565547   0.0042499043369765505   0.018338219683961064
-0.015129536876565547   0.0042499043369765505   0.018338219683961064
-0.015129536876565547   0.0042499043369765505   0.018338219683961064
-0.016635681929902606   0.0261288530447222   0.008773011573978747
-0.016635681929902606   0.0261288530447222   0.008773011573978747
-0.016635681929902606   0.0261288530447222   0.008773011573978747
-0.016635681929902606   0.0261288530447222   0.008773011573978747
-0.42976236539139334   -0.05689331146119637   -0.01071118399594082
-0.42976236539139334   -0.05689331146119637   -0.01071118399594082
-0.42976236539139334   -0.05689331146119637   -0.01071118399594082
-0.42976236539139334   -0.05689331146119637   -0.01071118399594082
-0.2234538200612995   -0.027905387434681114   -0.007023819707307848
-0.2234538200612995   -0.027905387434681114   -0.007023819707307848
-0.2234538200612995   -0.027905387434681114   -0.007023819707307848
-0.2234538200612995   -0.027905387434681114   -0.007023819707307848
-0.42929899714365943   -0.059346619297098016   -0.005941034921369357
-0.42929899714365943   -0.059346619297098016   -0.005941034921369357
-0.42929899714365943   -0.059346619297098016   -0.005941034921369357
-0.42929899714365943   -0.059346619297098016   -0.005941034921369357
-0.01473785572019843   0.030943355338063944   0.013447640329158121
-0.01473785572019843   0.030943355338063944   0.013447640329158121
-0.01473785572019843   0.030943355338063944   0.013447640329158121
-0.01473785572019843   0.030943355338063944   0.013447640329158121
-0.014607784135739248   0.05511877568387016   0.004188362796330581
-0.014607784135739248   0.05511877568387016   0.004188362796330581
-0.014607784135739248   0.05511877568387016   0.004188362796330581
-0.014607784135739248   0.05511877568387016   0.004188362796330581
-0.42861166744281337   -0.030151017582306358   -0.01571280916323103
-0.42861166744281337   -0.030151017582306358   -0.01571280916323103
-0.42861166744281337   -0.030151017582306358   -0.01571280916323103
-0.42861166744281337   -0.030151017582306358   -0.01571280916323103
-0.22121799838915981   -0.001108607147223807   0.003032850707998953
-0.22121799838915981   -0.001108607147223807   0.003032850707998953
-0.22121799838915981   -0.001108607147223807   0.003032850707998953
-0.22121799838915981   -0.001108607147223807   0.003032850707998953
-0.4279685569799394   -0.03076725527539126   -0.011881019155776329
-0.4279685569799394   -0.03076725527539126   -0.011881019155776329
-0.4279685569799394   -0.03076725527539126   -0.011881019155776329
-0.4279685569799394   -0.03076725527539126   -0.011881019155776329
-0.013301732394145702   0.05768417558142261   0.008153221606746155
-0.013301732394145702   0.05768417558142261   0.008153221606746155
-0.013301732394145702   0.05768417558142261   0.008153221606746155
-0.013301732394145702   0.05768417558142261   0.008153221606746155
-0.014122295869765426   0.08497115461822455   -0.0007017236838109744
-0.014122295869765426   0.08497115461822455   -0.0007017236838109744
-0.014122295869765426   0.08497115461822455   -0.0007017236838109744
-0.014122295869765426   0.08497115461822455   -0.0007017236838109744
-0.428337770818328   -0.0029574735103266164   -0.02077124938640384
-0.428337770818328   -0.0029574735103266164   -0.02077124938640384
-0.428337770818328   -0.0029574735103266164   -0.02077124938640384
-0.428337770818328   -0.0029574735103266164   -0.02077124938640384
-0.21946614172306683   0.025713987437601733   0.012256232926224478
-0.21946614172306683   0.025713987437601733   0.012256232926224478
-0.21946614172306683   0.025713987437601733   0.012256232926224478
-0.21946614172306683   0.025713987437601733   0.012256232926224478
-0.043388856177060856   -0.09742089883095116   -0.021287573650587574
-0.043388856177060856   -0.09742089883095116   -0.021287573650587574
-0.043388856177060856   -0.09742089883095116   -0.021287573650587574
-0.043388856177060856   -0.09742089883095116   -0.021287573650587574
0.38227437868646624   0.026864676370335266   0.03487229869531138
0.38227437868646624   0.026864676370335266   0.03487229869531138
0.38227437868646624   0.026864676370335266   0.03487229869531138
0.38227437868646624   0.026864676370335266   0.03487229869531138
0.3697508550715791   0.014151220847857443   -0.013822774407725488
0.3697508550715791   0.014151220847857443   -0.013822774407725488
0.3697508550715791   0.014151220847857443   -0.013822774407725488
0.3697508550715791   0.014151220847857443   -0.013822774407725488
-0.02922258838823548   -0.03558524682266247   0.007552579149699276
-0.02922258838823548   -0.03558524682266247   0.007552579149699276
-0.02922258838823548   -0.03558524682266247   0.007552579149699276
-0.02922258838823548   -0.03558524682266247   0.007552579149699276
0.16744183666023374   -0.022640372012961776   -0.003978367490793503
0.16744183666023374   -0.022640372012961776   -0.003978367490793503
0.16744183666023374   -0.022640372012961776   -0.003978367490793503
0.16744183666023374   -0.022640372012961776   -0.003978367490793503
-0.04317012505910585   -0.0710187420851652   -0.02675160894214981
-0.04317012505910585   -0.0710187420851652   -0.02675160894214981
-0.04317012505910585   -0.0710187420851652   -0.02675160894214981
-0.04317012505910585   -0.0710187420851652   -0.02675160894214981
0.3863843558966171   0.052270680264525894   0.03122527030079611
0.3863843558966171   0.052270680264525894   0.03122527030079611
0.3863843558966171   0.052270680264525894   0.03122527030079611
0.3863843558966171   0.052270680264525894   0.03122527030079611
0.3758395352720467   0.0411274402731204   -0.019414699848665756
0.3758395352720467   0.0411274402731204   -0.019414699848665756
0.3758395352720467   0.0411274402731204   -0.019414699848665756
0.3758395352720467   0.0411274402731204   -0.019414699848665756
-0.02835156122068771   -0.011623312588323758   0.0022115656437827246
-0.02835156122068771   -0.011623312588323758   0.0022115656437827246
-0.02835156122068771   -0.011623312588323758   0.0022115656437827246
-0.02835156122068771   -0.011623312588323758   0.0022115656437827246
0.1690033206915241   0.0016161987536319963   0.006019978946286248
0.1690033206915241   0.0016161987536319963   0.006019978946286248
0.1690033206915241   0.0016161987536319963   0.006019978946286248
0.1690033206915241   0.0016161987536319963   0.006019978946286248
-0.04191829710338232   -0.04499189291986262   -0.032253533438151794
-0.04191829710338232   -0.04499189291986262   -0.032253533438151794
-0.04191829710338232   -0.04499189291986262   -0.032253533438151794
-0.04191829710338232   -0.04499189291986262   -0.032253533438151794
0.39233383280338735   0.07742358225330644   0.026760645827851013
0.39233383280338735   0.07742358225330644   0.026760645827851013
0.39233383280338735   0.07742358225330644   0.026760645827851013
0.39233383280338735   0.07742358225330644   0.026760645827851013
0.379621119066975   0.07493500428237719   -0.020294465412377356
0.379621119066975   0.07493500428237719   -0.020294465412377356
0.379621119066975   0.07493500428237719   -0.020294465412377356
0.379621119066975   0.07493500428237719   -0.020294465412377356
-0.02832768869811872   0.01635939296915001   -0.003116926176502585
-0.02832768869811872   0.01635939296915001   -0.003116926176502585
-0.02832768869811872   0.01635939296915001   -0.003116926176502585
-0.02832768869811872   0.01635939296915001   -0.003116926176502585
0.17494964110819647   0.028643225729414162   0.017884259392338783
0.17494964110819647   0.028643225729414162   0.017884259392338783
0.17494964110819647   0.028643225729414162   0.017884259392338783
0.17494964110819647   0.028643225729414162   0.017884259392338783
0.3422694026948195   -0.09678216319994612   -0.04150574169263813
0.3422694026948195   -0.09678216319994612   -0.04150574169263813
0.3422694026948195   -0.09678216319994612   -0.04150574169263813
0.3422694026948195   -0.09678216319994612   -0.04150574169263813
0.7533128307532397   0.05598074744750514   0.038874210317934255
0.7533128307532397   0.05598074744750514   0.038874210317934255
0.7533128307532397   0.05598074744750514   0.038874210317934255
0.7533128307532397   0.05598074744750514   0.038874210317934255
0.7474624493153449   -0.0038341402609003428   -0.055250195342111896
0.7474624493153449   -0.0038341402609003428   -0.055250195342111896
0.7474624493153449   -0.0038341402609003428   -0.055250195342111896
0.7474624493153449   -0.0038341402609003428   -0.055250195342111896
0.3733189992142452   -0.007949266977779298   0.026118434131244265
0.3733189992142452   -0.007949266977779298   0.026118434131244265
0.3733189992142452   -0.007949266977779298   0.026118434131244265
0.3733189992142452   -0.007949266977779298   0.026118434131244265
0.5271896928499583   -0.018951664298840737   -0.017351198469103497
0.5271896928499583   -0.018951664298840737   -0.017351198469103497
0.5271896928499583   -0.018951664298840737   -0.017351198469103497
0.5271896928499583   -0.018951664298840737   -0.017351198469103497
0.3426822158669337   -0.08395258149898273   -0.0510621680841088
0.3426822158669337   -0.08395258149898273   -0.0510621680841088
0.3426822158669337   -0.08395258149898273   -0.0510621680841088
0.3426822158669337   -0.08395258149898273   -0.0510621680841088
0.7802982157889906   0.07436815738663684   0.030726339378579496
0.7802982157889906   0.07436815738663684   0.030726339378579496
0.7802982157889906   0.07436815738663684   0.030726339378579496
0.7802982157889906   0.07436815738663684   0.030726339378579496
0.7659643019989277   0.011552657014338996   -0.07413985578622265
0.7659643019989277   0.011552657014338996   -0.07413985578622265
0.7659643019989277   0.011552657014338996   -0.07413985578622265
0.7659643019989277   0.011552657014338996   -0.07413985578622265
0.37615171859275626   0.0037908752007418944   0.019482781827267134
0.37615171859275626   0.0037908752007418944   0.019482781827267134
0.37615171859275626   0.0037908752007418944   0.019482781827267134
0.37615171859275626   0.0037908752007418944   0.019482781827267134
0.5511947149929985   -0.0023039360022348437   -0.0052624787537719556
0.5511947149929985   -0.0023039360022348437   -0.0052624787537719556
0.5511947149929985   -0.0023039360022348437   -0.0052624787537719556
0.5511947149929985   -0.0023039360022348437   -0.0052624787537719556
0.3466583406772695   -0.06859934216886134   -0.055593890380566155
0.3466583406772695   -0.06859934216886134   -0.055593890380566155
0.3466583406772695   -0.06859934216886134   -0.055593890380566155
0.3466583406772695   -0.06859934216886134   -0.055593890380566155
0.800317444821838   0.08880263929136642   0.020375876051308195
0.800317444821838   0.08880263929136642   0.020375876051308195
0.800317444821838   0.08880263929136642   0.020375876051308195
0.800317444821838   0.08880263929136642   0.020375876051308195
0.7953331557269118   0.05156929987226429   -0.06977601996455977
0.7953331557269118   0.05156929987226429   -0.06977601996455977
0.7953331557269118   0.05156929987226429   -0.06977601996455977
0.7953331557269118   0.05156929987226429   -0.06977601996455977
0.3774772043896071   0.02968030149061099   0.01424066399255626
0.3774772043896071   0.02968030149061099   0.01424066399255626
0.3774772043896071   0.02968030149061099   0.01424066399255626
0.3774772043896071   0.02968030149061099   0.01424066399255626
0.5554213565034265   0.016712528541820468   0.00813371929048869
0.5554213565034265   0.016712528541820468   0.00813371929048869
0.5554213565034265   0.016712528541820468   0.00813371929048869
0.5554213565034265   0.016712528541820468   0.00813371929048869
-0.8774197080718498   -0.02852625784522106   0.057530493847395406
-0.8774197080718498   -0.02852625784522106   0.057530493847395406
-0.8774197080718498   -0.02852625784522106   0.057530493847395406
-0.8774197080718498   -0.02852625784522106   0.057530493847395406
-0.6144721242213368   -0.04119240227023946   -0.021693785496556588
-0.6144721242213368   -0.04119240227023946   -0.021693785496556588
-0.6144721242213368   -0.04119240227023946   -0.021693785496556588
-0.6144721242213368   -0.04119240227023946   -0.021693785496556588
-0.5782701463587242   0.05808163177871359   0.04903696400708908
-0.5782701463587242   0.05808163177871359   0.04903696400708908
-0.5782701463587242   0.05808163177871359   0.04903696400708908
-0.5782701463587242   0.05808163177871359   0.04903696400708908
-0.8774814344258153   -0.07226077881651145   -0.03174025023282118
-0.8774814344258153   -0.07226077881651145   -0.03174025023282118
-0.8774814344258153   -0.07226077881651145   -0.03174025023282118
-0.8774814344258153   -0.07226077881651145   -0.03174025023282118
-0.7067527230893532   -0.011230718771722742   -0.0016754569638325126
-0.7067527230893532   -0.011230718771722742   -0.0016754569638325126
-0.7067527230893532   -0.011230718771722742   -0.0016754569638325126
-0.7067527230893532   -0.011230718771722742   -0.0016754569638325126
-0.8445474502250955   0.005960463829062318   0.054708428125204
-0.8445474502250955   0.005960463829062318   0.054708428125204
-0.8445474502250955   0.005960463829062318   0.054708428125204
-0.8445474502250955   0.005960463829062318   0.054708428125204
-0.6085219295203974   -0.01745740982781256   -0.026682910194744596
-0.6085219295203974   -0.01745740982781256   -0.026682910194744596
-0.6085219295203974   -0.01745740982781256   -0.026682910194744596
-0.6085219295203974   -0.01745740982781256   -0.026682910194744596
-0.5728188633745747   0.07017382064655164   0.041427409894862134
-0.5728188633745747   0.07017382064655164   0.041427409894862134
-0.5728188633745747   0.07017382064655164   0.041427409894862134
-0.5728188633745747   0.07017382064655164   0.041427409894862134
-0.8566412190349553   -0.05877875905945132   -0.0401069533443554
-0.8566412190349553   -0.05877875905945132   -0.0401069533443554
-0.8566412190349553   -0.05877875905945132   -0.0401069533443554
-0.8566412190349553   -0.05877875905945132   -0.0401069533443554
-0.7017608769859668   0.004711124072370482   0.00733924269594978
-0.7017608769859668   0.004711124072370482   0.00733924269594978
-0.7017608769859668   0.004711124072370482   0.00733924269594978
-0.7017608769859668   0.004711124072370482   0.00733924269594978
-0.8239991638127501   0.02043099276782323   0.04389357093939553
-0.8239991638127501   0.02043099276782323   0.04389357093939553
-0.8239991638127501   0.02043099276782323   0.04389357093939553
-0.8239991638127501   0.02043099276782323   0.04389357093939553
-0.6030386007580607   -0.006613613342003194   -0.03288384303400923
-0.6030386007580607   -0.006613613342003194   -0.03288384303400923
-0.6030386007580607   -0.006613613342003194   -0.03288384303400923
-0.6030386007580607   -0.006613613342003194   -0.03288384303400923
-0.5698028654725491   0.08198888652024197   0.035646799415932545
-0.5698028654725491   0.08198888652024197   0.035646799415932545
-0.5698028654725491   0.08198888652024197   0.035646799415932545
-0.5698028654725491   0.08198888652024197   0.035646799415932545
-0.8287491958749594   -0.04093643693551144   -0.04800848536105843
-0.8287491958749594   -0.04093643693551144   -0.04800848536105843
-0.8287491958749594   -0.04093643693551144   -0.04800848536105843
-0.8287491958749594   -0.04093643693551144   -0.04800848536105843
-0.6753906403707275   0.019664990716583536   0.019964235457535937
-0.6753906403707275   0.019664990716583536   0.019964235457535937
-0.6753906403707275   0.019664990716583536   0.019964235457535937
-0.6753906403707275   0.019664990716583536   0.019964235457535937
-0.6074764376839642   -0.049572612055197265   0.021664856975258908
-0.6074764376839642   -0.049572612055197265   0.021664856975258908
-0.6074764376839642   -0.049572612055197265   0.021664856975258908
-0.6074764376839642   -0.049572612055197265   0.021664856975258908
-0.3527779968685385   -0.02668840094317417   -0.0035035147303167213
-0.3527779968685385   -0.02668840094317417   -0.0035035147303167213
-0.3527779968685385   -0.02668840094317417   -0.0035035147303167213
-0.3527779968685385   -0.02668840094317417   -0.0035035147303167213
-0.3348403388070005   0.03392617289018461   0.026437118191213957
-0.3348403388070005   0.03392617289018461   0.026437118191213957
-0.3348403388070005   0.03392617289018461   0.026437118191213957
-0.3348403388070005   0.03392617289018461   0.026437118191213957
-0.6166392253907353   -0.0590317284148871   -0.025695070959366205
-0.6166392253907353   -0.0590317284148871   -0.025695070959366205
-0.6166392253907353   -0.0590317284148871   -0.025695070959366205
-0.6166392253907353   -0.0590317284148871   -0.025695070959366205
-0.476026924858675   -0.02317646915253517   -0.009769474646815827
-0.476026924858675   -0.02317646915253517   -0.009769474646815827
-0.476026924858675   -0.02317646915253517   -0.009769474646815827
-0.476026924858675   -0.02317646915253517   -0.009769474646815827
-0.6003367296138136   -0.020919494172791653   0.017705173683145697
-0.6003367296138136   -0.020919494172791653   0.017705173683145697
-0.6003367296138136   -0.020919494172791653   0.017705173683145697
-0.6003367296138136   -0.020919494172791653   0.017705173683145697
-0.34905086232917054   -0.0020940890971619663   -0.00859523743228989
-0.34905086232917054   -0.0020940890971619663   -0.00859523743228989
-0.34905086232917054   -0.0020940890971619663   -0.00859523743228989
-0.34905086232917054   -0.0020940890971619663   -0.00859523743228989
-0.3305835622354525   0.05873053780084092   0.021669122954870605
-0.3305835622354525   0.05873053780084092   0.021669122954870605
-0.3305835622354525   0.05873053780084092   0.021669122954870605
-0.3305835622354525   0.05873053780084092   0.021669122954870605
-0.6083229782493994   -0.03563975488143947   -0.030279588951270378
-0.6083229782493994   -0.03563975488143947   -0.030279588951270378
-0.6083229782493994   -0.03563975488143947   -0.030279588951270378
-0.6083229782493994   -0.03563975488143947   -0.030279588951270378
-0.4668823310082505   0.0011843701962033493   0.0006971620515703533
-0.4668823310082505   0.0011843701962033493   0.0006971620515703533
-0.4668823310082505   0.0011843701962033493   0.0006971620515703533
-0.4668823310082505   0.0011843701962033493   0.0006971620515703533
-0.5907870602966884   0.005590052319823818   0.01617019361102106
-0.5907870602966884   0.005590052319823818   0.01617019361102106
-0.5907870602966884   0.005590052319823818   0.01617019361102106
-0.5907870602966884   0.005590052319823818   0.01617019361102106
-0.34552167091539054   0.020098539872351162   -0.01438942251632603
-0.34552167091539054   0.020098539872351162   -0.01438942251632603
-0.34552167091539054   0.020098539872351162   -0.01438942251632603
-0.34552167091539054   0.020098539872351162   -0.01438942251632603
-0.3264701212879886   0.0851762813085208   0.017229031483433535
-0.3264701212879886   0.0851762813085208   0.017229031483433535
-0.3264701212879886   0.0851762813085208   0.017229031483433535
-0.3264701212879886   0.0851762813085208   0.017229031483433535
-0.6021044871114051   -0.010415103851521362   -0.03345731840658175
-0.6021044871114051   -0.010415103851521362   -0.03345731840658175
-0.6021044871114051   -0.010415103851521362   -0.03345731840658175
-0.6021044871114051   -0.010415103851521362   -0.03345731840658175
-0.46333168660215035   0.024128211433572563   0.010672115871256972
-0.46333168660215035   0.024128211433572563   0.010672115871256972
-0.46333168660215035   0.024128211433572563   0.010672115871256972
-0.46333168660215035   0.024128211433572563   0.010672115871256972
-0.3602028710514682   -0.06824638646035533   0.0009300998722120315
-0.3602028710514682   -0.06824638646035533   0.0009300998722120315
-0.3602028710514682   -0.06824638646035533   0.0009300998722120315
-0.3602028710514682   -0.06824638646035533   0.0009300998722120315
-0.09373434471847371   -0.008086284603628346   0.014674322930137667
-0.09373434471847371   -0.008086284603628346   0.014674322930137667
-0.09373434471847371   -0.008086284603628346   0.014674322930137667
-0.09373434471847371   -0.008086284603628346   0.014674322930137667
-0.09145764865283469   0.013910824977047834   0.005004781456721492
-0.09145764865283469   0.013910824977047834   0.005004781456721492
-0.09145764865283469   0.013910824977047834   0.005004781456721492
-0.09145764865283469   0.013910824977047834   0.005004781456721492
-0.35625427813934857   -0.039871095653750285   -0.006835309926594344
-0.35625427813934857   -0.039871095653750285   -0.006835309926594344
-0.35625427813934857   -0.039871095653750285   -0.006835309926594344
-0.35625427813934857   -0.039871095653750285   -0.006835309926594344
-0.22579918486091424   -0.02447684911065014   -0.006949792797639927
-0.22579918486091424   -0.02447684911065014   -0.006949792797639927
-0.22579918486091424   -0.02447684911065014   -0.006949792797639927
-0.22579918486091424   -0.02447684911065014   -0.006949792797639927
-0.35566968384307085   -0.04057435431011245   -0.003209079788843749
-0.35566968384307085   -0.04057435431011245   -0.003209079788843749
-0.35566968384307085   -0.04057435431011245   -0.003209079788843749
-0.35566968384307085   -0.04057435431011245   -0.003209079788843749
-0.08994489308790261   0.016711433494619767   0.009767950763809954
-0.08994489308790261   0.016711433494619767   0.009767950763809954
-0.08994489308790261   0.016711433494619767   0.009767950763809954
-0.08994489308790261   0.016711433494619767   0.009767950763809954
-0.08631602137376303   0.04170764655241452   0.0012848654413153172
-0.08631602137376303   0.04170764655241452   0.0012848654413153172
-0.08631602137376303   0.04170764655241452   0.0012848654413153172
-0.08631602137376303   0.04170764655241452   0.0012848654413153172
-0.3519922259181348   -0.014899137772541676   -0.011744519885158289
-0.3519922259181348   -0.014899137772541676   -0.011744519885158289
-0.3519922259181348   -0.014899137772541676   -0.011744519885158289
-0.3519922259181348   -0.014899137772541676   -0.011744519885158289
-0.22030665047822293   0.0004942325711280449   0.0029181601654317407
-0.22030665047822293   0.0004942325711280449   0.0029181601654317407
-0.22030665047822293   0.0004942325711280449   0.0029181601654317407
-0.22030665047822293   0.0004942325711280449   0.0029181601654317407
-0.35068119453559676   -0.012866717764347738   -0.0072217829806622
-0.35068119453559676   -0.012866717764347738   -0.0072217829806622
-0.35068119453559676   -0.012866717764347738   -0.0072217829806622
-0.35068119453559676   -0.012866717764347738   -0.0072217829806622
-0.08569047112240466   0.04161180817811707   0.004508455072405321
-0.08569047112240466   0.04161180817811707   0.004508455072405321
-0.08569047112240466   0.04161180817811707   0.004508455072405321
-0.08569047112240466   0.04161180817811707   0.004508455072405321
-0.08170113930895359   0.06990771217742768   -0.003081952457014408
-0.08170113930895359   0.06990771217742768   -0.003081952457014408
-0.08170113930895359   0.06990771217742768   -0.003081952457014408
-0.08170113930895359   0.06990771217742768   -0.003081952457014408
-0.3482558524488311   0.010360519821021194   -0.01688386283328053
-0.3482558524488311   0.010360519821021194   -0.01688386283328053
-0.3482558524488311   0.010360519821021194   -0.01688386283328053
-0.3482558524488311   0.010360519821021194   -0.01688386283328053
-0.2152924112942613   0.025585194167512593   0.012425047262514931
-0.2152924112942613   0.025585194167512593   0.012425047262514931
-0.2152924112942613   0.025585194167512593   0.012425047262514931
-0.2152924112942613   0.025585194167512593   0.012425047262514931
-0.11562731179145641   -0.08355456739332709   -0.019322229645077838
-0.11562731179145641   -0.08355456739332709   -0.019322229645077838
-0.11562731179145641   -0.08355456739332709   -0.019322229645077838
-0.11562731179145641   -0.08355456739332709   -0.019322229645077838
0.1617672942998601   0.012763141798036896   0.031815056800506225
0.1617672942998601   0.012763141798036896   0.031815056800506225
0.1617672942998601   0.012763141798036896   0.031815056800506225
0.1617672942998601   0.012763141798036896   0.031815056800506225
0.15035525866991636   -0.004746963913942789   -0.0178338533648542
0.15035525866991636   -0.004746963913942789   -0.0178338533648542
0.15035525866991636   -0.004746963913942789   -0.0178338533648542
0.15035525866991636   -0.004746963913942789   -0.0178338533648542
-0.09674763131993429   -0.019352691193583238   0.011818384291854573
-0.09674763131993429   -0.019352691193583238   0.011818384291854573
-0.09674763131993429   -0.019352691193583238   0.011818384291854573
-0.09674763131993429   -0.019352691193583238   0.011818384291854573
0.023916881333544186   -0.023063300444102056   -0.004951567998619561
0.023916881333544186   -0.023063300444102056   -0.004951567998619561
0.023916881333544186   -0.023063300444102056   -0.004951567998619561
0.023916881333544186   -0.023063300444102056   -0.004951567998619561
-0.11166882897992356   -0.058344224842729116   -0.023796070358945903
-0.11166882897992356   -0.058344224842729116   -0.023796070358945903
-0.11166882897992356   -0.058344224842729116   -0.023796070358945903
-0.11166882897992356   -0.058344224842729116   -0.023796070358945903
0.16777194177148075   0.036740055176780126   0.027762543052241018
0.16777194177148075   0.036740055176780126   0.027762543052241018
0.16777194177148075   0.036740055176780126   0.027762543052241018
0.16777194177148075   0.036740055176780126   0.027762543052241018
0.15993004757731769   0.021548698499300543   -0.020209987716108848
0.15993004757731769   0.021548698499300543   -0.020209987716108848
0.15993004757731769   0.021548698499300543   -0.020209987716108848
0.15993004757731769   0.021548698499300543   -0.020209987716108848
-0.09303804077267917   0.0029794837260159607   0.0064029312731338816
-0.09303804077267917   0.0029794837260159607   0.0064029312731338816
-0.09303804077267917   0.0029794837260159607   0.0064029312731338816
-0.09303804077267917   0.0029794837260159607   0.0064029312731338816
0.02901508455364473   -0.0004096361181895429   0.005090679305415207
0.02901508455364473   -0.0004096361181895429   0.005090679305415207
0.02901508455364473   -0.0004096361181895429   0.005090679305415207
0.02901508455364473   -0.0004096361181895429   0.005090679305415207
-0.10743796544269064   -0.033671956859717446   -0.028945251491190458
-0.10743796544269064   -0.033671956859717446   -0.028945251491190458
-0.10743796544269064   -0.033671956859717446   -0.028945251491190458
-0.10743796544269064   -0.033671956859717446   -0.028945251491190458
0.1764945242137295   0.06036469105143387   0.023796402913814747
0.1764945242137295   0.06036469105143387   0.023796402913814747
0.1764945242137295   0.06036469105143387   0.023796402913814747
0.1764945242137295   0.06036469105143387   0.023796402913814747
0.16764356652429901   0.051504796326257325   -0.02336116461337609
0.16764356652429901   0.051504796326257325   -0.02336116461337609
0.16764356652429901   0.051504796326257325   -0.02336116461337609
0.16764356652429901   0.051504796326257325   -0.02336116461337609
-0.08907428421620739   0.028708920305101703   0.0012511148790417016
-0.08907428421620739   0.028708920305101703   0.0012511148790417016
-0.08907428421620739   0.028708920305101703   0.0012511148790417016
-0.08907428421620739   0.028708920305101703   0.0012511148790417016
0.03687302733748031   0.024212707871722493   0.015482930199684332
0.03687302733748031   0.024212707871722493   0.015482930199684332
0.03687302733748031   0.024212707871722493   0.015482930199684332
0.03687302733748031   0.024212707871722493   0.015482930199684332
0.12833179034384035   -0.08442513911189505   -0.038174182069659474
0.12833179034384035   -0.08442513911189505   -0.038174182069659474
0.12833179034384035   -0.08442513911189505   -0.038174182069659474
0.12833179034384035   -0.08442513911189505   -0.038174182069659474
0.38849816069831616   0.03837309115835499   0.041275653273595676
0.38849816069831616   0.03837309115835499   0.041275653273595676
0.38849816069831616   0.03837309115835499   0.041275653273595676
0.38849816069831616   0.03837309115835499   0.041275653273595676
0.38458097329791496   -0.020973146999813133   -0.05026294006259474
0.38458097329791496   -0.020973146999813133   -0.05026294006259474
0.38458097329791496   -0.020973146999813133   -0.05026294006259474
0.38458097329791496   -0.020973146999813133   -0.05026294006259474
0.16244814664502472   0.007070853072341662   0.030812769524400114
0.16244814664502472   0.007070853072341662   0.030812769524400114
0.16244814664502472   0.007070853072341662   0.030812769524400114
0.16244814664502472   0.007070853072341662   0.030812769524400114
0.25209302349763935   -0.017531774363774136   -0.013386535932875497
0.25209302349763935   -0.017531774363774136   -0.013386535932875497
0.25209302349763935   -0.017531774363774136   -0.013386535932875497
0.25209302349763935   -0.017531774363774136   -0.013386535932875497
0.1319842216456648   -0.0702725914981293   -0.044163410901925396
0.1319842216456648   -0.0702725914981293   -0.044163410901925396
0.1319842216456648   -0.0702725914981293   -0.044163410901925396
0.1319842216456648   -0.0702725914981293   -0.044163410901925396
0.41758915742673985   0.05891455670012426   0.034890276881597945
0.41758915742673985   0.05891455670012426   0.034890276881597945
0.41758915742673985   0.05891455670012426   0.034890276881597945
0.41758915742673985   0.05891455670012426   0.034890276881597945
0.4057502246679751   -0.006247247931520289   -0.06030633990925501
0.4057502246679751   -0.006247247931520289   -0.06030633990925501
0.4057502246679751   -0.006247247931520289   -0.06030633990925501
0.4057502246679751   -0.006247247931520289   -0.06030633990925501
0.16804226240019843   0.017859323962470607   0.024040460935122646
0.16804226240019843   0.017859323962470607   0.024040460935122646
0.16804226240019843   0.017859323962470607   0.024040460935122646
0.16804226240019843   0.017859323962470607   0.024040460935122646
0.2734384154145315   -0.0026721902094949887   -0.001565874285600781
0.2734384154145315   -0.0026721902094949887   -0.001565874285600781
0.2734384154145315   -0.0026721902094949887   -0.001565874285600781
0.2734384154145315   -0.0026721902094949887   -0.001565874285600781
0.13781176655999072   -0.05802017535996251   -0.05123251894348172
0.13781176655999072   -0.05802017535996251   -0.05123251894348172
0.13781176655999072   -0.05802017535996251   -0.05123251894348172
0.13781176655999072   -0.05802017535996251   -0.05123251894348172
0.4386340749959257   0.07228560587865682   0.025580057920326395
0.4386340749959257   0.07228560587865682   0.025580057920326395
0.4386340749959257   0.07228560587865682   0.025580057920326395
0.4386340749959257   0.07228560587865682   0.025580057920326395
0.4382776974189451   0.02607681983381105   -0.06457723732078142
0.4382776974189451   0.02607681983381105   -0.06457723732078142
0.4382776974189451   0.02607681983381105   -0.06457723732078142
0.4382776974189451   0.02607681983381105   -0.06457723732078142
0.17376576003903965   0.03964740618166086   0.01910719310492256
0.17376576003903965   0.03964740618166086   0.01910719310492256
0.17376576003903965   0.03964740618166086   0.01910719310492256
0.17376576003903965   0.03964740618166086   0.01910719310492256
0.28414680944298937   0.013686582219453014   0.008623597083819656
0.28414680944298937   0.013686582219453014   0.008623597083819656
0.28414680944298937   0.013686582219453014   0.008623597083819656
0.28414680944298937   0.013686582219453014   0.008623597083819656
-0.5248817441196122   -0.008634583783585337   0.05150492683500467
-0.5248817441196122   -0.008634583783585337   0.05150492683500467
-0.5248817441196122   -0.008634583783585337   0.05150492683500467
-0.5248817441196122   -0.008634583783585337   0.05150492683500467
-0.41013052368623526   -0.0521754385805123   -0.025426487292712525
-0.41013052368623526   -0.0521754385805123   -0.025426487292712525
-0.41013052368623526   -0.0521754385805123   -0.025426487292712525
-0.41013052368623526   -0.0521754385805123   -0.025426487292712525
-0.3712115370911732   0.0441464720559233   0.0440261067947106
-0.3712115370911732   0.0441464720559233   0.0440261067947106
-0.3712115370911732   0.0441464720559233   0.0440261067947106
-0.3712115370911732   0.0441464720559233   0.0440261067947106
-0.5227000951185974   -0.05696579930757908   -0.0346305037895989
-0.5227000951185974   -0.05696579930757908   -0.0346305037895989
-0.5227000951185974   -0.05696579930757908   -0.0346305037895989
-0.5227000951185974   -0.05696579930757908   -0.0346305037895989
-0.4397648746280198   -0.012067310227652728   -0.006585247433054376
-0.4397648746280198   -0.012067310227652728   -0.006585247433054376
-0.4397648746280198   -0.012067310227652728   -0.006585247433054376
-0.4397648746280198   -0.012067310227652728   -0.006585247433054376
-0.49026742711302923   0.02136956673228539   0.04919747019837711
-0.49026742711302923   0.02136956673228539   0.04919747019837711
-0.49026742711302923   0.02136956673228539   0.04919747019837711
-0.49026742711302923   0.02136956673228539   0.04919747019837711
-0.4013844108563103   -0.03192909974350954   -0.030762690231538284
-0.4013844108563103   -0.03192909974350954   -0.030762690231538284
-0.4013844108563103   -0.03192909974350954   -0.030762690231538284
-0.4013844108563103   -0.03192909974350954   -0.030762690231538284
-0.3620401721577422   0.055608151701596456   0.03722655358367053
-0.3620401721577422   0.055608151701596456   0.03722655358367053
-0.3620401721577422   0.055608151701596456   0.03722655358367053
-0.3620401721577422   0.055608151701596456   0.03722655358367053
-0.498669538398403   -0.04397594345535011   -0.04324919883289774
-0.498669538398403   -0.04397594345535011   -0.04324919883289774
-0.498669538398403   -0.04397594345535011   -0.04324919883289774
-0.498669538398403   -0.04397594345535011   -0.04324919883289774
-0.4272017484643925   0.0029271283399213144   0.002993895145964348
-0.4272017484643925   0.0029271283399213144   0.002993895145964348
-0.4272017484643925   0.0029271283399213144   0.002993895145964348
-0.4272017484643925   0.0029271283399213144   0.002993895145964348
-0.4662218119848782   0.03527434247942407   0.03973914729994455
-0.4662218119848782   0.03527434247942407   0.03973914729994455
-0.4662218119848782   0.03527434247942407   0.03973914729994455
-0.4662218119848782   0.03527434247942407   0.03973914729994455
-0.39235128510923134   -0.021505520771143302   -0.037215338701035355
-0.39235128510923134   -0.021505520771143302   -0.037215338701035355
-0.39235128510923134   -0.021505520771143302   -0.037215338701035355
-0.39235128510923134   -0.021505520771143302   -0.037215338701035355
-0.3546230296656847   0.0699113459886791   0.03210426305060433
-0.3546230296656847   0.0699113459886791   0.03210426305060433
-0.3546230296656847   0.0699113459886791   0.03210426305060433
-0.3546230296656847   0.0699113459886791   0.03210426305060433
-0.46639053307625417   -0.023174038242396222   -0.05004374414026654
-0.46639053307625417   -0.023174038242396222   -0.05004374414026654
-0.46639053307625417   -0.023174038242396222   -0.05004374414026654
-0.46639053307625417   -0.023174038242396222   -0.05004374414026654
-0.4018734149027052   0.017728053651444017   0.014865651152268879
-0.4018734149027052   0.017728053651444017   0.014865651152268879
-0.4018734149027052   0.017728053651444017   0.014865651152268879
-0.4018734149027052   0.017728053651444017   0.014865651152268879
-0.395675981352224   -0.029694281445401365   0.024365067242232835
-0.395675981352224   -0.029694281445401365   0.024365067242232835
-0.395675981352224   -0.029694281445401365   0.024365067242232835
-0.395675981352224   -0.029694281445401365   0.024365067242232835
-0.29112260564347786   -0.039550126878732494   -0.007524030225364539
-0.29112260564347786   -0.039550126878732494   -0.007524030225364539
-0.29112260564347786   -0.039550126878732494   -0.007524030225364539
-0.29112260564347786   -0.039550126878732494   -0.007524030225364539
-0.26944995126466126   0.02004697449793387   0.022509169478679952
-0.26944995126466126   0.02004697449793387   0.022509169478679952
-0.26944995126466126   0.02004697449793387   0.022509169478679952
-0.26944995126466126   0.02004697449793387   0.022509169478679952
-0.4015901075967786   -0.04203079776555865   -0.021689475911830465
-0.4015901075967786   -0.04203079776555865   -0.021689475911830465
-0.4015901075967786   -0.04203079776555865   -0.021689475911830465
-0.4015901075967786   -0.04203079776555865   -0.021689475911830465
-0.33853774152096805   -0.020999308824782036   -0.009156119981412298
-0.33853774152096805   -0.020999308824782036   -0.009156119981412298
-0.33853774152096805   -0.020999308824782036   -0.009156119981412298
-0.33853774152096805   -0.020999308824782036   -0.009156119981412298
-0.38539892303199236   -0.0034979366016339303   0.02073358574817212
-0.38539892303199236   -0.0034979366016339303   0.02073358574817212
-0.38539892303199236   -0.0034979366016339303   0.02073358574817212
-0.38539892303199236   -0.0034979366016339303   0.02073358574817212
-0.2838187270973182   -0.01666347793386222   -0.012624257252808718
-0.2838187270973182   -0.01666347793386222   -0.012624257252808718
-0.2838187270973182   -0.01666347793386222   -0.012624257252808718
-0.2838187270973182   -0.01666347793386222   -0.012624257252808718
-0.2615455763365906   0.04337142792553242   0.01799892317076498
-0.2615455763365906   0.04337142792553242   0.01799892317076498
-0.2615455763365906   0.04337142792553242   0.01799892317076498
-0.2615455763365906   0.04337142792553242   0.01799892317076498
-0.38972588201208264   -0.019623899560367405   -0.02596994442606393
-0.38972588201208264   -0.019623899560367405   -0.02596994442606393
-0.38972588201208264   -0.019623899560367405   -0.02596994442606393
-0.38972588201208264   -0.019623899560367405   -0.02596994442606393
-0.3270893918050314   0.0014720525807017798   0.0009081579607029718
-0.3270893918050314   0.0014720525807017798   0.0009081579607029718
-0.3270893918050314   0.0014720525807017798   0.0009081579607029718
-0.3270893918050314   0.0014720525807017798   0.0009081579607029718
-0.37258363736513467   0.021322922446107062   0.01879445680219763
-0.37258363736513467   0.021322922446107062   0.01879445680219763
-0.37258363736513467   0.021322922446107062   0.01879445680219763
-0.37258363736513467   0.021322922446107062   0.01879445680219763
-0.276584034091492   0.00452839281110104   -0.018350330489312325
-0.276584034091492   0.00452839281110104   -0.018350330489312325
-0.276584034091492   0.00452839281110104   -0.018350330489312325
-0.276584034091492   0.00452839281110104   -0.018350330489312325
-0.25366568600798906   0.06870472223814378   0.01370301093831279
-0.25366568600798906   0.06870472223814378   0.01370301093831279
-0.25366568600798906   0.06870472223814378   0.01370301093831279
-0.25366568600798906   0.06870472223814378   0.01370301093831279
-0.37994505751726015   0.004865382341518787   -0.029459912560108697
-0.37994505751726015   0.004865382341518787   -0.029459912560108697
-0.37994505751726015   0.004865382341518787   -0.029459912560108697
-0.37994505751726015   0.004865382341518787   -0.029459912560108697
-0.3188162615157047   0.023520320715158263   0.010759254051142763
-0.3188162615157047   0.023520320715158263   0.010759254051142763
-0.3188162615157047   0.023520320715158263   0.010759254051142763
-0.3188162615157047   0.023520320715158263   0.010759254051142763
-0.2907543367512681   -0.04955975843735457   0.0043269457943009
-0.2907543367512681   -0.04955975843735457   0.0043269457943009
-0.2907543367512681   -0.04955975843735457   0.0043269457943009
-0.2907543367512681   -0.04955975843735457   0.0043269457943009
-0.17367333448092612   -0.020956295866662564   0.010662260307555273
-0.17367333448092612   -0.020956295866662564   0.010662260307555273
-0.17367333448092612   -0.020956295866662564   0.010662260307555273
-0.17367333448092612   -0.020956295866662564   0.010662260307555273
-0.16780386348649004   -0.0005400161650080115   0.0013696728642584692
-0.16780386348649004   -0.0005400161650080115   0.0013696728642584692
-0.16780386348649004   -0.0005400161650080115   0.0013696728642584692
-0.16780386348649004   -0.0005400161650080115   0.0013696728642584692
-0.28297372690020395   -0.022565420916779974   -0.0024973132843196175
-0.28297372690020395   -0.022565420916779974   -0.0024973132843196175
-0.28297372690020395   -0.022565420916779974   -0.0024973132843196175
-0.28297372690020395   -0.022565420916779974   -0.0024973132843196175
-0.2291665958552075   -0.02230849782360808   -0.0066736499512891415
-0.2291665958552075   -0.02230849782360808   -0.0066736499512891415
-0.2291665958552075   -0.02230849782360808   -0.0066736499512891415
-0.2291665958552075   -0.02230849782360808   -0.0066736499512891415
-0.2826289292854221   -0.02370559426923717   0.0003668481420447643
-0.2826289292854221   -0.02370559426923717   0.0003668481420447643
-0.2826289292854221   -0.02370559426923717   0.0003668481420447643
-0.2826289292854221   -0.02370559426923717   0.0003668481420447643
-0.16633583089441428   0.0024129873943064192   0.005756832265322719
-0.16633583089441428   0.0024129873943064192   0.005756832265322719
-0.16633583089441428   0.0024129873943064192   0.005756832265322719
-0.16633583089441428   0.0024129873943064192   0.005756832265322719
-0.15921268298067878   0.025541766676296186   -0.0023195405784096138
-0.15921268298067878   0.025541766676296186   -0.0023195405784096138
-0.15921268298067878   0.025541766676296186   -0.0023195405784096138
-0.15921268298067878   0.025541766676296186   -0.0023195405784096138
-0.275054238078312   0.001138088541603216   -0.007311046153914386
-0.275054238078312   0.001138088541603216   -0.007311046153914386
-0.275054238078312   0.001138088541603216   -0.007311046153914386
-0.275054238078312   0.001138088541603216   -0.007311046153914386
-0.22010161014932028   0.0011321359077187815   0.0030905683084963102
-0.22010161014932028   0.0011321359077187815   0.0030905683084963102
-0.22010161014932028   0.0011321359077187815   0.0030905683084963102
-0.22010161014932028   0.0011321359077187815   0.0030905683084963102
-0.2740931030952774   0.0022967785246945163   -0.0036640612218347343
-0.2740931030952774   0.0022967785246945163   -0.0036640612218347343
-0.2740931030952774   0.0022967785246945163   -0.0036640612218347343
-0.2740931030952774   0.0022967785246945163   -0.0036640612218347343
-0.1585340621964366   0.02602283246048412   0.0005924975586147595
-0.1585340621964366   0.02602283246048412   0.0005924975586147595
-0.1585340621964366   0.02602283246048412   0.0005924975586147595
-0.1585340621964366   0.02602283246048412   0.0005924975586147595
-0.1510972521006273   0.05186454156827659   -0.006522354445207306
-0.1510972521006273   0.05186454156827659   -0.006522354445207306
-0.1510972521006273   0.05186454156827659   -0.006522354445207306
-0.1510972521006273   0.05186454156827659   -0.006522354445207306
-0.2676347637491481   0.025023749544772517   -0.012461405074109248
-0.2676347637491481   0.025023749544772517   -0.012461405074109248
-0.2676347637491481   0.025023749544772517   -0.012461405074109248
-0.2676347637491481   0.025023749544772517   -0.012461405074109248
-0.211530559344551   0.02465721722090162   0.012461355113182953
-0.211530559344551   0.02465721722090162   0.012461355113182953
-0.211530559344551   0.02465721722090162   0.012461355113182953
-0.211530559344551   0.02465721722090162   0.012461355113182953
-0.18815916363997082   -0.06677483118408106   -0.015948350170252684
-0.18815916363997082   -0.06677483118408106   -0.015948350170252684
-0.18815916363997082   -0.06677483118408106   -0.015948350170252684
-0.18815916363997082   -0.06677483118408106   -0.015948350170252684
-0.05964730442717477   -0.0012169024494182654   0.02794577322485861
-0.05964730442717477   -0.0012169024494182654   0.02794577322485861
-0.05964730442717477   -0.0012169024494182654   0.02794577322485861
-0.05964730442717477   -0.0012169024494182654   0.02794577322485861
-0.06764760121008045   -0.02002132516895642   -0.020624815694880533
-0.06764760121008045   -0.02002132516895642   -0.020624815694880533
-0.06764760121008045   -0.02002132516895642   -0.020624815694880533
-0.06764760121008045   -0.02002132516895642   -0.020624815694880533
-0.16527370269796798   -0.002544154329683704   0.01602461497154306
-0.16527370269796798   -0.002544154329683704   0.01602461497154306
-0.16527370269796798   -0.002544154329683704   0.01602461497154306
-0.16527370269796798   -0.002544154329683704   0.01602461497154306
-0.12014630508525741   -0.02165348360846551   -0.004817854310813848
-0.12014630508525741   -0.02165348360846551   -0.004817854310813848
-0.12014630508525741   -0.02165348360846551   -0.004817854310813848
-0.12014630508525741   -0.02165348360846551   -0.004817854310813848
-0.18050871622523776   -0.042506255359924985   -0.02018835163456602
-0.18050871622523776   -0.042506255359924985   -0.02018835163456602
-0.18050871622523776   -0.042506255359924985   -0.02018835163456602
-0.18050871622523776   -0.042506255359924985   -0.02018835163456602
-0.050382175833740044   0.021971187710355233   0.023709798307509806
-0.050382175833740044   0.021971187710355233   0.023709798307509806
-0.050382175833740044   0.021971187710355233   0.023709798307509806
-0.050382175833740044   0.021971187710355233   0.023709798307509806
-0.05505698002299514   0.00465089495096245   -0.0232210733518177
-0.05505698002299514   0.00465089495096245   -0.0232210733518177
-0.05505698002299514   0.00465089495096245   -0.0232210733518177
-0.05505698002299514   0.00465089495096245   -0.0232210733518177
-0.1579706342342539   0.018737663092931636   0.010694806737079458
-0.1579706342342539   0.018737663092931636   0.010694806737079458
-0.1579706342342539   0.018737663092931636   0.010694806737079458
-0.1579706342342539   0.018737663092931636   0.010694806737079458
-0.11049113561101266   0.0001878487797596605   0.005136187390006857
-0.11049113561101266   0.0001878487797596605   0.005136187390006857
-0.11049113561101266   0.0001878487797596605   0.005136187390006857
-0.11049113561101266   0.0001878487797596605   0.005136187390006857
-0.17272161653162077   -0.019251921676470215   -0.025070519980355366
-0.17272161653162077   -0.019251921676470215   -0.025070519980355366
-0.17272161653162077   -0.019251921676470215   -0.025070519980355366
-0.17272161653162077   -0.019251921676470215   -0.025070519980355366
-0.038415620226565236   0.04453085721942695   0.020105763361867347
-0.038415620226565236   0.04453085721942695   0.020105763361867347
-0.038415620226565236   0.04453085721942695   0.020105763361867347
-0.038415620226565236   0.04453085721942695   0.020105763361867347
-0.04440925647986291   0.03218775478075441   -0.02601974047903924
-0.04440925647986291   0.03218775478075441   -0.02601974047903924
-0.04440925647986291   0.03218775478075441   -0.02601974047903924
-0.04440925647986291   0.03218775478075441   -0.02601974047903924
-0.1504939176530479   0.042802416154808884   0.005556443206157453
-0.1504939176530479   0.042802416154808884   0.005556443206157453
-0.1504939176530479   0.042802416154808884   0.005556443206157453
-0.1504939176530479   0.042802416154808884   0.005556443206157453
-0.10051039388871069   0.022934242278239775   0.015084293932475816
-0.10051039388871069   0.022934242278239775   0.015084293932475816
-0.10051039388871069   0.022934242278239775   0.015084293932475816
-0.10051039388871069   0.022934242278239775   0.015084293932475816
-0.08629028232892982   -0.07178077654039802   -0.03470524219293873
-0.08629028232892982   -0.07178077654039802   -0.03470524219293873
-0.08629028232892982   -0.07178077654039802   -0.03470524219293873
-0.08629028232892982   -0.07178077654039802   -0.03470524219293873
0.026007415872787654   0.021005316857283605   0.04268399174829602
0.026007415872787654   0.021005316857283605   0.04268399174829602
0.026007415872787654   0.021005316857283605   0.04268399174829602
0.026007415872787654   0.021005316857283605   0.04268399174829602
0.026157838267184114   -0.03554496708017386   -0.04597602286033689
0.026157838267184114   -0.03554496708017386   -0.04597602286033689
0.026157838267184114   -0.03554496708017386   -0.04597602286033689
0.026157838267184114   -0.03554496708017386   -0.04597602286033689
-0.04809299037449094   0.02218908065735959   0.03493783265675095
-0.04809299037449094   0.02218908065735959   0.03493783265675095
-0.04809299037449094   0.02218908065735959   0.03493783265675095
-0.04809299037449094   0.02218908065735959   0.03493783265675095
-0.021383516155045156   -0.015309316049237603   -0.00806450184938523
-0.021383516155045156   -0.015309316049237603   -0.00806450184938523
-0.021383516155045156   -0.015309316049237603   -0.00806450184938523
-0.021383516155045156   -0.015309316049237603   -0.00806450184938523
-0.07855407740227921   -0.05527320833913807   -0.03990531348569461
-0.07855407740227921   -0.05527320833913807   -0.03990531348569461
-0.07855407740227921   -0.05527320833913807   -0.03990531348569461
-0.07855407740227921   -0.05527320833913807   -0.03990531348569461
0.05878857421523597   0.044086970836587705   0.03754571896316463
0.05878857421523597   0.044086970836587705   0.03754571896316463
0.05878857421523597   0.044086970836587705   0.03754571896316463
0.05878857421523597   0.044086970836587705   0.03754571896316463
0.05030828867062   -0.021422213137919636   -0.054633250837234804
0.05030828867062   -0.021422213137919636   -0.054633250837234804
0.05030828867062   -0.021422213137919636   -0.054633250837234804
0.05030828867062   -0.021422213137919636   -0.054633250837234804
-0.039249543595624735   0.03243743043577914   0.02802957330021765
-0.039249543595624735   0.03243743043577914   0.02802957330021765
-0.039249543595624735   0.03243743043577914   0.02802957330021765
-0.039249543595624735   0.03243743043577914   0.02802957330021765
-0.0015701745370749717   -0.0007689106140128201   0.0027116156177293725
-0.0015701745370749717   -0.0007689106140128201   0.0027116156177293725
-0.0015701745370749717   -0.0007689106140128201   0.0027116156177293725
-0.0015701745370749717   -0.0007689106140128201   0.0027116156177293725
-0.0693067883930854   -0.043652018694560014   -0.046167201556746626
-0.0693067883930854   -0.043652018694560014   -0.046167201556746626
-0.0693067883930854   -0.043652018694560014   -0.046167201556746626
-0.0693067883930854   -0.043652018694560014   -0.046167201556746626
0.08253895746969318   0.05684065999403265   0.02825722002618263
0.08253895746969318   0.05684065999403265   0.02825722002618263
0.08253895746969318   0.05684065999403265   0.02825722002618263
0.08253895746969318   0.05684065999403265   0.02825722002618263
0.08419265606229943   0.0062065389134397814   -0.05852403925944264
0.08419265606229943   0.0062065389134397814   -0.05852403925944264
0.08419265606229943   0.0062065389134397814   -0.05852403925944264
0.08419265606229943   0.0062065389134397814   -0.05852403925944264
-0.030991263076634648   0.050477931641573666   0.022780049676282804
-0.030991263076634648   0.050477931641573666   0.022780049676282804
-0.030991263076634648   0.050477931641573666   0.022780049676282804
-0.030991263076634648   0.050477931641573666   0.022780049676282804
0.016353693504831495   0.01449057636134159   0.013260449824085375
0.016353693504831495   0.01449057636134159   0.013260449824085375
0.016353693504831495   0.01449057636134159   0.013260449824085375
0.016353693504831495   0.01449057636134159   0.013260449824085375
-0.1727747232315986   0.010136005269605071   0.04877493150323769
-0.1727747232315986   0.010136005269605071   0.04877493150323769
-0.1727747232315986   0.010136005269605071   0.04877493150323769
-0.1727747232315986   0.010136005269605071   0.04877493150323769
-0.20671903246474366   -0.06351791192310803   -0.02868360516574495
-0.20671903246474366   -0.06351791192310803   -0.02868360516574495
-0.20671903246474366   -0.06351791192310803   -0.02868360516574495
-0.20671903246474366   -0.06351791192310803   -0.02868360516574495
-0.16504072087348237   0.02947655051724147   0.039921871089388807
-0.16504072087348237   0.02947655051724147   0.039921871089388807
-0.16504072087348237   0.02947655051724147   0.039921871089388807
-0.16504072087348237   0.02947655051724147   0.039921871089388807
-0.16781446462117927   -0.04159615285835908   -0.036991349933050754
-0.16781446462117927   -0.04159615285835908   -0.036991349933050754
-0.16781446462117927   -0.04159615285835908   -0.036991349933050754
-0.16781446462117927   -0.04159615285835908   -0.036991349933050754
-0.1736275029681065   -0.013347912972915599   -0.01340192946267233
-0.1736275029681065   -0.013347912972915599   -0.01340192946267233
-0.1736275029681065   -0.013347912972915599   -0.01340192946267233
-0.1736275029681065   -0.013347912972915599   -0.01340192946267233
-0.13572434395546557   0.03644005982533231   0.045423040711826235
-0.13572434395546557   0.03644005982533231   0.045423040711826235
-0.13572434395546557   0.03644005982533231   0.045423040711826235
-0.13572434395546557   0.03644005982533231   0.045423040711826235
-0.1951106256095118   -0.04653944623676566   -0.03441165583675113
-0.1951106256095118   -0.04653944623676566   -0.03441165583675113
-0.1951106256095118   -0.04653944623676566   -0.03441165583675113
-0.1951106256095118   -0.04653944623676566   -0.03441165583675113
-0.15224829586923505   0.04067522433331122   0.03358539758124093
-0.15224829586923505   0.04067522433331122   0.03358539758124093
-0.15224829586923505   0.04067522433331122   0.03358539758124093
-0.15224829586923505   0.04067522433331122   0.03358539758124093
-0.1402956605190891   -0.02894019537571508   -0.04605654613133905
-0.1402956605190891   -0.02894019537571508   -0.04605654613133905
-0.1402956605190891   -0.02894019537571508   -0.04605654613133905
-0.1402956605190891   -0.02894019537571508   -0.04605654613133905
-0.15332845211513285   0.0009505891989349188   -0.0028460301842760174
-0.15332845211513285   0.0009505891989349188   -0.0028460301842760174
-0.15332845211513285   0.0009505891989349188   -0.0028460301842760174
-0.15332845211513285   0.0009505891989349188   -0.0028460301842760174
-0.10803007632120543   0.05005668718595151   0.03627449229641276
-0.10803007632120543   0.05005668718595151   0.03627449229641276
-0.10803007632120543   0.05005668718595151   0.03627449229641276
-0.10803007632120543   0.05005668718595151   0.03627449229641276
-0.18261160315125796   -0.03641938131249333   -0.04113653318306145
-0.18261160315125796   -0.03641938131249333   -0.04113653318306145
-0.18261160315125796   -0.03641938131249333   -0.04113653318306145
-0.18261160315125796   -0.03641938131249333   -0.04113653318306145
-0.14055431281841493   0.057803111061972064   0.029005782123750993
-0.14055431281841493   0.057803111061972064   0.029005782123750993
-0.14055431281841493   0.057803111061972064   0.029005782123750993
-0.14055431281841493   0.057803111061972064   0.029005782123750993
-0.10355848200888323   -0.00488527265352081   -0.05187684614066706
-0.10355848200888323   -0.00488527265352081   -0.05187684614066706
-0.10355848200888323   -0.00488527265352081   -0.05187684614066706
-0.10355848200888323   -0.00488527265352081   -0.05187684614066706
-0.12895124330942243   0.01590579602608063   0.008444551390847644
-0.12895124330942243   0.01590579602608063   0.008444551390847644
-0.12895124330942243   0.01590579602608063   0.008444551390847644
-0.12895124330942243   0.01590579602608063   0.008444551390847644
-0.18497250298117204   -0.011257561862831146   0.02778869219183635
-0.18497250298117204   -0.011257561862831146   0.02778869219183635
-0.18497250298117204   -0.011257561862831146   0.02778869219183635
-0.18497250298117204   -0.011257561862831146   0.02778869219183635
-0.23050112189399255   -0.05181691832181878   -0.011204782294223026
-0.23050112189399255   -0.05181691832181878   -0.011204782294223026
-0.23050112189399255   -0.05181691832181878   -0.011204782294223026
-0.23050112189399255   -0.05181691832181878   -0.011204782294223026
-0.20561604546319096   0.005207678417510103   0.01852884286994099
-0.20561604546319096   0.005207678417510103   0.01852884286994099
-0.20561604546319096   0.005207678417510103   0.01852884286994099
-0.20561604546319096   0.005207678417510103   0.01852884286994099
-0.18717722656882693   -0.024343704390124232   -0.016940402479964457
-0.18717722656882693   -0.024343704390124232   -0.016940402479964457
-0.18717722656882693   -0.024343704390124232   -0.016940402479964457
-0.18717722656882693   -0.024343704390124232   -0.016940402479964457
-0.2022250666733714   -0.018969401728680845   -0.009402023630291741
-0.2022250666733714   -0.018969401728680845   -0.009402023630291741
-0.2022250666733714   -0.018969401728680845   -0.009402023630291741
-0.2022250666733714   -0.018969401728680845   -0.009402023630291741
-0.17143235832073556   0.013188911788404901   0.024251322581959563
-0.17143235832073556   0.013188911788404901   0.024251322581959563
-0.17143235832073556   0.013188911788404901   0.024251322581959563
-0.17143235832073556   0.013188911788404901   0.024251322581959563
-0.21977756132800683   -0.030741585377749573   -0.01632947265888058
-0.21977756132800683   -0.030741585377749573   -0.01632947265888058
-0.21977756132800683   -0.030741585377749573   -0.01632947265888058
-0.21977756132800683   -0.030741585377749573   -0.01632947265888058
-0.19419879399147014   0.027502074916657786   0.014132839938464897
-0.19419879399147014   0.027502074916657786   0.014132839938464897
-0.19419879399147014   0.027502074916657786   0.014132839938464897
-0.19419879399147014   0.027502074916657786   0.014132839938464897
-0.17188155180887346   -0.0028730882953015777   -0.02103256948833065
-0.17188155180887346   -0.0028730882953015777   -0.02103256948833065
-0.17188155180887346   -0.0028730882953015777   -0.02103256948833065
-0.17188155180887346   -0.0028730882953015777   -0.02103256948833065
-0.18857336194194657   0.0018190417595920771   0.00033604030354452905
-0.18857336194194657   0.0018190417595920771   0.00033604030354452905
-0.18857336194194657   0.0018190417595920771   0.00033604030354452905
-0.18857336194194657   0.0018190417595920771   0.00033604030354452905
-0.15536955355730095   0.03681018475886928   0.021844148715353236
-0.15536955355730095   0.03681018475886928   0.021844148715353236
-0.15536955355730095   0.03681018475886928   0.021844148715353236
-0.15536955355730095   0.03681018475886928   0.021844148715353236
-0.2090227190931031   -0.010493124987575486   -0.021991585665470558
-0.2090227190931031   -0.010493124987575486   -0.021991585665470558
-0.2090227190931031   -0.010493124987575486   -0.021991585665470558
-0.2090227190931031   -0.010493124987575486   -0.021991585665470558
-0.182724621147426   0.05219231961975364   0.009954337461231397
-0.182724621147426   0.05219231961975364   0.009954337461231397
-0.182724621147426   0.05219231961975364   0.009954337461231397
-0.182724621147426   0.05219231961975364   0.009954337461231397
-0.15869689891193442   0.020971398992356408   -0.024875436274226795
-0.15869689891193442   0.020971398992356408   -0.024875436274226795
-0.15869689891193442   0.020971398992356408   -0.024875436274226795
-0.15869689891193442   0.020971398992356408   -0.024875436274226795
-0.17566506964670311   0.02330379083057795   0.010253180246677086
-0.17566506964670311   0.02330379083057795   0.010253180246677086
-0.17566506964670311   0.02330379083057795   0.010253180246677086
-0.17566506964670311   0.02330379083057795   0.010253180246677086
-0.22259185884334526   -0.03130627489434974   0.007830889531538536
-0.22259185884334526   -0.03130627489434974   0.007830889531538536
-0.22259185884334526   -0.03130627489434974   0.007830889531538536
-0.22259185884334526   -0.03130627489434974   0.007830889531538536
-0.2541629153279862   -0.03281241560027709   0.006766506364801642
-0.2541629153279862   -0.03281241560027709   0.006766506364801642
-0.2541629153279862   -0.03281241560027709   0.006766506364801642
-0.2541629153279862   -0.03281241560027709   0.006766506364801642
-0.24503057779936807   -0.014959285704488456   -0.002409786323697906
-0.24503057779936807   -0.014959285704488456   -0.002409786323697906
-0.24503057779936807   -0.014959285704488456   -0.002409786323697906
-0.24503057779936807   -0.014959285704488456   -0.002409786323697906
-0.21079995443754912   -0.004401548704809598   0.002218525120467876
-0.21079995443754912   -0.004401548704809598   0.002218525120467876
-0.21079995443754912   -0.004401548704809598   0.002218525120467876
-0.21079995443754912   -0.004401548704809598   0.002218525120467876
-0.23349626886410788   -0.019687319833017955   -0.006248598647817688
-0.23349626886410788   -0.019687319833017955   -0.006248598647817688
-0.23349626886410788   -0.019687319833017955   -0.006248598647817688
-0.23349626886410788   -0.019687319833017955   -0.006248598647817688
-0.21095900778032495   -0.006882227079654024   0.0039039367814311873
-0.21095900778032495   -0.006882227079654024   0.0039039367814311873
-0.21095900778032495   -0.006882227079654024   0.0039039367814311873
-0.21095900778032495   -0.006882227079654024   0.0039039367814311873
-0.24337746430199242   -0.010984547175044261   0.0018810426337378793
-0.24337746430199242   -0.010984547175044261   0.0018810426337378793
-0.24337746430199242   -0.010984547175044261   0.0018810426337378793
-0.24337746430199242   -0.010984547175044261   0.0018810426337378793
-0.2330318784187976   0.009783098708964419   -0.006108354976622734
-0.2330318784187976   0.009783098708964419   -0.006108354976622734
-0.2330318784187976   0.009783098708964419   -0.006108354976622734
-0.2330318784187976   0.009783098708964419   -0.006108354976622734
-0.1994210415616596   0.018027940528530517   -0.002504263524355118
-0.1994210415616596   0.018027940528530517   -0.002504263524355118
-0.1994210415616596   0.018027940528530517   -0.002504263524355118
-0.1994210415616596   0.018027940528530517   -0.002504263524355118
-0.2209579974336468   0.0024223155590149745   0.0033702909949612798
-0.2209579974336468   0.0024223155590149745   0.0033702909949612798
-0.2209579974336468   0.0024223155590149745   0.0033702909949612798
-0.2209579974336468   0.0024223155590149745   0.0033702909949612798
-0.19900865685976699   0.01777211176568498   -0.000186511252050537
-0.19900865685976699   0.01777211176568498   -0.000186511252050537
-0.19900865685976699   0.01777211176568498   -0.000186511252050537
-0.19900865685976699   0.01777211176568498   -0.000186511252050537
-0.23214021436423452   0.011342976228265016   -0.0032099122231077325
-0.23214021436423452   0.011342976228265016   -0.0032099122231077325
-0.23214021436423452   0.011342976228265016   -0.0032099122231077325
-0.23214021436423452   0.011342976228265016   -0.0032099122231077325
-0.2215422639019147   0.034678946535550606   -0.010277919967467561
-0.2215422639019147   0.034678946535550606   -0.010277919967467561
-0.2215422639019147   0.034678946535550606   -0.010277919967467561
-0.2215422639019147   0.034678946535550606   -0.010277919967467561
-0.18858312990887216   0.04054929675405315   -0.0076951834802990275
-0.18858312990887216   0.04054929675405315   -0.0076951834802990275
-0.18858312990887216   0.04054929675405315   -0.0076951834802990275
-0.18858312990887216   0.04054929675405315   -0.0076951834802990275
-0.20900388495082328   0.024573099581337805   0.012538558057609263
-0.20900388495082328   0.024573099581337805   0.012538558057609263
-0.20900388495082328   0.024573099581337805   0.012538558057609263
-0.20900388495082328   0.024573099581337805   0.012538558057609263
-0.26141759548762394   -0.049686647761013815   -0.012632662272654553
-0.26141759548762394   -0.049686647761013815   -0.012632662272654553
-0.26141759548762394   -0.049686647761013815   -0.012632662272654553
-0.26141759548762394   -0.049686647761013815   -0.012632662272654553
-0.2798938684506512   -0.014195858612971485   0.02393061567372093
-0.2798938684506512   -0.014195858612971485   0.02393061567372093
-0.2798938684506512   -0.014195858612971485   0.02393061567372093
-0.2798938684506512   -0.014195858612971485   0.02393061567372093
-0.2844610696912513   -0.03431382353152456   -0.023636364044377946
-0.2844610696912513   -0.03431382353152456   -0.023636364044377946
-0.2844610696912513   -0.03431382353152456   -0.023636364044377946
-0.2844610696912513   -0.03431382353152456   -0.023636364044377946
-0.23453872150370292   0.014863651000354583   0.020226558449784632
-0.23453872150370292   0.014863651000354583   0.020226558449784632
-0.23453872150370292   0.014863651000354583   0.020226558449784632
-0.23453872150370292   0.014863651000354583   0.020226558449784632
-0.2639673974456711   -0.019491102162507698   -0.0039309669379421295
-0.2639673974456711   -0.019491102162507698   -0.0039309669379421295
-0.2639673974456711   -0.019491102162507698   -0.0039309669379421295
-0.2639673974456711   -0.019491102162507698   -0.0039309669379421295
-0.2501055526094379   -0.026053530434994816   -0.01669041564354263
-0.2501055526094379   -0.026053530434994816   -0.01669041564354263
-0.2501055526094379   -0.026053530434994816   -0.01669041564354263
-0.2501055526094379   -0.026053530434994816   -0.01669041564354263
-0.2673278759104727   0.00816972057886814   0.019546060749122185
-0.2673278759104727   0.00816972057886814   0.019546060749122185
-0.2673278759104727   0.00816972057886814   0.019546060749122185
-0.2673278759104727   0.00816972057886814   0.019546060749122185
-0.26870891900455274   -0.010853034148214293   -0.026520394698366645
-0.26870891900455274   -0.010853034148214293   -0.026520394698366645
-0.26870891900455274   -0.010853034148214293   -0.026520394698366645
-0.26870891900455274   -0.010853034148214293   -0.026520394698366645
-0.2237441256182854   0.03509073994117747   0.015022767793723243
-0.2237441256182854   0.03509073994117747   0.015022767793723243
-0.2237441256182854   0.03509073994117747   0.015022767793723243
-0.2237441256182854   0.03509073994117747   0.015022767793723243
-0.24970203428600482   0.0018070852764424106   0.006001195996858701
-0.24970203428600482   0.0018070852764424106   0.006001195996858701
-0.24970203428600482   0.0018070852764424106   0.006001195996858701
-0.24970203428600482   0.0018070852764424106   0.006001195996858701
-0.23882770460080227   -0.0038613248027759978   -0.02144306237491039
-0.23882770460080227   -0.0038613248027759978   -0.02144306237491039
-0.23882770460080227   -0.0038613248027759978   -0.02144306237491039
-0.23882770460080227   -0.0038613248027759978   -0.02144306237491039
-0.2520424138982176   0.02968195671954972   0.016277139965547326
-0.2520424138982176   0.02968195671954972   0.016277139965547326
-0.2520424138982176   0.02968195671954972   0.016277139965547326
-0.2520424138982176   0.02968195671954972   0.016277139965547326
-0.25492856710563006   0.014982914720307036   -0.029106414513769607
-0.25492856710563006   0.014982914720307036   -0.029106414513769607
-0.25492856710563006   0.014982914720307036   -0.029106414513769607
-0.25492856710563006   0.014982914720307036   -0.029106414513769607
-0.21292010292147123   0.05762193054209038   0.009889900928209995
-0.21292010292147123   0.05762193054209038   0.009889900928209995
-0.21292010292147123   0.05762193054209038   0.009889900928209995
-0.21292010292147123   0.05762193054209038   0.009889900928209995
-0.2376118056364118   0.022924614073489988   0.015492014509064105
-0.2376118056364118   0.022924614073489988   0.015492014509064105
-0.2376118056364118   0.022924614073489988   0.015492014509064105
-0.2376118056364118   0.022924614073489988   0.015492014509064105
-0.29999378597721027   -0.05907057331398766   -0.03169425725806237
-0.29999378597721027   -0.05907057331398766   -0.03169425725806237
-0.29999378597721027   -0.05907057331398766   -0.03169425725806237
-0.29999378597721027   -0.05907057331398766   -0.03169425725806237
-0.33268194292535147   0.004349200050820665   0.04313790032845384
-0.33268194292535147   0.004349200050820665   0.04313790032845384
-0.33268194292535147   0.004349200050820665   0.04313790032845384
-0.33268194292535147   0.004349200050820665   0.04313790032845384
-0.3283399112724428   -0.04929705985835659   -0.0422459490238781
-0.3283399112724428   -0.04929705985835659   -0.0422459490238781
-0.3283399112724428   -0.04929705985835659   -0.0422459490238781
-0.3283399112724428   -0.04929705985835659   -0.0422459490238781
-0.25768468617097406   0.03726675514435849   0.038664974881122346
-0.25768468617097406   0.03726675514435849   0.038664974881122346
-0.25768468617097406   0.03726675514435849   0.038664974881122346
-0.25768468617097406   0.03726675514435849   0.038664974881122346
-0.29244697686873367   -0.012758129106393852   -0.0018747161777830316
-0.29244697686873367   -0.012758129106393852   -0.0018747161777830316
-0.29244697686873367   -0.012758129106393852   -0.0018747161777830316
-0.29244697686873367   -0.012758129106393852   -0.0018747161777830316
-0.2881311168253287   -0.04005516317784786   -0.03624526006844854
-0.2881311168253287   -0.04005516317784786   -0.03624526006844854
-0.2881311168253287   -0.04005516317784786   -0.03624526006844854
-0.2881311168253287   -0.04005516317784786   -0.03624526006844854
-0.2962381403746025   0.029680198707339157   0.03928564689962348
-0.2962381403746025   0.029680198707339157   0.03928564689962348
-0.2962381403746025   0.029680198707339157   0.03928564689962348
-0.2962381403746025   0.029680198707339157   0.03928564689962348
-0.3010782093120519   -0.035607524739033274   -0.050366536857417155
-0.3010782093120519   -0.035607524739033274   -0.050366536857417155
-0.3010782093120519   -0.035607524739033274   -0.050366536857417155
-0.3010782093120519   -0.035607524739033274   -0.050366536857417155
-0.24552126323741735   0.04690950901761379   0.031655340971482385
-0.24552126323741735   0.04690950901761379   0.031655340971482385
-0.24552126323741735   0.04690950901761379   0.031655340971482385
-0.24552126323741735   0.04690950901761379   0.031655340971482385
-0.27405466310832716   0.001557566680705183   0.007646498169985916
-0.27405466310832716   0.001557566680705183   0.007646498169985916
-0.27405466310832716   0.001557566680705183   0.007646498169985916
-0.27405466310832716   0.001557566680705183   0.007646498169985916
-0.27538133124521896   -0.028784949803471883   -0.04195054024644318
-0.27538133124521896   -0.028784949803471883   -0.04195054024644318
-0.27538133124521896   -0.028784949803471883   -0.04195054024644318
-0.27538133124521896   -0.028784949803471883   -0.04195054024644318
-0.2694825131000517   0.04182256228625558   0.030181857177295112
-0.2694825131000517   0.04182256228625558   0.030181857177295112
-0.2694825131000517   0.04182256228625558   0.030181857177295112
-0.2694825131000517   0.04182256228625558   0.030181857177295112
-0.2652542271851903   -0.011942271766785577   -0.05505800325695771
-0.2652542271851903   -0.011942271766785577   -0.05505800325695771
-0.2652542271851903   -0.011942271766785577   -0.05505800325695771
-0.2652542271851903   -0.011942271766785577   -0.05505800325695771
-0.23463708525366822   0.06126007926316457   0.02607383020318017
-0.23463708525366822   0.06126007926316457   0.02607383020318017
-0.23463708525366822   0.06126007926316457   0.02607383020318017
-0.23463708525366822   0.06126007926316457   0.02607383020318017
-0.24877296260564208   0.01584550731994179   0.018684557165923425
-0.24877296260564208   0.01584550731994179   0.018684557165923425
-0.24877296260564208   0.01584550731994179   0.018684557165923425
-0.24877296260564208   0.01584550731994179   0.018684557165923425
0.18169955059452345   0.029321523394006985   0.047094988360563
0.18169955059452345   0.029321523394006985   0.047094988360563
0.18169955059452345   0.029321523394006985   0.047094988360563
0.18169955059452345   0.029321523394006985   0.047094988360563
-0.004033074828603336   -0.07562932771385146   -0.0310551040312894
-0.004033074828603336   -0.07562932771385146   -0.0310551040312894
-0.004033074828603336   -0.07562932771385146   -0.0310551040312894
-0.004033074828603336   -0.07562932771385146   -0.0310551040312894
0.04033200698213647   0.014705675490165228   0.03637132020628573
0.04033200698213647   0.014705675490165228   0.03637132020628573
0.04033200698213647   0.014705675490165228   0.03637132020628573
0.04033200698213647   0.014705675490165228   0.03637132020628573
0.1894049339400219   -0.026312537193064325   -0.038894467888388205
0.1894049339400219   -0.026312537193064325   -0.038894467888388205
0.1894049339400219   -0.026312537193064325   -0.038894467888388205
0.1894049339400219   -0.026312537193064325   -0.038894467888388205
0.09275800148389135   -0.014624248559373706   -0.0224694446070383
0.09275800148389135   -0.014624248559373706   -0.0224694446070383
0.09275800148389135   -0.014624248559373706   -0.0224694446070383
0.09275800148389135   -0.014624248559373706   -0.0224694446070383
0.22137249303482004   0.05213805561496036   0.04249273477757787
0.22137249303482004   0.05213805561496036   0.04249273477757787
0.22137249303482004   0.05213805561496036   0.04249273477757787
0.22137249303482004   0.05213805561496036   0.04249273477757787
0.010339596329245367   -0.061769768875951786   -0.037115288692048984
0.010339596329245367   -0.061769768875951786   -0.037115288692048984
0.010339596329245367   -0.061769768875951786   -0.037115288692048984
0.010339596329245367   -0.061769768875951786   -0.037115288692048984
0.05644027254040174   0.02568706569850817   0.03034382618028634
0.05644027254040174   0.02568706569850817   0.03034382618028634
0.05644027254040174   0.02568706569850817   0.03034382618028634
0.05644027254040174   0.02568706569850817   0.03034382618028634
0.22034844177054907   -0.013909584461477477   -0.048631443445185094
0.22034844177054907   -0.013909584461477477   -0.048631443445185094
0.22034844177054907   -0.013909584461477477   -0.048631443445185094
0.22034844177054907   -0.013909584461477477   -0.048631443445185094
0.12069221223292663   -0.0009437500239383168   -0.010591235554710154
0.12069221223292663   -0.0009437500239383168   -0.010591235554710154
0.12069221223292663   -0.0009437500239383168   -0.010591235554710154
0.12069221223292663   -0.0009437500239383168   -0.010591235554710154
0.2526579833760299   0.06555264887810468   0.033454031242640674
0.2526579833760299   0.06555264887810468   0.033454031242640674
0.2526579833760299   0.06555264887810468   0.033454031242640674
0.2526579833760299   0.06555264887810468   0.033454031242640674
0.026058834507134424   -0.0518470640688592   -0.04402923421867904
0.026058834507134424   -0.0518470640688592   -0.04402923421867904
0.026058834507134424   -0.0518470640688592   -0.04402923421867904
0.026058834507134424   -0.0518470640688592   -0.04402923421867904
0.07206923793972744   0.045867023774855825   0.02625691605260546
0.07206923793972744   0.045867023774855825   0.02625691605260546
0.07206923793972744   0.045867023774855825   0.02625691605260546
0.07206923793972744   0.045867023774855825   0.02625691605260546
0.2614352136629147   0.013845250550673212   -0.05362378931112889
0.2614352136629147   0.013845250550673212   -0.05362378931112889
0.2614352136629147   0.013845250550673212   -0.05362378931112889
0.2614352136629147   0.013845250550673212   -0.05362378931112889
0.14408854443895924   0.014402482722327793   0.0006278638657369615
0.14408854443895924   0.014402482722327793   0.0006278638657369615
0.14408854443895924   0.014402482722327793   0.0006278638657369615
0.14408854443895924   0.014402482722327793   0.0006278638657369615
0.025306470085929445   0.007990179248763   0.032023113578763876
0.025306470085929445   0.007990179248763   0.032023113578763876
0.025306470085929445   0.007990179248763   0.032023113578763876
0.025306470085929445   0.007990179248763   0.032023113578763876
-0.17185092106530572   -0.06423611292194928   -0.014251432673917964
-0.17185092106530572   -0.06423611292194928   -0.014251432673917964
-0.17185092106530572   -0.06423611292194928   -0.014251432673917964
-0.17185092106530572   -0.06423611292194928   -0.014251432673917964
-0.1438950367230284   -0.009378356504275966   0.014604147103478366
-0.1438950367230284   -0.009378356504275966   0.014604147103478366
-0.1438950367230284   -0.009378356504275966   0.014604147103478366
-0.1438950367230284   -0.009378356504275966   0.014604147103478366
0.026412072652453742   -0.007235389133043006   -0.011287286818915908
0.026412072652453742   -0.007235389133043006   -0.011287286818915908
0.026412072652453742   -0.007235389133043006   -0.011287286818915908
0.026412072652453742   -0.007235389133043006   -0.011287286818915908
-0.06743184409647697   -0.01657041168148175   -0.010786909900890233
-0.06743184409647697   -0.01657041168148175   -0.010786909900890233
-0.06743184409647697   -0.01657041168148175   -0.010786909900890233
-0.06743184409647697   -0.01657041168148175   -0.010786909900890233
0.04190683647875654   0.03054284779274634   0.028408295386804932
0.04190683647875654   0.03054284779274634   0.028408295386804932
0.04190683647875654   0.03054284779274634   0.028408295386804932
0.04190683647875654   0.03054284779274634   0.028408295386804932
-0.15794926310647167   -0.045716055987201284   -0.019329285330812598
-0.15794926310647167   -0.045716055987201284   -0.019329285330812598
-0.15794926310647167   -0.045716055987201284   -0.019329285330812598
-0.15794926310647167   -0.045716055987201284   -0.019329285330812598
-0.12921212597263423   0.011930934444959549   0.010318118376735758
-0.12921212597263423   0.011930934444959549   0.010318118376735758
-0.12921212597263423   0.011930934444959549   0.010318118376735758
-0.12921212597263423   0.011930934444959549   0.010318118376735758
0.04477297085734003   0.012974202895604726   -0.015279819432118752
0.04477297085734003   0.012974202895604726   -0.015279819432118752
0.04477297085734003   0.012974202895604726   -0.015279819432118752
0.04477297085734003   0.012974202895604726   -0.015279819432118752
-0.05186616064695069   0.002218090682423497   -0.0013231053410613439
-0.05186616064695069   0.002218090682423497   -0.0013231053410613439
-0.05186616064695069   0.002218090682423497   -0.0013231053410613439
-0.05186616064695069   0.002218090682423497   -0.0013231053410613439
0.060921048981222053   0.052984083814135725   0.025450690268760363
0.060921048981222053   0.052984083814135725   0.025450690268760363
0.060921048981222053   0.052984083814135725   0.025450690268760363
0.060921048981222053   0.052984083814135725   0.025450690268760363
-0.14397282484433432   -0.026691567221384414   -0.02486287431542079
-0.14397282484433432   -0.026691567221384414   -0.02486287431542079
-0.14397282484433432   -0.026691567221384414   -0.02486287431542079
-0.14397282484433432   -0.026691567221384414   -0.02486287431542079
-0.11443952590537448   0.03604447546086647   0.006232573061763558
-0.11443952590537448   0.03604447546086647   0.006232573061763558
-0.11443952590537448   0.03604447546086647   0.006232573061763558
-0.11443952590537448   0.03604447546086647   0.006232573061763558
0.060924492464279265   0.035905751886415524   -0.019505539436195127
0.060924492464279265   0.035905751886415524   -0.019505539436195127
0.060924492464279265   0.035905751886415524   -0.019505539436195127
0.060924492464279265   0.035905751886415524   -0.019505539436195127
-0.03463593470508801   0.02297789499049023   0.008772183362848924
-0.03463593470508801   0.02297789499049023   0.008772183362848924
-0.03463593470508801   0.02297789499049023   0.008772183362848924
-0.03463593470508801   0.02297789499049023   0.008772183362848924
-0.15630220995645322   -0.012285311507709486   0.011541321456106698
-0.15630220995645322   -0.012285311507709486   0.011541321456106698
-0.15630220995645322   -0.012285311507709486   0.011541321456106698
-0.15630220995645322   -0.012285311507709486   0.011541321456106698
-0.33661659332960103   -0.045734076497967714   0.002934977791571163
-0.33661659332960103   -0.045734076497967714   0.002934977791571163
-0.33661659332960103   -0.045734076497967714   0.002934977791571163
-0.33661659332960103   -0.045734076497967714   0.002934977791571163
-0.3237784780586276   -0.028708107359763653   -0.006335744533223943
-0.3237784780586276   -0.028708107359763653   -0.006335744533223943
-0.3237784780586276   -0.028708107359763653   -0.006335744533223943
-0.3237784780586276   -0.028708107359763653   -0.006335744533223943
-0.14112332126406493   0.011952548352751252   0.0071318195412703005
-0.14112332126406493   0.011952548352751252   0.0071318195412703005
-0.14112332126406493   0.011952548352751252   0.0071318195412703005
-0.14112332126406493   0.011952548352751252   0.0071318195412703005
-0.23980436092452503   -0.017169185657617235   -0.006292102063824858
-0.23980436092452503   -0.017169185657617235   -0.006292102063824858
-0.23980436092452503   -0.017169185657617235   -0.006292102063824858
-0.23980436092452503   -0.017169185657617235   -0.006292102063824858
-0.1412976904251666   0.010581419576063341   0.007631102512450047
-0.1412976904251666   0.010581419576063341   0.007631102512450047
-0.1412976904251666   0.010581419576063341   0.007631102512450047
-0.1412976904251666   0.010581419576063341   0.007631102512450047
-0.32236605728454965   -0.026098926970104554   -0.0018828210524933654
-0.32236605728454965   -0.026098926970104554   -0.0018828210524933654
-0.32236605728454965   -0.026098926970104554   -0.0018828210524933654
-0.32236605728454965   -0.026098926970104554   -0.0018828210524933654
-0.3083348693080545   -0.005246539689969354   -0.009962836870459558
-0.3083348693080545   -0.005246539689969354   -0.009962836870459558
-0.3083348693080545   -0.005246539689969354   -0.009962836870459558
-0.3083348693080545   -0.005246539689969354   -0.009962836870459558
-0.1265866349995981   0.03274171349906102   0.002634794187814961
-0.1265866349995981   0.03274171349906102   0.002634794187814961
-0.1265866349995981   0.03274171349906102   0.002634794187814961
-0.1265866349995981   0.03274171349906102   0.002634794187814961
-0.22385600370255124   0.003432747500441931   0.003246448915542337
-0.22385600370255124   0.003432747500441931   0.003246448915542337
-0.22385600370255124   0.003432747500441931   0.003246448915542337
-0.22385600370255124   0.003432747500441931   0.003246448915542337
-0.1262008781809708   0.03386157022128482   0.003443721558727575
-0.1262008781809708   0.03386157022128482   0.003443721558727575
-0.1262008781809708   0.03386157022128482   0.003443721558727575
-0.1262008781809708   0.03386157022128482   0.003443721558727575
-0.3077294078958766   -0.005375178181393506   -0.006806891318148531
-0.3077294078958766   -0.005375178181393506   -0.006806891318148531
-0.3077294078958766   -0.005375178181393506   -0.006806891318148531
-0.3077294078958766   -0.005375178181393506   -0.006806891318148531
-0.29351357899628794   0.018282924534995332   -0.014096595488172353
-0.29351357899628794   0.018282924534995332   -0.014096595488172353
-0.29351357899628794   0.018282924534995332   -0.014096595488172353
-0.29351357899628794   0.018282924534995332   -0.014096595488172353
-0.11268631043184273   0.05359198656578029   -0.002548860675489529
-0.11268631043184273   0.05359198656578029   -0.002548860675489529
-0.11268631043184273   0.05359198656578029   -0.002548860675489529
-0.11268631043184273   0.05359198656578029   -0.002548860675489529
-0.20874378862921147   0.023979673363145694   0.012162469918202766
-0.20874378862921147   0.023979673363145694   0.012162469918202766
-0.20874378862921147   0.023979673363145694   0.012162469918202766
-0.20874378862921147   0.023979673363145694   0.012162469918202766
-0.33640798051678333   -0.032196675907836016   -0.00955935873446957
-0.33640798051678333   -0.032196675907836016   -0.00955935873446957
-0.33640798051678333   -0.032196675907836016   -0.00955935873446957
-0.33640798051678333   -0.032196675907836016   -0.00955935873446957
-0.4998081117054671   -0.028340342722328868   0.019798222472154046
-0.4998081117054671   -0.028340342722328868   0.019798222472154046
-0.4998081117054671   -0.028340342722328868   0.019798222472154046
-0.4998081117054671   -0.028340342722328868   0.019798222472154046
-0.50007759483174   -0.04764877805332318   -0.026796713490567156
-0.50007759483174   -0.04764877805332318   -0.026796713490567156
-0.50007759483174   -0.04764877805332318   -0.026796713490567156
-0.50007759483174   -0.04764877805332318   -0.026796713490567156
-0.30585152359685125   0.03029676114848273   0.024294159267411207
-0.30585152359685125   0.03029676114848273   0.024294159267411207
-0.30585152359685125   0.03029676114848273   0.024294159267411207
-0.30585152359685125   0.03029676114848273   0.024294159267411207
-0.4082354440788486   -0.017484648172777006   -0.0026584369566818103
-0.4082354440788486   -0.017484648172777006   -0.0026584369566818103
-0.4082354440788486   -0.017484648172777006   -0.0026584369566818103
-0.4082354440788486   -0.017484648172777006   -0.0026584369566818103
-0.3212775839388441   -0.00919775786287011   -0.01334162343119763
-0.3212775839388441   -0.00919775786287011   -0.01334162343119763
-0.3212775839388441   -0.00919775786287011   -0.01334162343119763
-0.3212775839388441   -0.00919775786287011   -0.01334162343119763
-0.4836249514320691   -0.007127675984296408   0.014945401438763908
-0.4836249514320691   -0.007127675984296408   0.014945401438763908
-0.4836249514320691   -0.007127675984296408   0.014945401438763908
-0.4836249514320691   -0.007127675984296408   0.014945401438763908
-0.480706396853815   -0.025269776433065827   -0.02981754284193306
-0.480706396853815   -0.025269776433065827   -0.02981754284193306
-0.480706396853815   -0.025269776433065827   -0.02981754284193306
-0.480706396853815   -0.025269776433065827   -0.02981754284193306
-0.29158297256312227   0.04921377156534945   0.01933633559888292
-0.29158297256312227   0.04921377156534945   0.01933633559888292
-0.29158297256312227   0.04921377156534945   0.01933633559888292
-0.29158297256312227   0.04921377156534945   0.01933633559888292
-0.3890821025608931   0.003285735631120043   0.0071741576115142425
-0.3890821025608931   0.003285735631120043   0.0071741576115142425
-0.3890821025608931   0.003285735631120043   0.0071741576115142425
-0.3890821025608931   0.003285735631120043   0.0071741576115142425
-0.30649650807602885   0.011943496509014662   -0.017961066909316675
-0.30649650807602885   0.011943496509014662   -0.017961066909316675
-0.30649650807602885   0.011943496509014662   -0.017961066909316675
-0.30649650807602885   0.011943496509014662   -0.017961066909316675
-0.4646390841361013   0.013154275828075823   0.012094968485493775
-0.4646390841361013   0.013154275828075823   0.012094968485493775
-0.4646390841361013   0.013154275828075823   0.012094968485493775
-0.4646390841361013   0.013154275828075823   0.012094968485493775
-0.4633800703885236   -0.0008681246585904717   -0.03210040760814191
-0.4633800703885236   -0.0008681246585904717   -0.03210040760814191
-0.4633800703885236   -0.0008681246585904717   -0.03210040760814191
-0.4633800703885236   -0.0008681246585904717   -0.03210040760814191
-0.2774636949398685   0.07009538534965705   0.0143403639792632
-0.2774636949398685   0.07009538534965705   0.0143403639792632
-0.2774636949398685   0.07009538534965705   0.0143403639792632
-0.2774636949398685   0.07009538534965705   0.0143403639792632
-0.3747807384232481   0.022645434223204863   0.015983169126112428
-0.3747807384232481   0.022645434223204863   0.015983169126112428
-0.3747807384232481   0.022645434223204863   0.015983169126112428
-0.3747807384232481   0.022645434223204863   0.015983169126112428
-0.513164494712523   -0.04619974785782943   -0.02912428742762503
-0.513164494712523   -0.04619974785782943   -0.02912428742762503
-0.513164494712523   -0.04619974785782943   -0.02912428742762503
-0.513164494712523   -0.04619974785782943   -0.02912428742762503
-0.6859463617278021   -0.012228328025678914   0.04299341615427775
-0.6859463617278021   -0.012228328025678914   0.04299341615427775
-0.6859463617278021   -0.012228328025678914   0.04299341615427775
-0.6859463617278021   -0.012228328025678914   0.04299341615427775
-0.6765479817846349   -0.06202075879719307   -0.03890929921300522
-0.6765479817846349   -0.06202075879719307   -0.03890929921300522
-0.6765479817846349   -0.06202075879719307   -0.03890929921300522
-0.6765479817846349   -0.06202075879719307   -0.03890929921300522
-0.4664647089794508   0.051236638463110024   0.04238229925444508
-0.4664647089794508   0.051236638463110024   0.04238229925444508
-0.4664647089794508   0.051236638463110024   0.04238229925444508
-0.4664647089794508   0.051236638463110024   0.04238229925444508
-0.5602772714657801   -0.00995904455076392   0.004702882933231924
-0.5602772714657801   -0.00995904455076392   0.004702882933231924
-0.5602772714657801   -0.00995904455076392   0.004702882933231924
-0.5602772714657801   -0.00995904455076392   0.004702882933231924
-0.49675155468724197   -0.02486889308282758   -0.032946397738570804
-0.49675155468724197   -0.02486889308282758   -0.032946397738570804
-0.49675155468724197   -0.02486889308282758   -0.032946397738570804
-0.49675155468724197   -0.02486889308282758   -0.032946397738570804
-0.6453272871191169   0.01501862170646992   0.04015479361091053
-0.6453272871191169   0.01501862170646992   0.04015479361091053
-0.6453272871191169   0.01501862170646992   0.04015479361091053
-0.6453272871191169   0.01501862170646992   0.04015479361091053
-0.6458404468573674   -0.04874954867536685   -0.0463207638734707
-0.6458404468573674   -0.04874954867536685   -0.0463207638734707
-0.6458404468573674   -0.04874954867536685   -0.0463207638734707
-0.6458404468573674   -0.04874954867536685   -0.0463207638734707
-0.450706823406655   0.0599633214334086   0.03494722652738735
-0.450706823406655   0.0599633214334086   0.03494722652738735
-0.450706823406655   0.0599633214334086   0.03494722652738735
-0.450706823406655   0.0599633214334086   0.03494722652738735
-0.5429474542681989   0.003976559160707577   0.01263689523894735
-0.5429474542681989   0.003976559160707577   0.01263689523894735
-0.5429474542681989   0.003976559160707577   0.01263689523894735
-0.5429474542681989   0.003976559160707577   0.01263689523894735
-0.4800899464231053   -0.013946924365091998   -0.03805814275635856
-0.4800899464231053   -0.013946924365091998   -0.03805814275635856
-0.4800899464231053   -0.013946924365091998   -0.03805814275635856
-0.4800899464231053   -0.013946924365091998   -0.03805814275635856
-0.6153172832444662   0.026300737719584605   0.03124476779607859
-0.6153172832444662   0.026300737719584605   0.03124476779607859
-0.6153172832444662   0.026300737719584605   0.03124476779607859
-0.6153172832444662   0.026300737719584605   0.03124476779607859
-0.6079698448202375   -0.028955482307899863   -0.05167121808557275
-0.6079698448202375   -0.028955482307899863   -0.05167121808557275
-0.6079698448202375   -0.028955482307899863   -0.05167121808557275
-0.6079698448202375   -0.028955482307899863   -0.05167121808557275
-0.43687251101476515   0.07045986388159481   0.029109400720464793
-0.43687251101476515   0.07045986388159481   0.029109400720464793
-0.43687251101476515   0.07045986388159481   0.029109400720464793
-0.43687251101476515   0.07045986388159481   0.029109400720464793
-0.5102828052888139   0.01701641566279466   0.023829869408853295
-0.5102828052888139   0.01701641566279466   0.023829869408853295
-0.5102828052888139   0.01701641566279466   0.023829869408853295
-0.5102828052888139   0.01701641566279466   0.023829869408853295
0.54294020552018   0.04936600826605024   0.046948295519466346
0.54294020552018   0.04936600826605024   0.046948295519466346
0.54294020552018   0.04936600826605024   0.046948295519466346
0.54294020552018   0.04936600826605024   0.046948295519466346
0.19867075383275948   -0.08995108962702147   -0.030895193179564538
0.19867075383275948   -0.08995108962702147   -0.030895193179564538
0.19867075383275948   -0.08995108962702147   -0.030895193179564538
0.19867075383275948   -0.08995108962702147   -0.030895193179564538
0.24507855441580814   -0.0006461479668300046   0.03376385776699718
0.24507855441580814   -0.0006461479668300046   0.03376385776699718
0.24507855441580814   -0.0006461479668300046   0.03376385776699718
0.24507855441580814   -0.0006461479668300046   0.03376385776699718
0.5526491210870291   -0.012252175182904279   -0.039454083983366264
0.5526491210870291   -0.012252175182904279   -0.039454083983366264
0.5526491210870291   -0.012252175182904279   -0.039454083983366264
0.5526491210870291   -0.012252175182904279   -0.039454083983366264
0.36116662144150835   -0.01620714408314064   -0.034798976150469965
0.36116662144150835   -0.01620714408314064   -0.034798976150469965
0.36116662144150835   -0.01620714408314064   -0.034798976150469965
0.36116662144150835   -0.01620714408314064   -0.034798976150469965
0.584896568436319   0.06872573233325574   0.04080524524691513
0.584896568436319   0.06872573233325574   0.04080524524691513
0.584896568436319   0.06872573233325574   0.04080524524691513
0.584896568436319   0.06872573233325574   0.04080524524691513
0.21512121607486884   -0.07933394647464076   -0.03733503542988845
0.21512121607486884   -0.07933394647464076   -0.03733503542988845
0.21512121607486884   -0.07933394647464076   -0.03733503542988845
0.21512121607486884   -0.07933394647464076   -0.03733503542988845
0.2633243908464526   0.009978144625065577   0.02783125291159594
0.2633243908464526   0.009978144625065577   0.02783125291159594
0.2633243908464526   0.009978144625065577   0.02783125291159594
0.2633243908464526   0.009978144625065577   0.02783125291159594
0.5860075777437602   -0.00018236003113307475   -0.04966679410128079
0.5860075777437602   -0.00018236003113307475   -0.04966679410128079
0.5860075777437602   -0.00018236003113307475   -0.04966679410128079
0.5860075777437602   -0.00018236003113307475   -0.04966679410128079
0.3960336544185678   -0.0031790856572761345   -0.021097761654857463
0.3960336544185678   -0.0031790856572761345   -0.021097761654857463
0.3960336544185678   -0.0031790856572761345   -0.021097761654857463
0.3960336544185678   -0.0031790856572761345   -0.021097761654857463
0.6186046577779407   0.08174599719728362   0.031390248841198
0.6186046577779407   0.08174599719728362   0.031390248841198
0.6186046577779407   0.08174599719728362   0.031390248841198
0.6186046577779407   0.08174599719728362   0.031390248841198
0.23315709746872193   -0.06952042594689736   -0.043506643405094726
0.23315709746872193   -0.06952042594689736   -0.043506643405094726
0.23315709746872193   -0.06952042594689736   -0.043506643405094726
0.23315709746872193   -0.06952042594689736   -0.043506643405094726
0.2815464942154802   0.03341646524037966   0.024121003584837895
0.2815464942154802   0.03341646524037966   0.024121003584837895
0.2815464942154802   0.03341646524037966   0.024121003584837895
0.2815464942154802   0.03341646524037966   0.024121003584837895
0.629829583236259   0.03129130883690798   -0.05356571405801146
0.629829583236259   0.03129130883690798   -0.05356571405801146
0.629829583236259   0.03129130883690798   -0.05356571405801146
0.629829583236259   0.03129130883690798   -0.05356571405801146
0.41746254685025574   0.012687020914525546   -0.009265145872555634
0.41746254685025574   0.012687020914525546   -0.009265145872555634
0.41746254685025574   0.012687020914525546   -0.009265145872555634
0.41746254685025574   0.012687020914525546   -0.009265145872555634
0.23589493774427966   0.02768189393746134   0.03759274281354976
0.23589493774427966   0.02768189393746134   0.03759274281354976
0.23589493774427966   0.02768189393746134   0.03759274281354976
0.23589493774427966   0.02768189393746134   0.03759274281354976
-0.11527379336258706   -0.08394165487864051   -0.01619672968004522
-0.11527379336258706   -0.08394165487864051   -0.01619672968004522
-0.11527379336258706   -0.08394165487864051   -0.01619672968004522
-0.11527379336258706   -0.08394165487864051   -0.01619672968004522
-0.08340282674734403   -0.024670656140006804   0.011351277546062875
-0.08340282674734403   -0.024670656140006804   0.011351277546062875
-0.08340282674734403   -0.024670656140006804   0.011351277546062875
-0.08340282674734403   -0.024670656140006804   0.011351277546062875
0.23765520059404868   0.0009241888277267546   -0.004923248136356669
0.23765520059404868   0.0009241888277267546   -0.004923248136356669
0.23765520059404868   0.0009241888277267546   -0.004923248136356669
0.23765520059404868   0.0009241888277267546   -0.004923248136356669
0.06561275896199928   -0.017677016816488426   -0.014801948145522804
0.06561275896199928   -0.017677016816488426   -0.014801948145522804
0.06561275896199928   -0.017677016816488426   -0.014801948145522804
0.06561275896199928   -0.017677016816488426   -0.014801948145522804
0.2546473470390659   0.04738454807612885   0.03357712484033125
0.2546473470390659   0.04738454807612885   0.03357712484033125
0.2546473470390659   0.04738454807612885   0.03357712484033125
0.2546473470390659   0.04738454807612885   0.03357712484033125
-0.09900935453215098   -0.06974539672819799   -0.021606620789780734
-0.09900935453215098   -0.06974539672819799   -0.021606620789780734
-0.09900935453215098   -0.06974539672819799   -0.021606620789780734
-0.09900935453215098   -0.06974539672819799   -0.021606620789780734
-0.06640948823660384   -0.0047728634048269936   0.007167308159635825
-0.06640948823660384   -0.0047728634048269936   0.007167308159635825
-0.06640948823660384   -0.0047728634048269936   0.007167308159635825
-0.06640948823660384   -0.0047728634048269936   0.007167308159635825
0.25767476482655355   0.018765669851490765   -0.009204402414324818
0.25767476482655355   0.018765669851490765   -0.009204402414324818
0.25767476482655355   0.018765669851490765   -0.009204402414324818
0.25767476482655355   0.018765669851490765   -0.009204402414324818
0.08202258409318097   -0.0019605538803812786   -0.005882576943684992
0.08202258409318097   -0.0019605538803812786   -0.005882576943684992
0.08202258409318097   -0.0019605538803812786   -0.005882576943684992
0.08202258409318097   -0.0019605538803812786   -0.005882576943684992
0.27534834157241883   0.0681092259652856   0.029819925201206795
0.27534834157241883   0.0681092259652856   0.029819925201206795
0.27534834157241883   0.0681092259652856   0.029819925201206795
0.27534834157241883   0.0681092259652856   0.029819925201206795
-0.0826953574323882   -0.052728711968551126   -0.026306189255561885
-0.0826953574323882   -0.052728711968551126   -0.026306189255561885
-0.0826953574323882   -0.052728711968551126   -0.026306189255561885
-0.0826953574323882   -0.052728711968551126   -0.026306189255561885
-0.04962584483998665   0.018297665977854535   0.003004368325296532
-0.04962584483998665   0.018297665977854535   0.003004368325296532
-0.04962584483998665   0.018297665977854535   0.003004368325296532
-0.04962584483998665   0.018297665977854535   0.003004368325296532
0.27541515915120046   0.04002644948586832   -0.013145655982045876
0.27541515915120046   0.04002644948586832   -0.013145655982045876
0.27541515915120046   0.04002644948586832   -0.013145655982045876
0.27541515915120046   0.04002644948586832   -0.013145655982045876
0.10233387735925124   0.017329255913478673   0.004535517258452847
0.10233387735925124   0.017329255913478673   0.004535517258452847
0.10233387735925124   0.017329255913478673   0.004535517258452847
0.10233387735925124   0.017329255913478673   0.004535517258452847
-0.09083784585283951   0.006035790030905763   0.01600556295914629
-0.09083784585283951   0.006035790030905763   0.01600556295914629
-0.09083784585283951   0.006035790030905763   0.01600556295914629
-0.09083784585283951   0.006035790030905763   0.01600556295914629
-0.42299416379314514   -0.07416201233599753   -0.002168492483074098
-0.42299416379314514   -0.07416201233599753   -0.002168492483074098
-0.42299416379314514   -0.07416201233599753   -0.002168492483074098
-0.42299416379314514   -0.07416201233599753   -0.002168492483074098
-0.4028634213647256   -0.04380765633209701   -0.009929103782279613
-0.4028634213647256   -0.04380765633209701   -0.009929103782279613
-0.4028634213647256   -0.04380765633209701   -0.009929103782279613
-0.4028634213647256   -0.04380765633209701   -0.009929103782279613
-0.07636611519282956   0.011242535207495012   0.010621643971133386
-0.07636611519282956   0.011242535207495012   0.010621643971133386
-0.07636611519282956   0.011242535207495012   0.010621643971133386
-0.07636611519282956   0.011242535207495012   0.010621643971133386
-0.24869959844040354   -0.022777665609676236   -0.009246766287386595
-0.24869959844040354   -0.022777665609676236   -0.009246766287386595
-0.24869959844040354   -0.022777665609676236   -0.009246766287386595
-0.24869959844040354   -0.022777665609676236   -0.009246766287386595
-0.073000326924719   0.02657450618016885   0.012118614339012346
-0.073000326924719   0.02657450618016885   0.012118614339012346
-0.073000326924719   0.02657450618016885   0.012118614339012346
-0.073000326924719   0.02657450618016885   0.012118614339012346
-0.405297866424215   -0.058208284096144536   -0.007700701315678936
-0.405297866424215   -0.058208284096144536   -0.007700701315678936
-0.405297866424215   -0.058208284096144536   -0.007700701315678936
-0.405297866424215   -0.058208284096144536   -0.007700701315678936
-0.3841304511373258   -0.021976241095686633   -0.013411162648165005
-0.3841304511373258   -0.021976241095686633   -0.013411162648165005
-0.3841304511373258   -0.021976241095686633   -0.013411162648165005
-0.3841304511373258   -0.021976241095686633   -0.013411162648165005
-0.059828232322778035   0.029268367771838583   0.006032356552101171
-0.059828232322778035   0.029268367771838583   0.006032356552101171
-0.059828232322778035   0.029268367771838583   0.006032356552101171
-0.059828232322778035   0.029268367771838583   0.006032356552101171
-0.2298024630602992   -0.0045141825488113005   -0.00013822482367786652
-0.2298024630602992   -0.0045141825488113005   -0.00013822482367786652
-0.2298024630602992   -0.0045141825488113005   -0.00013822482367786652
-0.2298024630602992   -0.0045141825488113005   -0.00013822482367786652
-0.05576428416420094   0.04791943154328543   0.007701033573539856
-0.05576428416420094   0.04791943154328543   0.007701033573539856
-0.05576428416420094   0.04791943154328543   0.007701033573539856
-0.05576428416420094   0.04791943154328543   0.007701033573539856
-0.38733055269372874   -0.039763458264954275   -0.011624453260912384
-0.38733055269372874   -0.039763458264954275   -0.011624453260912384
-0.38733055269372874   -0.039763458264954275   -0.011624453260912384
-0.38733055269372874   -0.039763458264954275   -0.011624453260912384
-0.3666905113964574   -0.00021239246712062565   -0.017566554875410118
-0.3666905113964574   -0.00021239246712062565   -0.017566554875410118
-0.3666905113964574   -0.00021239246712062565   -0.017566554875410118
-0.3666905113964574   -0.00021239246712062565   -0.017566554875410118
-0.04405096697061592   0.04767332701625326   0.0015030966337534514
-0.04405096697061592   0.04767332701625326   0.0015030966337534514
-0.04405096697061592   0.04767332701625326   0.0015030966337534514
-0.04405096697061592   0.04767332701625326   0.0015030966337534514
-0.2124480808171206   0.013681828414409881   0.008526777701512217
-0.2124480808171206   0.013681828414409881   0.008526777701512217
-0.2124480808171206   0.013681828414409881   0.008526777701512217
-0.2124480808171206   0.013681828414409881   0.008526777701512217
-0.4121793067877521   -0.01602122515969759   -0.006234994632404647
-0.4121793067877521   -0.01602122515969759   -0.006234994632404647
-0.4121793067877521   -0.01602122515969759   -0.006234994632404647
-0.4121793067877521   -0.01602122515969759   -0.006234994632404647
-0.7239074334622444   -0.06016700694761151   0.01383315688652758
-0.7239074334622444   -0.06016700694761151   0.01383315688652758
-0.7239074334622444   -0.06016700694761151   0.01383315688652758
-0.7239074334622444   -0.06016700694761151   0.01383315688652758
-0.7142227016573013   -0.06220794969983223   -0.02985821691371348
-0.7142227016573013   -0.06220794969983223   -0.02985821691371348
-0.7142227016573013   -0.06220794969983223   -0.02985821691371348
-0.7142227016573013   -0.06220794969983223   -0.02985821691371348
-0.38116955907332417   0.02808643367878695   0.026646117663846988
-0.38116955907332417   0.02808643367878695   0.026646117663846988
-0.38116955907332417   0.02808643367878695   0.026646117663846988
-0.38116955907332417   0.02808643367878695   0.026646117663846988
-0.5540109767764263   -0.02412081257866583   -0.0032295964675222964
-0.5540109767764263   -0.02412081257866583   -0.0032295964675222964
-0.5540109767764263   -0.02412081257866583   -0.0032295964675222964
-0.5540109767764263   -0.02412081257866583   -0.0032295964675222964
-0.39279051876516546   0.00614640069835265   -0.009518647814925084
-0.39279051876516546   0.00614640069835265   -0.009518647814925084
-0.39279051876516546   0.00614640069835265   -0.009518647814925084
-0.39279051876516546   0.00614640069835265   -0.009518647814925084
-0.7025367620804268   -0.04020293683436382   0.006566468105195927
-0.7025367620804268   -0.04020293683436382   0.006566468105195927
-0.7025367620804268   -0.04020293683436382   0.006566468105195927
-0.7025367620804268   -0.04020293683436382   0.006566468105195927
-0.6897239403067105   -0.04088693888646436   -0.033026248916597965
-0.6897239403067105   -0.04088693888646436   -0.033026248916597965
-0.6897239403067105   -0.04088693888646436   -0.033026248916597965
-0.6897239403067105   -0.04088693888646436   -0.033026248916597965
-0.3637390352020521   0.04526412848711461   0.02130554744540547
-0.3637390352020521   0.04526412848711461   0.02130554744540547
-0.3637390352020521   0.04526412848711461   0.02130554744540547
-0.3637390352020521   0.04526412848711461   0.02130554744540547
-0.5290673981337198   -0.003939271890641277   0.005912391191685837
-0.5290673981337198   -0.003939271890641277   0.005912391191685837
-0.5290673981337198   -0.003939271890641277   0.005912391191685837
-0.5290673981337198   -0.003939271890641277   0.005912391191685837
-0.3746485435274223   0.02594818092820529   -0.013926046622537908
-0.3746485435274223   0.02594818092820529   -0.013926046622537908
-0.3746485435274223   0.02594818092820529   -0.013926046622537908
-0.3746485435274223   0.02594818092820529   -0.013926046622537908
-0.678219699326655   -0.020976258672870063   0.00458427577008505
-0.678219699326655   -0.020976258672870063   0.00458427577008505
-0.678219699326655   -0.020976258672870063   0.00458427577008505
-0.678219699326655   -0.020976258672870063   0.00458427577008505
-0.6678197575755774   -0.01778990025722993   -0.03473000141946263
-0.6678197575755774   -0.01778990025722993   -0.03473000141946263
-0.6678197575755774   -0.01778990025722993   -0.03473000141946263
-0.6678197575755774   -0.01778990025722993   -0.03473000141946263
-0.3468573617874795   0.06413660344086153   0.017250197261500247
-0.3468573617874795   0.06413660344086153   0.017250197261500247
-0.3468573617874795   0.06413660344086153   0.017250197261500247
-0.3468573617874795   0.06413660344086153   0.017250197261500247
-0.5122517103369604   0.013301888694978503   0.013794279646594687
-0.5122517103369604   0.013301888694978503   0.013794279646594687
-0.5122517103369604   0.013301888694978503   0.013794279646594687
-0.5122517103369604   0.013301888694978503   0.013794279646594687
-0.7268812442648265   -0.03437880714895364   -0.02682409692504084
-0.7268812442648265   -0.03437880714895364   -0.02682409692504084
-0.7268812442648265   -0.03437880714895364   -0.02682409692504084
-0.7268812442648265   -0.03437880714895364   -0.02682409692504084
-1.0364121154276131   -0.037434315807904295   0.046458600569533826
-1.0364121154276131   -0.037434315807904295   0.046458600569533826
-1.0364121154276131   -0.037434315807904295   0.046458600569533826
-1.0364121154276131   -0.037434315807904295   0.046458600569533826
-1.0167553429378773   -0.07441926153748393   -0.03560656679009828
-1.0167553429378773   -0.07441926153748393   -0.03560656679009828
-1.0167553429378773   -0.07441926153748393   -0.03560656679009828
-1.0167553429378773   -0.07441926153748393   -0.03560656679009828
-0.6747920987147136   0.05783101906153146   0.04725582903786234
-0.6747920987147136   0.05783101906153146   0.04725582903786234
-0.6747920987147136   0.05783101906153146   0.04725582903786234
-0.6747920987147136   0.05783101906153146   0.04725582903786234
-0.8253863965423898   -0.010197188636261595   0.009652813750430443
-0.8253863965423898   -0.010197188636261595   0.009652813750430443
-0.8253863965423898   -0.010197188636261595   0.009652813750430443
-0.8253863965423898   -0.010197188636261595   0.009652813750430443
-0.7039135627800615   -0.010694738827808109   -0.02982573339953499
-0.7039135627800615   -0.010694738827808109   -0.02982573339953499
-0.7039135627800615   -0.010694738827808109   -0.02982573339953499
-0.7039135627800615   -0.010694738827808109   -0.02982573339953499
-0.9871393764893603   -0.005399001264976611   0.04345300517996885
-0.9871393764893603   -0.005399001264976611   0.04345300517996885
-0.9871393764893603   -0.005399001264976611   0.04345300517996885
-0.9871393764893603   -0.005399001264976611   0.04345300517996885
-0.9796145357997402   -0.061196815045820224   -0.041945743475671406
-0.9796145357997402   -0.061196815045820224   -0.041945743475671406
-0.9796145357997402   -0.061196815045820224   -0.041945743475671406
-0.9796145357997402   -0.061196815045820224   -0.041945743475671406
-0.6542522200171353   0.06598454146673849   0.0374608721780747
-0.6542522200171353   0.06598454146673849   0.0374608721780747
-0.6542522200171353   0.06598454146673849   0.0374608721780747
-0.6542522200171353   0.06598454146673849   0.0374608721780747
-0.806346538681738   0.004240981761675727   0.017238523691849125
-0.806346538681738   0.004240981761675727   0.017238523691849125
-0.806346538681738   0.004240981761675727   0.017238523691849125
-0.806346538681738   0.004240981761675727   0.017238523691849125
-0.6817383444522304   -2.4558156096865513e-05   -0.033960650374564645
-0.6817383444522304   -2.4558156096865513e-05   -0.033960650374564645
-0.6817383444522304   -2.4558156096865513e-05   -0.033960650374564645
-0.6817383444522304   -2.4558156096865513e-05   -0.033960650374564645
-0.9516325587529668   0.005308137188691053   0.03145918952366886
-0.9516325587529668   0.005308137188691053   0.03145918952366886
-0.9516325587529668   0.005308137188691053   0.03145918952366886
-0.9516325587529668   0.005308137188691053   0.03145918952366886
-0.9389812587791554   -0.04534729248576183   -0.047817633351928165
-0.9389812587791554   -0.04534729248576183   -0.047817633351928165
-0.9389812587791554   -0.04534729248576183   -0.047817633351928165
-0.9389812587791554   -0.04534729248576183   -0.047817633351928165
-0.6362193863900248   0.07358530346590475   0.03189665078516604
-0.6362193863900248   0.07358530346590475   0.03189665078516604
-0.6362193863900248   0.07358530346590475   0.03189665078516604
-0.6362193863900248   0.07358530346590475   0.03189665078516604
-0.7652970149568246   0.01622878344452519   0.028738523474416147
-0.7652970149568246   0.01622878344452519   0.028738523474416147
-0.7652970149568246   0.01622878344452519   0.028738523474416147
-0.7652970149568246   0.01622878344452519   0.028738523474416147
0.9097333153611026   0.06804489510017273   0.04802216892806343
0.9097333153611026   0.06804489510017273   0.04802216892806343
0.9097333153611026   0.06804489510017273   0.04802216892806343
0.9097333153611026   0.06804489510017273   0.04802216892806343
0.4010073004155862   -0.10681373228468978   -0.022141804000579586
0.4010073004155862   -0.10681373228468978   -0.022141804000579586
0.4010073004155862   -0.10681373228468978   -0.022141804000579586
0.4010073004155862   -0.10681373228468978   -0.022141804000579586
0.44689932117939746   -0.018919969504920697   0.03295674431418322
0.44689932117939746   -0.018919969504920697   0.03295674431418322
0.44689932117939746   -0.018919969504920697   0.03295674431418322
0.44689932117939746   -0.018919969504920697   0.03295674431418322
0.9196345722437874   -0.001360688233434798   -0.03465355024868001
0.9196345722437874   -0.001360688233434798   -0.03465355024868001
0.9196345722437874   -0.001360688233434798   -0.03465355024868001
0.9196345722437874   -0.001360688233434798   -0.03465355024868001
0.6301298257765511   -0.018973115593805184   -0.04917069661118847
0.6301298257765511   -0.018973115593805184   -0.04917069661118847
0.6301298257765511   -0.018973115593805184   -0.04917069661118847
0.6301298257765511   -0.018973115593805184   -0.04917069661118847
0.951562960975945   0.08345579218940488   0.040171912989263744
0.951562960975945   0.08345579218940488   0.040171912989263744
0.951562960975945   0.08345579218940488   0.040171912989263744
0.951562960975945   0.08345579218940488   0.040171912989263744
0.41804003092209824   -0.10066735145290281   -0.029592325024330873
0.41804003092209824   -0.10066735145290281   -0.029592325024330873
0.41804003092209824   -0.10066735145290281   -0.029592325024330873
0.41804003092209824   -0.10066735145290281   -0.029592325024330873
0.46479351404694297   -0.009165178394107618   0.026633177780633004
0.46479351404694297   -0.009165178394107618   0.026633177780633004
0.46479351404694297   -0.009165178394107618   0.026633177780633004
0.46479351404694297   -0.009165178394107618   0.026633177780633004
0.9509833313507257   0.009390305917736375   -0.04326498605805617
0.9509833313507257   0.009390305917736375   -0.04326498605805617
0.9509833313507257   0.009390305917736375   -0.04326498605805617
0.9509833313507257   0.009390305917736375   -0.04326498605805617
0.6695492053090638   -0.007494629365042305   -0.03346674620419049
0.6695492053090638   -0.007494629365042305   -0.03346674620419049
0.6695492053090638   -0.007494629365042305   -0.03346674620419049
0.6695492053090638   -0.007494629365042305   -0.03346674620419049
0.9827201834119141   0.09504619662990374   0.029763383535718717
0.9827201834119141   0.09504619662990374   0.029763383535718717
0.9827201834119141   0.09504619662990374   0.029763383535718717
0.9827201834119141   0.09504619662990374   0.029763383535718717
0.43573985247475094   -0.09213787861727854   -0.03566242985715607
0.43573985247475094   -0.09213787861727854   -0.03566242985715607
0.43573985247475094   -0.09213787861727854   -0.03566242985715607
0.43573985247475094   -0.09213787861727854   -0.03566242985715607
0.48101070710583527   0.016910738713292572   0.023350311454365925
0.48101070710583527   0.016910738713292572   0.023350311454365925
0.48101070710583527   0.016910738713292572   0.023350311454365925
0.48101070710583527   0.016910738713292572   0.023350311454365925
0.9895771322559044   0.04085798808528249   -0.045295480183111955
0.9895771322559044   0.04085798808528249   -0.045295480183111955
0.9895771322559044   0.04085798808528249   -0.045295480183111955
0.9895771322559044   0.04085798808528249   -0.045295480183111955
0.6841858047634228   0.00797870840765394   -0.02261501587858583
0.6841858047634228   0.00797870840765394   -0.02261501587858583
0.6841858047634228   0.00797870840765394   -0.02261501587858583
0.6841858047634228   0.00797870840765394   -0.02261501587858583
0.443585265111038   0.03988030015874233   0.04405398703324393
0.443585265111038   0.03988030015874233   0.04405398703324393
0.443585265111038   0.03988030015874233   0.04405398703324393
0.443585265111038   0.03988030015874233   0.04405398703324393
-0.055413650971895975   -0.1314772496271405   -0.012628219004957343
-0.055413650971895975   -0.1314772496271405   -0.012628219004957343
-0.055413650971895975   -0.1314772496271405   -0.012628219004957343
-0.055413650971895975   -0.1314772496271405   -0.012628219004957343
-0.015945987734435785   -0.04658329867337741   0.011140502686637653
-0.015945987734435785   -0.04658329867337741   0.011140502686637653
-0.015945987734435785   -0.04658329867337741   0.011140502686637653
-0.015945987734435785   -0.04658329867337741   0.011140502686637653
0.43978463137845647   -0.023760902370312476   0.0022242281748699397
0.43978463137845647   -0.023760902370312476   0.0022242281748699397
0.43978463137845647   -0.023760902370312476   0.0022242281748699397
0.43978463137845647   -0.023760902370312476   0.0022242281748699397
0.1974987639557915   -0.036505936157937915   -0.023373211661682745
0.1974987639557915   -0.036505936157937915   -0.023373211661682745
0.1974987639557915   -0.036505936157937915   -0.023373211661682745
0.1974987639557915   -0.036505936157937915   -0.023373211661682745
0.4628481038490078   0.05475296394787216   0.03902772420944193
0.4628481038490078   0.05475296394787216   0.03902772420944193
0.4628481038490078   0.05475296394787216   0.03902772420944193
0.4628481038490078   0.05475296394787216   0.03902772420944193
-0.03738619245749318   -0.12347389724406813   -0.019169922357958624
-0.03738619245749318   -0.12347389724406813   -0.019169922357958624
-0.03738619245749318   -0.12347389724406813   -0.019169922357958624
-0.03738619245749318   -0.12347389724406813   -0.019169922357958624
0.0022980769198048083   -0.029112498205989733   0.0067814452050520765
0.0022980769198048083   -0.029112498205989733   0.0067814452050520765
0.0022980769198048083   -0.029112498205989733   0.0067814452050520765
0.0022980769198048083   -0.029112498205989733   0.0067814452050520765
0.45848537225050207   -0.0105857692730075   -0.003486940322671432
0.45848537225050207   -0.0105857692730075   -0.003486940322671432
0.45848537225050207   -0.0105857692730075   -0.003486940322671432
0.45848537225050207   -0.0105857692730075   -0.003486940322671432
0.21332474651638594   -0.025774255252486653   -0.015139797022984333
0.21332474651638594   -0.025774255252486653   -0.015139797022984333
0.21332474651638594   -0.025774255252486653   -0.015139797022984333
0.21332474651638594   -0.025774255252486653   -0.015139797022984333
0.4827881323161474   0.07259786831564828   0.03484322241689951
0.4827881323161474   0.07259786831564828   0.03484322241689951
0.4827881323161474   0.07259786831564828   0.03484322241689951
0.4827881323161474   0.07259786831564828   0.03484322241689951
-0.021033918587847422   -0.11132537123665272   -0.027665659302548003
-0.021033918587847422   -0.11132537123665272   -0.027665659302548003
-0.021033918587847422   -0.11132537123665272   -0.027665659302548003
-0.021033918587847422   -0.11132537123665272   -0.027665659302548003
0.016622535761803378   -0.008627414208540057   0.0023776489352786475
0.016622535761803378   -0.008627414208540057   0.0023776489352786475
0.016622535761803378   -0.008627414208540057   0.0023776489352786475
0.016622535761803378   -0.008627414208540057   0.0023776489352786475
0.4724773077636044   0.006234513777022138   -0.008640460320525241
0.4724773077636044   0.006234513777022138   -0.008640460320525241
0.4724773077636044   0.006234513777022138   -0.008640460320525241
0.4724773077636044   0.006234513777022138   -0.008640460320525241
0.23277112966769584   -0.009712601213388454   -0.006290813380516078
0.23277112966769584   -0.009712601213388454   -0.006290813380516078
0.23277112966769584   -0.009712601213388454   -0.006290813380516078
0.23277112966769584   -0.009712601213388454   -0.006290813380516078
-0.019959263915127506   0.011259966222141423   0.021906500429603074
-0.019959263915127506   0.011259966222141423   0.021906500429603074
-0.019959263915127506   0.011259966222141423   0.021906500429603074
-0.019959263915127506   0.011259966222141423   0.021906500429603074
-0.5082856733199479   -0.16486908700127317   -0.010118787103145701
-0.5082856733199479   -0.16486908700127317   -0.010118787103145701
-0.5082856733199479   -0.16486908700127317   -0.010118787103145701
-0.5082856733199479   -0.16486908700127317   -0.010118787103145701
-0.4684328653813484   -0.07143740592826285   -0.010711311519167814
-0.4684328653813484   -0.07143740592826285   -0.010711311519167814
-0.4684328653813484   -0.07143740592826285   -0.010711311519167814
-0.4684328653813484   -0.07143740592826285   -0.010711311519167814
-0.018090218710127642   -0.056079890198352904   0.009915939333153843
-0.018090218710127642   -0.056079890198352904   0.009915939333153843
-0.018090218710127642   -0.056079890198352904   0.009915939333153843
-0.018090218710127642   -0.056079890198352904   0.009915939333153843
-0.2548339958262408   -0.066512096634659   -0.02086265899296065
-0.2548339958262408   -0.066512096634659   -0.02086265899296065
-0.2548339958262408   -0.066512096634659   -0.02086265899296065
-0.2548339958262408   -0.066512096634659   -0.02086265899296065
0.0003072346571605872   0.028014616314600768   0.017808699656641332
0.0003072346571605872   0.028014616314600768   0.017808699656641332
0.0003072346571605872   0.028014616314600768   0.017808699656641332
0.0003072346571605872   0.028014616314600768   0.017808699656641332
-0.4856557880437653   -0.15435738173634522   -0.013905949023170133
-0.4856557880437653   -0.15435738173634522   -0.013905949023170133
-0.4856557880437653   -0.15435738173634522   -0.013905949023170133
-0.4856557880437653   -0.15435738173634522   -0.013905949023170133
-0.44579885679212716   -0.05204591348589372   -0.01456842526721121
-0.44579885679212716   -0.05204591348589372   -0.01456842526721121
-0.44579885679212716   -0.05204591348589372   -0.01456842526721121
-0.44579885679212716   -0.05204591348589372   -0.01456842526721121
-0.0010986664381891272   -0.04341427673802056   0.004099506947111314
-0.0010986664381891272   -0.04341427673802056   0.004099506947111314
-0.0010986664381891272   -0.04341427673802056   0.004099506947111314
-0.0010986664381891272   -0.04341427673802056   0.004099506947111314
-0.23286176890632213   -0.052562391638651756   -0.011564117341006755
-0.23286176890632213   -0.052562391638651756   -0.011564117341006755
-0.23286176890632213   -0.052562391638651756   -0.011564117341006755
-0.23286176890632213   -0.052562391638651756   -0.011564117341006755
0.018850921564047347   0.046570301069031705   0.01386286915124141
0.018850921564047347   0.046570301069031705   0.01386286915124141
0.018850921564047347   0.046570301069031705   0.01386286915124141
0.018850921564047347   0.046570301069031705   0.01386286915124141
-0.4657425910617855   -0.14202463756036734   -0.02430837254102628
-0.4657425910617855   -0.14202463756036734   -0.02430837254102628
-0.4657425910617855   -0.14202463756036734   -0.02430837254102628
-0.4657425910617855   -0.14202463756036734   -0.02430837254102628
-0.4298011964310084   -0.033552621118386965   -0.018876414579055235
-0.4298011964310084   -0.033552621118386965   -0.018876414579055235
-0.4298011964310084   -0.033552621118386965   -0.018876414579055235
-0.4298011964310084   -0.033552621118386965   -0.018876414579055235
0.010050663669643262   -0.03327121427528715   -0.005837911458776754
0.010050663669643262   -0.03327121427528715   -0.005837911458776754
0.010050663669643262   -0.03327121427528715   -0.005837911458776754
0.010050663669643262   -0.03327121427528715   -0.005837911458776754
-0.21674917722294243   -0.03954049395778501   -0.0057266827495156295
-0.21674917722294243   -0.03954049395778501   -0.0057266827495156295
-0.21674917722294243   -0.03954049395778501   -0.0057266827495156295
-0.21674917722294243   -0.03954049395778501   -0.0057266827495156295
-0.4761227230238797   -0.013509433968383763   -0.0006636886556982621
-0.4761227230238797   -0.013509433968383763   -0.0006636886556982621
-0.4761227230238797   -0.013509433968383763   -0.0006636886556982621
-0.4761227230238797   -0.013509433968383763   -0.0006636886556982621
-0.9633762037217041   -0.1772539321663232   -0.008101379185235286
-0.9633762037217041   -0.1772539321663232   -0.008101379185235286
-0.9633762037217041   -0.1772539321663232   -0.008101379185235286
-0.9633762037217041   -0.1772539321663232   -0.008101379185235286
-0.9206514491370152   -0.09149543420676612   -0.03178133170025792
-0.9206514491370152   -0.09149543420676612   -0.03178133170025792
-0.9206514491370152   -0.09149543420676612   -0.03178133170025792
-0.9206514491370152   -0.09149543420676612   -0.03178133170025792
-0.459467620858341   -0.058284279684856284   0.020961784852458663
-0.459467620858341   -0.058284279684856284   0.020961784852458663
-0.459467620858341   -0.058284279684856284   0.020961784852458663
-0.459467620858341   -0.058284279684856284   0.020961784852458663
-0.6987499304590105   -0.08003108812392659   -0.014695435178194084
-0.6987499304590105   -0.08003108812392659   -0.014695435178194084
-0.6987499304590105   -0.08003108812392659   -0.014695435178194084
-0.6987499304590105   -0.08003108812392659   -0.014695435178194084
-0.4511168991162123   0.008044970760912679   -0.003613856882666952
-0.4511168991162123   0.008044970760912679   -0.003613856882666952
-0.4511168991162123   0.008044970760912679   -0.003613856882666952
-0.4511168991162123   0.008044970760912679   -0.003613856882666952
-0.9293517942749692   -0.15817430804835889   -0.00860418354842605
-0.9293517942749692   -0.15817430804835889   -0.00860418354842605
-0.9293517942749692   -0.15817430804835889   -0.00860418354842605
-0.9293517942749692   -0.15817430804835889   -0.00860418354842605
-0.8882763061056184   -0.0712631310929934   -0.03679347955156828
-0.8882763061056184   -0.0712631310929934   -0.03679347955156828
-0.8882763061056184   -0.0712631310929934   -0.03679347955156828
-0.8882763061056184   -0.0712631310929934   -0.03679347955156828
-0.43750218888250886   -0.043106038634467034   0.017975039429456798
-0.43750218888250886   -0.043106038634467034   0.017975039429456798
-0.43750218888250886   -0.043106038634467034   0.017975039429456798
-0.43750218888250886   -0.043106038634467034   0.017975039429456798
-0.665444774423032   -0.06061840485272946   -0.0047811894292409535
-0.665444774423032   -0.06061840485272946   -0.0047811894292409535
-0.665444774423032   -0.06061840485272946   -0.0047811894292409535
-0.665444774423032   -0.06061840485272946   -0.0047811894292409535
-0.42843299477687624   0.026756017789748426   -0.006541046466601336
-0.42843299477687624   0.026756017789748426   -0.006541046466601336
-0.42843299477687624   0.026756017789748426   -0.006541046466601336
-0.42843299477687624   0.026756017789748426   -0.006541046466601336
-0.898887031100158   -0.1426667184061156   -0.018443517211136882
-0.898887031100158   -0.1426667184061156   -0.018443517211136882
-0.898887031100158   -0.1426667184061156   -0.018443517211136882
-0.898887031100158   -0.1426667184061156   -0.018443517211136882
-0.8620452770085325   -0.049945975689581784   -0.0379747831696328
-0.8620452770085325   -0.049945975689581784   -0.0379747831696328
-0.8620452770085325   -0.049945975689581784   -0.0379747831696328
-0.8620452770085325   -0.049945975689581784   -0.0379747831696328
-0.4248915476213258   -0.033456296090137116   0.005575504441111705
-0.4248915476213258   -0.033456296090137116   0.005575504441111705
-0.4248915476213258   -0.033456296090137116   0.005575504441111705
-0.4248915476213258   -0.033456296090137116   0.005575504441111705
-0.6471666514434833   -0.04879097809821782   -0.0015348350824610606
-0.6471666514434833   -0.04879097809821782   -0.0015348350824610606
-0.6471666514434833   -0.04879097809821782   -0.0015348350824610606
-0.6471666514434833   -0.04879097809821782   -0.0015348350824610606
-0.9372267037981541   -0.031508763285567454   -0.023099048448240955
-0.9372267037981541   -0.031508763285567454   -0.023099048448240955
-0.9372267037981541   -0.031508763285567454   -0.023099048448240955
-0.9372267037981541   -0.031508763285567454   -0.023099048448240955
-1.4133041008360183   -0.12017512601974675   0.053072573249484674
-1.4133041008360183   -0.12017512601974675   0.053072573249484674
-1.4133041008360183   -0.12017512601974675   0.053072573249484674
-1.4133041008360183   -0.12017512601974675   0.053072573249484674
-1.365219618001059   -0.09590506037503241   -0.030997048858580616
-1.365219618001059   -0.09590506037503241   -0.030997048858580616
-1.365219618001059   -0.09590506037503241   -0.030997048858580616
-1.365219618001059   -0.09590506037503241   -0.030997048858580616
-0.8811400773328234   0.025402883823436112   0.04887720929049235
-0.8811400773328234   0.025402883823436112   0.04887720929049235
-0.8811400773328234   0.025402883823436112   0.04887720929049235
-0.8811400773328234   0.025402883823436112   0.04887720929049235
-1.0977682115989318   -0.03761485816204316   0.005456150221492713
-1.0977682115989318   -0.03761485816204316   0.005456150221492713
-1.0977682115989318   -0.03761485816204316   0.005456150221492713
-1.0977682115989318   -0.03761485816204316   0.005456150221492713
-0.901536584149274   -0.002091276688846233   -0.025611164279465734
-0.901536584149274   -0.002091276688846233   -0.025611164279465734
-0.901536584149274   -0.002091276688846233   -0.025611164279465734
-0.901536584149274   -0.002091276688846233   -0.025611164279465734
-1.3415350082415   -0.06512279691963438   0.05664373648381656
-1.3415350082415   -0.06512279691963438   0.05664373648381656
-1.3415350082415   -0.06512279691963438   0.05664373648381656
-1.3415350082415   -0.06512279691963438   0.05664373648381656
-1.3136122493639233   -0.08076249236106625   -0.03691426761416092
-1.3136122493639233   -0.08076249236106625   -0.03691426761416092
-1.3136122493639233   -0.08076249236106625   -0.03691426761416092
-1.3136122493639233   -0.08076249236106625   -0.03691426761416092
-0.8491386487376016   0.04046530752233582   0.0471663686731864
-0.8491386487376016   0.04046530752233582   0.0471663686731864
-0.8491386487376016   0.04046530752233582   0.0471663686731864
-0.8491386487376016   0.04046530752233582   0.0471663686731864
-1.0674831907844855   -0.015170569257943689   0.02192059746279669
-1.0674831907844855   -0.015170569257943689   0.02192059746279669
-1.0674831907844855   -0.015170569257943689   0.02192059746279669
-1.0674831907844855   -0.015170569257943689   0.02192059746279669
-0.8702482381950792   0.00975825764763591   -0.027674528739494386
-0.8702482381950792   0.00975825764763591   -0.027674528739494386
-0.8702482381950792   0.00975825764763591   -0.027674528739494386
-0.8702482381950792   0.00975825764763591   -0.027674528739494386
-1.2918254761499592   -0.04937825872988036   0.04063536482446314
-1.2918254761499592   -0.04937825872988036   0.04063536482446314
-1.2918254761499592   -0.04937825872988036   0.04063536482446314
-1.2918254761499592   -0.04937825872988036   0.04063536482446314
-1.2602207929097575   -0.06651908848350047   -0.04462390244212758
-1.2602207929097575   -0.06651908848350047   -0.04462390244212758
-1.2602207929097575   -0.06651908848350047   -0.04462390244212758
-1.2602207929097575   -0.06651908848350047   -0.04462390244212758
-0.8254927302569302   0.05839440688338804   0.03644756801540905
-0.8254927302569302   0.05839440688338804   0.03644756801540905
-0.8254927302569302   0.05839440688338804   0.03644756801540905
-0.8254927302569302   0.05839440688338804   0.03644756801540905
-1.0099746247977295   0.003993621545963555   0.03847407958260181
-1.0099746247977295   0.003993621545963555   0.03847407958260181
-1.0099746247977295   0.003993621545963555   0.03847407958260181
-1.0099746247977295   0.003993621545963555   0.03847407958260181
1.2409255225518447   0.07455586295270991   0.044787950050160404
1.2409255225518447   0.07455586295270991   0.044787950050160404
1.2409255225518447   0.07455586295270991   0.044787950050160404
1.2409255225518447   0.07455586295270991   0.044787950050160404
0.5911751330002488   -0.11048552308272441   0.009819868642099439
0.5911751330002488   -0.11048552308272441   0.009819868642099439
0.5911751330002488   -0.11048552308272441   0.009819868642099439
0.5911751330002488   -0.11048552308272441   0.009819868642099439
0.6236199789585044   -0.046754376258090646   0.03439260291332388
0.6236199789585044   -0.046754376258090646   0.03439260291332388
0.6236199789585044   -0.046754376258090646   0.03439260291332388
0.6236199789585044   -0.046754376258090646   0.03439260291332388
1.2473575864088815   0.010987431187392593   -0.010135939166394381
1.2473575864088815   0.010987431187392593   -0.010135939166394381
1.2473575864088815   0.010987431187392593   -0.010135939166394381
1.2473575864088815   0.010987431187392593   -0.010135939166394381
0.8722258965970029   -0.02362021447275603   -0.05782640854467374
0.8722258965970029   -0.02362021447275603   -0.05782640854467374
0.8722258965970029   -0.02362021447275603   -0.05782640854467374
0.8722258965970029   -0.02362021447275603   -0.05782640854467374
1.2708479294095896   0.08289444554530795   0.035408761479231346
1.2708479294095896   0.08289444554530795   0.035408761479231346
1.2708479294095896   0.08289444554530795   0.035408761479231346
1.2708479294095896   0.08289444554530795   0.035408761479231346
0.6057526720344275   -0.11303835453937464   0.011340046574223411
0.6057526720344275   -0.11303835453937464   0.011340046574223411
0.6057526720344275   -0.11303835453937464   0.011340046574223411
0.6057526720344275   -0.11303835453937464   0.011340046574223411
0.6358665491406139   -0.03974871201112942   0.02615670650772655
0.6358665491406139   -0.03974871201112942   0.02615670650772655
0.6358665491406139   -0.03974871201112942   0.02615670650772655
0.6358665491406139   -0.03974871201112942   0.02615670650772655
1.269073803352705   0.018878351677502958   -0.0032566616224928985
1.269073803352705   0.018878351677502958   -0.0032566616224928985
1.269073803352705   0.018878351677502958   -0.0032566616224928985
1.269073803352705   0.018878351677502958   -0.0032566616224928985
0.9080637356966388   -0.01865033530266874   -0.03954339995279273
0.9080637356966388   -0.01865033530266874   -0.03954339995279273
0.9080637356966388   -0.01865033530266874   -0.03954339995279273
0.9080637356966388   -0.01865033530266874   -0.03954339995279273
1.2889616649929623   0.09054264125754544   0.024518356998752218
1.2889616649929623   0.09054264125754544   0.024518356998752218
1.2889616649929623   0.09054264125754544   0.024518356998752218
1.2889616649929623   0.09054264125754544   0.024518356998752218
0.6198898263422515   -0.1075018627492767   0.014026243254062126
0.6198898263422515   -0.1075018627492767   0.014026243254062126
0.6198898263422515   -0.1075018627492767   0.014026243254062126
0.6198898263422515   -0.1075018627492767   0.014026243254062126
0.6539102520658328   -0.012433798707512905   0.023912466043013413
0.6539102520658328   -0.012433798707512905   0.023912466043013413
0.6539102520658328   -0.012433798707512905   0.023912466043013413
0.6539102520658328   -0.012433798707512905   0.023912466043013413
1.2916909144021942   0.03703177405430266   -0.0007050762587327633
1.2916909144021942   0.03703177405430266   -0.0007050762587327633
1.2916909144021942   0.03703177405430266   -0.0007050762587327633
1.2916909144021942   0.03703177405430266   -0.0007050762587327633
0.9123867884150667   -0.008517762098219   -0.029612224852805902
0.9123867884150667   -0.008517762098219   -0.029612224852805902
0.9123867884150667   -0.008517762098219   -0.029612224852805902
0.9123867884150667   -0.008517762098219   -0.029612224852805902
0.6239954617486018   0.01634784548181542   0.04708814381932458
0.6239954617486018   0.01634784548181542   0.04708814381932458
0.6239954617486018   0.01634784548181542   0.04708814381932458
0.6239954617486018   0.01634784548181542   0.04708814381932458
0.03187929122177066   -0.21950272190012865   0.022343544725192524
0.03187929122177066   -0.21950272190012865   0.022343544725192524
0.03187929122177066   -0.21950272190012865   0.022343544725192524
0.03187929122177066   -0.21950272190012865   0.022343544725192524
0.07408249105018458   -0.09315925438121195   0.020934608448644483
0.07408249105018458   -0.09315925438121195   0.020934608448644483
0.07408249105018458   -0.09315925438121195   0.020934608448644483
0.07408249105018458   -0.09315925438121195   0.020934608448644483
0.6080407307130529   -0.10462342281102904   0.01436540823899933
0.6080407307130529   -0.10462342281102904   0.01436540823899933
0.6080407307130529   -0.10462342281102904   0.01436540823899933
0.6080407307130529   -0.10462342281102904   0.01436540823899933
0.3236561320169609   -0.0981012832115571   -0.03683171218472445
0.3236561320169609   -0.0981012832115571   -0.03683171218472445
0.3236561320169609   -0.0981012832115571   -0.03683171218472445
0.3236561320169609   -0.0981012832115571   -0.03683171218472445
0.638649944252967   0.02343743766260442   0.03935061546494393
0.638649944252967   0.02343743766260442   0.03935061546494393
0.638649944252967   0.02343743766260442   0.03935061546494393
0.638649944252967   0.02343743766260442   0.03935061546494393
0.051556376200529344   -0.2131370161645904   0.028281795983746735
0.051556376200529344   -0.2131370161645904   0.028281795983746735
0.051556376200529344   -0.2131370161645904   0.028281795983746735
0.051556376200529344   -0.2131370161645904   0.028281795983746735
0.0910225582842562   -0.08035377349363287   0.015135852540478303
0.0910225582842562   -0.08035377349363287   0.015135852540478303
0.0910225582842562   -0.08035377349363287   0.015135852540478303
0.0910225582842562   -0.08035377349363287   0.015135852540478303
0.6225527090417947   -0.0978907757342255   0.017729569736726694
0.6225527090417947   -0.0978907757342255   0.017729569736726694
0.6225527090417947   -0.0978907757342255   0.017729569736726694
0.6225527090417947   -0.0978907757342255   0.017729569736726694
0.3380457999684001   -0.0931790140668658   -0.018419747123026103
0.3380457999684001   -0.0931790140668658   -0.018419747123026103
0.3380457999684001   -0.0931790140668658   -0.018419747123026103
0.3380457999684001   -0.0931790140668658   -0.018419747123026103
0.6523254224105428   0.03551675082731939   0.033185610018922264
0.6523254224105428   0.03551675082731939   0.033185610018922264
0.6523254224105428   0.03551675082731939   0.033185610018922264
0.6523254224105428   0.03551675082731939   0.033185610018922264
0.06902385023825243   -0.205987294732428   0.03077583354925645
0.06902385023825243   -0.205987294732428   0.03077583354925645
0.06902385023825243   -0.205987294732428   0.03077583354925645
0.06902385023825243   -0.205987294732428   0.03077583354925645
0.1170420681312718   -0.061126582945435486   0.009989295699519285
0.1170420681312718   -0.061126582945435486   0.009989295699519285
0.1170420681312718   -0.061126582945435486   0.009989295699519285
0.1170420681312718   -0.061126582945435486   0.009989295699519285
0.6384206361595277   -0.08766849163616261   0.021699079440140177
0.6384206361595277   -0.08766849163616261   0.021699079440140177
0.6384206361595277   -0.08766849163616261   0.021699079440140177
0.6384206361595277   -0.08766849163616261   0.021699079440140177
0.3633835632120336   -0.08128941072154829   0.0030189357757013507
0.3633835632120336   -0.08128941072154829   0.0030189357757013507
0.3633835632120336   -0.08128941072154829   0.0030189357757013507
0.3633835632120336   -0.08128941072154829   0.0030189357757013507
0.06911285356256305   -0.041303247748613915   0.03031188227763978
0.06911285356256305   -0.041303247748613915   0.03031188227763978
0.06911285356256305   -0.041303247748613915   0.03031188227763978
0.06911285356256305   -0.041303247748613915   0.03031188227763978
-0.5318702185720455   -0.37660709057014186   0.03251402283251294
-0.5318702185720455   -0.37660709057014186   0.03251402283251294
-0.5318702185720455   -0.37660709057014186   0.03251402283251294
-0.5318702185720455   -0.37660709057014186   0.03251402283251294
-0.46522650066021065   -0.1470801682179053   0.00205083118547493
-0.46522650066021065   -0.1470801682179053   0.00205083118547493
-0.46522650066021065   -0.1470801682179053   0.00205083118547493
-0.46522650066021065   -0.1470801682179053   0.00205083118547493
0.03644837268834557   -0.2729609526169131   0.01256571487515061
0.03644837268834557   -0.2729609526169131   0.01256571487515061
0.03644837268834557   -0.2729609526169131   0.01256571487515061
0.03644837268834557   -0.2729609526169131   0.01256571487515061
-0.22977443547721565   -0.21097954675618538   -0.04418745822426982
-0.22977443547721565   -0.21097954675618538   -0.04418745822426982
-0.22977443547721565   -0.21097954675618538   -0.04418745822426982
-0.22977443547721565   -0.21097954675618538   -0.04418745822426982
0.08685187283505205   -0.032291839297994784   0.023914102289764705
0.08685187283505205   -0.032291839297994784   0.023914102289764705
0.08685187283505205   -0.032291839297994784   0.023914102289764705
0.08685187283505205   -0.032291839297994784   0.023914102289764705
-0.5039083684280131   -0.3760276491579241   0.03758897328648522
-0.5039083684280131   -0.3760276491579241   0.03758897328648522
-0.5039083684280131   -0.3760276491579241   0.03758897328648522
-0.5039083684280131   -0.3760276491579241   0.03758897328648522
-0.4395155190407952   -0.13195711710731187   -0.0001978422967698172
-0.4395155190407952   -0.13195711710731187   -0.0001978422967698172
-0.4395155190407952   -0.13195711710731187   -0.0001978422967698172
-0.4395155190407952   -0.13195711710731187   -0.0001978422967698172
0.05431465284859559   -0.2668485855647784   0.018091137433322774
0.05431465284859559   -0.2668485855647784   0.018091137433322774
0.05431465284859559   -0.2668485855647784   0.018091137433322774
0.05431465284859559   -0.2668485855647784   0.018091137433322774
-0.20371297153276058   -0.20367210244267536   -0.01641473829064536
-0.20371297153276058   -0.20367210244267536   -0.01641473829064536
-0.20371297153276058   -0.20367210244267536   -0.01641473829064536
-0.20371297153276058   -0.20367210244267536   -0.01641473829064536
0.10307120103391498   -0.020329288394994788   0.015354581190136064
0.10307120103391498   -0.020329288394994788   0.015354581190136064
0.10307120103391498   -0.020329288394994788   0.015354581190136064
0.10307120103391498   -0.020329288394994788   0.015354581190136064
-0.47771376620088324   -0.36791811325187324   0.04477191804735828
-0.47771376620088324   -0.36791811325187324   0.04477191804735828
-0.47771376620088324   -0.36791811325187324   0.04477191804735828
-0.47771376620088324   -0.36791811325187324   0.04477191804735828
-0.39708208151898755   -0.114546301713886   -0.0050806034631708085
-0.39708208151898755   -0.114546301713886   -0.0050806034631708085
-0.39708208151898755   -0.114546301713886   -0.0050806034631708085
-0.39708208151898755   -0.114546301713886   -0.0050806034631708085
0.0821977907326403   -0.24997229569474444   0.02461362145567074
0.0821977907326403   -0.24997229569474444   0.02461362145567074
0.0821977907326403   -0.24997229569474444   0.02461362145567074
0.0821977907326403   -0.24997229569474444   0.02461362145567074
-0.16991506754105015   -0.18746932390033122   0.01259034006159069
-0.16991506754105015   -0.18746932390033122   0.01259034006159069
-0.16991506754105015   -0.18746932390033122   0.01259034006159069
-0.16991506754105015   -0.18746932390033122   0.01259034006159069
-0.47518129742275383   -0.07510363955643395   0.014455177565260552
-0.47518129742275383   -0.07510363955643395   0.014455177565260552
-0.47518129742275383   -0.07510363955643395   0.014455177565260552
-0.47518129742275383   -0.07510363955643395   0.014455177565260552
-1.1813136662688566   -0.5856174175857789   -0.027118495615528204
-1.1813136662688566   -0.5856174175857789   -0.027118495615528204
-1.1813136662688566   -0.5856174175857789   -0.027118495615528204
-1.1813136662688566   -0.5856174175857789   -0.027118495615528204
-1.0714163775791772   -0.19137303490021704   -0.03253323450350868
-1.0714163775791772   -0.19137303490021704   -0.03253323450350868
-1.0714163775791772   -0.19137303490021704   -0.03253323450350868
-1.0714163775791772   -0.19137303490021704   -0.03253323450350868
-0.531989547187224   -0.488880120742502   0.010035551075004437
-0.531989547187224   -0.488880120742502   0.010035551075004437
-0.531989547187224   -0.488880120742502   0.010035551075004437
-0.531989547187224   -0.488880120742502   0.010035551075004437
-0.81407245985704   -0.346428072529837   -0.046464934313188586
-0.81407245985704   -0.346428072529837   -0.046464934313188586
-0.81407245985704   -0.346428072529837   -0.046464934313188586
-0.81407245985704   -0.346428072529837   -0.046464934313188586
-0.4448247112682572   -0.05679344395988654   0.01377305388722364
-0.4448247112682572   -0.05679344395988654   0.01377305388722364
-0.4448247112682572   -0.05679344395988654   0.01377305388722364
-0.4448247112682572   -0.05679344395988654   0.01377305388722364
-1.1558060980813936   -0.6206845962660767   -0.025170275648730284
-1.1558060980813936   -0.6206845962660767   -0.025170275648730284
-1.1558060980813936   -0.6206845962660767   -0.025170275648730284
-1.1558060980813936   -0.6206845962660767   -0.025170275648730284
-1.0371322541336185   -0.17326264828403887   -0.03317794356729267
-1.0371322541336185   -0.17326264828403887   -0.03317794356729267
-1.0371322541336185   -0.17326264828403887   -0.03317794356729267
-1.0371322541336185   -0.17326264828403887   -0.03317794356729267
-0.5070233273357513   -0.48488792684615   0.015193925967292007
-0.5070233273357513   -0.48488792684615   0.015193925967292007
-0.5070233273357513   -0.48488792684615   0.015193925967292007
-0.5070233273357513   -0.48488792684615   0.015193925967292007
-0.7780067896981913   -0.3368808188188025   -0.032347141789064185
-0.7780067896981913   -0.3368808188188025   -0.032347141789064185
-0.7780067896981913   -0.3368808188188025   -0.032347141789064185
-0.7780067896981913   -0.3368808188188025   -0.032347141789064185
-0.4206371233889914   -0.04240052470888936   0.004637543563827753
-0.4206371233889914   -0.04240052470888936   0.004637543563827753
-0.4206371233889914   -0.04240052470888936   0.004637543563827753
-0.4206371233889914   -0.04240052470888936   0.004637543563827753
-1.1233772936130422   -0.6156088859539574   -0.022056903294484537
-1.1233772936130422   -0.6156088859539574   -0.022056903294484537
-1.1233772936130422   -0.6156088859539574   -0.022056903294484537
-1.1233772936130422   -0.6156088859539574   -0.022056903294484537
-0.9835975252509365   -0.15383650726697448   -0.03761957381346435
-0.9835975252509365   -0.15383650726697448   -0.03761957381346435
-0.9835975252509365   -0.15383650726697448   -0.03761957381346435
-0.9835975252509365   -0.15383650726697448   -0.03761957381346435
-0.4530005888126571   -0.4354313481839804   0.03621190653858168
-0.4530005888126571   -0.4354313481839804   0.03621190653858168
-0.4530005888126571   -0.4354313481839804   0.03621190653858168
-0.4530005888126571   -0.4354313481839804   0.03621190653858168
-0.7378505943329714   -0.3050281061671328   -0.01769126414448214
-0.7378505943329714   -0.3050281061671328   -0.01769126414448214
-0.7378505943329714   -0.3050281061671328   -0.01769126414448214
-0.7378505943329714   -0.3050281061671328   -0.01769126414448214
-1.0731028075067934   -0.06423808823500268   -0.007443531155989037
-1.0731028075067934   -0.06423808823500268   -0.007443531155989037
-1.0731028075067934   -0.06423808823500268   -0.007443531155989037
-1.0731028075067934   -0.06423808823500268   -0.007443531155989037
-1.8913962908832824   -0.3744126576990557   0.01933300238800406
-1.8913962908832824   -0.3744126576990557   0.01933300238800406
-1.8913962908832824   -0.3744126576990557   0.01933300238800406
-1.8913962908832824   -0.3744126576990557   0.01933300238800406
-1.8172694970894394   -0.17951618556816198   -0.039588717910881845
-1.8172694970894394   -0.17951618556816198   -0.039588717910881845
-1.8172694970894394   -0.17951618556816198   -0.039588717910881845
-1.8172694970894394   -0.17951618556816198   -0.039588717910881845
-1.0500757704550896   -0.19454650070639762   0.07734326692310145
-1.0500757704550896   -0.19454650070639762   0.07734326692310145
-1.0500757704550896   -0.19454650070639762   0.07734326692310145
-1.0500757704550896   -0.19454650070639762   0.07734326692310145
-1.3989548967485266   -0.21697475357984258   0.019720904352931126
-1.3989548967485266   -0.21697475357984258   0.019720904352931126
-1.3989548967485266   -0.21697475357984258   0.019720904352931126
-1.3989548967485266   -0.21697475357984258   0.019720904352931126
-1.0293844445682176   -0.013975626959606274   0.00022902261067477697
-1.0293844445682176   -0.013975626959606274   0.00022902261067477697
-1.0293844445682176   -0.013975626959606274   0.00022902261067477697
-1.0293844445682176   -0.013975626959606274   0.00022902261067477697
-1.844950308999637   -0.36707654533828077   0.009567582308233236
-1.844950308999637   -0.36707654533828077   0.009567582308233236
-1.844950308999637   -0.36707654533828077   0.009567582308233236
-1.844950308999637   -0.36707654533828077   0.009567582308233236
-1.7766496582969273   -0.16452197390920312   -0.050259028925182615
-1.7766496582969273   -0.16452197390920312   -0.050259028925182615
-1.7766496582969273   -0.16452197390920312   -0.050259028925182615
-1.7766496582969273   -0.16452197390920312   -0.050259028925182615
-1.0147912999535142   -0.18492118681738612   0.09018536586658371
-1.0147912999535142   -0.18492118681738612   0.09018536586658371
-1.0147912999535142   -0.18492118681738612   0.09018536586658371
-1.0147912999535142   -0.18492118681738612   0.09018536586658371
-1.3776925464982006   -0.17876916449759184   0.01903341737745609
-1.3776925464982006   -0.17876916449759184   0.01903341737745609
-1.3776925464982006   -0.17876916449759184   0.01903341737745609
-1.3776925464982006   -0.17876916449759184   0.01903341737745609
-0.997958207452244   -0.0007049580367668173   -0.009865400407684306
-0.997958207452244   -0.0007049580367668173   -0.009865400407684306
-0.997958207452244   -0.0007049580367668173   -0.009865400407684306
-0.997958207452244   -0.0007049580367668173   -0.009865400407684306
-1.7959865154349857   -0.35124196732661306   0.03977667880192026
-1.7959865154349857   -0.35124196732661306   0.03977667880192026
-1.7959865154349857   -0.35124196732661306   0.03977667880192026
-1.7959865154349857   -0.35124196732661306   0.03977667880192026
-1.6922777465180636   -0.1335083307005862   -0.05628110364329815
-1.6922777465180636   -0.1335083307005862   -0.05628110364329815
-1.6922777465180636   -0.1335083307005862   -0.05628110364329815
-1.6922777465180636   -0.1335083307005862   -0.05628110364329815
-0.9598569176445796   -0.17210166011553746   0.09934861706689235
-0.9598569176445796   -0.17210166011553746   0.09934861706689235
-0.9598569176445796   -0.17210166011553746   0.09934861706689235
-0.9598569176445796   -0.17210166011553746   0.09934861706689235
-1.2957605300467425   -0.13671980859988594   0.03932291550106442
-1.2957605300467425   -0.13671980859988594   0.03932291550106442
-1.2957605300467425   -0.13671980859988594   0.03932291550106442
-1.2957605300467425   -0.13671980859988594   0.03932291550106442
1.3592406539114348   0.044971088531687964   0.01903740580297536
1.3592406539114348   0.044971088531687964   0.01903740580297536
1.3592406539114348   0.044971088531687964   0.01903740580297536
1.3592406539114348   0.044971088531687964   0.01903740580297536
0.6933796047607748   -0.036788606735484175   0.01383479087870114
0.6933796047607748   -0.036788606735484175   0.01383479087870114
0.6933796047607748   -0.036788606735484175   0.01383479087870114
0.6933796047607748   -0.036788606735484175   0.01383479087870114
0.6664905061670203   -0.09766957025968856   0.02744613384006092
0.6664905061670203   -0.09766957025968856   0.02744613384006092
0.6664905061670203   -0.09766957025968856   0.02744613384006092
0.6664905061670203   -0.09766957025968856   0.02744613384006092
1.3493997719246156   0.07599879170926963   0.0099488678148291
1.3493997719246156   0.07599879170926963   0.0099488678148291
1.3493997719246156   0.07599879170926963   0.0099488678148291
1.3493997719246156   0.07599879170926963   0.0099488678148291
0.9629228879199496   -0.013562674480334103   -0.0355954834283418
0.9629228879199496   -0.013562674480334103   -0.0355954834283418
0.9629228879199496   -0.013562674480334103   -0.0355954834283418
0.9629228879199496   -0.013562674480334103   -0.0355954834283418
1.3420936025526513   0.034870987318567304   0.014545825345709251
1.3420936025526513   0.034870987318567304   0.014545825345709251
1.3420936025526513   0.034870987318567304   0.014545825345709251
1.3420936025526513   0.034870987318567304   0.014545825345709251
0.671607851602133   -0.05873058980583806   0.014093880561773388
0.671607851602133   -0.05873058980583806   0.014093880561773388
0.671607851602133   -0.05873058980583806   0.014093880561773388
0.671607851602133   -0.05873058980583806   0.014093880561773388
0.6493103112449327   -0.09988663057782607   0.022681919208634174
0.6493103112449327   -0.09988663057782607   0.022681919208634174
0.6493103112449327   -0.09988663057782607   0.022681919208634174
0.6493103112449327   -0.09988663057782607   0.022681919208634174
1.3337263064236489   0.0727533327381652   0.017330679653900616
1.3337263064236489   0.0727533327381652   0.017330679653900616
1.3337263064236489   0.0727533327381652   0.017330679653900616
1.3337263064236489   0.0727533327381652   0.017330679653900616
0.9602005384643167   -0.018701380275712137   -0.04110757756487735
0.9602005384643167   -0.018701380275712137   -0.04110757756487735
0.9602005384643167   -0.018701380275712137   -0.04110757756487735
0.9602005384643167   -0.018701380275712137   -0.04110757756487735
1.3228064792117709   0.03114432870028433   0.004340547632378844
1.3228064792117709   0.03114432870028433   0.004340547632378844
1.3228064792117709   0.03114432870028433   0.004340547632378844
1.3228064792117709   0.03114432870028433   0.004340547632378844
0.6562847333911896   -0.06222303160557352   0.019890430967666156
0.6562847333911896   -0.06222303160557352   0.019890430967666156
0.6562847333911896   -0.06222303160557352   0.019890430967666156
0.6562847333911896   -0.06222303160557352   0.019890430967666156
0.6312043751572096   -0.09100688898913117   0.019588147769082832
0.6312043751572096   -0.09100688898913117   0.019588147769082832
0.6312043751572096   -0.09100688898913117   0.019588147769082832
0.6312043751572096   -0.09100688898913117   0.019588147769082832
1.3095957250618828   0.07370642405112113   0.025013967980473124
1.3095957250618828   0.07370642405112113   0.025013967980473124
1.3095957250618828   0.07370642405112113   0.025013967980473124
1.3095957250618828   0.07370642405112113   0.025013967980473124
0.9242646829806226   -0.018793390044878427   -0.05541487973356922
0.9242646829806226   -0.018793390044878427   -0.05541487973356922
0.9242646829806226   -0.018793390044878427   -0.05541487973356922
0.9242646829806226   -0.018793390044878427   -0.05541487973356922
0.6875600359159997   -0.0860380116020441   0.033986351521386085
0.6875600359159997   -0.0860380116020441   0.033986351521386085
0.6875600359159997   -0.0860380116020441   0.033986351521386085
0.6875600359159997   -0.0860380116020441   0.033986351521386085
0.13199746416858218   -0.08184749595388721   0.007087076238700796
0.13199746416858218   -0.08184749595388721   0.007087076238700796
0.13199746416858218   -0.08184749595388721   0.007087076238700796
0.13199746416858218   -0.08184749595388721   0.007087076238700796
0.08561074999143253   -0.2047754421159677   0.036035292435957086
0.08561074999143253   -0.2047754421159677   0.036035292435957086
0.08561074999143253   -0.2047754421159677   0.036035292435957086
0.08561074999143253   -0.2047754421159677   0.036035292435957086
0.6912168210526901   0.027206818770450142   0.026201319238271063
0.6912168210526901   0.027206818770450142   0.026201319238271063
0.6912168210526901   0.027206818770450142   0.026201319238271063
0.6912168210526901   0.027206818770450142   0.026201319238271063
0.3929548538906217   -0.08671313560016233   -0.0015404693661915728
0.3929548538906217   -0.08671313560016233   -0.0015404693661915728
0.3929548538906217   -0.08671313560016233   -0.0015404693661915728
0.3929548538906217   -0.08671313560016233   -0.0015404693661915728
0.668287029521544   -0.08974617385544412   0.028505354208432823
0.668287029521544   -0.08974617385544412   0.028505354208432823
0.668287029521544   -0.08974617385544412   0.028505354208432823
0.668287029521544   -0.08974617385544412   0.028505354208432823
0.10274578467003498   -0.09361720634261231   0.01055223005561396
0.10274578467003498   -0.09361720634261231   0.01055223005561396
0.10274578467003498   -0.09361720634261231   0.01055223005561396
0.10274578467003498   -0.09361720634261231   0.01055223005561396
0.06480796743348506   -0.20653514011518914   0.032252489440218135
0.06480796743348506   -0.20653514011518914   0.032252489440218135
0.06480796743348506   -0.20653514011518914   0.032252489440218135
0.06480796743348506   -0.20653514011518914   0.032252489440218135
0.6753762812619718   0.02210954521757863   0.031015593498424483
0.6753762812619718   0.02210954521757863   0.031015593498424483
0.6753762812619718   0.02210954521757863   0.031015593498424483
0.6753762812619718   0.02210954521757863   0.031015593498424483
0.3646774356609768   -0.09239582987826293   -0.018763054202323083
0.3646774356609768   -0.09239582987826293   -0.018763054202323083
0.3646774356609768   -0.09239582987826293   -0.018763054202323083
0.3646774356609768   -0.09239582987826293   -0.018763054202323083
0.6512795647557312   -0.09096917275151531   0.023610728936310346
0.6512795647557312   -0.09096917275151531   0.023610728936310346
0.6512795647557312   -0.09096917275151531   0.023610728936310346
0.6512795647557312   -0.09096917275151531   0.023610728936310346
0.08260408795158425   -0.09975701813423231   0.01445497004975723
0.08260408795158425   -0.09975701813423231   0.01445497004975723
0.08260408795158425   -0.09975701813423231   0.01445497004975723
0.08260408795158425   -0.09975701813423231   0.01445497004975723
0.041537064495663086   -0.20634357790366542   0.025207219766490714
0.041537064495663086   -0.20634357790366542   0.025207219766490714
0.041537064495663086   -0.20634357790366542   0.025207219766490714
0.041537064495663086   -0.20634357790366542   0.025207219766490714
0.657398564119828   0.02249533346544813   0.037056870127597785
0.657398564119828   0.02249533346544813   0.037056870127597785
0.657398564119828   0.02249533346544813   0.037056870127597785
0.657398564119828   0.02249533346544813   0.037056870127597785
0.34745470213844093   -0.0916104950204985   -0.033391606713937455
0.34745470213844093   -0.0916104950204985   -0.033391606713937455
0.34745470213844093   -0.0916104950204985   -0.033391606713937455
0.34745470213844093   -0.0916104950204985   -0.033391606713937455
0.10303626996808558   -0.2500348963101271   0.030468505592455827
0.10303626996808558   -0.2500348963101271   0.030468505592455827
0.10303626996808558   -0.2500348963101271   0.030468505592455827
0.10303626996808558   -0.2500348963101271   0.030468505592455827
-0.40779650761873465   -0.12678112819310536   0.0002924059777054625
-0.40779650761873465   -0.12678112819310536   0.0002924059777054625
-0.40779650761873465   -0.12678112819310536   0.0002924059777054625
-0.40779650761873465   -0.12678112819310536   0.0002924059777054625
-0.49171524237275743   -0.3728474285071773   0.041296950484963485
-0.49171524237275743   -0.3728474285071773   0.041296950484963485
-0.49171524237275743   -0.3728474285071773   0.041296950484963485
-0.49171524237275743   -0.3728474285071773   0.041296950484963485
0.11852921088463245   -0.020758974988917475   0.016611129774904407
0.11852921088463245   -0.020758974988917475   0.016611129774904407
0.11852921088463245   -0.020758974988917475   0.016611129774904407
0.11852921088463245   -0.020758974988917475   0.016611129774904407
-0.1672492447783868   -0.1898877373139055   0.007175220499778007
-0.1672492447783868   -0.1898877373139055   0.007175220499778007
-0.1672492447783868   -0.1898877373139055   0.007175220499778007
-0.1672492447783868   -0.1898877373139055   0.007175220499778007
0.07090813154352378   -0.2641939935040154   0.021940751584461016
0.07090813154352378   -0.2641939935040154   0.021940751584461016
0.07090813154352378   -0.2641939935040154   0.021940751584461016
0.07090813154352378   -0.2641939935040154   0.021940751584461016
-0.45221780024711544   -0.1375360472075362   0.0034727798135279833
-0.45221780024711544   -0.1375360472075362   0.0034727798135279833
-0.45221780024711544   -0.1375360472075362   0.0034727798135279833
-0.45221780024711544   -0.1375360472075362   0.0034727798135279833
-0.5206664429131851   -0.37872339016624806   0.033698210187786015
-0.5206664429131851   -0.37872339016624806   0.033698210187786015
-0.5206664429131851   -0.37872339016624806   0.033698210187786015
-0.5206664429131851   -0.37872339016624806   0.033698210187786015
0.0990317051635185   -0.026414014539697432   0.023250052514893642
0.0990317051635185   -0.026414014539697432   0.023250052514893642
0.0990317051635185   -0.026414014539697432   0.023250052514893642
0.0990317051635185   -0.026414014539697432   0.023250052514893642
-0.20343954720002433   -0.20136794919331116   -0.016981429348277524
-0.20343954720002433   -0.20136794919331116   -0.016981429348277524
-0.20343954720002433   -0.20136794919331116   -0.016981429348277524
-0.20343954720002433   -0.20136794919331116   -0.016981429348277524
0.048749102528012386   -0.2687460984633551   0.01416912326102264
0.048749102528012386   -0.2687460984633551   0.01416912326102264
0.048749102528012386   -0.2687460984633551   0.01416912326102264
0.048749102528012386   -0.2687460984633551   0.01416912326102264
-0.48006808252761823   -0.1460755484925248   0.004042170441893554
-0.48006808252761823   -0.1460755484925248   0.004042170441893554
-0.48006808252761823   -0.1460755484925248   0.004042170441893554
-0.48006808252761823   -0.1460755484925248   0.004042170441893554
-0.552071051194698   -0.37609580378286694   0.028264922942396575
-0.552071051194698   -0.37609580378286694   0.028264922942396575
-0.552071051194698   -0.37609580378286694   0.028264922942396575
-0.552071051194698   -0.37609580378286694   0.028264922942396575
0.07734492682798282   -0.029542989939549895   0.027445943463973808
0.07734492682798282   -0.029542989939549895   0.027445943463973808
0.07734492682798282   -0.029542989939549895   0.027445943463973808
0.07734492682798282   -0.029542989939549895   0.027445943463973808
-0.23282426017765576   -0.20570424097519552   -0.041157266350074856
-0.23282426017765576   -0.20570424097519552   -0.041157266350074856
-0.23282426017765576   -0.20570424097519552   -0.041157266350074856
-0.23282426017765576   -0.20570424097519552   -0.041157266350074856
-0.46103237590293716   -0.42889256093064265   0.036224497294234104
-0.46103237590293716   -0.42889256093064265   0.036224497294234104
-0.46103237590293716   -0.42889256093064265   0.036224497294234104
-0.46103237590293716   -0.42889256093064265   0.036224497294234104
-1.0207216333302114   -0.15777392909101573   -0.023527276484941306
-1.0207216333302114   -0.15777392909101573   -0.023527276484941306
-1.0207216333302114   -0.15777392909101573   -0.023527276484941306
-1.0207216333302114   -0.15777392909101573   -0.023527276484941306
-1.16743847890599   -0.6243968877358435   -0.032099352172967804
-1.16743847890599   -0.6243968877358435   -0.032099352172967804
-1.16743847890599   -0.6243968877358435   -0.032099352172967804
-1.16743847890599   -0.6243968877358435   -0.032099352172967804
-0.4294916188989575   -0.03478497501125024   0.014352614358031921
-0.4294916188989575   -0.03478497501125024   0.014352614358031921
-0.4294916188989575   -0.03478497501125024   0.014352614358031921
-0.4294916188989575   -0.03478497501125024   0.014352614358031921
-0.7622576286042314   -0.2992373586206377   -0.025454298914431205
-0.7622576286042314   -0.2992373586206377   -0.025454298914431205
-0.7622576286042314   -0.2992373586206377   -0.025454298914431205
-0.7622576286042314   -0.2992373586206377   -0.025454298914431205
-0.520148258830455   -0.4860517377902361   0.012336177479534444
-0.520148258830455   -0.4860517377902361   0.012336177479534444
-0.520148258830455   -0.4860517377902361   0.012336177479534444
-0.520148258830455   -0.4860517377902361   0.012336177479534444
-1.0745210410050299   -0.17086932698738921   -0.021039723416621445
-1.0745210410050299   -0.17086932698738921   -0.021039723416621445
-1.0745210410050299   -0.17086932698738921   -0.021039723416621445
-1.0745210410050299   -0.17086932698738921   -0.021039723416621445
-1.201902805519171   -0.6343261950551045   -0.03711793689409129
-1.201902805519171   -0.6343261950551045   -0.03711793689409129
-1.201902805519171   -0.6343261950551045   -0.03711793689409129
-1.201902805519171   -0.6343261950551045   -0.03711793689409129
-0.45620880652260415   -0.04409898835458211   0.021361990329021058
-0.45620880652260415   -0.04409898835458211   0.021361990329021058
-0.45620880652260415   -0.04409898835458211   0.021361990329021058
-0.45620880652260415   -0.04409898835458211   0.021361990329021058
-0.804406788705554   -0.33167670431754853   -0.036302563729047124
-0.804406788705554   -0.33167670431754853   -0.036302563729047124
-0.804406788705554   -0.33167670431754853   -0.036302563729047124
-0.804406788705554   -0.33167670431754853   -0.036302563729047124
-0.5497970500845877   -0.4955142497970598   0.004836033961579292
-0.5497970500845877   -0.4955142497970598   0.004836033961579292
-0.5497970500845877   -0.4955142497970598   0.004836033961579292
-0.5497970500845877   -0.4955142497970598   0.004836033961579292
-1.108562074256534   -0.18315844591198038   -0.021582029724040303
-1.108562074256534   -0.18315844591198038   -0.021582029724040303
-1.108562074256534   -0.18315844591198038   -0.021582029724040303
-1.108562074256534   -0.18315844591198038   -0.021582029724040303
-1.231263328096591   -0.6066966082797542   -0.04185165465635367
-1.231263328096591   -0.6066966082797542   -0.04185165465635367
-1.231263328096591   -0.6066966082797542   -0.04185165465635367
-1.231263328096591   -0.6066966082797542   -0.04185165465635367
-0.48999459437439835   -0.05726714542502039   0.019818548686038405
-0.48999459437439835   -0.05726714542502039   0.019818548686038405
-0.48999459437439835   -0.05726714542502039   0.019818548686038405
-0.48999459437439835   -0.05726714542502039   0.019818548686038405
-0.8432970043614898   -0.34268751405736186   -0.04672829094702234
-0.8432970043614898   -0.34268751405736186   -0.04672829094702234
-0.8432970043614898   -0.34268751405736186   -0.04672829094702234
-0.8432970043614898   -0.34268751405736186   -0.04672829094702234
-1.003216068806852   -0.1828315752943384   0.08905819233516005
-1.003216068806852   -0.1828315752943384   0.08905819233516005
-1.003216068806852   -0.1828315752943384   0.08905819233516005
-1.003216068806852   -0.1828315752943384   0.08905819233516005
-1.7635866432489333   -0.1316190448250747   -0.0309964611626717
-1.7635866432489333   -0.1316190448250747   -0.0309964611626717
-1.7635866432489333   -0.1316190448250747   -0.0309964611626717
-1.7635866432489333   -0.1316190448250747   -0.0309964611626717
-1.8710963374543292   -0.3693376693418174   0.02440799074524236
-1.8710963374543292   -0.3693376693418174   0.02440799074524236
-1.8710963374543292   -0.3693376693418174   0.02440799074524236
-1.8710963374543292   -0.3693376693418174   0.02440799074524236
-1.031316715306981   0.015170070956930987   0.008942507129294099
-1.031316715306981   0.015170070956930987   0.008942507129294099
-1.031316715306981   0.015170070956930987   0.008942507129294099
-1.031316715306981   0.015170070956930987   0.008942507129294099
-1.3498140202350835   -0.1297169372169501   0.027058246633579974
-1.3498140202350835   -0.1297169372169501   0.027058246633579974
-1.3498140202350835   -0.1297169372169501   0.027058246633579974
-1.3498140202350835   -0.1297169372169501   0.027058246633579974
-1.059563627910038   -0.19611426880651714   0.07899228387745238
-1.059563627910038   -0.19611426880651714   0.07899228387745238
-1.059563627910038   -0.19611426880651714   0.07899228387745238
-1.059563627910038   -0.19611426880651714   0.07899228387745238
-1.83820277771326   -0.15340668244035519   -0.02705519745085818
-1.83820277771326   -0.15340668244035519   -0.02705519745085818
-1.83820277771326   -0.15340668244035519   -0.02705519745085818
-1.83820277771326   -0.15340668244035519   -0.02705519745085818
-1.9165236786664073   -0.3849698877549733   -0.008325760108459312
-1.9165236786664073   -0.3849698877549733   -0.008325760108459312
-1.9165236786664073   -0.3849698877549733   -0.008325760108459312
-1.9165236786664073   -0.3849698877549733   -0.008325760108459312
-1.0634184746008295   0.004685722817338478   0.01629179982516335
-1.0634184746008295   0.004685722817338478   0.01629179982516335
-1.0634184746008295   0.004685722817338478   0.01629179982516335
-1.0634184746008295   0.004685722817338478   0.01629179982516335
-1.4301153154591215   -0.17114759346076178   0.011075821188436051
-1.4301153154591215   -0.17114759346076178   0.011075821188436051
-1.4301153154591215   -0.17114759346076178   0.011075821188436051
-1.4301153154591215   -0.17114759346076178   0.011075821188436051
-1.095754328860668   -0.2060760129195597   0.06537426426286946
-1.095754328860668   -0.2060760129195597   0.06537426426286946
-1.095754328860668   -0.2060760129195597   0.06537426426286946
-1.095754328860668   -0.2060760129195597   0.06537426426286946
-1.8747937895616893   -0.16481411717319575   -0.019832085166617282
-1.8747937895616893   -0.16481411717319575   -0.019832085166617282
-1.8747937895616893   -0.16481411717319575   -0.019832085166617282
-1.8747937895616893   -0.16481411717319575   -0.019832085166617282
-1.9558541998490842   -0.3912088884301377   -0.00019024230160435973
-1.9558541998490842   -0.3912088884301377   -0.00019024230160435973
-1.9558541998490842   -0.3912088884301377   -0.00019024230160435973
-1.9558541998490842   -0.3912088884301377   -0.00019024230160435973
-1.1085362779836376   -0.04163985923689692   0.0067268468655561145
-1.1085362779836376   -0.04163985923689692   0.0067268468655561145
-1.1085362779836376   -0.04163985923689692   0.0067268468655561145
-1.1085362779836376   -0.04163985923689692   0.0067268468655561145
-1.4472177597857845   -0.20667140863513284   0.01745983200902664
-1.4472177597857845   -0.20667140863513284   0.01745983200902664
-1.4472177597857845   -0.20667140863513284   0.01745983200902664
-1.4472177597857845   -0.20667140863513284   0.01745983200902664
1.1921965891888087   0.05507242349953251   -0.025677042374280118
1.1921965891888087   0.05507242349953251   -0.025677042374280118
1.1921965891888087   0.05507242349953251   -0.025677042374280118
1.1921965891888087   0.05507242349953251   -0.025677042374280118
0.5995954980931545   -0.012381060155617823   0.012545331043695387
0.5995954980931545   -0.012381060155617823   0.012545331043695387
0.5995954980931545   -0.012381060155617823   0.012545331043695387
0.5995954980931545   -0.012381060155617823   0.012545331043695387
0.5616905624098061   -0.08808529479743471   -0.022762355203883082
0.5616905624098061   -0.08808529479743471   -0.022762355203883082
0.5616905624098061   -0.08808529479743471   -0.022762355203883082
0.5616905624098061   -0.08808529479743471   -0.022762355203883082
1.1784588308295048   0.08594012875385809   0.014677838579019553
1.1784588308295048   0.08594012875385809   0.014677838579019553
1.1784588308295048   0.08594012875385809   0.014677838579019553
1.1784588308295048   0.08594012875385809   0.014677838579019553
0.8367022294041068   0.0020585312103678366   -0.032312475253011425
0.8367022294041068   0.0020585312103678366   -0.032312475253011425
0.8367022294041068   0.0020585312103678366   -0.032312475253011425
0.8367022294041068   0.0020585312103678366   -0.032312475253011425
1.1593068791762857   0.030801734508330042   -0.025943525441539016
1.1593068791762857   0.030801734508330042   -0.025943525441539016
1.1593068791762857   0.030801734508330042   -0.025943525441539016
1.1593068791762857   0.030801734508330042   -0.025943525441539016
0.5797858945010264   -0.03400352011390487   0.013632530568683326
0.5797858945010264   -0.03400352011390487   0.013632530568683326
0.5797858945010264   -0.03400352011390487   0.013632530568683326
0.5797858945010264   -0.03400352011390487   0.013632530568683326
0.5412709235127744   -0.09296808041018323   -0.018821003176966986
0.5412709235127744   -0.09296808041018323   -0.018821003176966986
0.5412709235127744   -0.09296808041018323   -0.018821003176966986
0.5412709235127744   -0.09296808041018323   -0.018821003176966986
1.1501135784345096   0.07900508875787829   0.0215109551238477
1.1501135784345096   0.07900508875787829   0.0215109551238477
1.1501135784345096   0.07900508875787829   0.0215109551238477
1.1501135784345096   0.07900508875787829   0.0215109551238477
0.8256642089817883   -0.008295920795384215   -0.03849288495022153
0.8256642089817883   -0.008295920795384215   -0.03849288495022153
0.8256642089817883   -0.008295920795384215   -0.03849288495022153
0.8256642089817883   -0.008295920795384215   -0.03849288495022153
1.1308158200869958   0.02459212497407165   -0.020564872829914205
1.1308158200869958   0.02459212497407165   -0.020564872829914205
1.1308158200869958   0.02459212497407165   -0.020564872829914205
1.1308158200869958   0.02459212497407165   -0.020564872829914205
0.5590944754232396   -0.04002932306342502   0.01735799902860117
0.5590944754232396   -0.04002932306342502   0.01735799902860117
0.5590944754232396   -0.04002932306342502   0.01735799902860117
0.5590944754232396   -0.04002932306342502   0.01735799902860117
0.5215100314271761   -0.09149738426324923   -0.012919379956671688
0.5215100314271761   -0.09149738426324923   -0.012919379956671688
0.5215100314271761   -0.09149738426324923   -0.012919379956671688
0.5215100314271761   -0.09149738426324923   -0.012919379956671688
1.1150317200991382   0.07438716151079688   0.028040664634323087
1.1150317200991382   0.07438716151079688   0.028040664634323087
1.1150317200991382   0.07438716151079688   0.028040664634323087
1.1150317200991382   0.07438716151079688   0.028040664634323087
0.7850144310287104   -0.014453696630866902   -0.050507967294621196
0.7850144310287104   -0.014453696630866902   -0.050507967294621196
0.7850144310287104   -0.014453696630866902   -0.050507967294621196
0.7850144310287104   -0.014453696630866902   -0.050507967294621196
0.6030841008056832   0.012061560846613237   0.005545723604101934
0.6030841008056832   0.012061560846613237   0.005545723604101934
0.6030841008056832   0.012061560846613237   0.005545723604101934
0.6030841008056832   0.012061560846613237   0.005545723604101934
0.05714458485141275   -0.036296125883722954   -0.0014674259913538684
0.05714458485141275   -0.036296125883722954   -0.0014674259913538684
0.05714458485141275   -0.036296125883722954   -0.0014674259913538684
0.05714458485141275   -0.036296125883722954   -0.0014674259913538684
0.02142390377575018   -0.11637880819001019   -0.02193389828709058
0.02142390377575018   -0.11637880819001019   -0.02193389828709058
0.02142390377575018   -0.11637880819001019   -0.02193389828709058
0.02142390377575018   -0.11637880819001019   -0.02193389828709058
0.6037579041671949   0.06969586207999509   0.029793196705626045
0.6037579041671949   0.06969586207999509   0.029793196705626045
0.6037579041671949   0.06969586207999509   0.029793196705626045
0.6037579041671949   0.06969586207999509   0.029793196705626045
0.31545709263144084   -0.016214964176865854   -0.01243831564574938
0.31545709263144084   -0.016214964176865854   -0.01243831564574938
0.31545709263144084   -0.016214964176865854   -0.01243831564574938
0.31545709263144084   -0.016214964176865854   -0.01243831564574938
0.586300552376404   0.00285313429489345   0.009349165536773889
0.586300552376404   0.00285313429489345   0.009349165536773889
0.586300552376404   0.00285313429489345   0.009349165536773889
0.586300552376404   0.00285313429489345   0.009349165536773889
0.03954933943324504   -0.04886799653820448   0.0011824683485779988
0.03954933943324504   -0.04886799653820448   0.0011824683485779988
0.03954933943324504   -0.04886799653820448   0.0011824683485779988
0.03954933943324504   -0.04886799653820448   0.0011824683485779988
0.0017346814354698495   -0.12188250344996036   -0.015303050012768674
0.0017346814354698495   -0.12188250344996036   -0.015303050012768674
0.0017346814354698495   -0.12188250344996036   -0.015303050012768674
0.0017346814354698495   -0.12188250344996036   -0.015303050012768674
0.5821462109086843   0.05973504626617013   0.03285230712622993
0.5821462109086843   0.05973504626617013   0.03285230712622993
0.5821462109086843   0.05973504626617013   0.03285230712622993
0.5821462109086843   0.05973504626617013   0.03285230712622993
0.2927689104450464   -0.025396441335293077   -0.017609696554646295
0.2927689104450464   -0.025396441335293077   -0.017609696554646295
0.2927689104450464   -0.025396441335293077   -0.017609696554646295
0.2927689104450464   -0.025396441335293077   -0.017609696554646295
0.5656733949435713   -0.00332458002701555   0.013547853593854083
0.5656733949435713   -0.00332458002701555   0.013547853593854083
0.5656733949435713   -0.00332458002701555   0.013547853593854083
0.5656733949435713   -0.00332458002701555   0.013547853593854083
0.018117525954370578   -0.0589128486029864   0.0036415177347609955
0.018117525954370578   -0.0589128486029864   0.0036415177347609955
0.018117525954370578   -0.0589128486029864   0.0036415177347609955
0.018117525954370578   -0.0589128486029864   0.0036415177347609955
-0.01939302962308577   -0.12236767632950027   -0.010466585104230368
-0.01939302962308577   -0.12236767632950027   -0.010466585104230368
-0.01939302962308577   -0.12236767632950027   -0.010466585104230368
-0.01939302962308577   -0.12236767632950027   -0.010466585104230368
0.5603402779911878   0.05343453703771896   0.0362999315624192
0.5603402779911878   0.05343453703771896   0.0362999315624192
0.5603402779911878   0.05343453703771896   0.0362999315624192
0.5603402779911878   0.05343453703771896   0.0362999315624192
0.27507104010666505   -0.029011113121069514   -0.022034153582658728
0.27507104010666505   -0.029011113121069514   -0.022034153582658728
0.27507104010666505   -0.029011113121069514   -0.022034153582658728
0.27507104010666505   -0.029011113121069514   -0.022034153582658728
0.05849054323238178   -0.03315745934372459   0.0021236993734928544
0.05849054323238178   -0.03315745934372459   0.0021236993734928544
0.05849054323238178   -0.03315745934372459   0.0021236993734928544
0.05849054323238178   -0.03315745934372459   0.0021236993734928544
-0.4672972513300154   -0.053948463597372875   -0.014686383886148718
-0.4672972513300154   -0.053948463597372875   -0.014686383886148718
-0.4672972513300154   -0.053948463597372875   -0.014686383886148718
-0.4672972513300154   -0.053948463597372875   -0.014686383886148718
-0.5070100515548229   -0.15419569673537664   -0.025033216517966826
-0.5070100515548229   -0.15419569673537664   -0.025033216517966826
-0.5070100515548229   -0.15419569673537664   -0.025033216517966826
-0.5070100515548229   -0.15419569673537664   -0.025033216517966826
0.06274097315564041   0.051134636313428426   0.01713800410892194
0.06274097315564041   0.051134636313428426   0.01713800410892194
0.06274097315564041   0.051134636313428426   0.01713800410892194
0.06274097315564041   0.051134636313428426   0.01713800410892194
-0.21388891676579724   -0.04526811091092457   -0.012325289766492059
-0.21388891676579724   -0.04526811091092457   -0.012325289766492059
-0.21388891676579724   -0.04526811091092457   -0.012325289766492059
-0.21388891676579724   -0.04526811091092457   -0.012325289766492059
0.043690347653886685   -0.03703755917277085   0.010057072086352599
0.043690347653886685   -0.03703755917277085   0.010057072086352599
0.043690347653886685   -0.03703755917277085   0.010057072086352599
0.043690347653886685   -0.03703755917277085   0.010057072086352599
-0.48649595279635977   -0.06456002799246799   -0.01209839146855989
-0.48649595279635977   -0.06456002799246799   -0.01209839146855989
-0.48649595279635977   -0.06456002799246799   -0.01209839146855989
-0.48649595279635977   -0.06456002799246799   -0.01209839146855989
-0.5300928318492629   -0.16021659985240752   -0.016638337035875396
-0.5300928318492629   -0.16021659985240752   -0.016638337035875396
-0.5300928318492629   -0.16021659985240752   -0.016638337035875396
-0.5300928318492629   -0.16021659985240752   -0.016638337035875396
0.041140821813910065   0.040475653580933454   0.019369494848538588
0.041140821813910065   0.040475653580933454   0.019369494848538588
0.041140821813910065   0.040475653580933454   0.019369494848538588
0.041140821813910065   0.040475653580933454   0.019369494848538588
-0.2329920098255908   -0.05159731819477587   -0.0147774979731445
-0.2329920098255908   -0.05159731819477587   -0.0147774979731445
-0.2329920098255908   -0.05159731819477587   -0.0147774979731445
-0.2329920098255908   -0.05159731819477587   -0.0147774979731445
0.023250655145269333   -0.043451143357560264   0.013845458443828652
0.023250655145269333   -0.043451143357560264   0.013845458443828652
0.023250655145269333   -0.043451143357560264   0.013845458443828652
0.023250655145269333   -0.043451143357560264   0.013845458443828652
-0.5118916916368077   -0.07597882937010025   -0.009870406455912133
-0.5118916916368077   -0.07597882937010025   -0.009870406455912133
-0.5118916916368077   -0.07597882937010025   -0.009870406455912133
-0.5118916916368077   -0.07597882937010025   -0.009870406455912133
-0.5556972807041841   -0.16459826253932788   -0.014788212002779869
-0.5556972807041841   -0.16459826253932788   -0.014788212002779869
-0.5556972807041841   -0.16459826253932788   -0.014788212002779869
-0.5556972807041841   -0.16459826253932788   -0.014788212002779869
0.017775912980473627   0.03137890560290621   0.021631545981160127
0.017775912980473627   0.03137890560290621   0.021631545981160127
0.017775912980473627   0.03137890560290621   0.021631545981160127
0.017775912980473627   0.03137890560290621   0.021631545981160127
-0.2578013116064326   -0.0591740124785679   -0.020694944807207023
-0.2578013116064326   -0.0591740124785679   -0.020694944807207023
-0.2578013116064326   -0.0591740124785679   -0.020694944807207023
-0.2578013116064326   -0.0591740124785679   -0.020694944807207023
-0.459999261478097   -0.039460815890326975   0.007315917666387912
-0.459999261478097   -0.039460815890326975   0.007315917666387912
-0.459999261478097   -0.039460815890326975   0.007315917666387912
-0.459999261478097   -0.039460815890326975   0.007315917666387912
-0.9794419607671241   -0.06315359582691982   -0.025822938166449635
-0.9794419607671241   -0.06315359582691982   -0.025822938166449635
-0.9794419607671241   -0.06315359582691982   -0.025822938166449635
-0.9794419607671241   -0.06315359582691982   -0.025822938166449635
-1.0245598170047225   -0.16168454477535182   -0.025077036356710783
-1.0245598170047225   -0.16168454477535182   -0.025077036356710783
-1.0245598170047225   -0.16168454477535182   -0.025077036356710783
-1.0245598170047225   -0.16168454477535182   -0.025077036356710783
-0.46235489236171123   0.039129251737683404   0.004917630974523371
-0.46235489236171123   0.039129251737683404   0.004917630974523371
-0.46235489236171123   0.039129251737683404   0.004917630974523371
-0.46235489236171123   0.039129251737683404   0.004917630974523371
-0.7255751364779555   -0.05368737182134137   -0.010313716011638996
-0.7255751364779555   -0.05368737182134137   -0.010313716011638996
-0.7255751364779555   -0.05368737182134137   -0.010313716011638996
-0.7255751364779555   -0.05368737182134137   -0.010313716011638996
-0.4763863056708945   -0.04354706000332099   0.017436876169615215
-0.4763863056708945   -0.04354706000332099   0.017436876169615215
-0.4763863056708945   -0.04354706000332099   0.017436876169615215
-0.4763863056708945   -0.04354706000332099   0.017436876169615215
-1.0076691307299621   -0.07614896006877628   -0.02615918968949372
-1.0076691307299621   -0.07614896006877628   -0.02615918968949372
-1.0076691307299621   -0.07614896006877628   -0.02615918968949372
-1.0076691307299621   -0.07614896006877628   -0.02615918968949372
-1.0564745509258697   -0.17195400760593932   -0.017647361524499444
-1.0564745509258697   -0.17195400760593932   -0.017647361524499444
-1.0564745509258697   -0.17195400760593932   -0.017647361524499444
-1.0564745509258697   -0.17195400760593932   -0.017647361524499444
-0.48803229941507076   0.02745115039706747   0.005996574885605004
-0.48803229941507076   0.02745115039706747   0.005996574885605004
-0.48803229941507076   0.02745115039706747   0.005996574885605004
-0.48803229941507076   0.02745115039706747   0.005996574885605004
-0.7457031036529901   -0.05934244052824446   -0.010323631849986577
-0.7457031036529901   -0.05934244052824446   -0.010323631849986577
-0.7457031036529901   -0.05934244052824446   -0.010323631849986577
-0.7457031036529901   -0.05934244052824446   -0.010323631849986577
-0.5018739184323234   -0.053880402302540285   0.018120032498949418
-0.5018739184323234   -0.053880402302540285   0.018120032498949418
-0.5018739184323234   -0.053880402302540285   0.018120032498949418
-0.5018739184323234   -0.053880402302540285   0.018120032498949418
-1.0407146843672892   -0.08870420736500356   -0.022097828972531826
-1.0407146843672892   -0.08870420736500356   -0.022097828972531826
-1.0407146843672892   -0.08870420736500356   -0.022097828972531826
-1.0407146843672892   -0.08870420736500356   -0.022097828972531826
-1.092571879207383   -0.18551747128665388   -0.018855795789144376
-1.092571879207383   -0.18551747128665388   -0.018855795789144376
-1.092571879207383   -0.18551747128665388   -0.018855795789144376
-1.092571879207383   -0.18551747128665388   -0.018855795789144376
-0.5157860042482983   0.013019509034584736   0.007150398702726733
-0.5157860042482983   0.013019509034584736   0.007150398702726733
-0.5157860042482983   0.013019509034584736   0.007150398702726733
-0.5157860042482983   0.013019509034584736   0.007150398702726733
-0.7815888763624379   -0.07328764335629023   -0.01683698138309505
-0.7815888763624379   -0.07328764335629023   -0.01683698138309505
-0.7815888763624379   -0.07328764335629023   -0.01683698138309505
-0.7815888763624379   -0.07328764335629023   -0.01683698138309505
-0.9464214455047917   0.04436541284995532   0.03176062946833684
-0.9464214455047917   0.04436541284995532   0.03176062946833684
-0.9464214455047917   0.04436541284995532   0.03176062946833684
-0.9464214455047917   0.04436541284995532   0.03176062946833684
-1.4671852702748578   -0.07307551660716488   -0.01954320723573448
-1.4671852702748578   -0.07307551660716488   -0.01954320723573448
-1.4671852702748578   -0.07307551660716488   -0.01954320723573448
-1.4671852702748578   -0.07307551660716488   -0.01954320723573448
-1.5029559137978377   -0.07443288690477776   0.03256691631160683
-1.5029559137978377   -0.07443288690477776   0.03256691631160683
-1.5029559137978377   -0.07443288690477776   0.03256691631160683
-1.5029559137978377   -0.07443288690477776   0.03256691631160683
-0.9826236248907186   0.030623276053108883   -0.0077038966151624505
-0.9826236248907186   0.030623276053108883   -0.0077038966151624505
-0.9826236248907186   0.030623276053108883   -0.0077038966151624505
-0.9826236248907186   0.030623276053108883   -0.0077038966151624505
-1.1676984369274142   0.0008082750795896376   0.029677452555501388
-1.1676984369274142   0.0008082750795896376   0.029677452555501388
-1.1676984369274142   0.0008082750795896376   0.029677452555501388
-1.1676984369274142   0.0008082750795896376   0.029677452555501388
-0.9725407612052513   0.03316958327038996   0.040164114594889715
-0.9725407612052513   0.03316958327038996   0.040164114594889715
-0.9725407612052513   0.03316958327038996   0.040164114594889715
-0.9725407612052513   0.03316958327038996   0.040164114594889715
-1.5123659728090568   -0.07630638944782153   -0.012609876201445602
-1.5123659728090568   -0.07630638944782153   -0.012609876201445602
-1.5123659728090568   -0.07630638944782153   -0.012609876201445602
-1.5123659728090568   -0.07630638944782153   -0.012609876201445602
-1.5480758999584292   -0.08663939510581728   0.04432363556701479
-1.5480758999584292   -0.08663939510581728   0.04432363556701479
-1.5480758999584292   -0.08663939510581728   0.04432363556701479
-1.5480758999584292   -0.08663939510581728   0.04432363556701479
-1.0157036775930774   0.02232442048489558   -0.008071422951382079
-1.0157036775930774   0.02232442048489558   -0.008071422951382079
-1.0157036775930774   0.02232442048489558   -0.008071422951382079
-1.0157036775930774   0.02232442048489558   -0.008071422951382079
-1.2260687508037   -0.013460051884683855   0.016360772801040716
-1.2260687508037   -0.013460051884683855   0.016360772801040716
-1.2260687508037   -0.013460051884683855   0.016360772801040716
-1.2260687508037   -0.013460051884683855   0.016360772801040716
-1.0064844378658295   0.02073667452771366   0.039612521642039406
-1.0064844378658295   0.02073667452771366   0.039612521642039406
-1.0064844378658295   0.02073667452771366   0.039612521642039406
-1.0064844378658295   0.02073667452771366   0.039612521642039406
-1.5590317073804987   -0.08678821684345689   -0.010306579805692703
-1.5590317073804987   -0.08678821684345689   -0.010306579805692703
-1.5590317073804987   -0.08678821684345689   -0.010306579805692703
-1.5590317073804987   -0.08678821684345689   -0.010306579805692703
-1.6122619115144619   -0.13604472139654153   0.038428169598157515
-1.6122619115144619   -0.13604472139654153   0.038428169598157515
-1.6122619115144619   -0.13604472139654153   0.038428169598157515
-1.6122619115144619   -0.13604472139654153   0.038428169598157515
-1.0538457171136408   -0.003132718798587869   -0.007609737808519403
-1.0538457171136408   -0.003132718798587869   -0.007609737808519403
-1.0538457171136408   -0.003132718798587869   -0.007609737808519403
-1.0538457171136408   -0.003132718798587869   -0.007609737808519403
-1.2506642527758325   -0.03147105698377173   0.004713649536117762
-1.2506642527758325   -0.03147105698377173   0.004713649536117762
-1.2506642527758325   -0.03147105698377173   0.004713649536117762
-1.2506642527758325   -0.03147105698377173   0.004713649536117762
0.967925018095311   0.051929570512871004   -0.034231035616017036
0.967925018095311   0.051929570512871004   -0.034231035616017036
0.967925018095311   0.051929570512871004   -0.034231035616017036
0.967925018095311   0.051929570512871004   -0.034231035616017036
0.479420493366055   -0.000787953261655136   0.01232571625328123
0.479420493366055   -0.000787953261655136   0.01232571625328123
0.479420493366055   -0.000787953261655136   0.01232571625328123
0.479420493366055   -0.000787953261655136   0.01232571625328123
0.4384691488532777   -0.07128554240814207   -0.031460835254784825
0.4384691488532777   -0.07128554240814207   -0.031460835254784825
0.4384691488532777   -0.07128554240814207   -0.031460835254784825
0.4384691488532777   -0.07128554240814207   -0.031460835254784825
0.9498432846024808   0.07812809356570097   0.015468001418566947
0.9498432846024808   0.07812809356570097   0.015468001418566947
0.9498432846024808   0.07812809356570097   0.015468001418566947
0.9498432846024808   0.07812809356570097   0.015468001418566947
0.6722643353008437   0.005924326666555291   -0.0221323767838503
0.6722643353008437   0.005924326666555291   -0.0221323767838503
0.6722643353008437   0.005924326666555291   -0.0221323767838503
0.6722643353008437   0.005924326666555291   -0.0221323767838503
0.9298600774944517   0.026684018549891386   -0.03300395910576087
0.9298600774944517   0.026684018549891386   -0.03300395910576087
0.9298600774944517   0.026684018549891386   -0.03300395910576087
0.9298600774944517   0.026684018549891386   -0.03300395910576087
0.45760165250268725   -0.020692170850957148   0.013608311435069888
0.45760165250268725   -0.020692170850957148   0.013608311435069888
0.45760165250268725   -0.020692170850957148   0.013608311435069888
0.45760165250268725   -0.020692170850957148   0.013608311435069888
0.417990005776756   -0.07719479732199991   -0.027364902617789753
0.417990005776756   -0.07719479732199991   -0.027364902617789753
0.417990005776756   -0.07719479732199991   -0.027364902617789753
0.417990005776756   -0.07719479732199991   -0.027364902617789753
0.9192206902400439   0.06999146796454428   0.02119173417247943
0.9192206902400439   0.06999146796454428   0.02119173417247943
0.9192206902400439   0.06999146796454428   0.02119173417247943
0.9192206902400439   0.06999146796454428   0.02119173417247943
0.656351622773883   -0.004757965993610891   -0.028982644046787867
0.656351622773883   -0.004757965993610891   -0.028982644046787867
0.656351622773883   -0.004757965993610891   -0.028982644046787867
0.656351622773883   -0.004757965993610891   -0.028982644046787867
0.8996592415580814   0.01940601841939557   -0.026030059692168532
0.8996592415580814   0.01940601841939557   -0.026030059692168532
0.8996592415580814   0.01940601841939557   -0.026030059692168532
0.8996592415580814   0.01940601841939557   -0.026030059692168532
0.43678306181984117   -0.027377740415721386   0.016783320691353944
0.43678306181984117   -0.027377740415721386   0.016783320691353944
0.43678306181984117   -0.027377740415721386   0.016783320691353944
0.43678306181984117   -0.027377740415721386   0.016783320691353944
0.39930441391812765   -0.07883881498355955   -0.022361911656448505
0.39930441391812765   -0.07883881498355955   -0.022361911656448505
0.39930441391812765   -0.07883881498355955   -0.022361911656448505
0.39930441391812765   -0.07883881498355955   -0.022361911656448505
0.8846989683277716   0.06294039687737873   0.026413144359432046
0.8846989683277716   0.06294039687737873   0.026413144359432046
0.8846989683277716   0.06294039687737873   0.026413144359432046
0.8846989683277716   0.06294039687737873   0.026413144359432046
0.6189038342885058   -0.012079347689592318   -0.03931958483303717
0.6189038342885058   -0.012079347689592318   -0.03931958483303717
0.6189038342885058   -0.012079347689592318   -0.03931958483303717
0.6189038342885058   -0.012079347689592318   -0.03931958483303717
0.48781184690871454   0.05069143155582747   0.0028030991490964555
0.48781184690871454   0.05069143155582747   0.0028030991490964555
0.48781184690871454   0.05069143155582747   0.0028030991490964555
0.48781184690871454   0.05069143155582747   0.0028030991490964555
0.01606363106039531   -0.016196655521185287   -0.002069696244247791
0.01606363106039531   -0.016196655521185287   -0.002069696244247791
0.01606363106039531   -0.016196655521185287   -0.002069696244247791
0.01606363106039531   -0.016196655521185287   -0.002069696244247791
-0.014807512349400285   -0.06426623397437858   -0.021451867049647216
-0.014807512349400285   -0.06426623397437858   -0.021451867049647216
-0.014807512349400285   -0.06426623397437858   -0.021451867049647216
-0.014807512349400285   -0.06426623397437858   -0.021451867049647216
0.4784714882536164   0.0708098445463616   0.02645547479239685
0.4784714882536164   0.0708098445463616   0.02645547479239685
0.4784714882536164   0.0708098445463616   0.02645547479239685
0.4784714882536164   0.0708098445463616   0.02645547479239685
0.23811325747112147   0.010090760113837298   -0.0026923682046401855
0.23811325747112147   0.010090760113837298   -0.0026923682046401855
0.23811325747112147   0.010090760113837298   -0.0026923682046401855
0.23811325747112147   0.010090760113837298   -0.0026923682046401855
0.4676487208722631   0.0376214021385686   0.005530080293425367
0.4676487208722631   0.0376214021385686   0.005530080293425367
0.4676487208722631   0.0376214021385686   0.005530080293425367
0.4676487208722631   0.0376214021385686   0.005530080293425367
-0.0037904437377737224   -0.030883490336311988   0.0002507323704190028
-0.0037904437377737224   -0.030883490336311988   0.0002507323704190028
-0.0037904437377737224   -0.030883490336311988   0.0002507323704190028
-0.0037904437377737224   -0.030883490336311988   0.0002507323704190028
-0.034206133086113685   -0.07381759304954795   -0.018558545457562442
-0.034206133086113685   -0.07381759304954795   -0.018558545457562442
-0.034206133086113685   -0.07381759304954795   -0.018558545457562442
-0.034206133086113685   -0.07381759304954795   -0.018558545457562442
0.4564945913832719   0.05869824559283989   0.029264982499946232
0.4564945913832719   0.05869824559283989   0.029264982499946232
0.4564945913832719   0.05869824559283989   0.029264982499946232
0.4564945913832719   0.05869824559283989   0.029264982499946232
0.21438972372292744   -0.0018561841562276318   -0.009476721593799484
0.21438972372292744   -0.0018561841562276318   -0.009476721593799484
0.21438972372292744   -0.0018561841562276318   -0.009476721593799484
0.21438972372292744   -0.0018561841562276318   -0.009476721593799484
0.44608002618741144   0.027607856932805916   0.008282545180681736
0.44608002618741144   0.027607856932805916   0.008282545180681736
0.44608002618741144   0.027607856932805916   0.008282545180681736
0.44608002618741144   0.027607856932805916   0.008282545180681736
-0.023773642778088997   -0.04270927927734399   0.002495592310357054
-0.023773642778088997   -0.04270927927734399   0.002495592310357054
-0.023773642778088997   -0.04270927927734399   0.002495592310357054
-0.023773642778088997   -0.04270927927734399   0.002495592310357054
-0.05340384476743813   -0.07953157412946951   -0.01478650151489737
-0.05340384476743813   -0.07953157412946951   -0.01478650151489737
-0.05340384476743813   -0.07953157412946951   -0.01478650151489737
-0.05340384476743813   -0.07953157412946951   -0.01478650151489737
0.4355914108216241   0.04851143275217898   0.03172282512529061
0.4355914108216241   0.04851143275217898   0.03172282512529061
0.4355914108216241   0.04851143275217898   0.03172282512529061
0.4355914108216241   0.04851143275217898   0.03172282512529061
0.19689367267932803   -0.009459186157052837   -0.014464267000790329
0.19689367267932803   -0.009459186157052837   -0.014464267000790329
0.19689367267932803   -0.009459186157052837   -0.014464267000790329
0.19689367267932803   -0.009459186157052837   -0.014464267000790329
0.032132986476359954   0.0510757881700083   0.011004637144381824
0.032132986476359954   0.0510757881700083   0.011004637144381824
0.032132986476359954   0.0510757881700083   0.011004637144381824
0.032132986476359954   0.0510757881700083   0.011004637144381824
-0.43300428043576206   -0.028179367786756948   -0.01487778037154568
-0.43300428043576206   -0.028179367786756948   -0.01487778037154568
-0.43300428043576206   -0.028179367786756948   -0.01487778037154568
-0.43300428043576206   -0.028179367786756948   -0.01487778037154568
-0.4570876638318474   -0.05898921524923086   -0.013652616716886714
-0.4570876638318474   -0.05898921524923086   -0.013652616716886714
-0.4570876638318474   -0.05898921524923086   -0.013652616716886714
-0.4570876638318474   -0.05898921524923086   -0.013652616716886714
0.016507312432258767   0.057998043124922925   0.012857979759346543
0.016507312432258767   0.057998043124922925   0.012857979759346543
0.016507312432258767   0.057998043124922925   0.012857979759346543
0.016507312432258767   0.057998043124922925   0.012857979759346543
-0.21009719885971834   0.006442486872026747   0.0008191001384559738
-0.21009719885971834   0.006442486872026747   0.0008191001384559738
-0.21009719885971834   0.006442486872026747   0.0008191001384559738
-0.21009719885971834   0.006442486872026747   0.0008191001384559738
0.013208186681029261   0.0405604641852885   0.013799929942833437
0.013208186681029261   0.0405604641852885   0.013799929942833437
0.013208186681029261   0.0405604641852885   0.013799929942833437
0.013208186681029261   0.0405604641852885   0.013799929942833437
-0.4532580639131548   -0.04102116214213337   -0.0124726702305213
-0.4532580639131548   -0.04102116214213337   -0.0124726702305213
-0.4532580639131548   -0.04102116214213337   -0.0124726702305213
-0.4532580639131548   -0.04102116214213337   -0.0124726702305213
-0.47790299446878914   -0.06947975779815058   -0.011363745764182288
-0.47790299446878914   -0.06947975779815058   -0.011363745764182288
-0.47790299446878914   -0.06947975779815058   -0.011363745764182288
-0.47790299446878914   -0.06947975779815058   -0.011363745764182288
-0.0035041304111517787   0.04554098480391114   0.015592890063788018
-0.0035041304111517787   0.04554098480391114   0.015592890063788018
-0.0035041304111517787   0.04554098480391114   0.015592890063788018
-0.0035041304111517787   0.04554098480391114   0.015592890063788018
-0.23004232044262357   -0.003840440325030954   -0.0042716561161030685
-0.23004232044262357   -0.003840440325030954   -0.0042716561161030685
-0.23004232044262357   -0.003840440325030954   -0.0042716561161030685
-0.23004232044262357   -0.003840440325030954   -0.0042716561161030685
-0.006319291396064561   0.030434454964886667   0.01662361497824858
-0.006319291396064561   0.030434454964886667   0.01662361497824858
-0.006319291396064561   0.030434454964886667   0.01662361497824858
-0.006319291396064561   0.030434454964886667   0.01662361497824858
-0.4746342855015516   -0.053919679976795566   -0.010580278749345645
-0.4746342855015516   -0.053919679976795566   -0.010580278749345645
-0.4746342855015516   -0.053919679976795566   -0.010580278749345645
-0.4746342855015516   -0.053919679976795566   -0.010580278749345645
-0.49857363224470186   -0.0777286649781824   -0.007556761699107392
-0.49857363224470186   -0.0777286649781824   -0.007556761699107392
-0.49857363224470186   -0.0777286649781824   -0.007556761699107392
-0.49857363224470186   -0.0777286649781824   -0.007556761699107392
-0.02423782856072495   0.03380616198325034   0.017705843405948732
-0.02423782856072495   0.03380616198325034   0.017705843405948732
-0.02423782856072495   0.03380616198325034   0.017705843405948732
-0.02423782856072495   0.03380616198325034   0.017705843405948732
-0.25150446244347785   -0.014297104310782585   -0.009839030945241172
-0.25150446244347785   -0.014297104310782585   -0.009839030945241172
-0.25150446244347785   -0.014297104310782585   -0.009839030945241172
-0.25150446244347785   -0.014297104310782585   -0.009839030945241172
-0.4083636833770228   0.060213178926230626   0.019932658209170506
-0.4083636833770228   0.060213178926230626   0.019932658209170506
-0.4083636833770228   0.060213178926230626   0.019932658209170506
-0.4083636833770228   0.060213178926230626   0.019932658209170506
-0.8674437568637595   -0.03870573688994608   -0.02434591644125185
-0.8674437568637595   -0.03870573688994608   -0.02434591644125185
-0.8674437568637595   -0.03870573688994608   -0.02434591644125185
-0.8674437568637595   -0.03870573688994608   -0.02434591644125185
-0.8862123998525998   -0.04743233054066376   -0.004032772926293206
-0.8862123998525998   -0.04743233054066376   -0.004032772926293206
-0.8862123998525998   -0.04743233054066376   -0.004032772926293206
-0.8862123998525998   -0.04743233054066376   -0.004032772926293206
-0.4339034780620263   0.043917369352032845   -0.0006382724690405586
-0.4339034780620263   0.043917369352032845   -0.0006382724690405586
-0.4339034780620263   0.043917369352032845   -0.0006382724690405586
-0.4339034780620263   0.043917369352032845   -0.0006382724690405586
-0.6442899151505252   0.0064669916531394644   0.0047112948777903105
-0.6442899151505252   0.0064669916531394644   0.0047112948777903105
-0.6442899151505252   0.0064669916531394644   0.0047112948777903105
-0.6442899151505252   0.0064669916531394644   0.0047112948777903105
-0.42819657806949407   0.04945008980862223   0.022363507037030904
-0.42819657806949407   0.04945008980862223   0.022363507037030904
-0.42819657806949407   0.04945008980862223   0.022363507037030904
-0.42819657806949407   0.04945008980862223   0.022363507037030904
-0.891204722718652   -0.05225047387077378   -0.024176243926447884
-0.891204722718652   -0.05225047387077378   -0.024176243926447884
-0.891204722718652   -0.05225047387077378   -0.024176243926447884
-0.891204722718652   -0.05225047387077378   -0.024176243926447884
-0.911842417500268   -0.05923229083651335   -0.0036105131971019347
-0.911842417500268   -0.05923229083651335   -0.0036105131971019347
-0.911842417500268   -0.05923229083651335   -0.0036105131971019347
-0.911842417500268   -0.05923229083651335   -0.0036105131971019347
-0.45496918736630604   0.03203016203567621   0.0017953699144107535
-0.45496918736630604   0.03203016203567621   0.0017953699144107535
-0.45496918736630604   0.03203016203567621   0.0017953699144107535
-0.45496918736630604   0.03203016203567621   0.0017953699144107535
-0.6621975482719922   -0.002917818348450396   0.0005390450808416478
-0.6621975482719922   -0.002917818348450396   0.0005390450808416478
-0.6621975482719922   -0.002917818348450396   0.0005390450808416478
-0.6621975482719922   -0.002917818348450396   0.0005390450808416478
-0.44871532832690564   0.03927849588916371   0.025816331257921078
-0.44871532832690564   0.03927849588916371   0.025816331257921078
-0.44871532832690564   0.03927849588916371   0.025816331257921078
-0.44871532832690564   0.03927849588916371   0.025816331257921078
-0.9166365351147453   -0.06502088326508496   -0.021792508840925075
-0.9166365351147453   -0.06502088326508496   -0.021792508840925075
-0.9166365351147453   -0.06502088326508496   -0.021792508840925075
-0.9166365351147453   -0.06502088326508496   -0.021792508840925075
-0.9354325907206602   -0.07187500182758358   0.0023244308642775754
-0.9354325907206602   -0.07187500182758358   0.0023244308642775754
-0.9354325907206602   -0.07187500182758358   0.0023244308642775754
-0.9354325907206602   -0.07187500182758358   0.0023244308642775754
-0.47729404108594947   0.017867352489454966   0.0032451766270248997
-0.47729404108594947   0.017867352489454966   0.0032451766270248997
-0.47729404108594947   0.017867352489454966   0.0032451766270248997
-0.47729404108594947   0.017867352489454966   0.0032451766270248997
-0.6902506072497029   -0.016138785186347843   -0.005088225517419928
-0.6902506072497029   -0.016138785186347843   -0.005088225517419928
-0.6902506072497029   -0.016138785186347843   -0.005088225517419928
-0.6902506072497029   -0.016138785186347843   -0.005088225517419928
-0.8367687090952113   0.06248429514851522   0.027839290363019922
-0.8367687090952113   0.06248429514851522   0.027839290363019922
-0.8367687090952113   0.06248429514851522   0.027839290363019922
-0.8367687090952113   0.06248429514851522   0.027839290363019922
-1.2807253602389115   -0.05927895248042356   -0.022342909637964987
-1.2807253602389115   -0.05927895248042356   -0.022342909637964987
-1.2807253602389115   -0.05927895248042356   -0.022342909637964987
-1.2807253602389115   -0.05927895248042356   -0.022342909637964987
-1.298126423104481   -0.026208094961106765   0.02364204652755214
-1.298126423104481   -0.026208094961106765   0.02364204652755214
-1.298126423104481   -0.026208094961106765   0.02364204652755214
-1.298126423104481   -0.026208094961106765   0.02364204652755214
-0.8731213924743892   0.026441858007903635   -0.012451924583807443
-0.8731213924743892   0.026441858007903635   -0.012451924583807443
-0.8731213924743892   0.026441858007903635   -0.012451924583807443
-0.8731213924743892   0.026441858007903635   -0.012451924583807443
-1.0247752188447012   0.012929784564997243   0.02361606681041114
-1.0247752188447012   0.012929784564997243   0.02361606681041114
-1.0247752188447012   0.012929784564997243   0.02361606681041114
-1.0247752188447012   0.012929784564997243   0.02361606681041114
-0.856773418836747   0.06373338075782986   0.031996420854470534
-0.856773418836747   0.06373338075782986   0.031996420854470534
-0.856773418836747   0.06373338075782986   0.031996420854470534
-0.856773418836747   0.06373338075782986   0.031996420854470534
-1.3135103046773613   -0.062535525646264   -0.0169499306516736
-1.3135103046773613   -0.062535525646264   -0.0169499306516736
-1.3135103046773613   -0.062535525646264   -0.0169499306516736
-1.3135103046773613   -0.062535525646264   -0.0169499306516736
-1.3299658580477813   -0.0323827563413544   0.0326548733721025
-1.3299658580477813   -0.0323827563413544   0.0326548733721025
-1.3299658580477813   -0.0323827563413544   0.0326548733721025
-1.3299658580477813   -0.0323827563413544   0.0326548733721025
-0.8975667469737422   0.019611752168603835   -0.011076203569590368
-0.8975667469737422   0.019611752168603835   -0.011076203569590368
-0.8975667469737422   0.019611752168603835   -0.011076203569590368
-0.8975667469737422   0.019611752168603835   -0.011076203569590368
-1.0687205422245332   0.00639334371629674   0.01525507968127749
-1.0687205422245332   0.00639334371629674   0.01525507968127749
-1.0687205422245332   0.00639334371629674   0.01525507968127749
-1.0687205422245332   0.00639334371629674   0.01525507968127749
-0.8795083435573532   0.05911940418208522   0.03970816149887273
-0.8795083435573532   0.05911940418208522   0.03970816149887273
-0.8795083435573532   0.05911940418208522   0.03970816149887273
-0.8795083435573532   0.05911940418208522   0.03970816149887273
-1.3470895103445562   -0.07095565723521802   -0.014390487217885509
-1.3470895103445562   -0.07095565723521802   -0.014390487217885509
-1.3470895103445562   -0.07095565723521802   -0.014390487217885509
-1.3470895103445562   -0.07095565723521802   -0.014390487217885509
-1.3731564264398386   -0.058987176199893104   0.03242868451115207
-1.3731564264398386   -0.058987176199893104   0.03242868451115207
-1.3731564264398386   -0.058987176199893104   0.03242868451115207
-1.3731564264398386   -0.058987176199893104   0.03242868451115207
-0.9237983401621784   -0.0009655208112528124   -0.010413797359644483
-0.9237983401621784   -0.0009655208112528124   -0.010413797359644483
-0.9237983401621784   -0.0009655208112528124   -0.010413797359644483
-0.9237983401621784   -0.0009655208112528124   -0.010413797359644483
-1.0813232940213333   -0.003057915739402256   0.012526829446091285
-1.0813232940213333   -0.003057915739402256   0.012526829446091285
-1.0813232940213333   -0.003057915739402256   0.012526829446091285
-1.0813232940213333   -0.003057915739402256   0.012526829446091285
0.7354330272332603   0.04098070469525658   -0.03484352782936563
0.7354330272332603   0.04098070469525658   -0.03484352782936563
0.7354330272332603   0.04098070469525658   -0.03484352782936563
0.7354330272332603   0.04098070469525658   -0.03484352782936563
0.34945521434525384   0.006759845883588467   0.013225344443537443
0.34945521434525384   0.006759845883588467   0.013225344443537443
0.34945521434525384   0.006759845883588467   0.013225344443537443
0.34945521434525384   0.006759845883588467   0.013225344443537443
0.3107732780928572   -0.05940493255182161   -0.03312712265939163
0.3107732780928572   -0.05940493255182161   -0.03312712265939163
0.3107732780928572   -0.05940493255182161   -0.03312712265939163
0.3107732780928572   -0.05940493255182161   -0.03312712265939163
0.7196543992544208   0.06746285114747709   0.016362749236308514
0.7196543992544208   0.06746285114747709   0.016362749236308514
0.7196543992544208   0.06746285114747709   0.016362749236308514
0.7196543992544208   0.06746285114747709   0.016362749236308514
0.5015171674042777   0.00677233169828495   -0.014836907852980773
0.5015171674042777   0.00677233169828495   -0.014836907852980773
0.5015171674042777   0.00677233169828495   -0.014836907852980773
0.5015171674042777   0.00677233169828495   -0.014836907852980773
0.6999922932232521   0.018472757543108648   -0.032957687315166066
0.6999922932232521   0.018472757543108648   -0.032957687315166066
0.6999922932232521   0.018472757543108648   -0.032957687315166066
0.6999922932232521   0.018472757543108648   -0.032957687315166066
0.3300499184527114   -0.010800304618762982   0.014651451206817507
0.3300499184527114   -0.010800304618762982   0.014651451206817507
0.3300499184527114   -0.010800304618762982   0.014651451206817507
0.3300499184527114   -0.010800304618762982   0.014651451206817507
0.2927141053542072   -0.06520244647083953   -0.028271253118602784
0.2927141053542072   -0.06520244647083953   -0.028271253118602784
0.2927141053542072   -0.06520244647083953   -0.028271253118602784
0.2927141053542072   -0.06520244647083953   -0.028271253118602784
0.6915709907030899   0.05916802595220233   0.021554915068485524
0.6915709907030899   0.05916802595220233   0.021554915068485524
0.6915709907030899   0.05916802595220233   0.021554915068485524
0.6915709907030899   0.05916802595220233   0.021554915068485524
0.48543456892543196   -0.0033027273450153133   -0.020762277565779978
0.48543456892543196   -0.0033027273450153133   -0.020762277565779978
0.48543456892543196   -0.0033027273450153133   -0.020762277565779978
0.48543456892543196   -0.0033027273450153133   -0.020762277565779978
0.6723610734434016   0.011096557262642082   -0.026423202540389108
0.6723610734434016   0.011096557262642082   -0.026423202540389108
0.6723610734434016   0.011096557262642082   -0.026423202540389108
0.6723610734434016   0.011096557262642082   -0.026423202540389108
0.31143235277503495   -0.017622647620139195   0.017740185134832928
0.31143235277503495   -0.017622647620139195   0.017740185134832928
0.31143235277503495   -0.017622647620139195   0.017740185134832928
0.31143235277503495   -0.017622647620139195   0.017740185134832928
0.2764498189740155   -0.06870168523352724   -0.02354811684137236
0.2764498189740155   -0.06870168523352724   -0.02354811684137236
0.2764498189740155   -0.06870168523352724   -0.02354811684137236
0.2764498189740155   -0.06870168523352724   -0.02354811684137236
0.659891772302507   0.050239725787532594   0.0256352487812421
0.659891772302507   0.050239725787532594   0.0256352487812421
0.659891772302507   0.050239725787532594   0.0256352487812421
0.659891772302507   0.050239725787532594   0.0256352487812421
0.4533886726110059   -0.010890636622983799   -0.029574044394206377
0.4533886726110059   -0.010890636622983799   -0.029574044394206377
0.4533886726110059   -0.010890636622983799   -0.029574044394206377
0.4533886726110059   -0.010890636622983799   -0.029574044394206377
0.35539901968536025   0.05168767071515833   -0.001983453687494639
0.35539901968536025   0.05168767071515833   -0.001983453687494639
0.35539901968536025   0.05168767071515833   -0.001983453687494639
0.35539901968536025   0.05168767071515833   -0.001983453687494639
-0.023486767670258462   -0.005220868073218127   -0.00025279878462531745
-0.023486767670258462   -0.005220868073218127   -0.00025279878462531745
-0.023486767670258462   -0.005220868073218127   -0.00025279878462531745
-0.023486767670258462   -0.005220868073218127   -0.00025279878462531745
-0.05073823178829507   -0.04454306454421848   -0.021099350618592125
-0.05073823178829507   -0.04454306454421848   -0.021099350618592125
-0.05073823178829507   -0.04454306454421848   -0.021099350618592125
-0.05073823178829507   -0.04454306454421848   -0.021099350618592125
0.34625167743575436   0.06135606134862436   0.023503880154644725
0.34625167743575436   0.06135606134862436   0.023503880154644725
0.34625167743575436   0.06135606134862436   0.023503880154644725
0.34625167743575436   0.06135606134862436   0.023503880154644725
0.1544355967226439   0.015107361944118849   0.0011199719108174059
0.1544355967226439   0.015107361944118849   0.0011199719108174059
0.1544355967226439   0.015107361944118849   0.0011199719108174059
0.1544355967226439   0.015107361944118849   0.0011199719108174059
0.33699156210618947   0.037445531107905446   0.0011138337475430377
0.33699156210618947   0.037445531107905446   0.0011138337475430377
0.33699156210618947   0.037445531107905446   0.0011138337475430377
0.33699156210618947   0.037445531107905446   0.0011138337475430377
-0.04132089539245083   -0.020475313237219586   0.0019195800536301582
-0.04132089539245083   -0.020475313237219586   0.0019195800536301582
-0.04132089539245083   -0.020475313237219586   0.0019195800536301582
-0.04132089539245083   -0.020475313237219586   0.0019195800536301582
-0.06774601580198895   -0.055495426186695625   -0.01746276921250115
-0.06774601580198895   -0.055495426186695625   -0.01746276921250115
-0.06774601580198895   -0.055495426186695625   -0.01746276921250115
-0.06774601580198895   -0.055495426186695625   -0.01746276921250115
0.3261971504143387   0.04825047265693094   0.02569105305428175
0.3261971504143387   0.04825047265693094   0.02569105305428175
0.3261971504143387   0.04825047265693094   0.02569105305428175
0.3261971504143387   0.04825047265693094   0.02569105305428175
0.13345038034492201   0.0021398135100937077   -0.005387583132227734
0.13345038034492201   0.0021398135100937077   -0.005387583132227734
0.13345038034492201   0.0021398135100937077   -0.005387583132227734
0.13345038034492201   0.0021398135100937077   -0.005387583132227734
0.31724554675419864   0.02569345137428758   0.0034900560362272313
0.31724554675419864   0.02569345137428758   0.0034900560362272313
0.31724554675419864   0.02569345137428758   0.0034900560362272313
0.31724554675419864   0.02569345137428758   0.0034900560362272313
-0.05892738800391096   -0.03307138076611393   0.004206324357307116
-0.05892738800391096   -0.03307138076611393   0.004206324357307116
-0.05892738800391096   -0.03307138076611393   0.004206324357307116
-0.05892738800391096   -0.03307138076611393   0.004206324357307116
-0.08452785367631863   -0.06466631664086636   -0.014046657341993347
-0.08452785367631863   -0.06466631664086636   -0.014046657341993347
-0.08452785367631863   -0.06466631664086636   -0.014046657341993347
-0.08452785367631863   -0.06466631664086636   -0.014046657341993347
0.3076807503365063   0.03615871713866492   0.027746137598888027
0.3076807503365063   0.03615871713866492   0.027746137598888027
0.3076807503365063   0.03615871713866492   0.027746137598888027
0.3076807503365063   0.03615871713866492   0.027746137598888027
0.11739283422197237   -0.007655054301125112   -0.010797422470772169
0.11739283422197237   -0.007655054301125112   -0.010797422470772169
0.11739283422197237   -0.007655054301125112   -0.010797422470772169
0.11739283422197237   -0.007655054301125112   -0.010797422470772169
-0.008392828936707175   0.06143140329112178   0.008564623518793127
-0.008392828936707175   0.06143140329112178   0.008564623518793127
-0.008392828936707175   0.06143140329112178   0.008564623518793127
-0.008392828936707175   0.06143140329112178   0.008564623518793127
-0.38850425600915334   -0.017029867311593713   -0.012883924909181284
-0.38850425600915334   -0.017029867311593713   -0.012883924909181284
-0.38850425600915334   -0.017029867311593713   -0.012883924909181284
-0.38850425600915334   -0.017029867311593713   -0.012883924909181284
-0.40606434324461316   -0.031102778997410062   -0.010074475175446516
-0.40606434324461316   -0.031102778997410062   -0.010074475175446516
-0.40606434324461316   -0.031102778997410062   -0.010074475175446516
-0.40606434324461316   -0.031102778997410062   -0.010074475175446516
-0.025646703208699266   0.049546533344031904   0.010268694391136528
-0.025646703208699266   0.049546533344031904   0.010268694391136528
-0.025646703208699266   0.049546533344031904   0.010268694391136528
-0.025646703208699266   0.049546533344031904   0.010268694391136528
-0.20665995101154414   0.015808130257559755   0.004050155393881368
-0.20665995101154414   0.015808130257559755   0.004050155393881368
-0.20665995101154414   0.015808130257559755   0.004050155393881368
-0.20665995101154414   0.015808130257559755   0.004050155393881368
-0.02531346976419272   0.04946547477108629   0.01201592018661486
-0.02531346976419272   0.04946547477108629   0.01201592018661486
-0.02531346976419272   0.04946547477108629   0.01201592018661486
-0.02531346976419272   0.04946547477108629   0.01201592018661486
-0.4060707358774032   -0.03069487961274802   -0.010514337724059108
-0.4060707358774032   -0.03069487961274802   -0.010514337724059108
-0.4060707358774032   -0.03069487961274802   -0.010514337724059108
-0.4060707358774032   -0.03069487961274802   -0.010514337724059108
-0.42348635544004615   -0.04295505982929159   -0.0069051080733312144
-0.42348635544004615   -0.04295505982929159   -0.0069051080733312144
-0.42348635544004615   -0.04295505982929159   -0.0069051080733312144
-0.42348635544004615   -0.04295505982929159   -0.0069051080733312144
-0.0433812041231509   0.03605273503338287   0.012813127961610637
-0.0433812041231509   0.03605273503338287   0.012813127961610637
-0.0433812041231509   0.03605273503338287   0.012813127961610637
-0.0433812041231509   0.03605273503338287   0.012813127961610637
-0.22426145165982664   0.0041003118990799725   -0.001223394946381691
-0.22426145165982664   0.0041003118990799725   -0.001223394946381691
-0.22426145165982664   0.0041003118990799725   -0.001223394946381691
-0.22426145165982664   0.0041003118990799725   -0.001223394946381691
-0.04269502702604756   0.037536314303563675   0.014760434176946495
-0.04269502702604756   0.037536314303563675   0.014760434176946495
-0.04269502702604756   0.037536314303563675   0.014760434176946495
-0.04269502702604756   0.037536314303563675   0.014760434176946495
-0.42407937148330754   -0.04434547804563044   -0.008479770073299236
-0.42407937148330754   -0.04434547804563044   -0.008479770073299236
-0.42407937148330754   -0.04434547804563044   -0.008479770073299236
-0.42407937148330754   -0.04434547804563044   -0.008479770073299236
-0.440698757790237   -0.05378024998561098   -0.0037652872088457957
-0.440698757790237   -0.05378024998561098   -0.0037652872088457957
-0.440698757790237   -0.05378024998561098   -0.0037652872088457957
-0.440698757790237   -0.05378024998561098   -0.0037652872088457957
-0.06119118827663803   0.023002093799633784   0.014968259215911437
-0.06119118827663803   0.023002093799633784   0.014968259215911437
-0.06119118827663803   0.023002093799633784   0.014968259215911437
-0.06119118827663803   0.023002093799633784   0.014968259215911437
-0.2426725875542794   -0.0077041725044472015   -0.007098829109061861
-0.2426725875542794   -0.0077041725044472015   -0.007098829109061861
-0.2426725875542794   -0.0077041725044472015   -0.007098829109061861
-0.2426725875542794   -0.0077041725044472015   -0.007098829109061861
-0.3647430120044378   0.07040173410894038   0.01849069369385864
-0.3647430120044378   0.07040173410894038   0.01849069369385864
-0.3647430120044378   0.07040173410894038   0.01849069369385864
-0.3647430120044378   0.07040173410894038   0.01849069369385864
-0.7453749557976089   -0.029107306642591396   -0.023186262294009143
-0.7453749557976089   -0.029107306642591396   -0.023186262294009143
-0.7453749557976089   -0.029107306642591396   -0.023186262294009143
-0.7453749557976089   -0.029107306642591396   -0.023186262294009143
-0.7549627303165866   -0.019779728495663257   0.0019354905470393077
-0.7549627303165866   -0.019779728495663257   0.0019354905470393077
-0.7549627303165866   -0.019779728495663257   0.0019354905470393077
-0.7549627303165866   -0.019779728495663257   0.0019354905470393077
-0.39128934353547773   0.035610594437461285   -0.0029128500646351738
-0.39128934353547773   0.035610594437461285   -0.0029128500646351738
-0.39128934353547773   0.035610594437461285   -0.0029128500646351738
-0.39128934353547773   0.035610594437461285   -0.0029128500646351738
-0.5604182291617061   0.014983628213794203   0.006859729900522388
-0.5604182291617061   0.014983628213794203   0.006859729900522388
-0.5604182291617061   0.014983628213794203   0.006859729900522388
-0.5604182291617061   0.014983628213794203   0.006859729900522388
-0.3816962986670514   0.05884921122318859   0.02181375749176339
-0.3816962986670514   0.05884921122318859   0.02181375749176339
-0.3816962986670514   0.05884921122318859   0.02181375749176339
-0.3816962986670514   0.05884921122318859   0.02181375749176339
-0.7644721062773056   -0.04293467637368423   -0.02245644137853494
-0.7644721062773056   -0.04293467637368423   -0.02245644137853494
-0.7644721062773056   -0.04293467637368423   -0.02245644137853494
-0.7644721062773056   -0.04293467637368423   -0.02245644137853494
-0.7752531564760657   -0.031763409322826036   0.0031114822316593363
-0.7752531564760657   -0.031763409322826036   0.0031114822316593363
-0.7752531564760657   -0.031763409322826036   0.0031114822316593363
-0.7752531564760657   -0.031763409322826036   0.0031114822316593363
-0.4089580832330954   0.023111687003987302   -0.0003304938718502841
-0.4089580832330954   0.023111687003987302   -0.0003304938718502841
-0.4089580832330954   0.023111687003987302   -0.0003304938718502841
-0.4089580832330954   0.023111687003987302   -0.0003304938718502841
-0.5752677064675321   0.004559749420895071   0.001955662714648136
-0.5752677064675321   0.004559749420895071   0.001955662714648136
-0.5752677064675321   0.004559749420895071   0.001955662714648136
-0.5752677064675321   0.004559749420895071   0.001955662714648136
-0.39896162432380805   0.047854415164173006   0.024909072514396786
-0.39896162432380805   0.047854415164173006   0.024909072514396786
-0.39896162432380805   0.047854415164173006   0.024909072514396786
-0.39896162432380805   0.047854415164173006   0.024909072514396786
-0.7847372818786666   -0.05599380397632596   -0.020078750127845307
-0.7847372818786666   -0.05599380397632596   -0.020078750127845307
-0.7847372818786666   -0.05599380397632596   -0.020078750127845307
-0.7847372818786666   -0.05599380397632596   -0.020078750127845307
-0.7936473879784892   -0.04467755496519715   0.006873986246304094
-0.7936473879784892   -0.04467755496519715   0.006873986246304094
-0.7936473879784892   -0.04467755496519715   0.006873986246304094
-0.7936473879784892   -0.04467755496519715   0.006873986246304094
-0.4271234605949066   0.00879203422391156   0.0015389145582893546
-0.4271234605949066   0.00879203422391156   0.0015389145582893546
-0.4271234605949066   0.00879203422391156   0.0015389145582893546
-0.4271234605949066   0.00879203422391156   0.0015389145582893546
-0.5979791556432654   -0.00855574562528122   -0.004287525817699679
-0.5979791556432654   -0.00855574562528122   -0.004287525817699679
-0.5979791556432654   -0.00855574562528122   -0.004287525817699679
-0.5979791556432654   -0.00855574562528122   -0.004287525817699679
-0.7170684122879762   0.06314070729972426   0.02609844131183888
-0.7170684122879762   0.06314070729972426   0.02609844131183888
-0.7170684122879762   0.06314070729972426   0.02609844131183888
-0.7170684122879762   0.06314070729972426   0.02609844131183888
-1.0851655055079379   -0.050123721307253316   -0.025433909914546374
-1.0851655055079379   -0.050123721307253316   -0.025433909914546374
-1.0851655055079379   -0.050123721307253316   -0.025433909914546374
-1.0851655055079379   -0.050123721307253316   -0.025433909914546374
-1.097098041930696   -0.011057727148587132   0.02402679909004541
-1.097098041930696   -0.011057727148587132   0.02402679909004541
-1.097098041930696   -0.011057727148587132   0.02402679909004541
-1.097098041930696   -0.011057727148587132   0.02402679909004541
-0.7507360607606158   0.018105109824434695   -0.014815999993204904
-0.7507360607606158   0.018105109824434695   -0.014815999993204904
-0.7507360607606158   0.018105109824434695   -0.014815999993204904
-0.7507360607606158   0.018105109824434695   -0.014815999993204904
-0.8721216825348157   0.014114456116280594   0.021418405195648818
-0.8721216825348157   0.014114456116280594   0.021418405195648818
-0.8721216825348157   0.014114456116280594   0.021418405195648818
-0.8721216825348157   0.014114456116280594   0.021418405195648818
-0.7326400594712381   0.06315194398410365   0.030617172294010807
-0.7326400594712381   0.06315194398410365   0.030617172294010807
-0.7326400594712381   0.06315194398410365   0.030617172294010807
-0.7326400594712381   0.06315194398410365   0.030617172294010807
-1.1148938269041226   -0.05580434499229853   -0.02020550793336426
-1.1148938269041226   -0.05580434499229853   -0.02020550793336426
-1.1148938269041226   -0.05580434499229853   -0.02020550793336426
-1.1148938269041226   -0.05580434499229853   -0.02020550793336426
-1.1236727561805395   -0.017384658461932295   0.030047752484556774
-1.1236727561805395   -0.017384658461932295   0.030047752484556774
-1.1236727561805395   -0.017384658461932295   0.030047752484556774
-1.1236727561805395   -0.017384658461932295   0.030047752484556774
-0.7698092520378401   0.011253775296555163   -0.012686180196593975
-0.7698092520378401   0.011253775296555163   -0.012686180196593975
-0.7698092520378401   0.011253775296555163   -0.012686180196593975
-0.7698092520378401   0.011253775296555163   -0.012686180196593975
-0.9093739368217073   0.007063722441254944   0.013098196971977533
-0.9093739368217073   0.007063722441254944   0.013098196971977533
-0.9093739368217073   0.007063722441254944   0.013098196971977533
-0.9093739368217073   0.007063722441254944   0.013098196971977533
-0.7506143797552828   0.0584382146906362   0.036103741822112054
-0.7506143797552828   0.0584382146906362   0.036103741822112054
-0.7506143797552828   0.0584382146906362   0.036103741822112054
-0.7506143797552828   0.0584382146906362   0.036103741822112054
-1.1423664022571016   -0.06406787165001163   -0.016737264710166615
-1.1423664022571016   -0.06406787165001163   -0.016737264710166615
-1.1423664022571016   -0.06406787165001163   -0.016737264710166615
-1.1423664022571016   -0.06406787165001163   -0.016737264710166615
-1.15875000382104   -0.03997852600450433   0.029472840332959688
-1.15875000382104   -0.03997852600450433   0.029472840332959688
-1.15875000382104   -0.03997852600450433   0.029472840332959688
-1.15875000382104   -0.03997852600450433   0.029472840332959688
-0.7899622690140115   -0.007877489280712802   -0.011500484615791638
-0.7899622690140115   -0.007877489280712802   -0.011500484615791638
-0.7899622690140115   -0.007877489280712802   -0.011500484615791638
-0.7899622690140115   -0.007877489280712802   -0.011500484615791638
-0.9188087752588974   -0.0017391542013485417   0.010352861126810338
-0.9188087752588974   -0.0017391542013485417   0.010352861126810338
-0.9188087752588974   -0.0017391542013485417   0.010352861126810338
-0.9188087752588974   -0.0017391542013485417   0.010352861126810338
0.5068033667192966   0.028796252051709534   -0.03394077708986942
0.5068033667192966   0.028796252051709534   -0.03394077708986942
0.5068033667192966   0.028796252051709534   -0.03394077708986942
0.5068033667192966   0.028796252051709534   -0.03394077708986942
0.2164621576915217   0.013576690030720165   0.014513661468827677
0.2164621576915217   0.013576690030720165   0.014513661468827677
0.2164621576915217   0.013576690030720165   0.014513661468827677
0.2164621576915217   0.013576690030720165   0.014513661468827677
0.18151931403505653   -0.04977028823198064   -0.031667862441615846
0.18151931403505653   -0.04977028823198064   -0.031667862441615846
0.18151931403505653   -0.04977028823198064   -0.031667862441615846
0.18151931403505653   -0.04977028823198064   -0.031667862441615846
0.4950572257647311   0.05740000484537229   0.01764020122590236
0.4950572257647311   0.05740000484537229   0.01764020122590236
0.4950572257647311   0.05740000484537229   0.01764020122590236
0.4950572257647311   0.05740000484537229   0.01764020122590236
0.33143285607321005   0.007335069769481881   -0.009050603677547689
0.33143285607321005   0.007335069769481881   -0.009050603677547689
0.33143285607321005   0.007335069769481881   -0.009050603677547689
0.33143285607321005   0.007335069769481881   -0.009050603677547689
0.4755175753857408   0.009026106134785924   -0.03168415195846738
0.4755175753857408   0.009026106134785924   -0.03168415195846738
0.4755175753857408   0.009026106134785924   -0.03168415195846738
0.4755175753857408   0.009026106134785924   -0.03168415195846738
0.20069142832972447   -0.0017639256057167818   0.016186346405463563
0.20069142832972447   -0.0017639256057167818   0.016186346405463563
0.20069142832972447   -0.0017639256057167818   0.016186346405463563
0.20069142832972447   -0.0017639256057167818   0.016186346405463563
0.16664984518418668   -0.055521756947815006   -0.026972853912697853
0.16664984518418668   -0.055521756947815006   -0.026972853912697853
0.16664984518418668   -0.055521756947815006   -0.026972853912697853
0.16664984518418668   -0.055521756947815006   -0.026972853912697853
0.47058366491734027   0.04923610959838894   0.022765517104366535
0.47058366491734027   0.04923610959838894   0.022765517104366535
0.47058366491734027   0.04923610959838894   0.022765517104366535
0.47058366491734027   0.04923610959838894   0.022765517104366535
0.31612505182084366   -0.0021679147348564326   -0.01467432638066932
0.31612505182084366   -0.0021679147348564326   -0.01467432638066932
0.31612505182084366   -0.0021679147348564326   -0.01467432638066932
0.31612505182084366   -0.0021679147348564326   -0.01467432638066932
0.45135698674118946   0.0016565744254370685   -0.025788338603440326
0.45135698674118946   0.0016565744254370685   -0.025788338603440326
0.45135698674118946   0.0016565744254370685   -0.025788338603440326
0.45135698674118946   0.0016565744254370685   -0.025788338603440326
0.18533094801480438   -0.008487797120396753   0.01939870041297389
0.18533094801480438   -0.008487797120396753   0.01939870041297389
0.18533094801480438   -0.008487797120396753   0.01939870041297389
0.18533094801480438   -0.008487797120396753   0.01939870041297389
0.15336754192103474   -0.060689395361873046   -0.02248612658431388
0.15336754192103474   -0.060689395361873046   -0.02248612658431388
0.15336754192103474   -0.060689395361873046   -0.02248612658431388
0.15336754192103474   -0.060689395361873046   -0.02248612658431388
0.4419974139564736   0.03854245578208679   0.026008132518901713
0.4419974139564736   0.03854245578208679   0.026008132518901713
0.4419974139564736   0.03854245578208679   0.026008132518901713
0.4419974139564736   0.03854245578208679   0.026008132518901713
0.2900374542473764   -0.009942818608769867   -0.022428862292106406
0.2900374542473764   -0.009942818608769867   -0.022428862292106406
0.2900374542473764   -0.009942818608769867   -0.022428862292106406
0.2900374542473764   -0.009942818608769867   -0.022428862292106406
0.21802381310610533   0.04192627796122677   -0.006027649388764602
0.21802381310610533   0.04192627796122677   -0.006027649388764602
0.21802381310610533   0.04192627796122677   -0.006027649388764602
0.21802381310610533   0.04192627796122677   -0.006027649388764602
-0.06662637790004276   0.0034622671707973222   0.0019138583986642926
-0.06662637790004276   0.0034622671707973222   0.0019138583986642926
-0.06662637790004276   0.0034622671707973222   0.0019138583986642926
-0.06662637790004276   0.0034622671707973222   0.0019138583986642926
-0.09051588971920503   -0.03460533128046943   -0.019535515835864888
-0.09051588971920503   -0.03460533128046943   -0.019535515835864888
-0.09051588971920503   -0.03460533128046943   -0.019535515835864888
-0.09051588971920503   -0.03460533128046943   -0.019535515835864888
0.21208088116635415   0.05037301402103736   0.020996670961857606
0.21208088116635415   0.05037301402103736   0.020996670961857606
0.21208088116635415   0.05037301402103736   0.020996670961857606
0.21208088116635415   0.05037301402103736   0.020996670961857606
0.06674669533471844   0.014543306827757169   0.0025677394393901036
0.06674669533471844   0.014543306827757169   0.0025677394393901036
0.06674669533471844   0.014543306827757169   0.0025677394393901036
0.06674669533471844   0.014543306827757169   0.0025677394393901036
0.20262062637490966   0.02728563109221712   -0.003217220066546825
0.20262062637490966   0.02728563109221712   -0.003217220066546825
0.20262062637490966   0.02728563109221712   -0.003217220066546825
0.20262062637490966   0.02728563109221712   -0.003217220066546825
-0.08119833651842143   -0.011660649942310138   0.004107568829895683
-0.08119833651842143   -0.011660649942310138   0.004107568829895683
-0.08119833651842143   -0.011660649942310138   0.004107568829895683
-0.08119833651842143   -0.011660649942310138   0.004107568829895683
-0.10434247130713871   -0.046159996661035   -0.0158216718140705
-0.10434247130713871   -0.046159996661035   -0.0158216718140705
-0.10434247130713871   -0.046159996661035   -0.0158216718140705
-0.10434247130713871   -0.046159996661035   -0.0158216718140705
0.19511836694292   0.03701956556992444   0.022828432363230913
0.19511836694292   0.03701956556992444   0.022828432363230913
0.19511836694292   0.03701956556992444   0.022828432363230913
0.19511836694292   0.03701956556992444   0.022828432363230913
0.04967607475773678   0.0014486135362078625   -0.0037221861975058395
0.04967607475773678   0.0014486135362078625   -0.0037221861975058395
0.04967607475773678   0.0014486135362078625   -0.0037221861975058395
0.04967607475773678   0.0014486135362078625   -0.0037221861975058395
0.18595726263672752   0.014893983142491875   -0.000851506740302343
0.18595726263672752   0.014893983142491875   -0.000851506740302343
0.18595726263672752   0.014893983142491875   -0.000851506740302343
0.18595726263672752   0.014893983142491875   -0.000851506740302343
-0.09553909032728548   -0.024392137559947055   0.006427373984109646
-0.09553909032728548   -0.024392137559947055   0.006427373984109646
-0.09553909032728548   -0.024392137559947055   0.006427373984109646
-0.09553909032728548   -0.024392137559947055   0.006427373984109646
-0.11798262125578593   -0.057001327007854284   -0.012390711541415755
-0.11798262125578593   -0.057001327007854284   -0.012390711541415755
-0.11798262125578593   -0.057001327007854284   -0.012390711541415755
-0.11798262125578593   -0.057001327007854284   -0.012390711541415755
0.1798114211287353   0.02420959969373312   0.02483427439858604
0.1798114211287353   0.02420959969373312   0.02483427439858604
0.1798114211287353   0.02420959969373312   0.02483427439858604
0.1798114211287353   0.02420959969373312   0.02483427439858604
0.03600066851173189   -0.00939190920043431   -0.009269273981443414
0.03600066851173189   -0.00939190920043431   -0.009269273981443414
0.03600066851173189   -0.00939190920043431   -0.009269273981443414
0.03600066851173189   -0.00939190920043431   -0.009269273981443414
-0.05613053189433253   0.052993944677341046   0.004861410920671704
-0.05613053189433253   0.052993944677341046   0.004861410920671704
-0.05613053189433253   0.052993944677341046   0.004861410920671704
-0.05613053189433253   0.052993944677341046   0.004861410920671704
-0.3454863266248022   -0.008887089157249117   -0.01052254950126505
-0.3454863266248022   -0.008887089157249117   -0.01052254950126505
-0.3454863266248022   -0.008887089157249117   -0.01052254950126505
-0.3454863266248022   -0.008887089157249117   -0.01052254950126505
-0.3591400105414739   -0.020757174449391257   -0.0077565372432047055
-0.3591400105414739   -0.020757174449391257   -0.0077565372432047055
-0.3591400105414739   -0.020757174449391257   -0.0077565372432047055
-0.3591400105414739   -0.020757174449391257   -0.0077565372432047055
-0.07037722996145868   0.03840101426681318   0.008151437405584282
-0.07037722996145868   0.03840101426681318   0.008151437405584282
-0.07037722996145868   0.03840101426681318   0.008151437405584282
-0.07037722996145868   0.03840101426681318   0.008151437405584282
-0.20727486591384975   0.015190093117038762   0.004112680263272354
-0.20727486591384975   0.015190093117038762   0.004112680263272354
-0.20727486591384975   0.015190093117038762   0.004112680263272354
-0.20727486591384975   0.015190093117038762   0.004112680263272354
-0.06995831230462331   0.040299900531612184   0.008347139424962015
-0.06995831230462331   0.040299900531612184   0.008347139424962015
-0.06995831230462331   0.040299900531612184   0.008347139424962015
-0.06995831230462331   0.040299900531612184   0.008347139424962015
-0.35960137003252013   -0.022698502548401223   -0.008122006599426267
-0.35960137003252013   -0.022698502548401223   -0.008122006599426267
-0.35960137003252013   -0.022698502548401223   -0.008122006599426267
-0.35960137003252013   -0.022698502548401223   -0.008122006599426267
-0.3731115615987648   -0.033346528586685784   -0.004452832663118782
-0.3731115615987648   -0.033346528586685784   -0.004452832663118782
-0.3731115615987648   -0.033346528586685784   -0.004452832663118782
-0.3731115615987648   -0.033346528586685784   -0.004452832663118782
-0.08488755865602873   0.024659200324673683   0.010633694455770795
-0.08488755865602873   0.024659200324673683   0.010633694455770795
-0.08488755865602873   0.024659200324673683   0.010633694455770795
-0.08488755865602873   0.024659200324673683   0.010633694455770795
-0.22163823875681246   0.0029231174828775117   -0.0012897847337319714
-0.22163823875681246   0.0029231174828775117   -0.0012897847337319714
-0.22163823875681246   0.0029231174828775117   -0.0012897847337319714
-0.22163823875681246   0.0029231174828775117   -0.0012897847337319714
-0.08417003390874134   0.027590372656099437   0.011290145860783907
-0.08417003390874134   0.027590372656099437   0.011290145860783907
-0.08417003390874134   0.027590372656099437   0.011290145860783907
-0.08417003390874134   0.027590372656099437   0.011290145860783907
-0.3740572469595406   -0.03650586153159971   -0.006021926522084213
-0.3740572469595406   -0.03650586153159971   -0.006021926522084213
-0.3740572469595406   -0.03650586153159971   -0.006021926522084213
-0.3740572469595406   -0.03650586153159971   -0.006021926522084213
-0.3868434215756308   -0.045369480833202684   -0.0012373806492781327
-0.3868434215756308   -0.045369480833202684   -0.0012373806492781327
-0.3868434215756308   -0.045369480833202684   -0.0012373806492781327
-0.3868434215756308   -0.045369480833202684   -0.0012373806492781327
-0.09927875698264645   0.01130784554283372   0.012819437273593607
-0.09927875698264645   0.01130784554283372   0.012819437273593607
-0.09927875698264645   0.01130784554283372   0.012819437273593607
-0.09927875698264645   0.01130784554283372   0.012819437273593607
-0.23659709490971484   -0.009355962037968825   -0.007148060972760498
-0.23659709490971484   -0.009355962037968825   -0.007148060972760498
-0.23659709490971484   -0.009355962037968825   -0.007148060972760498
-0.23659709490971484   -0.009355962037968825   -0.007148060972760498
-0.32599715523380485   0.06251062465688818   0.015525593639584591
-0.32599715523380485   0.06251062465688818   0.015525593639584591
-0.32599715523380485   0.06251062465688818   0.015525593639584591
-0.32599715523380485   0.06251062465688818   0.015525593639584591
-0.6195728720583845   -0.021191770576731384   -0.021365696820890685
-0.6195728720583845   -0.021191770576731384   -0.021365696820890685
-0.6195728720583845   -0.021191770576731384   -0.021365696820890685
-0.6195728720583845   -0.021191770576731384   -0.021365696820890685
-0.6246920398651148   -0.009513560803476456   0.00486907006031307
-0.6246920398651148   -0.009513560803476456   0.00486907006031307
-0.6246920398651148   -0.009513560803476456   0.00486907006031307
-0.6246920398651148   -0.009513560803476456   0.00486907006031307
-0.34932998038263063   0.025041917935830965   -0.0045054788342147115
-0.34932998038263063   0.025041917935830965   -0.0045054788342147115
-0.34932998038263063   0.025041917935830965   -0.0045054788342147115
-0.34932998038263063   0.025041917935830965   -0.0045054788342147115
-0.47703671790619423   0.014345946190519904   0.005960983674479125
-0.47703671790619423   0.014345946190519904   0.005960983674479125
-0.47703671790619423   0.014345946190519904   0.005960983674479125
-0.47703671790619423   0.014345946190519904   0.005960983674479125
-0.3395720150778787   0.050334902722486724   0.018991362902892932
-0.3395720150778787   0.050334902722486724   0.018991362902892932
-0.3395720150778787   0.050334902722486724   0.018991362902892932
-0.3395720150778787   0.050334902722486724   0.018991362902892932
-0.6348818053600784   -0.03523834578034972   -0.02035497243763976
-0.6348818053600784   -0.03523834578034972   -0.02035497243763976
-0.6348818053600784   -0.03523834578034972   -0.02035497243763976
-0.6348818053600784   -0.03523834578034972   -0.02035497243763976
-0.6411681152470663   -0.02198537729581966   0.006394216643085832
-0.6411681152470663   -0.02198537729581966   0.006394216643085832
-0.6411681152470663   -0.02198537729581966   0.006394216643085832
-0.6411681152470663   -0.02198537729581966   0.006394216643085832
-0.36345235896986233   0.012374296476598962   -0.0018776445818950577
-0.36345235896986233   0.012374296476598962   -0.0018776445818950577
-0.36345235896986233   0.012374296476598962   -0.0018776445818950577
-0.36345235896986233   0.012374296476598962   -0.0018776445818950577
-0.4891030626494834   0.0032372607609803122   0.0005487372975339008
-0.4891030626494834   0.0032372607609803122   0.0005487372975339008
-0.4891030626494834   0.0032372607609803122   0.0005487372975339008
-0.4891030626494834   0.0032372607609803122   0.0005487372975339008
-0.3533422653160427   0.038758644495441516   0.02228847566836813
-0.3533422653160427   0.038758644495441516   0.02228847566836813
-0.3533422653160427   0.038758644495441516   0.02228847566836813
-0.3533422653160427   0.038758644495441516   0.02228847566836813
-0.6513187888799918   -0.04841030529376242   -0.01793422352360309
-0.6513187888799918   -0.04841030529376242   -0.01793422352360309
-0.6513187888799918   -0.04841030529376242   -0.01793422352360309
-0.6513187888799918   -0.04841030529376242   -0.01793422352360309
-0.6558277241029439   -0.035287725984209234   0.009844377025722599
-0.6558277241029439   -0.035287725984209234   0.009844377025722599
-0.6558277241029439   -0.035287725984209234   0.009844377025722599
-0.6558277241029439   -0.035287725984209234   0.009844377025722599
-0.3778236993266927   -0.0016951712905029226   0.00018692105270472908
-0.3778236993266927   -0.0016951712905029226   0.00018692105270472908
-0.3778236993266927   -0.0016951712905029226   0.00018692105270472908
-0.3778236993266927   -0.0016951712905029226   0.00018692105270472908
-0.5072872944618517   -0.009691295607670153   -0.005746864301062339
-0.5072872944618517   -0.009691295607670153   -0.005746864301062339
-0.5072872944618517   -0.009691295607670153   -0.005746864301062339
-0.5072872944618517   -0.009691295607670153   -0.005746864301062339
-0.5945942117622682   0.05795373853448471   0.024382095548474217
-0.5945942117622682   0.05795373853448471   0.024382095548474217
-0.5945942117622682   0.05795373853448471   0.024382095548474217
-0.5945942117622682   0.05795373853448471   0.024382095548474217
-0.8778027110842914   -0.04048524542093562   -0.027629384029653425
-0.8778027110842914   -0.04048524542093562   -0.027629384029653425
-0.8778027110842914   -0.04048524542093562   -0.027629384029653425
-0.8778027110842914   -0.04048524542093562   -0.027629384029653425
-0.8861786743215216   -0.0011901799711124816   0.02415016458996505
-0.8861786743215216   -0.0011901799711124816   0.02415016458996505
-0.8861786743215216   -0.0011901799711124816   0.02415016458996505
-0.8861786743215216   -0.0011901799711124816   0.02415016458996505
-0.6253357795306574   0.008680612607589233   -0.01654380167848115
-0.6253357795306574   0.008680612607589233   -0.01654380167848115
-0.6253357795306574   0.008680612607589233   -0.01654380167848115
-0.6253357795306574   0.008680612607589233   -0.01654380167848115
-0.7131264021580738   0.013360513580219169   0.018109219199707247
-0.7131264021580738   0.013360513580219169   0.018109219199707247
-0.7131264021580738   0.013360513580219169   0.018109219199707247
-0.7131264021580738   0.013360513580219169   0.018109219199707247
-0.6068922582608509   0.055589961482215844   0.028764455795936006
-0.6068922582608509   0.055589961482215844   0.028764455795936006
-0.6068922582608509   0.055589961482215844   0.028764455795936006
-0.6068922582608509   0.055589961482215844   0.028764455795936006
-0.9049926322531011   -0.04846996550750898   -0.02263983953152849
-0.9049926322531011   -0.04846996550750898   -0.02263983953152849
-0.9049926322531011   -0.04846996550750898   -0.02263983953152849
-0.9049926322531011   -0.04846996550750898   -0.02263983953152849
-0.9094743067037785   -0.00805640268362598   0.030427984568438683
-0.9094743067037785   -0.00805640268362598   0.030427984568438683
-0.9094743067037785   -0.00805640268362598   0.030427984568438683
-0.9094743067037785   -0.00805640268362598   0.030427984568438683
-0.6405204071564254   0.001735336201084875   -0.014087956400622423
-0.6405204071564254   0.001735336201084875   -0.014087956400622423
-0.6405204071564254   0.001735336201084875   -0.014087956400622423
-0.6405204071564254   0.001735336201084875   -0.014087956400622423
-0.7446468782113873   0.005478183945015008   0.009561872070819336
-0.7446468782113873   0.005478183945015008   0.009561872070819336
-0.7446468782113873   0.005478183945015008   0.009561872070819336
-0.7446468782113873   0.005478183945015008   0.009561872070819336
-0.621216445466523   0.050285841916778234   0.033881346333204256
-0.621216445466523   0.050285841916778234   0.033881346333204256
-0.621216445466523   0.050285841916778234   0.033881346333204256
-0.621216445466523   0.050285841916778234   0.033881346333204256
-0.9290450299303955   -0.05687366993603257   -0.018608364312239653
-0.9290450299303955   -0.05687366993603257   -0.018608364312239653
-0.9290450299303955   -0.05687366993603257   -0.018608364312239653
-0.9290450299303955   -0.05687366993603257   -0.018608364312239653
-0.9406383702826949   -0.029612738967028873   0.030499368221311447
-0.9406383702826949   -0.029612738967028873   0.030499368221311447
-0.9406383702826949   -0.029612738967028873   0.030499368221311447
-0.9406383702826949   -0.029612738967028873   0.030499368221311447
-0.656417609834219   -0.015934042465981596   -0.01245873514889257
-0.656417609834219   -0.015934042465981596   -0.01245873514889257
-0.656417609834219   -0.015934042465981596   -0.01245873514889257
-0.656417609834219   -0.015934042465981596   -0.01245873514889257
-0.7534221462515776   -0.003541944891578358   0.00552262192937928
-0.7534221462515776   -0.003541944891578358   0.00552262192937928
-0.7534221462515776   -0.003541944891578358   0.00552262192937928
-0.7534221462515776   -0.003541944891578358   0.00552262192937928
0.28083235719171007   0.01688650306816359   -0.03330747284414358
0.28083235719171007   0.01688650306816359   -0.03330747284414358
0.28083235719171007   0.01688650306816359   -0.03330747284414358
0.28083235719171007   0.01688650306816359   -0.03330747284414358
0.0822645121433328   0.019918930916894867   0.015882205146643687
0.0822645121433328   0.019918930916894867   0.015882205146643687
0.0822645121433328   0.019918930916894867   0.015882205146643687
0.0822645121433328   0.019918930916894867   0.015882205146643687
0.05128983349779476   -0.040759106383758154   -0.029387962652813557
0.05128983349779476   -0.040759106383758154   -0.029387962652813557
0.05128983349779476   -0.040759106383758154   -0.029387962652813557
0.05128983349779476   -0.040759106383758154   -0.029387962652813557
0.27323072046814384   0.04751722438894912   0.01910700756437455
0.27323072046814384   0.04751722438894912   0.01910700756437455
0.27323072046814384   0.04751722438894912   0.01910700756437455
0.27323072046814384   0.04751722438894912   0.01910700756437455
0.16188953970524317   0.007937470786819074   -0.0037259028095342718
0.16188953970524317   0.007937470786819074   -0.0037259028095342718
0.16188953970524317   0.007937470786819074   -0.0037259028095342718
0.16188953970524317   0.007937470786819074   -0.0037259028095342718
0.2536904383217734   -0.0005140238700882122   -0.030563154908442455
0.2536904383217734   -0.0005140238700882122   -0.030563154908442455
0.2536904383217734   -0.0005140238700882122   -0.030563154908442455
0.2536904383217734   -0.0005140238700882122   -0.030563154908442455
0.0702206573206634   0.006662683551777021   0.017844366525994478
0.0702206573206634   0.006662683551777021   0.017844366525994478
0.0702206573206634   0.006662683551777021   0.017844366525994478
0.0702206573206634   0.006662683551777021   0.017844366525994478
0.0396036518849566   -0.046509042897316964   -0.024980232341810054
0.0396036518849566   -0.046509042897316964   -0.024980232341810054
0.0396036518849566   -0.046509042897316964   -0.024980232341810054
0.0396036518849566   -0.046509042897316964   -0.024980232341810054
0.2522228447405847   0.03958565478592352   0.024574590118056818
0.2522228447405847   0.03958565478592352   0.024574590118056818
0.2522228447405847   0.03958565478592352   0.024574590118056818
0.2522228447405847   0.03958565478592352   0.024574590118056818
0.1472822527950176   -0.0010559167272071596   -0.00954306267668841
0.1472822527950176   -0.0010559167272071596   -0.00954306267668841
0.1472822527950176   -0.0010559167272071596   -0.00954306267668841
0.1472822527950176   -0.0010559167272071596   -0.00954306267668841
0.2327860041123315   -0.007901098025786403   -0.025122860211501445
0.2327860041123315   -0.007901098025786403   -0.025122860211501445
0.2327860041123315   -0.007901098025786403   -0.025122860211501445
0.2327860041123315   -0.007901098025786403   -0.025122860211501445
0.05822192109716574   0.00015913849834356397   0.021442932323576056
0.05822192109716574   0.00015913849834356397   0.021442932323576056
0.05822192109716574   0.00015913849834356397   0.021442932323576056
0.05822192109716574   0.00015913849834356397   0.021442932323576056
0.0291605984070847   -0.053389683175489075   -0.02081574671958871
0.0291605984070847   -0.053389683175489075   -0.02081574671958871
0.0291605984070847   -0.053389683175489075   -0.02081574671958871
0.0291605984070847   -0.053389683175489075   -0.02081574671958871
0.2261928882412892   0.02693456202827071   0.02730760368021359
0.2261928882412892   0.02693456202827071   0.02730760368021359
0.2261928882412892   0.02693456202827071   0.02730760368021359
0.2261928882412892   0.02693456202827071   0.02730760368021359
0.12694548252014923   -0.009041599029352934   -0.016680981740967705
0.12694548252014923   -0.009041599029352934   -0.016680981740967705
0.12694548252014923   -0.009041599029352934   -0.016680981740967705
0.12694548252014923   -0.009041599029352934   -0.016680981740967705
0.0792577229772075   0.03034146142757556   -0.009574271194664082
0.0792577229772075   0.03034146142757556   -0.009574271194664082
0.0792577229772075   0.03034146142757556   -0.009574271194664082
0.0792577229772075   0.03034146142757556   -0.009574271194664082
-0.11249160787589042   0.009616830931153605   0.0038157561443117605
-0.11249160787589042   0.009616830931153605   0.0038157561443117605
-0.11249160787589042   0.009616830931153605   0.0038157561443117605
-0.11249160787589042   0.009616830931153605   0.0038157561443117605
-0.13245069565477585   -0.02616804922171082   -0.017177068430783954
-0.13245069565477585   -0.02616804922171082   -0.017177068430783954
-0.13245069565477585   -0.02616804922171082   -0.017177068430783954
-0.13245069565477585   -0.02616804922171082   -0.017177068430783954
0.07650098258018909   0.03763580277063623   0.018272873604763696
0.07650098258018909   0.03763580277063623   0.018272873604763696
0.07650098258018909   0.03763580277063623   0.018272873604763696
0.07650098258018909   0.03763580277063623   0.018272873604763696
-0.022972177951741904   0.012310713173612885   0.0031627875349630524
-0.022972177951741904   0.012310713173612885   0.0031627875349630524
-0.022972177951741904   0.012310713173612885   0.0031627875349630524
-0.022972177951741904   0.012310713173612885   0.0031627875349630524
0.06706537185458163   0.015763918763153126   -0.007033296015791032
0.06706537185458163   0.015763918763153126   -0.007033296015791032
0.06706537185458163   0.015763918763153126   -0.007033296015791032
0.06706537185458163   0.015763918763153126   -0.007033296015791032
-0.12353746714021391   -0.00481854742527843   0.006039572345593387
-0.12353746714021391   -0.00481854742527843   0.006039572345593387
-0.12353746714021391   -0.00481854742527843   0.006039572345593387
-0.12353746714021391   -0.00481854742527843   0.006039572345593387
-0.1429025146084753   -0.0378442964301369   -0.013469996085680442
-0.1429025146084753   -0.0378442964301369   -0.013469996085680442
-0.1429025146084753   -0.0378442964301369   -0.013469996085680442
-0.1429025146084753   -0.0378442964301369   -0.013469996085680442
0.06278848860728901   0.024507926916309312   0.01992698145622663
0.06278848860728901   0.024507926916309312   0.01992698145622663
0.06278848860728901   0.024507926916309312   0.01992698145622663
0.06278848860728901   0.024507926916309312   0.01992698145622663
-0.035898756816674725   -0.0003076100244556127   -0.0028864808575163763
-0.035898756816674725   -0.0003076100244556127   -0.0028864808575163763
-0.035898756816674725   -0.0003076100244556127   -0.0028864808575163763
-0.035898756816674725   -0.0003076100244556127   -0.0028864808575163763
0.053629528798307916   0.0032367777782296697   -0.004596668450600125
0.053629528798307916   0.0032367777782296697   -0.004596668450600125
0.053629528798307916   0.0032367777782296697   -0.004596668450600125
0.053629528798307916   0.0032367777782296697   -0.004596668450600125
-0.13442008875221648   -0.01724968124478227   0.008347518010258882
-0.13442008875221648   -0.01724968124478227   0.008347518010258882
-0.13442008875221648   -0.01724968124478227   0.008347518010258882
-0.13442008875221648   -0.01724968124478227   0.008347518010258882
-0.15327291620372988   -0.04939824519616155   -0.010120612718422135
-0.15327291620372988   -0.04939824519616155   -0.010120612718422135
-0.15327291620372988   -0.04939824519616155   -0.010120612718422135
-0.15327291620372988   -0.04939824519616155   -0.010120612718422135
0.0507818357509029   0.011648057724465779   0.02225269909954841
0.0507818357509029   0.011648057724465779   0.02225269909954841
0.0507818357509029   0.011648057724465779   0.02225269909954841
0.0507818357509029   0.011648057724465779   0.02225269909954841
-0.047061727468996346   -0.011572902518388828   -0.008589894601666375
-0.047061727468996346   -0.011572902518388828   -0.008589894601666375
-0.047061727468996346   -0.011572902518388828   -0.008589894601666375
-0.047061727468996346   -0.011572902518388828   -0.008589894601666375
-0.1066253151531823   0.04128536097927424   0.0014786897097317682
-0.1066253151531823   0.04128536097927424   0.0014786897097317682
-0.1066253151531823   0.04128536097927424   0.0014786897097317682
-0.1066253151531823   0.04128536097927424   0.0014786897097317682
-0.30458756158692013   -0.0037856668055386705   -0.00840934733153147
-0.30458756158692013   -0.0037856668055386705   -0.00840934733153147
-0.30458756158692013   -0.0037856668055386705   -0.00840934733153147
-0.30458756158692013   -0.0037856668055386705   -0.00840934733153147
-0.3140119771996731   -0.012964869811365173   -0.005043235747062436
-0.3140119771996731   -0.012964869811365173   -0.005043235747062436
-0.3140119771996731   -0.012964869811365173   -0.005043235747062436
-0.3140119771996731   -0.012964869811365173   -0.005043235747062436
-0.11766141701605301   0.02478570617589089   0.005815569365226701
-0.11766141701605301   0.02478570617589089   0.005815569365226701
-0.11766141701605301   0.02478570617589089   0.005815569365226701
-0.11766141701605301   0.02478570617589089   0.005815569365226701
-0.2102176110570047   0.012062573436682884   0.0032673797026854783
-0.2102176110570047   0.012062573436682884   0.0032673797026854783
-0.2102176110570047   0.012062573436682884   0.0032673797026854783
-0.2102176110570047   0.012062573436682884   0.0032673797026854783
-0.11711143044363265   0.028411773641588152   0.004939434761633096
-0.11711143044363265   0.028411773641588152   0.004939434761633096
-0.11711143044363265   0.028411773641588152   0.004939434761633096
-0.11711143044363265   0.028411773641588152   0.004939434761633096
-0.31502048616490336   -0.017049459669867588   -0.006001190714715285
-0.31502048616490336   -0.017049459669867588   -0.006001190714715285
-0.31502048616490336   -0.017049459669867588   -0.006001190714715285
-0.31502048616490336   -0.017049459669867588   -0.006001190714715285
-0.32442047791818673   -0.02571182078363328   -0.0016884918236059962
-0.32442047791818673   -0.02571182078363328   -0.0016884918236059962
-0.32442047791818673   -0.02571182078363328   -0.0016884918236059962
-0.32442047791818673   -0.02571182078363328   -0.0016884918236059962
-0.12869206694863128   0.01147131992869601   0.0082666258547047
-0.12869206694863128   0.01147131992869601   0.0082666258547047
-0.12869206694863128   0.01147131992869601   0.0082666258547047
-0.12869206694863128   0.01147131992869601   0.0082666258547047
-0.22107467454633786   -5.02116200376268e-05   -0.0021519303135869756
-0.22107467454633786   -5.02116200376268e-05   -0.0021519303135869756
-0.22107467454633786   -5.02116200376268e-05   -0.0021519303135869756
-0.22107467454633786   -5.02116200376268e-05   -0.0021519303135869756
-0.1279541754708238   0.015503848920873777   0.007923554251566343
-0.1279541754708238   0.015503848920873777   0.007923554251566343
-0.1279541754708238   0.015503848920873777   0.007923554251566343
-0.1279541754708238   0.015503848920873777   0.007923554251566343
-0.3258097646643403   -0.03039574504416001   -0.003951001293851002
-0.3258097646643403   -0.03039574504416001   -0.003951001293851002
-0.3258097646643403   -0.03039574504416001   -0.003951001293851002
-0.3258097646643403   -0.03039574504416001   -0.003951001293851002
-0.3346254036392911   -0.03801275870162165   0.0015630627079614833
-0.3346254036392911   -0.03801275870162165   0.0015630627079614833
-0.3346254036392911   -0.03801275870162165   0.0015630627079614833
-0.3346254036392911   -0.03801275870162165   0.0015630627079614833
-0.13953850338075033   -0.0013504709443302454   0.010503677144642426
-0.13953850338075033   -0.0013504709443302454   0.010503677144642426
-0.13953850338075033   -0.0013504709443302454   0.010503677144642426
-0.13953850338075033   -0.0013504709443302454   0.010503677144642426
-0.2325014033922974   -0.012189813378343593   -0.008037707917462398
-0.2325014033922974   -0.012189813378343593   -0.008037707917462398
-0.2325014033922974   -0.012189813378343593   -0.008037707917462398
-0.2325014033922974   -0.012189813378343593   -0.008037707917462398
-0.2892350439399321   0.051718707692259336   0.012848866405610664
-0.2892350439399321   0.051718707692259336   0.012848866405610664
-0.2892350439399321   0.051718707692259336   0.012848866405610664
-0.2892350439399321   0.051718707692259336   0.012848866405610664
-0.4926327924081305   -0.014832218687102258   -0.019129039461923004
-0.4926327924081305   -0.014832218687102258   -0.019129039461923004
-0.4926327924081305   -0.014832218687102258   -0.019129039461923004
-0.4926327924081305   -0.014832218687102258   -0.019129039461923004
-0.49356008752338465   -0.0013416300887351545   0.007806888183708706
-0.49356008752338465   -0.0013416300887351545   0.007806888183708706
-0.49356008752338465   -0.0013416300887351545   0.007806888183708706
-0.49356008752338465   -0.0013416300887351545   0.007806888183708706
-0.3090565057764571   0.01276271197164669   -0.005993460414001787
-0.3090565057764571   0.01276271197164669   -0.005993460414001787
-0.3090565057764571   0.01276271197164669   -0.005993460414001787
-0.3090565057764571   0.01276271197164669   -0.005993460414001787
-0.39408424385109825   0.012046280709842802   0.00428064723081106
-0.39408424385109825   0.012046280709842802   0.00428064723081106
-0.39408424385109825   0.012046280709842802   0.00428064723081106
-0.39408424385109825   0.012046280709842802   0.00428064723081106
-0.2993040129599996   0.03921212526265168   0.016319590377288428
-0.2993040129599996   0.03921212526265168   0.016319590377288428
-0.2993040129599996   0.03921212526265168   0.016319590377288428
-0.2993040129599996   0.03921212526265168   0.016319590377288428
-0.5041910127376734   -0.028669475777575823   -0.018019892198898
-0.5041910127376734   -0.028669475777575823   -0.018019892198898
-0.5041910127376734   -0.028669475777575823   -0.018019892198898
-0.5041910127376734   -0.028669475777575823   -0.018019892198898
-0.5063782120716311   -0.013913189741818405   0.009610777427756165
-0.5063782120716311   -0.013913189741818405   0.009610777427756165
-0.5063782120716311   -0.013913189741818405   0.009610777427756165
-0.5063782120716311   -0.013913189741818405   0.009610777427756165
-0.31951970698778076   0.0004955708250834051   -0.003392028780300555
-0.31951970698778076   0.0004955708250834051   -0.003392028780300555
-0.31951970698778076   0.0004955708250834051   -0.003392028780300555
-0.31951970698778076   0.0004955708250834051   -0.003392028780300555
-0.40329287443592027   0.0007679908744532699   -0.0013979151693228158
-0.40329287443592027   0.0007679908744532699   -0.0013979151693228158
-0.40329287443592027   0.0007679908744532699   -0.0013979151693228158
-0.40329287443592027   0.0007679908744532699   -0.0013979151693228158
-0.30950851922884776   0.027475407924231116   0.01968407291522052
-0.30950851922884776   0.027475407924231116   0.01968407291522052
-0.30950851922884776   0.027475407924231116   0.01968407291522052
-0.30950851922884776   0.027475407924231116   0.01968407291522052
-0.5169376561464988   -0.04144128315690215   -0.015658349531510272
-0.5169376561464988   -0.04144128315690215   -0.015658349531510272
-0.5169376561464988   -0.04144128315690215   -0.015658349531510272
-0.5169376561464988   -0.04144128315690215   -0.015658349531510272
-0.5174412670071072   -0.027032709015814033   0.013116800106563707
-0.5174412670071072   -0.027032709015814033   0.013116800106563707
-0.5174412670071072   -0.027032709015814033   0.013116800106563707
-0.5174412670071072   -0.027032709015814033   0.013116800106563707
-0.3301161549039087   -0.012641934986515987   -0.0012615173302359846
-0.3301161549039087   -0.012641934986515987   -0.0012615173302359846
-0.3301161549039087   -0.012641934986515987   -0.0012615173302359846
-0.3301161549039087   -0.012641934986515987   -0.0012615173302359846
-0.41704296883545294   -0.011551431348401281   -0.007598679862485764
-0.41704296883545294   -0.011551431348401281   -0.007598679862485764
-0.41704296883545294   -0.011551431348401281   -0.007598679862485764
-0.41704296883545294   -0.011551431348401281   -0.007598679862485764
-0.4711038216125894   0.050930940370894226   0.02275265545779384
-0.4711038216125894   0.050930940370894226   0.02275265545779384
-0.4711038216125894   0.050930940370894226   0.02275265545779384
-0.4711038216125894   0.050930940370894226   0.02275265545779384
-0.6638718339740692   -0.03064329986790583   -0.028907422940378052
-0.6638718339740692   -0.03064329986790583   -0.028907422940378052
-0.6638718339740692   -0.03064329986790583   -0.028907422940378052
-0.6638718339740692   -0.03064329986790583   -0.028907422940378052
-0.6686832972466812   0.008102269754679009   0.02391200177299154
-0.6686832972466812   0.008102269754679009   0.02391200177299154
-0.6686832972466812   0.008102269754679009   0.02391200177299154
-0.6686832972466812   0.008102269754679009   0.02391200177299154
-0.4986484651630507   -0.0013424165232314433   -0.017634213580132882
-0.4986484651630507   -0.0013424165232314433   -0.017634213580132882
-0.4986484651630507   -0.0013424165232314433   -0.017634213580132882
-0.4986484651630507   -0.0013424165232314433   -0.017634213580132882
-0.5508062158924288   0.012120700056312467   0.013409377601553175
-0.5508062158924288   0.012120700056312467   0.013409377601553175
-0.5508062158924288   0.012120700056312467   0.013409377601553175
-0.5508062158924288   0.012120700056312467   0.013409377601553175
-0.48019082498045795   0.046400565012704426   0.026911005796895364
-0.48019082498045795   0.046400565012704426   0.026911005796895364
-0.48019082498045795   0.046400565012704426   0.026911005796895364
-0.48019082498045795   0.046400565012704426   0.026911005796895364
-0.6880774710815204   -0.040577245433501996   -0.02437935221301603
-0.6880774710815204   -0.040577245433501996   -0.02437935221301603
-0.6880774710815204   -0.040577245433501996   -0.02437935221301603
-0.6880774710815204   -0.040577245433501996   -0.02437935221301603
-0.6886645952938462   0.0010292104646771327   0.03052560305475953
-0.6886645952938462   0.0010292104646771327   0.03052560305475953
-0.6886645952938462   0.0010292104646771327   0.03052560305475953
-0.6886645952938462   0.0010292104646771327   0.03052560305475953
-0.5101793518410271   -0.008187038580833778   -0.015121072580220336
-0.5101793518410271   -0.008187038580833778   -0.015121072580220336
-0.5101793518410271   -0.008187038580833778   -0.015121072580220336
-0.5101793518410271   -0.008187038580833778   -0.015121072580220336
-0.5764196355129206   0.003766527801474323   0.004930098652446424
-0.5764196355129206   0.003766527801474323   0.004930098652446424
-0.5764196355129206   0.003766527801474323   0.004930098652446424
-0.5764196355129206   0.003766527801474323   0.004930098652446424
-0.4909450872810099   0.04086719482007861   0.0319960168189615
-0.4909450872810099   0.04086719482007861   0.0319960168189615
-0.4909450872810099   0.04086719482007861   0.0319960168189615
-0.4909450872810099   0.04086719482007861   0.0319960168189615
-0.7087820078543262   -0.04890817093669933   -0.020124078346249026
-0.7087820078543262   -0.04890817093669933   -0.020124078346249026
-0.7087820078543262   -0.04890817093669933   -0.020124078346249026
-0.7087820078543262   -0.04890817093669933   -0.020124078346249026
-0.7162812824610334   -0.01911583971644995   0.031495951225549296
-0.7162812824610334   -0.01911583971644995   0.031495951225549296
-0.7162812824610334   -0.01911583971644995   0.031495951225549296
-0.7162812824610334   -0.01911583971644995   0.031495951225549296
-0.5220835224083079   -0.023939933135644936   -0.01318725277962066
-0.5220835224083079   -0.023939933135644936   -0.01318725277962066
-0.5220835224083079   -0.023939933135644936   -0.01318725277962066
-0.5220835224083079   -0.023939933135644936   -0.01318725277962066
-0.5846581456041969   -0.005141959957631892   -8.896731845096928e-05
-0.5846581456041969   -0.005141959957631892   -8.896731845096928e-05
-0.5846581456041969   -0.005141959957631892   -8.896731845096928e-05
-0.5846581456041969   -0.005141959957631892   -8.896731845096928e-05
0.05408976911043675   0.004440224754162041   -0.03333658263412438
0.05408976911043675   0.004440224754162041   -0.03333658263412438
0.05408976911043675   0.004440224754162041   -0.03333658263412438
0.05408976911043675   0.004440224754162041   -0.03333658263412438
-0.0522286608407134   0.0249114866234383   0.016997586918518378
-0.0522286608407134   0.0249114866234383   0.016997586918518378
-0.0522286608407134   0.0249114866234383   0.016997586918518378
-0.0522286608407134   0.0249114866234383   0.016997586918518378
-0.07940173294697433   -0.03220586856032151   -0.02687600376686044
-0.07940173294697433   -0.03220586856032151   -0.02687600376686044
-0.07940173294697433   -0.03220586856032151   -0.02687600376686044
-0.07940173294697433   -0.03220586856032151   -0.02687600376686044
0.04997329800223345   0.03563224257094424   0.02084175286835755
0.04997329800223345   0.03563224257094424   0.02084175286835755
0.04997329800223345   0.03563224257094424   0.02084175286835755
0.04997329800223345   0.03563224257094424   0.02084175286835755
-0.008175763147885578   0.00782514424932066   0.002876101470353917
-0.008175763147885578   0.00782514424932066   0.002876101470353917
-0.008175763147885578   0.00782514424932066   0.002876101470353917
-0.008175763147885578   0.00782514424932066   0.002876101470353917
0.030549045736859154   -0.010808304373080543   -0.029838961514489108
0.030549045736859154   -0.010808304373080543   -0.029838961514489108
0.030549045736859154   -0.010808304373080543   -0.029838961514489108
0.030549045736859154   -0.010808304373080543   -0.029838961514489108
-0.061118035230592505   0.01309412383471081   0.019242492420016376
-0.061118035230592505   0.01309412383471081   0.019242492420016376
-0.061118035230592505   0.01309412383471081   0.019242492420016376
-0.061118035230592505   0.01309412383471081   0.019242492420016376
-0.08837291168566772   -0.03801019929173298   -0.02280892384397317
-0.08837291168566772   -0.03801019929173298   -0.02280892384397317
-0.08837291168566772   -0.03801019929173298   -0.02280892384397317
-0.08837291168566772   -0.03801019929173298   -0.02280892384397317
0.03154665923448639   0.027760732450199884   0.02861822966105978
0.03154665923448639   0.027760732450199884   0.02861822966105978
0.03154665923448639   0.027760732450199884   0.02861822966105978
0.03154665923448639   0.027760732450199884   0.02861822966105978
-0.022655970452002606   -0.000875458823206712   -0.0038130587931613892
-0.022655970452002606   -0.000875458823206712   -0.0038130587931613892
-0.022655970452002606   -0.000875458823206712   -0.0038130587931613892
-0.022655970452002606   -0.000875458823206712   -0.0038130587931613892
0.011664374635954055   -0.018372874529078657   -0.02465958635232336
0.011664374635954055   -0.018372874529078657   -0.02465958635232336
0.011664374635954055   -0.018372874529078657   -0.02465958635232336
0.011664374635954055   -0.018372874529078657   -0.02465958635232336
-0.07007685857351795   0.006537176201162915   0.024123966223879266
-0.07007685857351795   0.006537176201162915   0.024123966223879266
-0.07007685857351795   0.006537176201162915   0.024123966223879266
-0.07007685857351795   0.006537176201162915   0.024123966223879266
-0.09658764330898312   -0.046867944447177956   -0.018924397146757442
-0.09658764330898312   -0.046867944447177956   -0.018924397146757442
-0.09658764330898312   -0.046867944447177956   -0.018924397146757442
-0.09658764330898312   -0.046867944447177956   -0.018924397146757442
0.005954277766654036   0.011303907687092997   0.03265855379426888
0.005954277766654036   0.011303907687092997   0.03265855379426888
0.005954277766654036   0.011303907687092997   0.03265855379426888
0.005954277766654036   0.011303907687092997   0.03265855379426888
-0.038344346780551174   -0.009608493981885834   -0.011552557766095728
-0.038344346780551174   -0.009608493981885834   -0.011552557766095728
-0.038344346780551174   -0.009608493981885834   -0.011552557766095728
-0.038344346780551174   -0.009608493981885834   -0.011552557766095728
-0.059901217884541905   0.016734179470936486   -0.013187891148122355
-0.059901217884541905   0.016734179470936486   -0.013187891148122355
-0.059901217884541905   0.016734179470936486   -0.013187891148122355
-0.059901217884541905   0.016734179470936486   -0.013187891148122355
-0.1591668644456969   0.006709054648233716   0.004406380924645228
-0.1591668644456969   0.006709054648233716   0.004406380924645228
-0.1591668644456969   0.006709054648233716   0.004406380924645228
-0.1591668644456969   0.006709054648233716   0.004406380924645228
-0.1732199231167214   -0.018764174695537122   -0.014006108029192582
-0.1732199231167214   -0.018764174695537122   -0.014006108029192582
-0.1732199231167214   -0.018764174695537122   -0.014006108029192582
-0.1732199231167214   -0.018764174695537122   -0.014006108029192582
-0.06164302842884582   0.01631602848938035   0.013395621774080303
-0.06164302842884582   0.01631602848938035   0.013395621774080303
-0.06164302842884582   0.01631602848938035   0.013395621774080303
-0.06164302842884582   0.01631602848938035   0.013395621774080303
-0.11326387552644107   0.0049159179731658766   0.0026427551994277453
-0.11326387552644107   0.0049159179731658766   0.0026427551994277453
-0.11326387552644107   0.0049159179731658766   0.0026427551994277453
-0.11326387552644107   0.0049159179731658766   0.0026427551994277453
-0.06922019556694431   0.002668462779042119   -0.01084264820607347
-0.06922019556694431   0.002668462779042119   -0.01084264820607347
-0.06922019556694431   0.002668462779042119   -0.01084264820607347
-0.06922019556694431   0.002668462779042119   -0.01084264820607347
-0.16658446858918366   -0.006058321595759898   0.006465311508716928
-0.16658446858918366   -0.006058321595759898   0.006465311508716928
-0.16658446858918366   -0.006058321595759898   0.006465311508716928
-0.16658446858918366   -0.006058321595759898   0.006465311508716928
-0.1802122601858461   -0.030149952592974445   -0.010361667297072358
-0.1802122601858461   -0.030149952592974445   -0.010361667297072358
-0.1802122601858461   -0.030149952592974445   -0.010361667297072358
-0.1802122601858461   -0.030149952592974445   -0.010361667297072358
-0.07244197768292547   0.0037305564294974405   0.015104990448507107
-0.07244197768292547   0.0037305564294974405   0.015104990448507107
-0.07244197768292547   0.0037305564294974405   0.015104990448507107
-0.07244197768292547   0.0037305564294974405   0.015104990448507107
-0.12209516942235578   -0.006530466910232818   -0.003107863255444941
-0.12209516942235578   -0.006530466910232818   -0.003107863255444941
-0.12209516942235578   -0.006530466910232818   -0.003107863255444941
-0.12209516942235578   -0.006530466910232818   -0.003107863255444941
-0.07975133192389501   -0.009606398622115226   -0.008104825704727373
-0.07975133192389501   -0.009606398622115226   -0.008104825704727373
-0.07975133192389501   -0.009606398622115226   -0.008104825704727373
-0.07975133192389501   -0.009606398622115226   -0.008104825704727373
-0.17391495335099882   -0.017825044947483937   0.008799959231673564
-0.17391495335099882   -0.017825044947483937   0.008799959231673564
-0.17391495335099882   -0.017825044947483937   0.008799959231673564
-0.17391495335099882   -0.017825044947483937   0.008799959231673564
-0.18725064626717822   -0.04183615619564117   -0.007135888482905241
-0.18725064626717822   -0.04183615619564117   -0.007135888482905241
-0.18725064626717822   -0.04183615619564117   -0.007135888482905241
-0.18725064626717822   -0.04183615619564117   -0.007135888482905241
-0.08147829187849565   -0.008984857303458089   0.01873927286195953
-0.08147829187849565   -0.008984857303458089   0.01873927286195953
-0.08147829187849565   -0.008984857303458089   0.01873927286195953
-0.08147829187849565   -0.008984857303458089   0.01873927286195953
-0.13089503649161568   -0.01781460994826705   -0.008946350607923561
-0.13089503649161568   -0.01781460994826705   -0.008946350607923561
-0.13089503649161568   -0.01781460994826705   -0.008946350607923561
-0.13089503649161568   -0.01781460994826705   -0.008946350607923561
-0.15620982770268885   0.027293227745998072   -0.001392608458079033
-0.15620982770268885   0.027293227745998072   -0.001392608458079033
-0.15620982770268885   0.027293227745998072   -0.001392608458079033
-0.15620982770268885   0.027293227745998072   -0.001392608458079033
-0.2650022679315009   -0.009155158214786262   -0.007534926982883753
-0.2650022679315009   -0.009155158214786262   -0.007534926982883753
-0.2650022679315009   -0.009155158214786262   -0.007534926982883753
-0.2650022679315009   -0.009155158214786262   -0.007534926982883753
-0.2678165251019621   -0.006737531926062072   -0.001645513058644344
-0.2678165251019621   -0.006737531926062072   -0.001645513058644344
-0.2678165251019621   -0.006737531926062072   -0.001645513058644344
-0.2678165251019621   -0.006737531926062072   -0.001645513058644344
-0.16589691411017843   0.0017718352049008804   0.002072927103082352
-0.16589691411017843   0.0017718352049008804   0.002072927103082352
-0.16589691411017843   0.0017718352049008804   0.002072927103082352
-0.16589691411017843   0.0017718352049008804   0.002072927103082352
-0.21327960464124757   0.0030767657449159297   0.0009423114270140989
-0.21327960464124757   0.0030767657449159297   0.0009423114270140989
-0.21327960464124757   0.0030767657449159297   0.0009423114270140989
-0.21327960464124757   0.0030767657449159297   0.0009423114270140989
-0.16327717092287478   0.014906780975320458   0.0020366972691809905
-0.16327717092287478   0.014906780975320458   0.0020366972691809905
-0.16327717092287478   0.014906780975320458   0.0020366972691809905
-0.16327717092287478   0.014906780975320458   0.0020366972691809905
-0.2713440288210583   -0.02078023822827424   -0.005240325351913334
-0.2713440288210583   -0.02078023822827424   -0.005240325351913334
-0.2713440288210583   -0.02078023822827424   -0.005240325351913334
-0.2713440288210583   -0.02078023822827424   -0.005240325351913334
-0.2743772824000863   -0.018970395768845412   0.0017432628184525772
-0.2743772824000863   -0.018970395768845412   0.0017432628184525772
-0.2743772824000863   -0.018970395768845412   0.0017432628184525772
-0.2743772824000863   -0.018970395768845412   0.0017432628184525772
-0.17330537043095548   -0.010258305479256817   0.00428113436366318
-0.17330537043095548   -0.010258305479256817   0.00428113436366318
-0.17330537043095548   -0.010258305479256817   0.00428113436366318
-0.17330537043095548   -0.010258305479256817   0.00428113436366318
-0.22038550493968886   -0.008049023075237666   -0.004337995353931496
-0.22038550493968886   -0.008049023075237666   -0.004337995353931496
-0.22038550493968886   -0.008049023075237666   -0.004337995353931496
-0.22038550493968886   -0.008049023075237666   -0.004337995353931496
-0.1706116290761686   0.002443657886596444   0.005047877771744201
-0.1706116290761686   0.002443657886596444   0.005047877771744201
-0.1706116290761686   0.002443657886596444   0.005047877771744201
-0.1706116290761686   0.002443657886596444   0.005047877771744201
-0.27816603433698217   -0.03276736971680833   -0.003403522918067734
-0.27816603433698217   -0.03276736971680833   -0.003403522918067734
-0.27816603433698217   -0.03276736971680833   -0.003403522918067734
-0.27816603433698217   -0.03276736971680833   -0.003403522918067734
-0.28076494796651885   -0.030696951124482633   0.004997720829649048
-0.28076494796651885   -0.030696951124482633   0.004997720829649048
-0.28076494796651885   -0.030696951124482633   0.004997720829649048
-0.28076494796651885   -0.030696951124482633   0.004997720829649048
-0.18042714986533265   -0.02159757632302002   0.006743013653699583
-0.18042714986533265   -0.02159757632302002   0.006743013653699583
-0.18042714986533265   -0.02159757632302002   0.006743013653699583
-0.18042714986533265   -0.02159757632302002   0.006743013653699583
-0.2280318657881401   -0.019239713395046293   -0.010076424635381248
-0.2280318657881401   -0.019239713395046293   -0.010076424635381248
-0.2280318657881401   -0.019239713395046293   -0.010076424635381248
-0.2280318657881401   -0.019239713395046293   -0.010076424635381248
-0.2516309882038902   0.03935601061183739   0.010810302828550125
-0.2516309882038902   0.03935601061183739   0.010810302828550125
-0.2516309882038902   0.03935601061183739   0.010810302828550125
-0.2516309882038902   0.03935601061183739   0.010810302828550125
-0.3667979680213676   -0.015299771916041746   -0.016873399220048796
-0.3667979680213676   -0.015299771916041746   -0.016873399220048796
-0.3667979680213676   -0.015299771916041746   -0.016873399220048796
-0.3667979680213676   -0.015299771916041746   -0.016873399220048796
-0.3619449816130045   0.00560281476462722   0.011095529387448292
-0.3619449816130045   0.00560281476462722   0.011095529387448292
-0.3619449816130045   0.00560281476462722   0.011095529387448292
-0.3619449816130045   0.00560281476462722   0.011095529387448292
-0.2686680054779322   -0.00516950334611993   -0.007470943518436836
-0.2686680054779322   -0.00516950334611993   -0.007470943518436836
-0.2686680054779322   -0.00516950334611993   -0.007470943518436836
-0.2686680054779322   -0.00516950334611993   -0.007470943518436836
-0.31115767872028227   0.006157733691786599   0.0015470310756287159
-0.31115767872028227   0.006157733691786599   0.0015470310756287159
-0.31115767872028227   0.006157733691786599   0.0015470310756287159
-0.31115767872028227   0.006157733691786599   0.0015470310756287159
-0.25788171132169607   0.027045473107269985   0.014245550809353694
-0.25788171132169607   0.027045473107269985   0.014245550809353694
-0.25788171132169607   0.027045473107269985   0.014245550809353694
-0.25788171132169607   0.027045473107269985   0.014245550809353694
-0.3740575234712858   -0.027938409390809174   -0.015925955748529487
-0.3740575234712858   -0.027938409390809174   -0.015925955748529487
-0.3740575234712858   -0.027938409390809174   -0.015925955748529487
-0.3740575234712858   -0.027938409390809174   -0.015925955748529487
-0.37072960646833863   -0.006444527575907508   0.01311737869530281
-0.37072960646833863   -0.006444527575907508   0.01311737869530281
-0.37072960646833863   -0.006444527575907508   0.01311737869530281
-0.37072960646833863   -0.006444527575907508   0.01311737869530281
-0.2751712273310648   -0.01612261683085476   -0.005074240774430732
-0.2751712273310648   -0.01612261683085476   -0.005074240774430732
-0.2751712273310648   -0.01612261683085476   -0.005074240774430732
-0.2751712273310648   -0.01612261683085476   -0.005074240774430732
-0.3171194758332801   -0.0045603872394597705   -0.004176198396904279
-0.3171194758332801   -0.0045603872394597705   -0.004176198396904279
-0.3171194758332801   -0.0045603872394597705   -0.004176198396904279
-0.3171194758332801   -0.0045603872394597705   -0.004176198396904279
-0.2642665012815228   0.015741643542400006   0.017585129100024504
-0.2642665012815228   0.015741643542400006   0.017585129100024504
-0.2642665012815228   0.015741643542400006   0.017585129100024504
-0.2642665012815228   0.015741643542400006   0.017585129100024504
-0.38268164717016523   -0.039356102601448076   -0.013731249788296863
-0.38268164717016523   -0.039356102601448076   -0.013731249788296863
-0.38268164717016523   -0.039356102601448076   -0.013731249788296863
-0.38268164717016523   -0.039356102601448076   -0.013731249788296863
-0.37786819126697097   -0.018595082060339593   0.016724783663708203
-0.37786819126697097   -0.018595082060339593   0.016724783663708203
-0.37786819126697097   -0.018595082060339593   0.016724783663708203
-0.37786819126697097   -0.018595082060339593   0.016724783663708203
-0.2817011123151509   -0.02735248955638117   -0.0030275624816160397
-0.2817011123151509   -0.02735248955638117   -0.0030275624816160397
-0.2817011123151509   -0.02735248955638117   -0.0030275624816160397
-0.2817011123151509   -0.02735248955638117   -0.0030275624816160397
-0.3261129880178291   -0.015516861660031703   -0.010051362092043516
-0.3261129880178291   -0.015516861660031703   -0.010051362092043516
-0.3261129880178291   -0.015516861660031703   -0.010051362092043516
-0.3261129880178291   -0.015516861660031703   -0.010051362092043516
-0.34754911691791407   0.04268078750636349   0.021390296874813437
-0.34754911691791407   0.04268078750636349   0.021390296874813437
-0.34754911691791407   0.04268078750636349   0.021390296874813437
-0.34754911691791407   0.04268078750636349   0.021390296874813437
-0.44852807919340876   -0.02253022797851474   -0.028102532516313238
-0.44852807919340876   -0.02253022797851474   -0.028102532516313238
-0.44852807919340876   -0.02253022797851474   -0.028102532516313238
-0.44852807919340876   -0.02253022797851474   -0.028102532516313238
-0.44891900034565635   0.01684654157088658   0.023581112073062807
-0.44891900034565635   0.01684654157088658   0.023581112073062807
-0.44891900034565635   0.01684654157088658   0.023581112073062807
-0.44891900034565635   0.01684654157088658   0.023581112073062807
-0.3712120582703566   -0.012450646873375465   -0.017186392261313424
-0.3712120582703566   -0.012450646873375465   -0.017186392261313424
-0.3712120582703566   -0.012450646873375465   -0.017186392261313424
-0.3712120582703566   -0.012450646873375465   -0.017186392261313424
-0.38766419651763934   0.010032309152862892   0.007590456163469435
-0.38766419651763934   0.010032309152862892   0.007590456163469435
-0.38766419651763934   0.010032309152862892   0.007590456163469435
-0.38766419651763934   0.010032309152862892   0.007590456163469435
-0.35296452140114387   0.036367786656209516   0.02523285855516498
-0.35296452140114387   0.036367786656209516   0.02523285855516498
-0.35296452140114387   0.036367786656209516   0.02523285855516498
-0.35296452140114387   0.036367786656209516   0.02523285855516498
-0.46854770843231935   -0.03335306317614492   -0.02436282361321323
-0.46854770843231935   -0.03335306317614492   -0.02436282361321323
-0.46854770843231935   -0.03335306317614492   -0.02436282361321323
-0.46854770843231935   -0.03335306317614492   -0.02436282361321323
-0.46489289148491014   0.009967781838578021   0.03036656916072166
-0.46489289148491014   0.009967781838578021   0.03036656916072166
-0.46489289148491014   0.009967781838578021   0.03036656916072166
-0.46489289148491014   0.009967781838578021   0.03036656916072166
-0.3788224561101915   -0.01875011390976991   -0.015041283180102782
-0.3788224561101915   -0.01875011390976991   -0.015041283180102782
-0.3788224561101915   -0.01875011390976991   -0.015041283180102782
-0.3788224561101915   -0.01875011390976991   -0.015041283180102782
-0.4067186549240604   0.0016798852965896477   -0.0003770284804786063
-0.4067186549240604   0.0016798852965896477   -0.0003770284804786063
-0.4067186549240604   0.0016798852965896477   -0.0003770284804786063
-0.4067186549240604   0.0016798852965896477   -0.0003770284804786063
-0.3598239505934117   0.030957068569615553   0.03024406192441089
-0.3598239505934117   0.030957068569615553   0.03024406192441089
-0.3598239505934117   0.030957068569615553   0.03024406192441089
-0.3598239505934117   0.030957068569615553   0.03024406192441089
-0.4852942863549703   -0.041142289994089115   -0.02053033335690458
-0.4852942863549703   -0.041142289994089115   -0.02053033335690458
-0.4852942863549703   -0.041142289994089115   -0.02053033335690458
-0.4852942863549703   -0.041142289994089115   -0.02053033335690458
-0.48845355182986616   -0.008158165682117552   0.03209161390955917
-0.48845355182986616   -0.008158165682117552   0.03209161390955917
-0.48845355182986616   -0.008158165682117552   0.03209161390955917
-0.48845355182986616   -0.008158165682117552   0.03209161390955917
-0.3864669072964657   -0.031872331042367655   -0.01299154750174097
-0.3864669072964657   -0.031872331042367655   -0.01299154750174097
-0.3864669072964657   -0.031872331042367655   -0.01299154750174097
-0.3864669072964657   -0.031872331042367655   -0.01299154750174097
-0.4139726923691552   -0.00661475822891576   -0.006011965510498676
-0.4139726923691552   -0.00661475822891576   -0.006011965510498676
-0.4139726923691552   -0.00661475822891576   -0.006011965510498676
-0.4139726923691552   -0.00661475822891576   -0.006011965510498676
-0.18411531678283663   -0.011964422572144875   -0.035495303117274286
-0.18411531678283663   -0.011964422572144875   -0.035495303117274286
-0.18411531678283663   -0.011964422572144875   -0.035495303117274286
-0.18411531678283663   -0.011964422572144875   -0.035495303117274286
-0.18448940534154343   0.027034627207318834   0.015931370307285985
-0.18448940534154343   0.027034627207318834   0.015931370307285985
-0.18448940534154343   0.027034627207318834   0.015931370307285985
-0.18448940534154343   0.027034627207318834   0.015931370307285985
-0.20796911079052374   -0.02494911441719269   -0.02412262327956989
-0.20796911079052374   -0.02494911441719269   -0.02412262327956989
-0.20796911079052374   -0.02494911441719269   -0.02412262327956989
-0.20796911079052374   -0.02494911441719269   -0.02412262327956989
-0.18808523999354093   0.01453304118960648   0.02383927935765488
-0.18808523999354093   0.01453304118960648   0.02383927935765488
-0.18808523999354093   0.01453304118960648   0.02383927935765488
-0.18808523999354093   0.01453304118960648   0.02383927935765488
-0.18155767146433419   0.004651251173151724   0.016255848617760683
-0.18155767146433419   0.004651251173151724   0.016255848617760683
-0.18155767146433419   0.004651251173151724   0.016255848617760683
-0.18155767146433419   0.004651251173151724   0.016255848617760683
-0.2068924535252847   -0.025868339775435192   -0.029795407336021436
-0.2068924535252847   -0.025868339775435192   -0.029795407336021436
-0.2068924535252847   -0.025868339775435192   -0.029795407336021436
-0.2068924535252847   -0.025868339775435192   -0.029795407336021436
-0.19147365722996418   0.013140506576664934   0.020265023529370405
-0.19147365722996418   0.013140506576664934   0.020265023529370405
-0.19147365722996418   0.013140506576664934   0.020265023529370405
-0.19147365722996418   0.013140506576664934   0.020265023529370405
-0.21510008208829115   -0.03138209384402154   -0.020449160487269823
-0.21510008208829115   -0.03138209384402154   -0.020449160487269823
-0.21510008208829115   -0.03138209384402154   -0.020449160487269823
-0.21510008208829115   -0.03138209384402154   -0.020449160487269823
-0.20629578293500023   0.005800394563997974   0.04442731082348324
-0.20629578293500023   0.005800394563997974   0.04442731082348324
-0.20629578293500023   0.005800394563997974   0.04442731082348324
-0.20629578293500023   0.005800394563997974   0.04442731082348324
-0.198277418198211   -0.006390523580271618   0.006542376372169551
-0.198277418198211   -0.006390523580271618   0.006542376372169551
-0.198277418198211   -0.006390523580271618   0.006542376372169551
-0.198277418198211   -0.006390523580271618   0.006542376372169551
-0.22789739574316034   -0.03450649684017076   -0.02327386181314669
-0.22789739574316034   -0.03450649684017076   -0.02327386181314669
-0.22789739574316034   -0.03450649684017076   -0.02327386181314669
-0.22789739574316034   -0.03450649684017076   -0.02327386181314669
-0.19900536151546322   0.0034179053248153263   0.025224443208032955
-0.19900536151546322   0.0034179053248153263   0.025224443208032955
-0.19900536151546322   0.0034179053248153263   0.025224443208032955
-0.19900536151546322   0.0034179053248153263   0.025224443208032955
-0.2209516424746786   -0.04383403362431389   -0.016125232521448225
-0.2209516424746786   -0.04383403362431389   -0.016125232521448225
-0.2209516424746786   -0.04383403362431389   -0.016125232521448225
-0.2209516424746786   -0.04383403362431389   -0.016125232521448225
-0.2345708690334432   -0.02305983887226562   0.04155860489613929
-0.2345708690334432   -0.02305983887226562   0.04155860489613929
-0.2345708690334432   -0.02305983887226562   0.04155860489613929
-0.2345708690334432   -0.02305983887226562   0.04155860489613929
-0.21290585874382237   -0.01943039112095628   -0.008903691268686946
-0.21290585874382237   -0.01943039112095628   -0.008903691268686946
-0.21290585874382237   -0.01943039112095628   -0.008903691268686946
-0.21290585874382237   -0.01943039112095628   -0.008903691268686946
-0.1978356239620664   -0.005549160464642926   -0.018215935123368464
-0.1978356239620664   -0.005549160464642926   -0.018215935123368464
-0.1978356239620664   -0.005549160464642926   -0.018215935123368464
-0.1978356239620664   -0.005549160464642926   -0.018215935123368464
-0.2022070917988954   -0.024912357190082494   -0.0010705548404334256
-0.2022070917988954   -0.024912357190082494   -0.0010705548404334256
-0.2022070917988954   -0.024912357190082494   -0.0010705548404334256
-0.2022070917988954   -0.024912357190082494   -0.0010705548404334256
-0.20379968435515838   -0.016632110258410333   -0.009188416038575882
-0.20379968435515838   -0.016632110258410333   -0.009188416038575882
-0.20379968435515838   -0.016632110258410333   -0.009188416038575882
-0.20379968435515838   -0.016632110258410333   -0.009188416038575882
-0.2049194792785723   -0.03355167517951809   -0.00027190495748716974
-0.2049194792785723   -0.03355167517951809   -0.00027190495748716974
-0.2049194792785723   -0.03355167517951809   -0.00027190495748716974
-0.2049194792785723   -0.03355167517951809   -0.00027190495748716974
-0.20047760671837472   -0.021040268337370254   -0.0006125297036662257
-0.20047760671837472   -0.021040268337370254   -0.0006125297036662257
-0.20047760671837472   -0.021040268337370254   -0.0006125297036662257
-0.20047760671837472   -0.021040268337370254   -0.0006125297036662257
-0.20494618569032175   -0.018179291464067937   -0.01577782073168518
-0.20494618569032175   -0.018179291464067937   -0.01577782073168518
-0.20494618569032175   -0.018179291464067937   -0.01577782073168518
-0.20494618569032175   -0.018179291464067937   -0.01577782073168518
-0.20507171863552764   -0.033303234665981854   0.0011225369671493675
-0.20507171863552764   -0.033303234665981854   0.0011225369671493675
-0.20507171863552764   -0.033303234665981854   0.0011225369671493675
-0.20507171863552764   -0.033303234665981854   0.0011225369671493675
-0.2073222271705818   -0.027458965349393093   -0.005962368958289237
-0.2073222271705818   -0.027458965349393093   -0.005962368958289237
-0.2073222271705818   -0.027458965349393093   -0.005962368958289237
-0.2073222271705818   -0.027458965349393093   -0.005962368958289237
-0.21250973452371014   -0.04359101938639535   0.004711502878009156
-0.21250973452371014   -0.04359101938639535   0.004711502878009156
-0.21250973452371014   -0.04359101938639535   0.004711502878009156
-0.21250973452371014   -0.04359101938639535   0.004711502878009156
-0.20521768949513947   -0.029805233222876606   -0.0056512724819329195
-0.20521768949513947   -0.029805233222876606   -0.0056512724819329195
-0.20521768949513947   -0.029805233222876606   -0.0056512724819329195
-0.20521768949513947   -0.029805233222876606   -0.0056512724819329195
-0.2130292967537214   -0.029752809171707195   -0.011724518486735464
-0.2130292967537214   -0.029752809171707195   -0.011724518486735464
-0.2130292967537214   -0.029752809171707195   -0.011724518486735464
-0.2130292967537214   -0.029752809171707195   -0.011724518486735464
-0.20846204333831778   -0.04295655396182629   0.003836138815462129
-0.20846204333831778   -0.04295655396182629   0.003836138815462129
-0.20846204333831778   -0.04295655396182629   0.003836138815462129
-0.20846204333831778   -0.04295655396182629   0.003836138815462129
-0.21049930067667516   -0.03909093112945717   -0.0027700874698563505
-0.21049930067667516   -0.03909093112945717   -0.0027700874698563505
-0.21049930067667516   -0.03909093112945717   -0.0027700874698563505
-0.21049930067667516   -0.03909093112945717   -0.0027700874698563505
-0.218333748035918   -0.05628748232578237   0.00941768837382246
-0.218333748035918   -0.05628748232578237   0.00941768837382246
-0.218333748035918   -0.05628748232578237   0.00941768837382246
-0.218333748035918   -0.05628748232578237   0.00941768837382246
-0.21167998197082313   -0.04034298337646339   -0.012038162123734163
-0.21167998197082313   -0.04034298337646339   -0.012038162123734163
-0.21167998197082313   -0.04034298337646339   -0.012038162123734163
-0.21167998197082313   -0.04034298337646339   -0.012038162123734163
-0.19660883719970648   0.005360154601029905   -0.003351793635597353
-0.19660883719970648   0.005360154601029905   -0.003351793635597353
-0.19660883719970648   0.005360154601029905   -0.003351793635597353
-0.19660883719970648   0.005360154601029905   -0.003351793635597353
-0.22386590205703788   -0.042518623985836064   -0.010767645929068403
-0.22386590205703788   -0.042518623985836064   -0.010767645929068403
-0.22386590205703788   -0.042518623985836064   -0.010767645929068403
-0.22386590205703788   -0.042518623985836064   -0.010767645929068403
-0.21483560081809766   -0.007879791604946472   0.0027534797617648505
-0.21483560081809766   -0.007879791604946472   0.0027534797617648505
-0.21483560081809766   -0.007879791604946472   0.0027534797617648505
-0.21483560081809766   -0.007879791604946472   0.0027534797617648505
-0.20908903630446998   -0.04566901145001037   -0.006598274593533895
-0.20908903630446998   -0.04566901145001037   -0.006598274593533895
-0.20908903630446998   -0.04566901145001037   -0.006598274593533895
-0.20908903630446998   -0.04566901145001037   -0.006598274593533895
-0.21095135363995762   -0.02339921282186751   -0.004713629053472818
-0.21095135363995762   -0.02339921282186751   -0.004713629053472818
-0.21095135363995762   -0.02339921282186751   -0.004713629053472818
-0.21095135363995762   -0.02339921282186751   -0.004713629053472818
-0.19972550395306077   -0.005415327534659731   -3.429675183835683e-05
-0.19972550395306077   -0.005415327534659731   -3.429675183835683e-05
-0.19972550395306077   -0.005415327534659731   -3.429675183835683e-05
-0.19972550395306077   -0.005415327534659731   -3.429675183835683e-05
-0.2253806022437242   -0.04931494459451443   -0.00853637437679995
-0.2253806022437242   -0.04931494459451443   -0.00853637437679995
-0.2253806022437242   -0.04931494459451443   -0.00853637437679995
-0.2253806022437242   -0.04931494459451443   -0.00853637437679995
-0.21739679789331884   -0.018741441821459547   0.005956880114997507
-0.21739679789331884   -0.018741441821459547   0.005956880114997507
-0.21739679789331884   -0.018741441821459547   0.005956880114997507
-0.21739679789331884   -0.018741441821459547   0.005956880114997507
-0.21238700981138414   -0.054221144314056974   -0.004524103197637004
-0.21238700981138414   -0.054221144314056974   -0.004524103197637004
-0.21238700981138414   -0.054221144314056974   -0.004524103197637004
-0.21238700981138414   -0.054221144314056974   -0.004524103197637004
-0.21366073692567913   -0.03166403336830073   -0.009035114153494964
-0.21366073692567913   -0.03166403336830073   -0.009035114153494964
-0.21366073692567913   -0.03166403336830073   -0.009035114153494964
-0.21366073692567913   -0.03166403336830073   -0.009035114153494964
-0.20329370572516928   -0.016473287355796812   0.0031945602751769966
-0.20329370572516928   -0.016473287355796812   0.0031945602751769966
-0.20329370572516928   -0.016473287355796812   0.0031945602751769966
-0.20329370572516928   -0.016473287355796812   0.0031945602751769966
-0.22781002638227432   -0.057809223182461664   -0.007041480968777897
-0.22781002638227432   -0.057809223182461664   -0.007041480968777897
-0.22781002638227432   -0.057809223182461664   -0.007041480968777897
-0.22781002638227432   -0.057809223182461664   -0.007041480968777897
-0.2195001983298805   -0.028941838647215223   0.009094750497271414
-0.2195001983298805   -0.028941838647215223   0.009094750497271414
-0.2195001983298805   -0.028941838647215223   0.009094750497271414
-0.2195001983298805   -0.028941838647215223   0.009094750497271414
-0.214874320070334   -0.06240092485752654   -0.001335190710081138
-0.214874320070334   -0.06240092485752654   -0.001335190710081138
-0.214874320070334   -0.06240092485752654   -0.001335190710081138
-0.214874320070334   -0.06240092485752654   -0.001335190710081138
-0.21687590395701167   -0.04030292032925129   -0.013781788876884075
-0.21687590395701167   -0.04030292032925129   -0.013781788876884075
-0.21687590395701167   -0.04030292032925129   -0.013781788876884075
-0.21687590395701167   -0.04030292032925129   -0.013781788876884075
-0.20669542569933688   0.0221738656392452   0.010392246234355244
-0.20669542569933688   0.0221738656392452   0.010392246234355244
-0.20669542569933688   0.0221738656392452   0.010392246234355244
-0.20669542569933688   0.0221738656392452   0.010392246234355244
-0.245544104452649   -0.03188757066787018   -0.015060636433759562
-0.245544104452649   -0.03188757066787018   -0.015060636433759562
-0.245544104452649   -0.03188757066787018   -0.015060636433759562
-0.245544104452649   -0.03188757066787018   -0.015060636433759562
-0.23247206852584443   0.006431478917119544   0.014338030845688092
-0.23247206852584443   0.006431478917119544   0.014338030845688092
-0.23247206852584443   0.006431478917119544   0.014338030845688092
-0.23247206852584443   0.006431478917119544   0.014338030845688092
-0.22268149334124035   -0.03527394589179441   -0.009081828567100667
-0.22268149334124035   -0.03527394589179441   -0.009081828567100667
-0.22268149334124035   -0.03527394589179441   -0.009081828567100667
-0.22268149334124035   -0.03527394589179441   -0.009081828567100667
-0.22680829773716654   -0.009406338887640031   -0.002813569796136263
-0.22680829773716654   -0.009406338887640031   -0.002813569796136263
-0.22680829773716654   -0.009406338887640031   -0.002813569796136263
-0.22680829773716654   -0.009406338887640031   -0.002813569796136263
-0.20888848313520508   0.011002037616974263   0.013607238954307016
-0.20888848313520508   0.011002037616974263   0.013607238954307016
-0.20888848313520508   0.011002037616974263   0.013607238954307016
-0.20888848313520508   0.011002037616974263   0.013607238954307016
-0.24783700257629693   -0.04141642843606382   -0.014638732053391142
-0.24783700257629693   -0.04141642843606382   -0.014638732053391142
-0.24783700257629693   -0.04141642843606382   -0.014638732053391142
-0.24783700257629693   -0.04141642843606382   -0.014638732053391142
-0.23684416354990542   -0.0041890378093313585   0.016266590552042246
-0.23684416354990542   -0.0041890378093313585   0.016266590552042246
-0.23684416354990542   -0.0041890378093313585   0.016266590552042246
-0.23684416354990542   -0.0041890378093313585   0.016266590552042246
-0.22492321819610012   -0.043195628809996785   -0.007221034410371643
-0.22492321819610012   -0.043195628809996785   -0.007221034410371643
-0.22492321819610012   -0.043195628809996785   -0.007221034410371643
-0.22492321819610012   -0.043195628809996785   -0.007221034410371643
-0.22905065502951555   -0.018373732903590595   -0.007884982977748718
-0.22905065502951555   -0.018373732903590595   -0.007884982977748718
-0.22905065502951555   -0.018373732903590595   -0.007884982977748718
-0.22905065502951555   -0.018373732903590595   -0.007884982977748718
-0.21129164097921332   0.001013660972678354   0.016727561891383375
-0.21129164097921332   0.001013660972678354   0.016727561891383375
-0.21129164097921332   0.001013660972678354   0.016727561891383375
-0.21129164097921332   0.001013660972678354   0.016727561891383375
-0.25183724946277597   -0.04975983628798831   -0.013128040533653415
-0.25183724946277597   -0.04975983628798831   -0.013128040533653415
-0.25183724946277597   -0.04975983628798831   -0.013128040533653415
-0.25183724946277597   -0.04975983628798831   -0.013128040533653415
-0.23976141683979116   -0.01438982771392968   0.019846051255281726
-0.23976141683979116   -0.01438982771392968   0.019846051255281726
-0.23976141683979116   -0.01438982771392968   0.019846051255281726
-0.23976141683979116   -0.01438982771392968   0.019846051255281726
-0.22686682747954337   -0.05115769778876904   -0.005522536109493133
-0.22686682747954337   -0.05115769778876904   -0.005522536109493133
-0.22686682747954337   -0.05115769778876904   -0.005522536109493133
-0.22686682747954337   -0.05115769778876904   -0.005522536109493133
-0.23293137545015313   -0.02684574460747369   -0.012806245055426522
-0.23293137545015313   -0.02684574460747369   -0.012806245055426522
-0.23293137545015313   -0.02684574460747369   -0.012806245055426522
-0.23293137545015313   -0.02684574460747369   -0.012806245055426522
-0.22563216916622947   0.03182646199689708   0.02078500733356659
-0.22563216916622947   0.03182646199689708   0.02078500733356659
-0.22563216916622947   0.03182646199689708   0.02078500733356659
-0.22563216916622947   0.03182646199689708   0.02078500733356659
-0.24265382531855886   -0.019396634775141475   -0.021776513838938555
-0.24265382531855886   -0.019396634775141475   -0.021776513838938555
-0.24265382531855886   -0.019396634775141475   -0.021776513838938555
-0.24265382531855886   -0.019396634775141475   -0.021776513838938555
-0.2373831736865003   0.02237386180397158   0.02310726654156553
-0.2373831736865003   0.02237386180397158   0.02310726654156553
-0.2373831736865003   0.02237386180397158   0.02310726654156553
-0.2373831736865003   0.02237386180397158   0.02310726654156553
-0.2441903780432667   -0.024508050671665574   -0.01331398715264219
-0.2441903780432667   -0.024508050671665574   -0.01331398715264219
-0.2441903780432667   -0.024508050671665574   -0.01331398715264219
-0.2441903780432667   -0.024508050671665574   -0.01331398715264219
-0.2293407411658473   0.0056002196751140446   0.0010090345253484078
-0.2293407411658473   0.0056002196751140446   0.0010090345253484078
-0.2293407411658473   0.0056002196751140446   0.0010090345253484078
-0.2293407411658473   0.0056002196751140446   0.0010090345253484078
-0.22688933551576848   0.024656509243703204   0.024026665569476448
-0.22688933551576848   0.024656509243703204   0.024026665569476448
-0.22688933551576848   0.024656509243703204   0.024026665569476448
-0.22688933551576848   0.024656509243703204   0.024026665569476448
-0.2559721259681693   -0.028078607865564764   -0.019385025197235527
-0.2559721259681693   -0.028078607865564764   -0.019385025197235527
-0.2559721259681693   -0.028078607865564764   -0.019385025197235527
-0.2559721259681693   -0.028078607865564764   -0.019385025197235527
-0.24783365939177038   0.016402106079124942   0.02973102004595035
-0.24783365939177038   0.016402106079124942   0.02973102004595035
-0.24783365939177038   0.016402106079124942   0.02973102004595035
-0.24783365939177038   0.016402106079124942   0.02973102004595035
-0.2475214995547459   -0.029180651266355936   -0.012128476015139358
-0.2475214995547459   -0.029180651266355936   -0.012128476015139358
-0.2475214995547459   -0.029180651266355936   -0.012128476015139358
-0.2475214995547459   -0.029180651266355936   -0.012128476015139358
-0.24061475220613845   -0.001624760081437096   -0.005009001191527425
-0.24061475220613845   -0.001624760081437096   -0.005009001191527425
-0.24061475220613845   -0.001624760081437096   -0.005009001191527425
-0.24061475220613845   -0.001624760081437096   -0.005009001191527425
-0.2295388228554099   0.019863100516867342   0.028741155698317276
-0.2295388228554099   0.019863100516867342   0.028741155698317276
-0.2295388228554099   0.019863100516867342   0.028741155698317276
-0.2295388228554099   0.019863100516867342   0.028741155698317276
-0.2674857195013402   -0.034311029114333494   -0.017816145308432858
-0.2674857195013402   -0.034311029114333494   -0.017816145308432858
-0.2674857195013402   -0.034311029114333494   -0.017816145308432858
-0.2674857195013402   -0.034311029114333494   -0.017816145308432858
-0.26614187501909103   0.0011424023909096595   0.03175708738727093
-0.26614187501909103   0.0011424023909096595   0.03175708738727093
-0.26614187501909103   0.0011424023909096595   0.03175708738727093
-0.26614187501909103   0.0011424023909096595   0.03175708738727093
-0.25057136317875994   -0.03805884344519943   -0.010534664708292438
-0.25057136317875994   -0.03805884344519943   -0.010534664708292438
-0.25057136317875994   -0.03805884344519943   -0.010534664708292438
-0.25057136317875994   -0.03805884344519943   -0.010534664708292438
-0.24595262305063142   -0.008292482635290005   -0.010415010009613077
-0.24595262305063142   -0.008292482635290005   -0.010415010009613077
-0.24595262305063142   -0.008292482635290005   -0.010415010009613077
-0.24595262305063142   -0.008292482635290005   -0.010415010009613077
-0.4763752624664848   -0.04361863016051844   -0.04544905940695895
-0.4763752624664848   -0.04361863016051844   -0.04544905940695895
-0.4763752624664848   -0.04361863016051844   -0.04544905940695895
-0.4763752624664848   -0.04361863016051844   -0.04544905940695895
-0.3032781300418508   0.025480844859432084   0.010680221952433427
-0.3032781300418508   0.025480844859432084   0.010680221952433427
-0.3032781300418508   0.025480844859432084   0.010680221952433427
-0.3032781300418508   0.025480844859432084   0.010680221952433427
-0.3185830792575531   -0.020409625539794668   -0.02037621502533864
-0.3185830792575531   -0.020409625539794668   -0.02037621502533864
-0.3185830792575531   -0.020409625539794668   -0.02037621502533864
-0.3185830792575531   -0.020409625539794668   -0.02037621502533864
-0.5070221198929542   -0.05768901917332769   0.05069114170506545
-0.5070221198929542   -0.05768901917332769   0.05069114170506545
-0.5070221198929542   -0.05768901917332769   0.05069114170506545
-0.5070221198929542   -0.05768901917332769   0.05069114170506545
-0.36880062981341516   -0.014230489198173192   0.04928611411882945
-0.36880062981341516   -0.014230489198173192   0.04928611411882945
-0.36880062981341516   -0.014230489198173192   0.04928611411882945
-0.36880062981341516   -0.014230489198173192   0.04928611411882945
-0.5251615432729841   -0.0643242285095789   -0.033370765858828796
-0.5251615432729841   -0.0643242285095789   -0.033370765858828796
-0.5251615432729841   -0.0643242285095789   -0.033370765858828796
-0.5251615432729841   -0.0643242285095789   -0.033370765858828796
-0.31321656939194137   -0.02654732971796093   0.012594038480886338
-0.31321656939194137   -0.02654732971796093   0.012594038480886338
-0.31321656939194137   -0.02654732971796093   0.012594038480886338
-0.31321656939194137   -0.02654732971796093   0.012594038480886338
-0.323662746604994   -0.02949858277801158   -0.014700612216570774
-0.323662746604994   -0.02949858277801158   -0.014700612216570774
-0.323662746604994   -0.02949858277801158   -0.014700612216570774
-0.323662746604994   -0.02949858277801158   -0.014700612216570774
-0.5234355887819362   -0.08053294820361351   0.0011015576230740069
-0.5234355887819362   -0.08053294820361351   0.0011015576230740069
-0.5234355887819362   -0.08053294820361351   0.0011015576230740069
-0.5234355887819362   -0.08053294820361351   0.0011015576230740069
-0.40871182232342246   -0.04858790425865915   0.011441148278779588
-0.40871182232342246   -0.04858790425865915   0.011441148278779588
-0.40871182232342246   -0.04858790425865915   0.011441148278779588
-0.40871182232342246   -0.04858790425865915   0.011441148278779588
-0.5274828908888152   -0.0727133911787063   -0.026954509936223194
-0.5274828908888152   -0.0727133911787063   -0.026954509936223194
-0.5274828908888152   -0.0727133911787063   -0.026954509936223194
-0.5274828908888152   -0.0727133911787063   -0.026954509936223194
-0.3234658443796775   -0.04116853968448087   -0.0020461441835214807
-0.3234658443796775   -0.04116853968448087   -0.0020461441835214807
-0.3234658443796775   -0.04116853968448087   -0.0020461441835214807
-0.3234658443796775   -0.04116853968448087   -0.0020461441835214807
-0.32405677337334576   -0.05141940079705759   -0.010753300387918042
-0.32405677337334576   -0.05141940079705759   -0.010753300387918042
-0.32405677337334576   -0.05141940079705759   -0.010753300387918042
-0.32405677337334576   -0.05141940079705759   -0.010753300387918042
-0.5362995433719437   -0.1228612456122966   0.007845135774884219
-0.5362995433719437   -0.1228612456122966   0.007845135774884219
-0.5362995433719437   -0.1228612456122966   0.007845135774884219
-0.5362995433719437   -0.1228612456122966   0.007845135774884219
-0.408486880982836   -0.06674538778475464   0.0009239200548661324
-0.408486880982836   -0.06674538778475464   0.0009239200548661324
-0.408486880982836   -0.06674538778475464   0.0009239200548661324
-0.408486880982836   -0.06674538778475464   0.0009239200548661324
-0.3274655209847177   -0.05558759136637789   -0.029188296536088107
-0.3274655209847177   -0.05558759136637789   -0.029188296536088107
-0.3274655209847177   -0.05558759136637789   -0.029188296536088107
-0.3274655209847177   -0.05558759136637789   -0.029188296536088107
-0.2258709328225653   -0.14698414778771238   -0.027508809811645964
-0.2258709328225653   -0.14698414778771238   -0.027508809811645964
-0.2258709328225653   -0.14698414778771238   -0.027508809811645964
-0.2258709328225653   -0.14698414778771238   -0.027508809811645964
-0.19833800692091938   -0.032545680210265014   -0.0018234024688746982
-0.19833800692091938   -0.032545680210265014   -0.0018234024688746982
-0.19833800692091938   -0.032545680210265014   -0.0018234024688746982
-0.19833800692091938   -0.032545680210265014   -0.0018234024688746982
-0.34846756370416065   -0.15562869087188008   -0.03457957192629098
-0.34846756370416065   -0.15562869087188008   -0.03457957192629098
-0.34846756370416065   -0.15562869087188008   -0.03457957192629098
-0.34846756370416065   -0.15562869087188008   -0.03457957192629098
-0.2718660168733319   -0.1036204202712196   -0.007951275681223372
-0.2718660168733319   -0.1036204202712196   -0.007951275681223372
-0.2718660168733319   -0.1036204202712196   -0.007951275681223372
-0.2718660168733319   -0.1036204202712196   -0.007951275681223372
-0.327301497013995   -0.06237440300381139   -0.022003526343530935
-0.327301497013995   -0.06237440300381139   -0.022003526343530935
-0.327301497013995   -0.06237440300381139   -0.022003526343530935
-0.327301497013995   -0.06237440300381139   -0.022003526343530935
-0.22082625774911016   -0.12712215221635909   -0.0196881846037365
-0.22082625774911016   -0.12712215221635909   -0.0196881846037365
-0.22082625774911016   -0.12712215221635909   -0.0196881846037365
-0.22082625774911016   -0.12712215221635909   -0.0196881846037365
-0.20074957974982338   -0.04213725694971097   0.0002201602875443443
-0.20074957974982338   -0.04213725694971097   0.0002201602875443443
-0.20074957974982338   -0.04213725694971097   0.0002201602875443443
-0.20074957974982338   -0.04213725694971097   0.0002201602875443443
-0.34986180230540254   -0.15480744278201156   -0.020387030714616016
-0.34986180230540254   -0.15480744278201156   -0.020387030714616016
-0.34986180230540254   -0.15480744278201156   -0.020387030714616016
-0.34986180230540254   -0.15480744278201156   -0.020387030714616016
-0.2689527041766327   -0.09712538788823563   -0.008449538113732606
-0.2689527041766327   -0.09712538788823563   -0.008449538113732606
-0.2689527041766327   -0.09712538788823563   -0.008449538113732606
-0.2689527041766327   -0.09712538788823563   -0.008449538113732606
-0.332494741398723   -0.07183512927470433   -0.01652403968852283
-0.332494741398723   -0.07183512927470433   -0.01652403968852283
-0.332494741398723   -0.07183512927470433   -0.01652403968852283
-0.332494741398723   -0.07183512927470433   -0.01652403968852283
-0.22087009948560593   -0.12786302928612076   -0.014656666054958589
-0.22087009948560593   -0.12786302928612076   -0.014656666054958589
-0.22087009948560593   -0.12786302928612076   -0.014656666054958589
-0.22087009948560593   -0.12786302928612076   -0.014656666054958589
-0.20084930234838944   -0.054045970106123484   0.003140803784588385
-0.20084930234838944   -0.054045970106123484   0.003140803784588385
-0.20084930234838944   -0.054045970106123484   0.003140803784588385
-0.20084930234838944   -0.054045970106123484   0.003140803784588385
-0.3491525667737564   -0.15725157288465963   -0.030400095302373017
-0.3491525667737564   -0.15725157288465963   -0.030400095302373017
-0.3491525667737564   -0.15725157288465963   -0.030400095302373017
-0.3491525667737564   -0.15725157288465963   -0.030400095302373017
-0.2731803471393439   -0.10443599040234888   -0.01571341310148184
-0.2731803471393439   -0.10443599040234888   -0.01571341310148184
-0.2731803471393439   -0.10443599040234888   -0.01571341310148184
-0.2731803471393439   -0.10443599040234888   -0.01571341310148184
-0.19864665128945153   -0.03582962886105123   -0.002541921072738271
-0.19864665128945153   -0.03582962886105123   -0.002541921072738271
-0.19864665128945153   -0.03582962886105123   -0.002541921072738271
-0.19864665128945153   -0.03582962886105123   -0.002541921072738271
-0.16749250178730316   -0.11264006855036524   -0.01944255909115072
-0.16749250178730316   -0.11264006855036524   -0.01944255909115072
-0.16749250178730316   -0.11264006855036524   -0.01944255909115072
-0.16749250178730316   -0.11264006855036524   -0.01944255909115072
-0.1443831549098476   -0.02987672353424142   0.00765728359068848
-0.1443831549098476   -0.02987672353424142   0.00765728359068848
-0.1443831549098476   -0.02987672353424142   0.00765728359068848
-0.1443831549098476   -0.02987672353424142   0.00765728359068848
-0.22019516121588514   -0.1222316901843357   -0.021423163969634732
-0.22019516121588514   -0.1222316901843357   -0.021423163969634732
-0.22019516121588514   -0.1222316901843357   -0.021423163969634732
-0.22019516121588514   -0.1222316901843357   -0.021423163969634732
-0.18188621803546315   -0.07616426548525362   -0.00895444573258104
-0.18188621803546315   -0.07616426548525362   -0.00895444573258104
-0.18188621803546315   -0.07616426548525362   -0.00895444573258104
-0.18188621803546315   -0.07616426548525362   -0.00895444573258104
-0.19988632866203404   -0.04244246106646617   0.00033176968175117384
-0.19988632866203404   -0.04244246106646617   0.00033176968175117384
-0.19988632866203404   -0.04244246106646617   0.00033176968175117384
-0.19988632866203404   -0.04244246106646617   0.00033176968175117384
-0.16587019900058128   -0.11084416418899289   -0.01881049620822448
-0.16587019900058128   -0.11084416418899289   -0.01881049620822448
-0.16587019900058128   -0.11084416418899289   -0.01881049620822448
-0.16587019900058128   -0.11084416418899289   -0.01881049620822448
-0.1445722001481374   -0.037766357030870994   0.0099350235550462
-0.1445722001481374   -0.037766357030870994   0.0099350235550462
-0.1445722001481374   -0.037766357030870994   0.0099350235550462
-0.1445722001481374   -0.037766357030870994   0.0099350235550462
-0.22102692205740868   -0.12416660098164053   -0.019137207218452537
-0.22102692205740868   -0.12416660098164053   -0.019137207218452537
-0.22102692205740868   -0.12416660098164053   -0.019137207218452537
-0.22102692205740868   -0.12416660098164053   -0.019137207218452537
-0.18167908135174976   -0.07911280074006743   -0.011623506213188282
-0.18167908135174976   -0.07911280074006743   -0.011623506213188282
-0.18167908135174976   -0.07911280074006743   -0.011623506213188282
-0.18167908135174976   -0.07911280074006743   -0.011623506213188282
-0.20171769586286678   -0.05044499694191776   0.0036873197145340696
-0.20171769586286678   -0.05044499694191776   0.0036873197145340696
-0.20171769586286678   -0.05044499694191776   0.0036873197145340696
-0.20171769586286678   -0.05044499694191776   0.0036873197145340696
-0.16453150303649383   -0.1121380377644064   -0.01548981015319665
-0.16453150303649383   -0.1121380377644064   -0.01548981015319665
-0.16453150303649383   -0.1121380377644064   -0.01548981015319665
-0.16453150303649383   -0.1121380377644064   -0.01548981015319665
-0.1430258836096171   -0.045279959353040924   0.012421200351637698
-0.1430258836096171   -0.045279959353040924   0.012421200351637698
-0.1430258836096171   -0.045279959353040924   0.012421200351637698
-0.1430258836096171   -0.045279959353040924   0.012421200351637698
-0.21856092970229837   -0.12570089737500556   -0.013762405716074101
-0.21856092970229837   -0.12570089737500556   -0.013762405716074101
-0.21856092970229837   -0.12570089737500556   -0.013762405716074101
-0.21856092970229837   -0.12570089737500556   -0.013762405716074101
-0.1812893268924699   -0.08302118030543604   -0.013497369283271454
-0.1812893268924699   -0.08302118030543604   -0.013497369283271454
-0.1812893268924699   -0.08302118030543604   -0.013497369283271454
-0.1812893268924699   -0.08302118030543604   -0.013497369283271454
-0.13932257451307747   -0.004898113039401859   0.01366512176901052
-0.13932257451307747   -0.004898113039401859   0.01366512176901052
-0.13932257451307747   -0.004898113039401859   0.01366512176901052
-0.13932257451307747   -0.004898113039401859   0.01366512176901052
-0.1326058629093676   -0.059802192775398014   -0.011718839791916054
-0.1326058629093676   -0.059802192775398014   -0.011718839791916054
-0.1326058629093676   -0.059802192775398014   -0.011718839791916054
-0.1326058629093676   -0.059802192775398014   -0.011718839791916054
-0.11447449611921973   -0.00865627172986469   0.015799545020527293
-0.11447449611921973   -0.00865627172986469   0.015799545020527293
-0.11447449611921973   -0.00865627172986469   0.015799545020527293
-0.11447449611921973   -0.00865627172986469   0.015799545020527293
-0.15537040860256712   -0.06888798471918328   -0.008267723687967294
-0.15537040860256712   -0.06888798471918328   -0.008267723687967294
-0.15537040860256712   -0.06888798471918328   -0.008267723687967294
-0.15537040860256712   -0.06888798471918328   -0.008267723687967294
-0.13588841516133787   -0.035218283084036246   -0.00486639883417701
-0.13588841516133787   -0.035218283084036246   -0.00486639883417701
-0.13588841516133787   -0.035218283084036246   -0.00486639883417701
-0.13588841516133787   -0.035218283084036246   -0.00486639883417701
-0.13952100394550734   -0.013672682769665014   0.015763997647813305
-0.13952100394550734   -0.013672682769665014   0.015763997647813305
-0.13952100394550734   -0.013672682769665014   0.015763997647813305
-0.13952100394550734   -0.013672682769665014   0.015763997647813305
-0.13158658864930042   -0.06513426155240387   -0.013282927807336977
-0.13158658864930042   -0.06513426155240387   -0.013282927807336977
-0.13158658864930042   -0.06513426155240387   -0.013282927807336977
-0.13158658864930042   -0.06513426155240387   -0.013282927807336977
-0.11477139087703248   -0.016322417988931286   0.01699319237588826
-0.11477139087703248   -0.016322417988931286   0.01699319237588826
-0.11477139087703248   -0.016322417988931286   0.01699319237588826
-0.11477139087703248   -0.016322417988931286   0.01699319237588826
-0.15546111792508724   -0.07309672933770567   -0.009179193022868298
-0.15546111792508724   -0.07309672933770567   -0.009179193022868298
-0.15546111792508724   -0.07309672933770567   -0.009179193022868298
-0.15546111792508724   -0.07309672933770567   -0.009179193022868298
-0.1354153450517355   -0.0413615066772722   -0.008273267702341495
-0.1354153450517355   -0.0413615066772722   -0.008273267702341495
-0.1354153450517355   -0.0413615066772722   -0.008273267702341495
-0.1354153450517355   -0.0413615066772722   -0.008273267702341495
-0.13964115087678416   -0.02110852157322581   0.01793243445416731
-0.13964115087678416   -0.02110852157322581   0.01793243445416731
-0.13964115087678416   -0.02110852157322581   0.01793243445416731
-0.13964115087678416   -0.02110852157322581   0.01793243445416731
-0.13135666340130983   -0.0690759312293854   -0.01317965700504444
-0.13135666340130983   -0.0690759312293854   -0.01317965700504444
-0.13135666340130983   -0.0690759312293854   -0.01317965700504444
-0.13135666340130983   -0.0690759312293854   -0.01317965700504444
-0.11393260986974946   -0.023526433454583526   0.019699567951632836
-0.11393260986974946   -0.023526433454583526   0.019699567951632836
-0.11393260986974946   -0.023526433454583526   0.019699567951632836
-0.11393260986974946   -0.023526433454583526   0.019699567951632836
-0.1531623163918749   -0.07729379803441704   -0.006247124878275133
-0.1531623163918749   -0.07729379803441704   -0.006247124878275133
-0.1531623163918749   -0.07729379803441704   -0.006247124878275133
-0.1531623163918749   -0.07729379803441704   -0.006247124878275133
-0.13515877064501405   -0.046670813112854426   -0.010661363964867387
-0.13515877064501405   -0.046670813112854426   -0.010661363964867387
-0.13515877064501405   -0.046670813112854426   -0.010661363964867387
-0.13515877064501405   -0.046670813112854426   -0.010661363964867387
-0.11091430387136625   0.015578270672184806   0.021358491950507884
-0.11091430387136625   0.015578270672184806   0.021358491950507884
-0.11091430387136625   0.015578270672184806   0.021358491950507884
-0.11091430387136625   0.015578270672184806   0.021358491950507884
-0.07488394958530484   -0.01979785063222916   -0.007266028925690491
-0.07488394958530484   -0.01979785063222916   -0.007266028925690491
-0.07488394958530484   -0.01979785063222916   -0.007266028925690491
-0.07488394958530484   -0.01979785063222916   -0.007266028925690491
-0.06569150184443377   0.01807664329251292   0.02111060646941734
-0.06569150184443377   0.01807664329251292   0.02111060646941734
-0.06569150184443377   0.01807664329251292   0.02111060646941734
-0.06569150184443377   0.01807664329251292   0.02111060646941734
-0.12266245763294997   -0.030022345080363028   -0.003774189197625628
-0.12266245763294997   -0.030022345080363028   -0.003774189197625628
-0.12266245763294997   -0.030022345080363028   -0.003774189197625628
-0.12266245763294997   -0.030022345080363028   -0.003774189197625628
-0.0922052966213331   -0.001959906351346758   -0.0037900114291782912
-0.0922052966213331   -0.001959906351346758   -0.0037900114291782912
-0.0922052966213331   -0.001959906351346758   -0.0037900114291782912
-0.0922052966213331   -0.001959906351346758   -0.0037900114291782912
-0.1092799518313366   0.009800025789387108   0.023315968940691115
-0.1092799518313366   0.009800025789387108   0.023315968940691115
-0.1092799518313366   0.009800025789387108   0.023315968940691115
-0.1092799518313366   0.009800025789387108   0.023315968940691115
-0.07921340985148544   -0.021885129782674862   -0.006537160490653169
-0.07921340985148544   -0.021885129782674862   -0.006537160490653169
-0.07921340985148544   -0.021885129782674862   -0.006537160490653169
-0.07921340985148544   -0.021885129782674862   -0.006537160490653169
-0.06870478526995355   0.014317937184098463   0.02654775195234027
-0.06870478526995355   0.014317937184098463   0.02654775195234027
-0.06870478526995355   0.014317937184098463   0.02654775195234027
-0.06870478526995355   0.014317937184098463   0.02654775195234027
-0.12225934680690857   -0.03198198177837133   -0.004787023484052147
-0.12225934680690857   -0.03198198177837133   -0.004787023484052147
-0.12225934680690857   -0.03198198177837133   -0.004787023484052147
-0.12225934680690857   -0.03198198177837133   -0.004787023484052147
-0.09510945943877572   -0.006060424743847178   -0.005441871640956145
-0.09510945943877572   -0.006060424743847178   -0.005441871640956145
-0.09510945943877572   -0.006060424743847178   -0.005441871640956145
-0.09510945943877572   -0.006060424743847178   -0.005441871640956145
-0.1082448507093268   0.006467557292376084   0.026835917933109292
-0.1082448507093268   0.006467557292376084   0.026835917933109292
-0.1082448507093268   0.006467557292376084   0.026835917933109292
-0.1082448507093268   0.006467557292376084   0.026835917933109292
-0.08367893475135488   -0.025091255270470427   -0.008913803000105155
-0.08367893475135488   -0.025091255270470427   -0.008913803000105155
-0.08367893475135488   -0.025091255270470427   -0.008913803000105155
-0.08367893475135488   -0.025091255270470427   -0.008913803000105155
-0.07855365616905519   0.003977214098518936   0.02762791600059463
-0.07855365616905519   0.003977214098518936   0.02762791600059463
-0.07855365616905519   0.003977214098518936   0.02762791600059463
-0.07855365616905519   0.003977214098518936   0.02762791600059463
-0.12072477760654447   -0.033791342155592735   -0.003996362031332973
-0.12072477760654447   -0.033791342155592735   -0.003996362031332973
-0.12072477760654447   -0.033791342155592735   -0.003996362031332973
-0.12072477760654447   -0.033791342155592735   -0.003996362031332973
-0.09656826605843341   -0.009057149275649984   -0.008060353962126203
-0.09656826605843341   -0.009057149275649984   -0.008060353962126203
-0.09656826605843341   -0.009057149275649984   -0.008060353962126203
-0.09656826605843341   -0.009057149275649984   -0.008060353962126203
-1.1304373274599888   -0.16101860230147635   -0.0946578164339706
-1.1304373274599888   -0.16101860230147635   -0.0946578164339706
-1.1304373274599888   -0.16101860230147635   -0.0946578164339706
-1.1304373274599888   -0.16101860230147635   -0.0946578164339706
-0.39345595949660883   -0.6280923668063841   -0.07391554119626562
-0.39345595949660883   -0.6280923668063841   -0.07391554119626562
-0.39345595949660883   -0.6280923668063841   -0.07391554119626562
-0.39345595949660883   -0.6280923668063841   -0.07391554119626562
-0.30281207442691027   -0.02692686000044265   0.0002918921034466473
-0.30281207442691027   -0.02692686000044265   0.0002918921034466473
-0.30281207442691027   -0.02692686000044265   0.0002918921034466473
-0.30281207442691027   -0.02692686000044265   0.0002918921034466473
-1.2094607949672025   -0.7363455281419978   -0.3891612646218401
-1.2094607949672025   -0.7363455281419978   -0.3891612646218401
-1.2094607949672025   -0.7363455281419978   -0.3891612646218401
-1.2094607949672025   -0.7363455281419978   -0.3891612646218401
-0.7400226251494656   -0.36604547614879407   -0.0533732837185981
-0.7400226251494656   -0.36604547614879407   -0.0533732837185981
-0.7400226251494656   -0.36604547614879407   -0.0533732837185981
-0.7400226251494656   -0.36604547614879407   -0.0533732837185981
-1.0505459178259162   -0.2022654070936802   -0.12866699996373512
-1.0505459178259162   -0.2022654070936802   -0.12866699996373512
-1.0505459178259162   -0.2022654070936802   -0.12866699996373512
-1.0505459178259162   -0.2022654070936802   -0.12866699996373512
-0.42526408835366236   -0.524544117834227   -0.1143509196965262
-0.42526408835366236   -0.524544117834227   -0.1143509196965262
-0.42526408835366236   -0.524544117834227   -0.1143509196965262
-0.42526408835366236   -0.524544117834227   -0.1143509196965262
-0.30924832922764034   -0.03560039304781476   0.011577073847775846
-0.30924832922764034   -0.03560039304781476   0.011577073847775846
-0.30924832922764034   -0.03560039304781476   0.011577073847775846
-0.30924832922764034   -0.03560039304781476   0.011577073847775846
-1.131998608900675   -0.6579048645460779   -0.35798069468935056
-1.131998608900675   -0.6579048645460779   -0.35798069468935056
-1.131998608900675   -0.6579048645460779   -0.35798069468935056
-1.131998608900675   -0.6579048645460779   -0.35798069468935056
-0.6971905427797902   -0.3304217000447501   0.027951041762305014
-0.6971905427797902   -0.3304217000447501   0.027951041762305014
-0.6971905427797902   -0.3304217000447501   0.027951041762305014
-0.6971905427797902   -0.3304217000447501   0.027951041762305014
-0.9865763435040171   -0.19261354760256194   -0.09616068464958336
-0.9865763435040171   -0.19261354760256194   -0.09616068464958336
-0.9865763435040171   -0.19261354760256194   -0.09616068464958336
-0.9865763435040171   -0.19261354760256194   -0.09616068464958336
-0.41411943054920297   -0.4603405459162359   -0.08803827989161314
-0.41411943054920297   -0.4603405459162359   -0.08803827989161314
-0.41411943054920297   -0.4603405459162359   -0.08803827989161314
-0.41411943054920297   -0.4603405459162359   -0.08803827989161314
-0.35614412261018663   -0.09215500728486194   -0.018779093349699485
-0.35614412261018663   -0.09215500728486194   -0.018779093349699485
-0.35614412261018663   -0.09215500728486194   -0.018779093349699485
-0.35614412261018663   -0.09215500728486194   -0.018779093349699485
-1.0318653580804178   -0.5543230869202542   -0.3172376890001344
-1.0318653580804178   -0.5543230869202542   -0.3172376890001344
-1.0318653580804178   -0.5543230869202542   -0.3172376890001344
-1.0318653580804178   -0.5543230869202542   -0.3172376890001344
-0.6460140662599037   -0.28672603350818565   0.1199175657087653
-0.6460140662599037   -0.28672603350818565   0.1199175657087653
-0.6460140662599037   -0.28672603350818565   0.1199175657087653
-0.6460140662599037   -0.28672603350818565   0.1199175657087653
-0.2895238977378519   -0.1589020822085116   -0.023445517000355475
-0.2895238977378519   -0.1589020822085116   -0.023445517000355475
-0.2895238977378519   -0.1589020822085116   -0.023445517000355475
-0.2895238977378519   -0.1589020822085116   -0.023445517000355475
-0.13490332678797054   -0.20138031115725066   -0.0333815667041517
-0.13490332678797054   -0.20138031115725066   -0.0333815667041517
-0.13490332678797054   -0.20138031115725066   -0.0333815667041517
-0.13490332678797054   -0.20138031115725066   -0.0333815667041517
-0.11834689878069267   -0.10209383144903553   0.0029740602644638403
-0.11834689878069267   -0.10209383144903553   0.0029740602644638403
-0.11834689878069267   -0.10209383144903553   0.0029740602644638403
-0.11834689878069267   -0.10209383144903553   0.0029740602644638403
-0.3558571454014381   -0.2925691814613979   0.0007088586917657555
-0.3558571454014381   -0.2925691814613979   0.0007088586917657555
-0.3558571454014381   -0.2925691814613979   0.0007088586917657555
-0.3558571454014381   -0.2925691814613979   0.0007088586917657555
-0.1906715861948311   -0.14161200143183733   0.061460133853489016
-0.1906715861948311   -0.14161200143183733   0.061460133853489016
-0.1906715861948311   -0.14161200143183733   0.061460133853489016
-0.1906715861948311   -0.14161200143183733   0.061460133853489016
-0.33011465800915735   -0.14805981042438976   -0.015088075383842551
-0.33011465800915735   -0.14805981042438976   -0.015088075383842551
-0.33011465800915735   -0.14805981042438976   -0.015088075383842551
-0.33011465800915735   -0.14805981042438976   -0.015088075383842551
-0.1542480420543425   -0.2567618583674134   -0.021863629185407414
-0.1542480420543425   -0.2567618583674134   -0.021863629185407414
-0.1542480420543425   -0.2567618583674134   -0.021863629185407414
-0.1542480420543425   -0.2567618583674134   -0.021863629185407414
-0.12812832923191672   -0.10575851637062125   0.003124128268849752
-0.12812832923191672   -0.10575851637062125   0.003124128268849752
-0.12812832923191672   -0.10575851637062125   0.003124128268849752
-0.12812832923191672   -0.10575851637062125   0.003124128268849752
-0.37367765653539403   -0.2892042883106477   -0.0569656674281566
-0.37367765653539403   -0.2892042883106477   -0.0569656674281566
-0.37367765653539403   -0.2892042883106477   -0.0569656674281566
-0.37367765653539403   -0.2892042883106477   -0.0569656674281566
-0.22794335789541936   -0.18131017303284425   0.027780564606704257
-0.22794335789541936   -0.18131017303284425   0.027780564606704257
-0.22794335789541936   -0.18131017303284425   0.027780564606704257
-0.22794335789541936   -0.18131017303284425   0.027780564606704257
-0.3410143347497856   -0.15460934374176494   -0.02824400306899986
-0.3410143347497856   -0.15460934374176494   -0.02824400306899986
-0.3410143347497856   -0.15460934374176494   -0.02824400306899986
-0.3410143347497856   -0.15460934374176494   -0.02824400306899986
-0.15985967611496482   -0.23942148603694383   -0.02186963648006625
-0.15985967611496482   -0.23942148603694383   -0.02186963648006625
-0.15985967611496482   -0.23942148603694383   -0.02186963648006625
-0.15985967611496482   -0.23942148603694383   -0.02186963648006625
-0.1433084297247302   -0.10908028298280459   0.004612217157879881
-0.1433084297247302   -0.10908028298280459   0.004612217157879881
-0.1433084297247302   -0.10908028298280459   0.004612217157879881
-0.1433084297247302   -0.10908028298280459   0.004612217157879881
-0.40009898183665127   -0.28128526316752234   -0.04942313359935992
-0.40009898183665127   -0.28128526316752234   -0.04942313359935992
-0.40009898183665127   -0.28128526316752234   -0.04942313359935992
-0.40009898183665127   -0.28128526316752234   -0.04942313359935992
-0.23890820124757314   -0.17095053202361243   0.029337078962728212
-0.23890820124757314   -0.17095053202361243   0.029337078962728212
-0.23890820124757314   -0.17095053202361243   0.029337078962728212
-0.23890820124757314   -0.17095053202361243   0.029337078962728212
-0.10555407081306256   -0.09497249177888287   0.006956893792020479
-0.10555407081306256   -0.09497249177888287   0.006956893792020479
-0.10555407081306256   -0.09497249177888287   0.006956893792020479
-0.10555407081306256   -0.09497249177888287   0.006956893792020479
-0.06533272704678603   -0.0643269178682227   -0.016372921648569155
-0.06533272704678603   -0.0643269178682227   -0.016372921648569155
-0.06533272704678603   -0.0643269178682227   -0.016372921648569155
-0.06533272704678603   -0.0643269178682227   -0.016372921648569155
-0.06306375966786273   -0.08513180882525231   0.0069448412777598015
-0.06306375966786273   -0.08513180882525231   0.0069448412777598015
-0.06306375966786273   -0.08513180882525231   0.0069448412777598015
-0.06306375966786273   -0.08513180882525231   0.0069448412777598015
-0.11740498286748535   -0.08733696327494218   -0.007073228343592898
-0.11740498286748535   -0.08733696327494218   -0.007073228343592898
-0.11740498286748535   -0.08733696327494218   -0.007073228343592898
-0.11740498286748535   -0.08733696327494218   -0.007073228343592898
-0.07408054456243943   -0.06988433656917585   0.030886869541368944
-0.07408054456243943   -0.06988433656917585   0.030886869541368944
-0.07408054456243943   -0.06988433656917585   0.030886869541368944
-0.07408054456243943   -0.06988433656917585   0.030886869541368944
-0.11613841831471881   -0.0956259854842633   0.007548616629560925
-0.11613841831471881   -0.0956259854842633   0.007548616629560925
-0.11613841831471881   -0.0956259854842633   0.007548616629560925
-0.11613841831471881   -0.0956259854842633   0.007548616629560925
-0.06540883987181241   -0.07792130226711369   -0.01199106630012335
-0.06540883987181241   -0.07792130226711369   -0.01199106630012335
-0.06540883987181241   -0.07792130226711369   -0.01199106630012335
-0.06540883987181241   -0.07792130226711369   -0.01199106630012335
-0.06395497071775891   -0.08768384667999204   0.006204612950140187
-0.06395497071775891   -0.08768384667999204   0.006204612950140187
-0.06395497071775891   -0.08768384667999204   0.006204612950140187
-0.06395497071775891   -0.08768384667999204   0.006204612950140187
-0.1249474643912129   -0.10173243493245983   0.01500237103420932
-0.1249474643912129   -0.10173243493245983   0.01500237103420932
-0.1249474643912129   -0.10173243493245983   0.01500237103420932
-0.1249474643912129   -0.10173243493245983   0.01500237103420932
-0.08086021653706162   -0.07793071185447253   0.02598033191725711
-0.08086021653706162   -0.07793071185447253   0.02598033191725711
-0.08086021653706162   -0.07793071185447253   0.02598033191725711
-0.08086021653706162   -0.07793071185447253   0.02598033191725711
-0.12540267274259156   -0.09917960900501346   0.010173503349865741
-0.12540267274259156   -0.09917960900501346   0.010173503349865741
-0.12540267274259156   -0.09917960900501346   0.010173503349865741
-0.12540267274259156   -0.09917960900501346   0.010173503349865741
-0.06897652414656984   -0.09571343438762865   -0.01087356648627782
-0.06897652414656984   -0.09571343438762865   -0.01087356648627782
-0.06897652414656984   -0.09571343438762865   -0.01087356648627782
-0.06897652414656984   -0.09571343438762865   -0.01087356648627782
-0.06500842019453351   -0.09048899118398172   0.008744615731280304
-0.06500842019453351   -0.09048899118398172   0.008744615731280304
-0.06500842019453351   -0.09048899118398172   0.008744615731280304
-0.06500842019453351   -0.09048899118398172   0.008744615731280304
-0.14662122811965853   -0.12474534010495847   0.003713282305392203
-0.14662122811965853   -0.12474534010495847   0.003713282305392203
-0.14662122811965853   -0.12474534010495847   0.003713282305392203
-0.14662122811965853   -0.12474534010495847   0.003713282305392203
-0.09061456901998255   -0.08869600613937036   0.01201823135935065
-0.09061456901998255   -0.08869600613937036   0.01201823135935065
-0.09061456901998255   -0.08869600613937036   0.01201823135935065
-0.09061456901998255   -0.08869600613937036   0.01201823135935065
-0.053090092731241614   -0.03787717030767027   0.018390502368600486
-0.053090092731241614   -0.03787717030767027   0.018390502368600486
-0.053090092731241614   -0.03787717030767027   0.018390502368600486
-0.053090092731241614   -0.03787717030767027   0.018390502368600486
-0.037830177658019326   -0.0013386122759597718   -0.003714686487018578
-0.037830177658019326   -0.0013386122759597718   -0.003714686487018578
-0.037830177658019326   -0.0013386122759597718   -0.003714686487018578
-0.037830177658019326   -0.0013386122759597718   -0.003714686487018578
-0.035858257811407744   -0.04105602694459126   0.01137991439383722
-0.035858257811407744   -0.04105602694459126   0.01137991439383722
-0.035858257811407744   -0.04105602694459126   0.01137991439383722
-0.035858257811407744   -0.04105602694459126   0.01137991439383722
-0.04957174664422184   -0.008642967029060342   -0.002083935400223845
-0.04957174664422184   -0.008642967029060342   -0.002083935400223845
-0.04957174664422184   -0.008642967029060342   -0.002083935400223845
-0.04957174664422184   -0.008642967029060342   -0.002083935400223845
-0.040734383709637986   -0.021246318720395868   0.009118971879788974
-0.040734383709637986   -0.021246318720395868   0.009118971879788974
-0.040734383709637986   -0.021246318720395868   0.009118971879788974
-0.040734383709637986   -0.021246318720395868   0.009118971879788974
-0.052592624018013005   -0.043204284103606466   0.017372994805366457
-0.052592624018013005   -0.043204284103606466   0.017372994805366457
-0.052592624018013005   -0.043204284103606466   0.017372994805366457
-0.052592624018013005   -0.043204284103606466   0.017372994805366457
-0.03194176706098886   -0.005599096493417419   -0.004494562305242207
-0.03194176706098886   -0.005599096493417419   -0.004494562305242207
-0.03194176706098886   -0.005599096493417419   -0.004494562305242207
-0.03194176706098886   -0.005599096493417419   -0.004494562305242207
-0.03302443039168251   -0.044669043745331614   0.010522547405601053
-0.03302443039168251   -0.044669043745331614   0.010522547405601053
-0.03302443039168251   -0.044669043745331614   0.010522547405601053
-0.03302443039168251   -0.044669043745331614   0.010522547405601053
-0.05014591438090845   -0.01589977608089979   0.0034658240353002334
-0.05014591438090845   -0.01589977608089979   0.0034658240353002334
-0.05014591438090845   -0.01589977608089979   0.0034658240353002334
-0.05014591438090845   -0.01589977608089979   0.0034658240353002334
-0.03757789315289398   -0.024398433390927735   0.01073195113496131
-0.03757789315289398   -0.024398433390927735   0.01073195113496131
-0.03757789315289398   -0.024398433390927735   0.01073195113496131
-0.03757789315289398   -0.024398433390927735   0.01073195113496131
-0.0530447402856359   -0.04680269293257425   0.0198746113633413
-0.0530447402856359   -0.04680269293257425   0.0198746113633413
-0.0530447402856359   -0.04680269293257425   0.0198746113633413
-0.0530447402856359   -0.04680269293257425   0.0198746113633413
-0.030453963687285014   -0.014094486093986468   -0.007199676723756587
-0.030453963687285014   -0.014094486093986468   -0.007199676723756587
-0.030453963687285014   -0.014094486093986468   -0.007199676723756587
-0.030453963687285014   -0.014094486093986468   -0.007199676723756587
-0.0279015180964465   -0.04867385597845343   0.011591787106114533
-0.0279015180964465   -0.04867385597845343   0.011591787106114533
-0.0279015180964465   -0.04867385597845343   0.011591787106114533
-0.0279015180964465   -0.04867385597845343   0.011591787106114533
-0.0544259838958606   -0.03334285200060554   0.004510658041268673
-0.0544259838958606   -0.03334285200060554   0.004510658041268673
-0.0544259838958606   -0.03334285200060554   0.004510658041268673
-0.0544259838958606   -0.03334285200060554   0.004510658041268673
-0.036403726337419666   -0.03070916944198342   0.009113590727252683
-0.036403726337419666   -0.03070916944198342   0.009113590727252683
-0.036403726337419666   -0.03070916944198342   0.009113590727252683
-0.036403726337419666   -0.03070916944198342   0.009113590727252683
-0.03441198755741323   -0.006535601744585265   0.01857325348463737
-0.03441198755741323   -0.006535601744585265   0.01857325348463737
-0.03441198755741323   -0.006535601744585265   0.01857325348463737
-0.03441198755741323   -0.006535601744585265   0.01857325348463737
-0.006473522162129174   0.003779460192884991   -0.0003754440971536694
-0.006473522162129174   0.003779460192884991   -0.0003754440971536694
-0.006473522162129174   0.003779460192884991   -0.0003754440971536694
-0.006473522162129174   0.003779460192884991   -0.0003754440971536694
0.0014893669913341812   -0.0021286473049629616   0.011542475055090552
0.0014893669913341812   -0.0021286473049629616   0.011542475055090552
0.0014893669913341812   -0.0021286473049629616   0.011542475055090552
0.0014893669913341812   -0.0021286473049629616   0.011542475055090552
-0.029642563994341987   0.002676498194721596   -0.0012741416601468364
-0.029642563994341987   0.002676498194721596   -0.0012741416601468364
-0.029642563994341987   0.002676498194721596   -0.0012741416601468364
-0.029642563994341987   0.002676498194721596   -0.0012741416601468364
-0.017526189718153628   -0.0013658865772097966   -0.0013920166548094118
-0.017526189718153628   -0.0013658865772097966   -0.0013920166548094118
-0.017526189718153628   -0.0013658865772097966   -0.0013920166548094118
-0.017526189718153628   -0.0013658865772097966   -0.0013920166548094118
-0.027323865190630837   -0.006333848868122673   0.01932969942125318
-0.027323865190630837   -0.006333848868122673   0.01932969942125318
-0.027323865190630837   -0.006333848868122673   0.01932969942125318
-0.027323865190630837   -0.006333848868122673   0.01932969942125318
0.00018787103428002027   0.007898902604538934   -0.004992554639682149
0.00018787103428002027   0.007898902604538934   -0.004992554639682149
0.00018787103428002027   0.007898902604538934   -0.004992554639682149
0.00018787103428002027   0.007898902604538934   -0.004992554639682149
0.0054071826939335885   -0.002644244152499341   0.014235135144465644
0.0054071826939335885   -0.002644244152499341   0.014235135144465644
0.0054071826939335885   -0.002644244152499341   0.014235135144465644
0.0054071826939335885   -0.002644244152499341   0.014235135144465644
-0.02619951144183947   0.001836991910177923   -0.0018588935006932602
-0.02619951144183947   0.001836991910177923   -0.0018588935006932602
-0.02619951144183947   0.001836991910177923   -0.0018588935006932602
-0.02619951144183947   0.001836991910177923   -0.0018588935006932602
-0.011736075260815977   -0.000422242529090478   0.0017857001702642724
-0.011736075260815977   -0.000422242529090478   0.0017857001702642724
-0.011736075260815977   -0.000422242529090478   0.0017857001702642724
-0.011736075260815977   -0.000422242529090478   0.0017857001702642724
-0.023457325081674852   -0.0071053055787098675   0.02079433578901762
-0.023457325081674852   -0.0071053055787098675   0.02079433578901762
-0.023457325081674852   -0.0071053055787098675   0.02079433578901762
-0.023457325081674852   -0.0071053055787098675   0.02079433578901762
0.003561429083477601   0.007194486086097719   -0.004832363146411353
0.003561429083477601   0.007194486086097719   -0.004832363146411353
0.003561429083477601   0.007194486086097719   -0.004832363146411353
0.003561429083477601   0.007194486086097719   -0.004832363146411353
0.009313031799386157   -0.004212437078450612   0.013860353948447014
0.009313031799386157   -0.004212437078450612   0.013860353948447014
0.009313031799386157   -0.004212437078450612   0.013860353948447014
0.009313031799386157   -0.004212437078450612   0.013860353948447014
-0.02058484820119317   0.0015901975097238983   -0.002088916905796145
-0.02058484820119317   0.0015901975097238983   -0.002088916905796145
-0.02058484820119317   0.0015901975097238983   -0.002088916905796145
-0.02058484820119317   0.0015901975097238983   -0.002088916905796145
-0.00660231990224526   9.837993813450205e-05   0.004530154684898493
-0.00660231990224526   9.837993813450205e-05   0.004530154684898493
-0.00660231990224526   9.837993813450205e-05   0.004530154684898493
-0.00660231990224526   9.837993813450205e-05   0.004530154684898493
              </DataArray>   
             <DataArray type="Float64" NumberOfComponents="3" Name="Displacements" format="ascii">   
0.0   0.0   0.0
-0.0031540164059561185   -0.002074344014332467   -0.0010568747920602346
0.0   0.0   0.0
0.0   0.0   0.0
-0.0031540164059561185   -0.002074344014332467   -0.0010568747920602346
-0.0020065307114822493   -0.0018650482074582847   -0.0007765500593144641
0.0   0.0   0.0
-0.001966555577617727   -0.0019583454163239057   -0.0006506809899447017
0.0   0.0   0.0
0.0   0.0   0.0
-0.001966555577617727   -0.0019583454163239057   -0.0006506809899447017
0.0   0.0   0.0
0.0   0.0   0.0
-0.001966555577617727   -0.0019583454163239057   -0.0006506809899447017
-0.0033004657924073206   -0.00220967656331465   -0.0008486705985896948
-0.0031540164059561185   -0.002074344014332467   -0.0010568747920602346
0.0   0.0   0.0
-0.001966555577617727   -0.0019583454163239057   -0.0006506809899447017
-0.0031540164059561185   -0.002074344014332467   -0.0010568747920602346
0.0   0.0   0.0
0.0   0.0   0.0
-0.0033004657924073206   -0.00220967656331465   -0.0008486705985896948
0.0   0.0   0.0
0.0   0.0   0.0
-0.0033004657924073206   -0.00220967656331465   -0.0008486705985896948
-0.001966555577617727   -0.0019583454163239057   -0.0006506809899447017
0.0   0.0   0.0
-0.0019717853780985813   -0.00200619371307493   -0.0005250292869006561
0.0   0.0   0.0
0.0   0.0   0.0
-0.0019717853780985813   -0.00200619371307493   -0.0005250292869006561
0.0   0.0   0.0
0.0   0.0   0.0
-0.0019717853780985813   -0.00200619371307493   -0.0005250292869006561
-0.0034031705847043384   -0.0022755022313249136   -0.0006492470407497475
-0.0033004657924073206   -0.00220967656331465   -0.0008486705985896948
0.0   0.0   0.0
-0.0019717853780985813   -0.00200619371307493   -0.0005250292869006561
-0.0033004657924073206   -0.00220967656331465   -0.0008486705985896948
0.0   0.0   0.0
0.0   0.0   0.0
-0.0034031705847043384   -0.0022755022313249136   -0.0006492470407497475
0.0   0.0   0.0
0.0   0.0   0.0
-0.0034031705847043384   -0.0022755022313249136   -0.0006492470407497475
-0.0019717853780985813   -0.00200619371307493   -0.0005250292869006561
0.0   0.0   0.0
-0.0019703924798417324   -0.0020185386838447   -0.00039514872100616824
0.0   0.0   0.0
0.0   0.0   0.0
-0.0019703924798417324   -0.0020185386838447   -0.00039514872100616824
0.0   0.0   0.0
0.0   0.0   0.0
-0.0019703924798417324   -0.0020185386838447   -0.00039514872100616824
-0.003624738829665233   -0.002325477035355811   -0.0004179318670264945
-0.0034031705847043384   -0.0022755022313249136   -0.0006492470407497475
0.0   0.0   0.0
-0.0019703924798417324   -0.0020185386838447   -0.00039514872100616824
-0.0034031705847043384   -0.0022755022313249136   -0.0006492470407497475
0.0   0.0   0.0
0.0   0.0   0.0
-0.0020065307114822493   -0.0018650482074582847   -0.0007765500593144641
0.0   0.0   0.0
0.0   0.0   0.0
-0.0020065307114822493   -0.0018650482074582847   -0.0007765500593144641
-0.0009141506383382787   -0.0017883536700188068   -0.0005907956209696675
0.0   0.0   0.0
-0.0008789089372207116   -0.0018490418696596887   -0.0005313359826863036
0.0   0.0   0.0
0.0   0.0   0.0
-0.0008789089372207116   -0.0018490418696596887   -0.0005313359826863036
0.0   0.0   0.0
0.0   0.0   0.0
-0.0008789089372207116   -0.0018490418696596887   -0.0005313359826863036
-0.001966555577617727   -0.0019583454163239057   -0.0006506809899447017
-0.0020065307114822493   -0.0018650482074582847   -0.0007765500593144641
0.0   0.0   0.0
-0.0008789089372207116   -0.0018490418696596887   -0.0005313359826863036
-0.0020065307114822493   -0.0018650482074582847   -0.0007765500593144641
0.0   0.0   0.0
0.0   0.0   0.0
-0.001966555577617727   -0.0019583454163239057   -0.0006506809899447017
0.0   0.0   0.0
0.0   0.0   0.0
-0.001966555577617727   -0.0019583454163239057   -0.0006506809899447017
-0.0008789089372207116   -0.0018490418696596887   -0.0005313359826863036
0.0   0.0   0.0
-0.00085898684418959   -0.0018721869358371615   -0.00047346461830565916
0.0   0.0   0.0
0.0   0.0   0.0
-0.00085898684418959   -0.0018721869358371615   -0.00047346461830565916
0.0   0.0   0.0
0.0   0.0   0.0
-0.00085898684418959   -0.0018721869358371615   -0.00047346461830565916
-0.0019717853780985813   -0.00200619371307493   -0.0005250292869006561
-0.001966555577617727   -0.0019583454163239057   -0.0006506809899447017
0.0   0.0   0.0
-0.00085898684418959   -0.0018721869358371615   -0.00047346461830565916
-0.001966555577617727   -0.0019583454163239057   -0.0006506809899447017
0.0   0.0   0.0
0.0   0.0   0.0
-0.0019717853780985813   -0.00200619371307493   -0.0005250292869006561
0.0   0.0   0.0
0.0   0.0   0.0
-0.0019717853780985813   -0.00200619371307493   -0.0005250292869006561
-0.00085898684418959   -0.0018721869358371615   -0.00047346461830565916
0.0   0.0   0.0
-0.000840793977904945   -0.00186256115231444   -0.00041367317327536756
0.0   0.0   0.0
0.0   0.0   0.0
-0.000840793977904945   -0.00186256115231444   -0.00041367317327536756
0.0   0.0   0.0
0.0   0.0   0.0
-0.000840793977904945   -0.00186256115231444   -0.00041367317327536756
-0.0019703924798417324   -0.0020185386838447   -0.00039514872100616824
-0.0019717853780985813   -0.00200619371307493   -0.0005250292869006561
0.0   0.0   0.0
-0.000840793977904945   -0.00186256115231444   -0.00041367317327536756
-0.0019717853780985813   -0.00200619371307493   -0.0005250292869006561
0.0   0.0   0.0
0.0   0.0   0.0
-0.0009141506383382787   -0.0017883536700188068   -0.0005907956209696675
0.0   0.0   0.0
0.0   0.0   0.0
-0.0009141506383382787   -0.0017883536700188068   -0.0005907956209696675
0.0001176730567060646   -0.0017982297455755888   -0.00047252557979017573
0.0   0.0   0.0
0.00014031436866852656   -0.0018296417961912396   -0.0004806617414586267
0.0   0.0   0.0
0.0   0.0   0.0
0.00014031436866852656   -0.0018296417961912396   -0.0004806617414586267
0.0   0.0   0.0
0.0   0.0   0.0
0.00014031436866852656   -0.0018296417961912396   -0.0004806617414586267
-0.0008789089372207116   -0.0018490418696596887   -0.0005313359826863036
-0.0009141506383382787   -0.0017883536700188068   -0.0005907956209696675
0.0   0.0   0.0
0.00014031436866852656   -0.0018296417961912396   -0.0004806617414586267
-0.0009141506383382787   -0.0017883536700188068   -0.0005907956209696675
0.0   0.0   0.0
0.0   0.0   0.0
-0.0008789089372207116   -0.0018490418696596887   -0.0005313359826863036
0.0   0.0   0.0
0.0   0.0   0.0
-0.0008789089372207116   -0.0018490418696596887   -0.0005313359826863036
0.00014031436866852656   -0.0018296417961912396   -0.0004806617414586267
0.0   0.0   0.0
0.00015822612531363688   -0.0018269999329611505   -0.0004880417068453675
0.0   0.0   0.0
0.0   0.0   0.0
0.00015822612531363688   -0.0018269999329611505   -0.0004880417068453675
0.0   0.0   0.0
0.0   0.0   0.0
0.00015822612531363688   -0.0018269999329611505   -0.0004880417068453675
-0.00085898684418959   -0.0018721869358371615   -0.00047346461830565916
-0.0008789089372207116   -0.0018490418696596887   -0.0005313359826863036
0.0   0.0   0.0
0.00015822612531363688   -0.0018269999329611505   -0.0004880417068453675
-0.0008789089372207116   -0.0018490418696596887   -0.0005313359826863036
0.0   0.0   0.0
0.0   0.0   0.0
-0.00085898684418959   -0.0018721869358371615   -0.00047346461830565916
0.0   0.0   0.0
0.0   0.0   0.0
-0.00085898684418959   -0.0018721869358371615   -0.00047346461830565916
0.00015822612531363688   -0.0018269999329611505   -0.0004880417068453675
0.0   0.0   0.0
0.00018222150357069804   -0.001787517594401966   -0.0004956636792107814
0.0   0.0   0.0
0.0   0.0   0.0
0.00018222150357069804   -0.001787517594401966   -0.0004956636792107814
0.0   0.0   0.0
0.0   0.0   0.0
0.00018222150357069804   -0.001787517594401966   -0.0004956636792107814
-0.000840793977904945   -0.00186256115231444   -0.00041367317327536756
-0.00085898684418959   -0.0018721869358371615   -0.00047346461830565916
0.0   0.0   0.0
0.00018222150357069804   -0.001787517594401966   -0.0004956636792107814
-0.00085898684418959   -0.0018721869358371615   -0.00047346461830565916
0.0   0.0   0.0
0.0   0.0   0.0
0.0001176730567060646   -0.0017982297455755888   -0.00047252557979017573
0.0   0.0   0.0
0.0   0.0   0.0
0.0001176730567060646   -0.0017982297455755888   -0.00047252557979017573
0.0012379711096367344   -0.0018853515651708883   -0.0004141663337128322
0.0   0.0   0.0
0.0012405507618527137   -0.0018952666367871903   -0.0004934312923752501
0.0   0.0   0.0
0.0   0.0   0.0
0.0012405507618527137   -0.0018952666367871903   -0.0004934312923752501
0.0   0.0   0.0
0.0   0.0   0.0
0.0012405507618527137   -0.0018952666367871903   -0.0004934312923752501
0.00014031436866852656   -0.0018296417961912396   -0.0004806617414586267
0.0001176730567060646   -0.0017982297455755888   -0.00047252557979017573
0.0   0.0   0.0
0.0012405507618527137   -0.0018952666367871903   -0.0004934312923752501
0.0001176730567060646   -0.0017982297455755888   -0.00047252557979017573
0.0   0.0   0.0
0.0   0.0   0.0
0.00014031436866852656   -0.0018296417961912396   -0.0004806617414586267
0.0   0.0   0.0
0.0   0.0   0.0
0.00014031436866852656   -0.0018296417961912396   -0.0004806617414586267
0.0012405507618527137   -0.0018952666367871903   -0.0004934312923752501
0.0   0.0   0.0
0.0012355637015819525   -0.001868205655220908   -0.0005695186178292803
0.0   0.0   0.0
0.0   0.0   0.0
0.0012355637015819525   -0.001868205655220908   -0.0005695186178292803
0.0   0.0   0.0
0.0   0.0   0.0
0.0012355637015819525   -0.001868205655220908   -0.0005695186178292803
0.00015822612531363688   -0.0018269999329611505   -0.0004880417068453675
0.00014031436866852656   -0.0018296417961912396   -0.0004806617414586267
0.0   0.0   0.0
0.0012355637015819525   -0.001868205655220908   -0.0005695186178292803
0.00014031436866852656   -0.0018296417961912396   -0.0004806617414586267
0.0   0.0   0.0
0.0   0.0   0.0
0.00015822612531363688   -0.0018269999329611505   -0.0004880417068453675
0.0   0.0   0.0
0.0   0.0   0.0
0.00015822612531363688   -0.0018269999329611505   -0.0004880417068453675
0.0012355637015819525   -0.001868205655220908   -0.0005695186178292803
0.0   0.0   0.0
0.001259806132545544   -0.0017959213949197794   -0.0006441942473678263
0.0   0.0   0.0
0.0   0.0   0.0
0.001259806132545544   -0.0017959213949197794   -0.0006441942473678263
0.0   0.0   0.0
0.0   0.0   0.0
0.001259806132545544   -0.0017959213949197794   -0.0006441942473678263
0.00018222150357069804   -0.001787517594401966   -0.0004956636792107814
0.00015822612531363688   -0.0018269999329611505   -0.0004880417068453675
0.0   0.0   0.0
0.001259806132545544   -0.0017959213949197794   -0.0006441942473678263
0.00015822612531363688   -0.0018269999329611505   -0.0004880417068453675
0.0   0.0   0.0
0.0   0.0   0.0
0.0012379711096367344   -0.0018853515651708883   -0.0004141663337128322
0.0   0.0   0.0
0.0   0.0   0.0
0.0012379711096367344   -0.0018853515651708883   -0.0004141663337128322
0.002796896943816807   -0.0021063576864825133   -0.00039112156651505944
0.0   0.0   0.0
0.0026272290143129705   -0.002083187783159902   -0.000570962004362479
0.0   0.0   0.0
0.0   0.0   0.0
0.0026272290143129705   -0.002083187783159902   -0.000570962004362479
0.0   0.0   0.0
0.0   0.0   0.0
0.0026272290143129705   -0.002083187783159902   -0.000570962004362479
0.0012405507618527137   -0.0018952666367871903   -0.0004934312923752501
0.0012379711096367344   -0.0018853515651708883   -0.0004141663337128322
0.0   0.0   0.0
0.0026272290143129705   -0.002083187783159902   -0.000570962004362479
0.0012379711096367344   -0.0018853515651708883   -0.0004141663337128322
0.0   0.0   0.0
0.0   0.0   0.0
0.0012405507618527137   -0.0018952666367871903   -0.0004934312923752501
0.0   0.0   0.0
0.0   0.0   0.0
0.0012405507618527137   -0.0018952666367871903   -0.0004934312923752501
0.0026272290143129705   -0.002083187783159902   -0.000570962004362479
0.0   0.0   0.0
0.0025491356163238705   -0.002039880743140302   -0.000723077346548088
0.0   0.0   0.0
0.0   0.0   0.0
0.0025491356163238705   -0.002039880743140302   -0.000723077346548088
0.0   0.0   0.0
0.0   0.0   0.0
0.0025491356163238705   -0.002039880743140302   -0.000723077346548088
0.0012355637015819525   -0.001868205655220908   -0.0005695186178292803
0.0012405507618527137   -0.0018952666367871903   -0.0004934312923752501
0.0   0.0   0.0
0.0025491356163238705   -0.002039880743140302   -0.000723077346548088
0.0012405507618527137   -0.0018952666367871903   -0.0004934312923752501
0.0   0.0   0.0
0.0   0.0   0.0
0.0012355637015819525   -0.001868205655220908   -0.0005695186178292803
0.0   0.0   0.0
0.0   0.0   0.0
0.0012355637015819525   -0.001868205655220908   -0.0005695186178292803
0.0025491356163238705   -0.002039880743140302   -0.000723077346548088
0.0   0.0   0.0
0.002432648630192232   -0.0019292104861685566   -0.0008841306878725781
0.0   0.0   0.0
0.0   0.0   0.0
0.002432648630192232   -0.0019292104861685566   -0.0008841306878725781
0.0   0.0   0.0
0.0   0.0   0.0
0.002432648630192232   -0.0019292104861685566   -0.0008841306878725781
0.001259806132545544   -0.0017959213949197794   -0.0006441942473678263
0.0012355637015819525   -0.001868205655220908   -0.0005695186178292803
0.0   0.0   0.0
0.002432648630192232   -0.0019292104861685566   -0.0008841306878725781
0.0012355637015819525   -0.001868205655220908   -0.0005695186178292803
0.0   0.0   0.0
-0.0031540164059561185   -0.002074344014332467   -0.0010568747920602346
-0.005887348035789625   -0.005783136718863157   -0.0014240677240508254
-0.0020065307114822493   -0.0018650482074582847   -0.0007765500593144641
-0.0033004657924073206   -0.00220967656331465   -0.0008486705985896948
-0.005887348035789625   -0.005783136718863157   -0.0014240677240508254
-0.003757497380143733   -0.005595037774400594   -0.0011725530196704376
-0.0020065307114822493   -0.0018650482074582847   -0.0007765500593144641
-0.003761412835886634   -0.005690421522987538   -0.0010562347749997433
-0.0033004657924073206   -0.00220967656331465   -0.0008486705985896948
-0.001966555577617727   -0.0019583454163239057   -0.0006506809899447017
-0.003761412835886634   -0.005690421522987538   -0.0010562347749997433
-0.0020065307114822493   -0.0018650482074582847   -0.0007765500593144641
-0.0033004657924073206   -0.00220967656331465   -0.0008486705985896948
-0.003761412835886634   -0.005690421522987538   -0.0010562347749997433
-0.006063041570393125   -0.005916289645182227   -0.001235264401573657
-0.005887348035789625   -0.005783136718863157   -0.0014240677240508254
-0.0033004657924073206   -0.00220967656331465   -0.0008486705985896948
-0.003761412835886634   -0.005690421522987538   -0.0010562347749997433
-0.005887348035789625   -0.005783136718863157   -0.0014240677240508254
-0.0020065307114822493   -0.0018650482074582847   -0.0007765500593144641
-0.0033004657924073206   -0.00220967656331465   -0.0008486705985896948
-0.006063041570393125   -0.005916289645182227   -0.001235264401573657
-0.001966555577617727   -0.0019583454163239057   -0.0006506809899447017
-0.0034031705847043384   -0.0022755022313249136   -0.0006492470407497475
-0.006063041570393125   -0.005916289645182227   -0.001235264401573657
-0.003761412835886634   -0.005690421522987538   -0.0010562347749997433
-0.001966555577617727   -0.0019583454163239057   -0.0006506809899447017
-0.0037756639290898422   -0.0057486165400645085   -0.0009444919002907909
-0.0034031705847043384   -0.0022755022313249136   -0.0006492470407497475
-0.0019717853780985813   -0.00200619371307493   -0.0005250292869006561
-0.0037756639290898422   -0.0057486165400645085   -0.0009444919002907909
-0.001966555577617727   -0.0019583454163239057   -0.0006506809899447017
-0.0034031705847043384   -0.0022755022313249136   -0.0006492470407497475
-0.0037756639290898422   -0.0057486165400645085   -0.0009444919002907909
-0.006184891070834765   -0.005991535053489379   -0.0010504409289700744
-0.006063041570393125   -0.005916289645182227   -0.001235264401573657
-0.0034031705847043384   -0.0022755022313249136   -0.0006492470407497475
-0.0037756639290898422   -0.0057486165400645085   -0.0009444919002907909
-0.006063041570393125   -0.005916289645182227   -0.001235264401573657
-0.001966555577617727   -0.0019583454163239057   -0.0006506809899447017
-0.0034031705847043384   -0.0022755022313249136   -0.0006492470407497475
-0.006184891070834765   -0.005991535053489379   -0.0010504409289700744
-0.0019717853780985813   -0.00200619371307493   -0.0005250292869006561
-0.003624738829665233   -0.002325477035355811   -0.0004179318670264945
-0.006184891070834765   -0.005991535053489379   -0.0010504409289700744
-0.0037756639290898422   -0.0057486165400645085   -0.0009444919002907909
-0.0019717853780985813   -0.00200619371307493   -0.0005250292869006561
-0.003763831312173468   -0.005778896166514283   -0.0008399309114268704
-0.003624738829665233   -0.002325477035355811   -0.0004179318670264945
-0.0019703924798417324   -0.0020185386838447   -0.00039514872100616824
-0.003763831312173468   -0.005778896166514283   -0.0008399309114268704
-0.0019717853780985813   -0.00200619371307493   -0.0005250292869006561
-0.003624738829665233   -0.002325477035355811   -0.0004179318670264945
-0.003763831312173468   -0.005778896166514283   -0.0008399309114268704
-0.006328888330984828   -0.006035429881788843   -0.0008823617894255923
-0.006184891070834765   -0.005991535053489379   -0.0010504409289700744
-0.003624738829665233   -0.002325477035355811   -0.0004179318670264945
-0.003763831312173468   -0.005778896166514283   -0.0008399309114268704
-0.006184891070834765   -0.005991535053489379   -0.0010504409289700744
-0.0019717853780985813   -0.00200619371307493   -0.0005250292869006561
-0.0020065307114822493   -0.0018650482074582847   -0.0007765500593144641
-0.003757497380143733   -0.005595037774400594   -0.0011725530196704376
-0.0009141506383382787   -0.0017883536700188068   -0.0005907956209696675
-0.001966555577617727   -0.0019583454163239057   -0.0006506809899447017
-0.003757497380143733   -0.005595037774400594   -0.0011725530196704376
-0.0017443755607275569   -0.005507508760877598   -0.0010009115185981917
-0.0009141506383382787   -0.0017883536700188068   -0.0005907956209696675
-0.0017287943186547658   -0.005568163806045277   -0.0009412552839207178
-0.001966555577617727   -0.0019583454163239057   -0.0006506809899447017
-0.0008789089372207116   -0.0018490418696596887   -0.0005313359826863036
-0.0017287943186547658   -0.005568163806045277   -0.0009412552839207178
-0.0009141506383382787   -0.0017883536700188068   -0.0005907956209696675
-0.001966555577617727   -0.0019583454163239057   -0.0006506809899447017
-0.0017287943186547658   -0.005568163806045277   -0.0009412552839207178
-0.003761412835886634   -0.005690421522987538   -0.0010562347749997433
-0.003757497380143733   -0.005595037774400594   -0.0011725530196704376
-0.001966555577617727   -0.0019583454163239057   -0.0006506809899447017
-0.0017287943186547658   -0.005568163806045277   -0.0009412552839207178
-0.003757497380143733   -0.005595037774400594   -0.0011725530196704376
-0.0009141506383382787   -0.0017883536700188068   -0.0005907956209696675
-0.001966555577617727   -0.0019583454163239057   -0.0006506809899447017
-0.003761412835886634   -0.005690421522987538   -0.0010562347749997433
-0.0008789089372207116   -0.0018490418696596887   -0.0005313359826863036
-0.0019717853780985813   -0.00200619371307493   -0.0005250292869006561
-0.003761412835886634   -0.005690421522987538   -0.0010562347749997433
-0.0017287943186547658   -0.005568163806045277   -0.0009412552839207178
-0.0008789089372207116   -0.0018490418696596887   -0.0005313359826863036
-0.0017149269063343275   -0.005597599890003193   -0.0008871986947765586
-0.0019717853780985813   -0.00200619371307493   -0.0005250292869006561
-0.00085898684418959   -0.0018721869358371615   -0.00047346461830565916
-0.0017149269063343275   -0.005597599890003193   -0.0008871986947765586
-0.0008789089372207116   -0.0018490418696596887   -0.0005313359826863036
-0.0019717853780985813   -0.00200619371307493   -0.0005250292869006561
-0.0017149269063343275   -0.005597599890003193   -0.0008871986947765586
-0.0037756639290898422   -0.0057486165400645085   -0.0009444919002907909
-0.003761412835886634   -0.005690421522987538   -0.0010562347749997433
-0.0019717853780985813   -0.00200619371307493   -0.0005250292869006561
-0.0017149269063343275   -0.005597599890003193   -0.0008871986947765586
-0.003761412835886634   -0.005690421522987538   -0.0010562347749997433
-0.0008789089372207116   -0.0018490418696596887   -0.0005313359826863036
-0.0019717853780985813   -0.00200619371307493   -0.0005250292869006561
-0.0037756639290898422   -0.0057486165400645085   -0.0009444919002907909
-0.00085898684418959   -0.0018721869358371615   -0.00047346461830565916
-0.0019703924798417324   -0.0020185386838447   -0.00039514872100616824
-0.0037756639290898422   -0.0057486165400645085   -0.0009444919002907909
-0.0017149269063343275   -0.005597599890003193   -0.0008871986947765586
-0.00085898684418959   -0.0018721869358371615   -0.00047346461830565916
-0.0016944807343513908   -0.005596925239135256   -0.0008401632746968826
-0.0019703924798417324   -0.0020185386838447   -0.00039514872100616824
-0.000840793977904945   -0.00186256115231444   -0.00041367317327536756
-0.0016944807343513908   -0.005596925239135256   -0.0008401632746968826
-0.00085898684418959   -0.0018721869358371615   -0.00047346461830565916
-0.0019703924798417324   -0.0020185386838447   -0.00039514872100616824
-0.0016944807343513908   -0.005596925239135256   -0.0008401632746968826
-0.003763831312173468   -0.005778896166514283   -0.0008399309114268704
-0.0037756639290898422   -0.0057486165400645085   -0.0009444919002907909
-0.0019703924798417324   -0.0020185386838447   -0.00039514872100616824
-0.0016944807343513908   -0.005596925239135256   -0.0008401632746968826
-0.0037756639290898422   -0.0057486165400645085   -0.0009444919002907909
-0.00085898684418959   -0.0018721869358371615   -0.00047346461830565916
-0.0009141506383382787   -0.0017883536700188068   -0.0005907956209696675
-0.0017443755607275569   -0.005507508760877598   -0.0010009115185981917
0.0001176730567060646   -0.0017982297455755888   -0.00047252557979017573
-0.0008789089372207116   -0.0018490418696596887   -0.0005313359826863036
-0.0017443755607275569   -0.005507508760877598   -0.0010009115185981917
0.00019654535517727389   -0.0055101467441359235   -0.00089252365449428
0.0001176730567060646   -0.0017982297455755888   -0.00047252557979017573
0.0002156043806345408   -0.0055387983780072125   -0.0008884751401532819
-0.0008789089372207116   -0.0018490418696596887   -0.0005313359826863036
0.00014031436866852656   -0.0018296417961912396   -0.0004806617414586267
0.0002156043806345408   -0.0055387983780072125   -0.0008884751401532819
0.0001176730567060646   -0.0017982297455755888   -0.00047252557979017573
-0.0008789089372207116   -0.0018490418696596887   -0.0005313359826863036
0.0002156043806345408   -0.0055387983780072125   -0.0008884751401532819
-0.0017287943186547658   -0.005568163806045277   -0.0009412552839207178
-0.0017443755607275569   -0.005507508760877598   -0.0010009115185981917
-0.0008789089372207116   -0.0018490418696596887   -0.0005313359826863036
0.0002156043806345408   -0.0055387983780072125   -0.0008884751401532819
-0.0017443755607275569   -0.005507508760877598   -0.0010009115185981917
0.0001176730567060646   -0.0017982297455755888   -0.00047252557979017573
-0.0008789089372207116   -0.0018490418696596887   -0.0005313359826863036
-0.0017287943186547658   -0.005568163806045277   -0.0009412552839207178
0.00014031436866852656   -0.0018296417961912396   -0.0004806617414586267
-0.00085898684418959   -0.0018721869358371615   -0.00047346461830565916
-0.0017287943186547658   -0.005568163806045277   -0.0009412552839207178
0.0002156043806345408   -0.0055387983780072125   -0.0008884751401532819
0.00014031436866852656   -0.0018296417961912396   -0.0004806617414586267
0.00022859720625730356   -0.0055369610278635266   -0.0008907801080645278
-0.00085898684418959   -0.0018721869358371615   -0.00047346461830565916
0.00015822612531363688   -0.0018269999329611505   -0.0004880417068453675
0.00022859720625730356   -0.0055369610278635266   -0.0008907801080645278
0.00014031436866852656   -0.0018296417961912396   -0.0004806617414586267
-0.00085898684418959   -0.0018721869358371615   -0.00047346461830565916
0.00022859720625730356   -0.0055369610278635266   -0.0008907801080645278
-0.0017149269063343275   -0.005597599890003193   -0.0008871986947765586
-0.0017287943186547658   -0.005568163806045277   -0.0009412552839207178
-0.00085898684418959   -0.0018721869358371615   -0.00047346461830565916
0.00022859720625730356   -0.0055369610278635266   -0.0008907801080645278
-0.0017287943186547658   -0.005568163806045277   -0.0009412552839207178
0.00014031436866852656   -0.0018296417961912396   -0.0004806617414586267
-0.00085898684418959   -0.0018721869358371615   -0.00047346461830565916
-0.0017149269063343275   -0.005597599890003193   -0.0008871986947765586
0.00015822612531363688   -0.0018269999329611505   -0.0004880417068453675
-0.000840793977904945   -0.00186256115231444   -0.00041367317327536756
-0.0017149269063343275   -0.005597599890003193   -0.0008871986947765586
0.00022859720625730356   -0.0055369610278635266   -0.0008907801080645278
0.00015822612531363688   -0.0018269999329611505   -0.0004880417068453675
0.0002424969339976428   -0.005503706908539207   -0.0008995383503692998
-0.000840793977904945   -0.00186256115231444   -0.00041367317327536756
0.00018222150357069804   -0.001787517594401966   -0.0004956636792107814
0.0002424969339976428   -0.005503706908539207   -0.0008995383503692998
0.00015822612531363688   -0.0018269999329611505   -0.0004880417068453675
-0.000840793977904945   -0.00186256115231444   -0.00041367317327536756
0.0002424969339976428   -0.005503706908539207   -0.0008995383503692998
-0.0016944807343513908   -0.005596925239135256   -0.0008401632746968826
-0.0017149269063343275   -0.005597599890003193   -0.0008871986947765586
-0.000840793977904945   -0.00186256115231444   -0.00041367317327536756
0.0002424969339976428   -0.005503706908539207   -0.0008995383503692998
-0.0017149269063343275   -0.005597599890003193   -0.0008871986947765586
0.00015822612531363688   -0.0018269999329611505   -0.0004880417068453675
0.0001176730567060646   -0.0017982297455755888   -0.00047252557979017573
0.00019654535517727389   -0.0055101467441359235   -0.00089252365449428
0.0012379711096367344   -0.0018853515651708883   -0.0004141663337128322
0.00014031436866852656   -0.0018296417961912396   -0.0004806617414586267
0.00019654535517727389   -0.0055101467441359235   -0.00089252365449428
0.0022536736330745245   -0.005599707464487961   -0.000842169717966851
0.0012379711096367344   -0.0018853515651708883   -0.0004141663337128322
0.0022647700525585943   -0.0055992588677085346   -0.0008955284868665053
0.00014031436866852656   -0.0018296417961912396   -0.0004806617414586267
0.0012405507618527137   -0.0018952666367871903   -0.0004934312923752501
0.0022647700525585943   -0.0055992588677085346   -0.0008955284868665053
0.0012379711096367344   -0.0018853515651708883   -0.0004141663337128322
0.00014031436866852656   -0.0018296417961912396   -0.0004806617414586267
0.0022647700525585943   -0.0055992588677085346   -0.0008955284868665053
0.0002156043806345408   -0.0055387983780072125   -0.0008884751401532819
0.00019654535517727389   -0.0055101467441359235   -0.00089252365449428
0.00014031436866852656   -0.0018296417961912396   -0.0004806617414586267
0.0022647700525585943   -0.0055992588677085346   -0.0008955284868665053
0.00019654535517727389   -0.0055101467441359235   -0.00089252365449428
0.0012379711096367344   -0.0018853515651708883   -0.0004141663337128322
0.00014031436866852656   -0.0018296417961912396   -0.0004806617414586267
0.0002156043806345408   -0.0055387983780072125   -0.0008884751401532819
0.0012405507618527137   -0.0018952666367871903   -0.0004934312923752501
0.00015822612531363688   -0.0018269999329611505   -0.0004880417068453675
0.0002156043806345408   -0.0055387983780072125   -0.0008884751401532819
0.0022647700525585943   -0.0055992588677085346   -0.0008955284868665053
0.0012405507618527137   -0.0018952666367871903   -0.0004934312923752501
0.0022549205424385456   -0.005568930137557755   -0.0009560750681136779
0.00015822612531363688   -0.0018269999329611505   -0.0004880417068453675
0.0012355637015819525   -0.001868205655220908   -0.0005695186178292803
0.0022549205424385456   -0.005568930137557755   -0.0009560750681136779
0.0012405507618527137   -0.0018952666367871903   -0.0004934312923752501
0.00015822612531363688   -0.0018269999329611505   -0.0004880417068453675
0.0022549205424385456   -0.005568930137557755   -0.0009560750681136779
0.00022859720625730356   -0.0055369610278635266   -0.0008907801080645278
0.0002156043806345408   -0.0055387983780072125   -0.0008884751401532819
0.00015822612531363688   -0.0018269999329611505   -0.0004880417068453675
0.0022549205424385456   -0.005568930137557755   -0.0009560750681136779
0.0002156043806345408   -0.0055387983780072125   -0.0008884751401532819
0.0012405507618527137   -0.0018952666367871903   -0.0004934312923752501
0.00015822612531363688   -0.0018269999329611505   -0.0004880417068453675
0.00022859720625730356   -0.0055369610278635266   -0.0008907801080645278
0.0012355637015819525   -0.001868205655220908   -0.0005695186178292803
0.00018222150357069804   -0.001787517594401966   -0.0004956636792107814
0.00022859720625730356   -0.0055369610278635266   -0.0008907801080645278
0.0022549205424385456   -0.005568930137557755   -0.0009560750681136779
0.0012355637015819525   -0.001868205655220908   -0.0005695186178292803
0.0022494995788476086   -0.005500452837636602   -0.0010215672295284294
0.00018222150357069804   -0.001787517594401966   -0.0004956636792107814
0.001259806132545544   -0.0017959213949197794   -0.0006441942473678263
0.0022494995788476086   -0.005500452837636602   -0.0010215672295284294
0.0012355637015819525   -0.001868205655220908   -0.0005695186178292803
0.00018222150357069804   -0.001787517594401966   -0.0004956636792107814
0.0022494995788476086   -0.005500452837636602   -0.0010215672295284294
0.0002424969339976428   -0.005503706908539207   -0.0008995383503692998
0.00022859720625730356   -0.0055369610278635266   -0.0008907801080645278
0.00018222150357069804   -0.001787517594401966   -0.0004956636792107814
0.0022494995788476086   -0.005500452837636602   -0.0010215672295284294
0.00022859720625730356   -0.0055369610278635266   -0.0008907801080645278
0.0012355637015819525   -0.001868205655220908   -0.0005695186178292803
0.0012379711096367344   -0.0018853515651708883   -0.0004141663337128322
0.0022536736330745245   -0.005599707464487961   -0.000842169717966851
0.002796896943816807   -0.0021063576864825133   -0.00039112156651505944
0.0012405507618527137   -0.0018952666367871903   -0.0004934312923752501
0.0022536736330745245   -0.005599707464487961   -0.000842169717966851
0.00473684048596168   -0.0057660695444176945   -0.0008290487772047727
0.002796896943816807   -0.0021063576864825133   -0.00039112156651505944
0.004641389609858844   -0.005750082109110175   -0.0009491759015587193
0.0012405507618527137   -0.0018952666367871903   -0.0004934312923752501
0.0026272290143129705   -0.002083187783159902   -0.000570962004362479
0.004641389609858844   -0.005750082109110175   -0.0009491759015587193
0.002796896943816807   -0.0021063576864825133   -0.00039112156651505944
0.0012405507618527137   -0.0018952666367871903   -0.0004934312923752501
0.004641389609858844   -0.005750082109110175   -0.0009491759015587193
0.0022647700525585943   -0.0055992588677085346   -0.0008955284868665053
0.0022536736330745245   -0.005599707464487961   -0.000842169717966851
0.0012405507618527137   -0.0018952666367871903   -0.0004934312923752501
0.004641389609858844   -0.005750082109110175   -0.0009491759015587193
0.0022536736330745245   -0.005599707464487961   -0.000842169717966851
0.002796896943816807   -0.0021063576864825133   -0.00039112156651505944
0.0012405507618527137   -0.0018952666367871903   -0.0004934312923752501
0.0022647700525585943   -0.0055992588677085346   -0.0008955284868665053
0.0026272290143129705   -0.002083187783159902   -0.000570962004362479
0.0012355637015819525   -0.001868205655220908   -0.0005695186178292803
0.0022647700525585943   -0.0055992588677085346   -0.0008955284868665053
0.004641389609858844   -0.005750082109110175   -0.0009491759015587193
0.0026272290143129705   -0.002083187783159902   -0.000570962004362479
0.004556008453716792   -0.00570336006571486   -0.0010844192746970445
0.0012355637015819525   -0.001868205655220908   -0.0005695186178292803
0.0025491356163238705   -0.002039880743140302   -0.000723077346548088
0.004556008453716792   -0.00570336006571486   -0.0010844192746970445
0.0026272290143129705   -0.002083187783159902   -0.000570962004362479
0.0012355637015819525   -0.001868205655220908   -0.0005695186178292803
0.004556008453716792   -0.00570336006571486   -0.0010844192746970445
0.0022549205424385456   -0.005568930137557755   -0.0009560750681136779
0.0022647700525585943   -0.0055992588677085346   -0.0008955284868665053
0.0012355637015819525   -0.001868205655220908   -0.0005695186178292803
0.004556008453716792   -0.00570336006571486   -0.0010844192746970445
0.0022647700525585943   -0.0055992588677085346   -0.0008955284868665053
0.0026272290143129705   -0.002083187783159902   -0.000570962004362479
0.0012355637015819525   -0.001868205655220908   -0.0005695186178292803
0.0022549205424385456   -0.005568930137557755   -0.0009560750681136779
0.0025491356163238705   -0.002039880743140302   -0.000723077346548088
0.001259806132545544   -0.0017959213949197794   -0.0006441942473678263
0.0022549205424385456   -0.005568930137557755   -0.0009560750681136779
0.004556008453716792   -0.00570336006571486   -0.0010844192746970445
0.0025491356163238705   -0.002039880743140302   -0.000723077346548088
0.00442767711369724   -0.0055996141033046645   -0.0012252652765135316
0.001259806132545544   -0.0017959213949197794   -0.0006441942473678263
0.002432648630192232   -0.0019292104861685566   -0.0008841306878725781
0.00442767711369724   -0.0055996141033046645   -0.0012252652765135316
0.0025491356163238705   -0.002039880743140302   -0.000723077346548088
0.001259806132545544   -0.0017959213949197794   -0.0006441942473678263
0.00442767711369724   -0.0055996141033046645   -0.0012252652765135316
0.0022494995788476086   -0.005500452837636602   -0.0010215672295284294
0.0022549205424385456   -0.005568930137557755   -0.0009560750681136779
0.001259806132545544   -0.0017959213949197794   -0.0006441942473678263
0.00442767711369724   -0.0055996141033046645   -0.0012252652765135316
0.0022549205424385456   -0.005568930137557755   -0.0009560750681136779
0.0025491356163238705   -0.002039880743140302   -0.000723077346548088
-0.005887348035789625   -0.005783136718863157   -0.0014240677240508254
-0.008062040762471322   -0.010835925596963863   -0.0016225562648343984
-0.003757497380143733   -0.005595037774400594   -0.0011725530196704376
-0.006063041570393125   -0.005916289645182227   -0.001235264401573657
-0.008062040762471322   -0.010835925596963863   -0.0016225562648343984
-0.005183848005277726   -0.010692337344314037   -0.0014188501511590524
-0.003757497380143733   -0.005595037774400594   -0.0011725530196704376
-0.005194566321483805   -0.010774564544355885   -0.0013287001706389749
-0.006063041570393125   -0.005916289645182227   -0.001235264401573657
-0.003761412835886634   -0.005690421522987538   -0.0010562347749997433
-0.005194566321483805   -0.010774564544355885   -0.0013287001706389749
-0.003757497380143733   -0.005595037774400594   -0.0011725530196704376
-0.006063041570393125   -0.005916289645182227   -0.001235264401573657
-0.005194566321483805   -0.010774564544355885   -0.0013287001706389749
-0.008204510748118541   -0.010948340093736495   -0.0014819675209999993
-0.008062040762471322   -0.010835925596963863   -0.0016225562648343984
-0.006063041570393125   -0.005916289645182227   -0.001235264401573657
-0.005194566321483805   -0.010774564544355885   -0.0013287001706389749
-0.008062040762471322   -0.010835925596963863   -0.0016225562648343984
-0.003757497380143733   -0.005595037774400594   -0.0011725530196704376
-0.006063041570393125   -0.005916289645182227   -0.001235264401573657
-0.008204510748118541   -0.010948340093736495   -0.0014819675209999993
-0.003761412835886634   -0.005690421522987538   -0.0010562347749997433
-0.006184891070834765   -0.005991535053489379   -0.0010504409289700744
-0.008204510748118541   -0.010948340093736495   -0.0014819675209999993
-0.005194566321483805   -0.010774564544355885   -0.0013287001706389749
-0.003761412835886634   -0.005690421522987538   -0.0010562347749997433
-0.005207266967079635   -0.010831843414943221   -0.0012450980396375223
-0.006184891070834765   -0.005991535053489379   -0.0010504409289700744
-0.0037756639290898422   -0.0057486165400645085   -0.0009444919002907909
-0.005207266967079635   -0.010831843414943221   -0.0012450980396375223
-0.003761412835886634   -0.005690421522987538   -0.0010562347749997433
-0.006184891070834765   -0.005991535053489379   -0.0010504409289700744
-0.005207266967079635   -0.010831843414943221   -0.0012450980396375223
-0.008294028420957387   -0.01101889512308014   -0.001350974690962066
-0.008204510748118541   -0.010948340093736495   -0.0014819675209999993
-0.006184891070834765   -0.005991535053489379   -0.0010504409289700744
-0.005207266967079635   -0.010831843414943221   -0.0012450980396375223
-0.008204510748118541   -0.010948340093736495   -0.0014819675209999993
-0.003761412835886634   -0.005690421522987538   -0.0010562347749997433
-0.006184891070834765   -0.005991535053489379   -0.0010504409289700744
-0.008294028420957387   -0.01101889512308014   -0.001350974690962066
-0.0037756639290898422   -0.0057486165400645085   -0.0009444919002907909
-0.006328888330984828   -0.006035429881788843   -0.0008823617894255923
-0.008294028420957387   -0.01101889512308014   -0.001350974690962066
-0.005207266967079635   -0.010831843414943221   -0.0012450980396375223
-0.0037756639290898422   -0.0057486165400645085   -0.0009444919002907909
-0.005196820642001784   -0.010869613420295337   -0.0011666471590683855
-0.006328888330984828   -0.006035429881788843   -0.0008823617894255923
-0.003763831312173468   -0.005778896166514283   -0.0008399309114268704
-0.005196820642001784   -0.010869613420295337   -0.0011666471590683855
-0.0037756639290898422   -0.0057486165400645085   -0.0009444919002907909
-0.006328888330984828   -0.006035429881788843   -0.0008823617894255923
-0.005196820642001784   -0.010869613420295337   -0.0011666471590683855
-0.008395880873269776   -0.011069776070187456   -0.0012304757480007108
-0.008294028420957387   -0.01101889512308014   -0.001350974690962066
-0.006328888330984828   -0.006035429881788843   -0.0008823617894255923
-0.005196820642001784   -0.010869613420295337   -0.0011666471590683855
-0.008294028420957387   -0.01101889512308014   -0.001350974690962066
-0.0037756639290898422   -0.0057486165400645085   -0.0009444919002907909
-0.003757497380143733   -0.005595037774400594   -0.0011725530196704376
-0.005183848005277726   -0.010692337344314037   -0.0014188501511590524
-0.0017443755607275569   -0.005507508760877598   -0.0010009115185981917
-0.003761412835886634   -0.005690421522987538   -0.0010562347749997433
-0.005183848005277726   -0.010692337344314037   -0.0014188501511590524
-0.0024710333837094896   -0.010620687481324768   -0.0012773541105772612
-0.0017443755607275569   -0.005507508760877598   -0.0010009115185981917
-0.0024642032697147764   -0.01067321456165623   -0.0012263411827948248
-0.003761412835886634   -0.005690421522987538   -0.0010562347749997433
-0.0017287943186547658   -0.005568163806045277   -0.0009412552839207178
-0.0024642032697147764   -0.01067321456165623   -0.0012263411827948248
-0.0017443755607275569   -0.005507508760877598   -0.0010009115185981917
-0.003761412835886634   -0.005690421522987538   -0.0010562347749997433
-0.0024642032697147764   -0.01067321456165623   -0.0012263411827948248
-0.005194566321483805   -0.010774564544355885   -0.0013287001706389749
-0.005183848005277726   -0.010692337344314037   -0.0014188501511590524
-0.003761412835886634   -0.005690421522987538   -0.0010562347749997433
-0.0024642032697147764   -0.01067321456165623   -0.0012263411827948248
-0.005183848005277726   -0.010692337344314037   -0.0014188501511590524
-0.0017443755607275569   -0.005507508760877598   -0.0010009115185981917
-0.003761412835886634   -0.005690421522987538   -0.0010562347749997433
-0.005194566321483805   -0.010774564544355885   -0.0013287001706389749
-0.0017287943186547658   -0.005568163806045277   -0.0009412552839207178
-0.0037756639290898422   -0.0057486165400645085   -0.0009444919002907909
-0.005194566321483805   -0.010774564544355885   -0.0013287001706389749
-0.0024642032697147764   -0.01067321456165623   -0.0012263411827948248
-0.0017287943186547658   -0.005568163806045277   -0.0009412552839207178
-0.002455985037241935   -0.010704090666896976   -0.0011815592464922376
-0.0037756639290898422   -0.0057486165400645085   -0.0009444919002907909
-0.0017149269063343275   -0.005597599890003193   -0.0008871986947765586
-0.002455985037241935   -0.010704090666896976   -0.0011815592464922376
-0.0017287943186547658   -0.005568163806045277   -0.0009412552839207178
-0.0037756639290898422   -0.0057486165400645085   -0.0009444919002907909
-0.002455985037241935   -0.010704090666896976   -0.0011815592464922376
-0.005207266967079635   -0.010831843414943221   -0.0012450980396375223
-0.005194566321483805   -0.010774564544355885   -0.0013287001706389749
-0.0037756639290898422   -0.0057486165400645085   -0.0009444919002907909
-0.002455985037241935   -0.010704090666896976   -0.0011815592464922376
-0.005194566321483805   -0.010774564544355885   -0.0013287001706389749
-0.0017287943186547658   -0.005568163806045277   -0.0009412552839207178
-0.0037756639290898422   -0.0057486165400645085   -0.0009444919002907909
-0.005207266967079635   -0.010831843414943221   -0.0012450980396375223
-0.0017149269063343275   -0.005597599890003193   -0.0008871986947765586
-0.003763831312173468   -0.005778896166514283   -0.0008399309114268704
-0.005207266967079635   -0.010831843414943221   -0.0012450980396375223
-0.002455985037241935   -0.010704090666896976   -0.0011815592464922376
-0.0017149269063343275   -0.005597599890003193   -0.0008871986947765586
-0.002442876540427331   -0.010713757060645764   -0.0011429916378471688
-0.003763831312173468   -0.005778896166514283   -0.0008399309114268704
-0.0016944807343513908   -0.005596925239135256   -0.0008401632746968826
-0.002442876540427331   -0.010713757060645764   -0.0011429916378471688
-0.0017149269063343275   -0.005597599890003193   -0.0008871986947765586
-0.003763831312173468   -0.005778896166514283   -0.0008399309114268704
-0.002442876540427331   -0.010713757060645764   -0.0011429916378471688
-0.005196820642001784   -0.010869613420295337   -0.0011666471590683855
-0.005207266967079635   -0.010831843414943221   -0.0012450980396375223
-0.003763831312173468   -0.005778896166514283   -0.0008399309114268704
-0.002442876540427331   -0.010713757060645764   -0.0011429916378471688
-0.005207266967079635   -0.010831843414943221   -0.0012450980396375223
-0.0017149269063343275   -0.005597599890003193   -0.0008871986947765586
-0.0017443755607275569   -0.005507508760877598   -0.0010009115185981917
-0.0024710333837094896   -0.010620687481324768   -0.0012773541105772612
0.00019654535517727389   -0.0055101467441359235   -0.00089252365449428
-0.0017287943186547658   -0.005568163806045277   -0.0009412552839207178
-0.0024710333837094896   -0.010620687481324768   -0.0012773541105772612
0.00016183305538795744   -0.010616862568488553   -0.0011897638843358096
0.00019654535517727389   -0.0055101467441359235   -0.00089252365449428
0.00017387990209453578   -0.010640138874289159   -0.001177682526154491
-0.0017287943186547658   -0.005568163806045277   -0.0009412552839207178
0.0002156043806345408   -0.0055387983780072125   -0.0008884751401532819
0.00017387990209453578   -0.010640138874289159   -0.001177682526154491
0.00019654535517727389   -0.0055101467441359235   -0.00089252365449428
-0.0017287943186547658   -0.005568163806045277   -0.0009412552839207178
0.00017387990209453578   -0.010640138874289159   -0.001177682526154491
-0.0024642032697147764   -0.01067321456165623   -0.0012263411827948248
-0.0024710333837094896   -0.010620687481324768   -0.0012773541105772612
-0.0017287943186547658   -0.005568163806045277   -0.0009412552839207178
0.00017387990209453578   -0.010640138874289159   -0.001177682526154491
-0.0024710333837094896   -0.010620687481324768   -0.0012773541105772612
0.00019654535517727389   -0.0055101467441359235   -0.00089252365449428
-0.0017287943186547658   -0.005568163806045277   -0.0009412552839207178
-0.0024642032697147764   -0.01067321456165623   -0.0012263411827948248
0.0002156043806345408   -0.0055387983780072125   -0.0008884751401532819
-0.0017149269063343275   -0.005597599890003193   -0.0008871986947765586
-0.0024642032697147764   -0.01067321456165623   -0.0012263411827948248
0.00017387990209453578   -0.010640138874289159   -0.001177682526154491
0.0002156043806345408   -0.0055387983780072125   -0.0008884751401532819
0.0001818318143283646   -0.010641849807103086   -0.0011716716071877155
-0.0017149269063343275   -0.005597599890003193   -0.0008871986947765586
0.00022859720625730356   -0.0055369610278635266   -0.0008907801080645278
0.0001818318143283646   -0.010641849807103086   -0.0011716716071877155
0.0002156043806345408   -0.0055387983780072125   -0.0008884751401532819
-0.0017149269063343275   -0.005597599890003193   -0.0008871986947765586
0.0001818318143283646   -0.010641849807103086   -0.0011716716071877155
-0.002455985037241935   -0.010704090666896976   -0.0011815592464922376
-0.0024642032697147764   -0.01067321456165623   -0.0012263411827948248
-0.0017149269063343275   -0.005597599890003193   -0.0008871986947765586
0.0001818318143283646   -0.010641849807103086   -0.0011716716071877155
-0.0024642032697147764   -0.01067321456165623   -0.0012263411827948248
0.0002156043806345408   -0.0055387983780072125   -0.0008884751401532819
-0.0017149269063343275   -0.005597599890003193   -0.0008871986947765586
-0.002455985037241935   -0.010704090666896976   -0.0011815592464922376
0.00022859720625730356   -0.0055369610278635266   -0.0008907801080645278
-0.0016944807343513908   -0.005596925239135256   -0.0008401632746968826
-0.002455985037241935   -0.010704090666896976   -0.0011815592464922376
0.0001818318143283646   -0.010641849807103086   -0.0011716716071877155
0.00022859720625730356   -0.0055369610278635266   -0.0008907801080645278
0.00018776869714844102   -0.01062167473146136   -0.0011720975595026206
-0.0016944807343513908   -0.005596925239135256   -0.0008401632746968826
0.0002424969339976428   -0.005503706908539207   -0.0008995383503692998
0.00018776869714844102   -0.01062167473146136   -0.0011720975595026206
0.00022859720625730356   -0.0055369610278635266   -0.0008907801080645278
-0.0016944807343513908   -0.005596925239135256   -0.0008401632746968826
0.00018776869714844102   -0.01062167473146136   -0.0011720975595026206
-0.002442876540427331   -0.010713757060645764   -0.0011429916378471688
-0.002455985037241935   -0.010704090666896976   -0.0011815592464922376
-0.0016944807343513908   -0.005596925239135256   -0.0008401632746968826
0.00018776869714844102   -0.01062167473146136   -0.0011720975595026206
-0.002455985037241935   -0.010704090666896976   -0.0011815592464922376
0.00022859720625730356   -0.0055369610278635266   -0.0008907801080645278
0.00019654535517727389   -0.0055101467441359235   -0.00089252365449428
0.00016183305538795744   -0.010616862568488553   -0.0011897638843358096
0.0022536736330745245   -0.005599707464487961   -0.000842169717966851
0.0002156043806345408   -0.0055387983780072125   -0.0008884751401532819
0.00016183305538795744   -0.010616862568488553   -0.0011897638843358096
0.0029072548763136347   -0.010676825104643345   -0.0011546020478528213
0.0022536736330745245   -0.005599707464487961   -0.000842169717966851
0.002917924055709747   -0.010673267402531161   -0.0011822554708893636
0.0002156043806345408   -0.0055387983780072125   -0.0008884751401532819
0.0022647700525585943   -0.0055992588677085346   -0.0008955284868665053
0.002917924055709747   -0.010673267402531161   -0.0011822554708893636
0.0022536736330745245   -0.005599707464487961   -0.000842169717966851
0.0002156043806345408   -0.0055387983780072125   -0.0008884751401532819
0.002917924055709747   -0.010673267402531161   -0.0011822554708893636
0.00017387990209453578   -0.010640138874289159   -0.001177682526154491
0.00016183305538795744   -0.010616862568488553   -0.0011897638843358096
0.0002156043806345408   -0.0055387983780072125   -0.0008884751401532819
0.002917924055709747   -0.010673267402531161   -0.0011822554708893636
0.00016183305538795744   -0.010616862568488553   -0.0011897638843358096
0.0022536736330745245   -0.005599707464487961   -0.000842169717966851
0.0002156043806345408   -0.0055387983780072125   -0.0008884751401532819
0.00017387990209453578   -0.010640138874289159   -0.001177682526154491
0.0022647700525585943   -0.0055992588677085346   -0.0008955284868665053
0.00022859720625730356   -0.0055369610278635266   -0.0008907801080645278
0.00017387990209453578   -0.010640138874289159   -0.001177682526154491
0.002917924055709747   -0.010673267402531161   -0.0011822554708893636
0.0022647700525585943   -0.0055992588677085346   -0.0008955284868665053
0.0029112756434759223   -0.01064862929135002   -0.00121553329004804
0.00022859720625730356   -0.0055369610278635266   -0.0008907801080645278
0.0022549205424385456   -0.005568930137557755   -0.0009560750681136779
0.0029112756434759223   -0.01064862929135002   -0.00121553329004804
0.0022647700525585943   -0.0055992588677085346   -0.0008955284868665053
0.00022859720625730356   -0.0055369610278635266   -0.0008907801080645278
0.0029112756434759223   -0.01064862929135002   -0.00121553329004804
0.0001818318143283646   -0.010641849807103086   -0.0011716716071877155
0.00017387990209453578   -0.010640138874289159   -0.001177682526154491
0.00022859720625730356   -0.0055369610278635266   -0.0008907801080645278
0.0029112756434759223   -0.01064862929135002   -0.00121553329004804
0.00017387990209453578   -0.010640138874289159   -0.001177682526154491
0.0022647700525585943   -0.0055992588677085346   -0.0008955284868665053
0.00022859720625730356   -0.0055369610278635266   -0.0008907801080645278
0.0001818318143283646   -0.010641849807103086   -0.0011716716071877155
0.0022549205424385456   -0.005568930137557755   -0.0009560750681136779
0.0002424969339976428   -0.005503706908539207   -0.0008995383503692998
0.0001818318143283646   -0.010641849807103086   -0.0011716716071877155
0.0029112756434759223   -0.01064862929135002   -0.00121553329004804
0.0022549205424385456   -0.005568930137557755   -0.0009560750681136779
0.0029009006588705316   -0.010597665915972942   -0.0012551038655389043
0.0002424969339976428   -0.005503706908539207   -0.0008995383503692998
0.0022494995788476086   -0.005500452837636602   -0.0010215672295284294
0.0029009006588705316   -0.010597665915972942   -0.0012551038655389043
0.0022549205424385456   -0.005568930137557755   -0.0009560750681136779
0.0002424969339976428   -0.005503706908539207   -0.0008995383503692998
0.0029009006588705316   -0.010597665915972942   -0.0012551038655389043
0.00018776869714844102   -0.01062167473146136   -0.0011720975595026206
0.0001818318143283646   -0.010641849807103086   -0.0011716716071877155
0.0002424969339976428   -0.005503706908539207   -0.0008995383503692998
0.0029009006588705316   -0.010597665915972942   -0.0012551038655389043
0.0001818318143283646   -0.010641849807103086   -0.0011716716071877155
0.0022549205424385456   -0.005568930137557755   -0.0009560750681136779
0.0022536736330745245   -0.005599707464487961   -0.000842169717966851
0.0029072548763136347   -0.010676825104643345   -0.0011546020478528213
0.00473684048596168   -0.0057660695444176945   -0.0008290487772047727
0.0022647700525585943   -0.0055992588677085346   -0.0008955284868665053
0.0029072548763136347   -0.010676825104643345   -0.0011546020478528213
0.006034264230131562   -0.01078543640580949   -0.0011558567922761542
0.00473684048596168   -0.0057660695444176945   -0.0008290487772047727
0.005982872501088436   -0.010766380568941279   -0.0012282858295683892
0.0022647700525585943   -0.0055992588677085346   -0.0008955284868665053
0.004641389609858844   -0.005750082109110175   -0.0009491759015587193
0.005982872501088436   -0.010766380568941279   -0.0012282858295683892
0.00473684048596168   -0.0057660695444176945   -0.0008290487772047727
0.0022647700525585943   -0.0055992588677085346   -0.0008955284868665053
0.005982872501088436   -0.010766380568941279   -0.0012282858295683892
0.002917924055709747   -0.010673267402531161   -0.0011822554708893636
0.0029072548763136347   -0.010676825104643345   -0.0011546020478528213
0.0022647700525585943   -0.0055992588677085346   -0.0008955284868665053
0.005982872501088436   -0.010766380568941279   -0.0012282858295683892
0.0029072548763136347   -0.010676825104643345   -0.0011546020478528213
0.00473684048596168   -0.0057660695444176945   -0.0008290487772047727
0.0022647700525585943   -0.0055992588677085346   -0.0008955284868665053
0.002917924055709747   -0.010673267402531161   -0.0011822554708893636
0.004641389609858844   -0.005750082109110175   -0.0009491759015587193
0.0022549205424385456   -0.005568930137557755   -0.0009560750681136779
0.002917924055709747   -0.010673267402531161   -0.0011822554708893636
0.005982872501088436   -0.010766380568941279   -0.0012282858295683892
0.004641389609858844   -0.005750082109110175   -0.0009491759015587193
0.0059314178914434785   -0.010728490801826978   -0.00131085764067354
0.0022549205424385456   -0.005568930137557755   -0.0009560750681136779
0.004556008453716792   -0.00570336006571486   -0.0010844192746970445
0.0059314178914434785   -0.010728490801826978   -0.00131085764067354
0.004641389609858844   -0.005750082109110175   -0.0009491759015587193
0.0022549205424385456   -0.005568930137557755   -0.0009560750681136779
0.0059314178914434785   -0.010728490801826978   -0.00131085764067354
0.0029112756434759223   -0.01064862929135002   -0.00121553329004804
0.002917924055709747   -0.010673267402531161   -0.0011822554708893636
0.0022549205424385456   -0.005568930137557755   -0.0009560750681136779
0.0059314178914434785   -0.010728490801826978   -0.00131085764067354
0.002917924055709747   -0.010673267402531161   -0.0011822554708893636
0.004641389609858844   -0.005750082109110175   -0.0009491759015587193
0.0022549205424385456   -0.005568930137557755   -0.0009560750681136779
0.0029112756434759223   -0.01064862929135002   -0.00121553329004804
0.004556008453716792   -0.00570336006571486   -0.0010844192746970445
0.0022494995788476086   -0.005500452837636602   -0.0010215672295284294
0.0029112756434759223   -0.01064862929135002   -0.00121553329004804
0.0059314178914434785   -0.010728490801826978   -0.00131085764067354
0.004556008453716792   -0.00570336006571486   -0.0010844192746970445
0.005839292837628991   -0.010649252423590421   -0.001403583283059484
0.0022494995788476086   -0.005500452837636602   -0.0010215672295284294
0.00442767711369724   -0.0055996141033046645   -0.0012252652765135316
0.005839292837628991   -0.010649252423590421   -0.001403583283059484
0.004556008453716792   -0.00570336006571486   -0.0010844192746970445
0.0022494995788476086   -0.005500452837636602   -0.0010215672295284294
0.005839292837628991   -0.010649252423590421   -0.001403583283059484
0.0029009006588705316   -0.010597665915972942   -0.0012551038655389043
0.0029112756434759223   -0.01064862929135002   -0.00121553329004804
0.0022494995788476086   -0.005500452837636602   -0.0010215672295284294
0.005839292837628991   -0.010649252423590421   -0.001403583283059484
0.0029112756434759223   -0.01064862929135002   -0.00121553329004804
0.004556008453716792   -0.00570336006571486   -0.0010844192746970445
-0.008062040762471322   -0.010835925596963863   -0.0016225562648343984
-0.009622501107475359   -0.01682160328643553   -0.0017311739096412078
-0.005183848005277726   -0.010692337344314037   -0.0014188501511590524
-0.008204510748118541   -0.010948340093736495   -0.0014819675209999993
-0.009622501107475359   -0.01682160328643553   -0.0017311739096412078
-0.006247266532959664   -0.01673039397936132   -0.0015653455015110927
-0.005183848005277726   -0.010692337344314037   -0.0014188501511590524
-0.00625409611921505   -0.016801023172453928   -0.0015008937230648275
-0.008204510748118541   -0.010948340093736495   -0.0014819675209999993
-0.005194566321483805   -0.010774564544355885   -0.0013287001706389749
-0.00625409611921505   -0.016801023172453928   -0.0015008937230648275
-0.005183848005277726   -0.010692337344314037   -0.0014188501511590524
-0.008204510748118541   -0.010948340093736495   -0.0014819675209999993
-0.00625409611921505   -0.016801023172453928   -0.0015008937230648275
-0.009718081823411738   -0.016917189488477126   -0.001638000651445893
-0.009622501107475359   -0.01682160328643553   -0.0017311739096412078
-0.008204510748118541   -0.010948340093736495   -0.0014819675209999993
-0.00625409611921505   -0.016801023172453928   -0.0015008937230648275
-0.009622501107475359   -0.01682160328643553   -0.0017311739096412078
-0.005183848005277726   -0.010692337344314037   -0.0014188501511590524
-0.008204510748118541   -0.010948340093736495   -0.0014819675209999993
-0.009718081823411738   -0.016917189488477126   -0.001638000651445893
-0.005194566321483805   -0.010774564544355885   -0.0013287001706389749
-0.008294028420957387   -0.01101889512308014   -0.001350974690962066
-0.009718081823411738   -0.016917189488477126   -0.001638000651445893
-0.00625409611921505   -0.016801023172453928   -0.0015008937230648275
-0.005194566321483805   -0.010774564544355885   -0.0013287001706389749
-0.006258749492667722   -0.016857077415052178   -0.0014428766690748997
-0.008294028420957387   -0.01101889512308014   -0.001350974690962066
-0.005207266967079635   -0.010831843414943221   -0.0012450980396375223
-0.006258749492667722   -0.016857077415052178   -0.0014428766690748997
-0.005194566321483805   -0.010774564544355885   -0.0013287001706389749
-0.008294028420957387   -0.01101889512308014   -0.001350974690962066
-0.006258749492667722   -0.016857077415052178   -0.0014428766690748997
-0.009772586860099073   -0.016984891063903496   -0.0015537974463372204
-0.009718081823411738   -0.016917189488477126   -0.001638000651445893
-0.008294028420957387   -0.01101889512308014   -0.001350974690962066
-0.006258749492667722   -0.016857077415052178   -0.0014428766690748997
-0.009718081823411738   -0.016917189488477126   -0.001638000651445893
-0.005194566321483805   -0.010774564544355885   -0.0013287001706389749
-0.008294028420957387   -0.01101889512308014   -0.001350974690962066
-0.009772586860099073   -0.016984891063903496   -0.0015537974463372204
-0.005207266967079635   -0.010831843414943221   -0.0012450980396375223
-0.008395880873269776   -0.011069776070187456   -0.0012304757480007108
-0.009772586860099073   -0.016984891063903496   -0.0015537974463372204
-0.006258749492667722   -0.016857077415052178   -0.0014428766690748997
-0.005207266967079635   -0.010831843414943221   -0.0012450980396375223
-0.006245106865782321   -0.016903211835686483   -0.0013904346197309637
-0.008395880873269776   -0.011069776070187456   -0.0012304757480007108
-0.005196820642001784   -0.010869613420295337   -0.0011666471590683855
-0.006245106865782321   -0.016903211835686483   -0.0013904346197309637
-0.005207266967079635   -0.010831843414943221   -0.0012450980396375223
-0.008395880873269776   -0.011069776070187456   -0.0012304757480007108
-0.006245106865782321   -0.016903211835686483   -0.0013904346197309637
-0.00982867276623028   -0.017045701340257183   -0.001479634524546269
-0.009772586860099073   -0.016984891063903496   -0.0015537974463372204
-0.008395880873269776   -0.011069776070187456   -0.0012304757480007108
-0.006245106865782321   -0.016903211835686483   -0.0013904346197309637
-0.009772586860099073   -0.016984891063903496   -0.0015537974463372204
-0.005207266967079635   -0.010831843414943221   -0.0012450980396375223
-0.005183848005277726   -0.010692337344314037   -0.0014188501511590524
-0.006247266532959664   -0.01673039397936132   -0.0015653455015110927
-0.0024710333837094896   -0.010620687481324768   -0.0012773541105772612
-0.005194566321483805   -0.010774564544355885   -0.0013287001706389749
-0.006247266532959664   -0.01673039397936132   -0.0015653455015110927
-0.003083647542249843   -0.016683148854227118   -0.0014505408763852883
-0.0024710333837094896   -0.010620687481324768   -0.0012773541105772612
-0.0030771237591552003   -0.016727417026671104   -0.0014079085060484063
-0.005194566321483805   -0.010774564544355885   -0.0013287001706389749
-0.0024642032697147764   -0.01067321456165623   -0.0012263411827948248
-0.0030771237591552003   -0.016727417026671104   -0.0014079085060484063
-0.0024710333837094896   -0.010620687481324768   -0.0012773541105772612
-0.005194566321483805   -0.010774564544355885   -0.0013287001706389749
-0.0030771237591552003   -0.016727417026671104   -0.0014079085060484063
-0.00625409611921505   -0.016801023172453928   -0.0015008937230648275
-0.006247266532959664   -0.01673039397936132   -0.0015653455015110927
-0.005194566321483805   -0.010774564544355885   -0.0013287001706389749
-0.0030771237591552003   -0.016727417026671104   -0.0014079085060484063
-0.006247266532959664   -0.01673039397936132   -0.0015653455015110927
-0.0024710333837094896   -0.010620687481324768   -0.0012773541105772612
-0.005194566321483805   -0.010774564544355885   -0.0013287001706389749
-0.00625409611921505   -0.016801023172453928   -0.0015008937230648275
-0.0024642032697147764   -0.01067321456165623   -0.0012263411827948248
-0.005207266967079635   -0.010831843414943221   -0.0012450980396375223
-0.00625409611921505   -0.016801023172453928   -0.0015008937230648275
-0.0030771237591552003   -0.016727417026671104   -0.0014079085060484063
-0.0024642032697147764   -0.01067321456165623   -0.0012263411827948248
-0.003068464709303057   -0.016759465303505857   -0.0013716106539559583
-0.005207266967079635   -0.010831843414943221   -0.0012450980396375223
-0.002455985037241935   -0.010704090666896976   -0.0011815592464922376
-0.003068464709303057   -0.016759465303505857   -0.0013716106539559583
-0.0024642032697147764   -0.01067321456165623   -0.0012263411827948248
-0.005207266967079635   -0.010831843414943221   -0.0012450980396375223
-0.003068464709303057   -0.016759465303505857   -0.0013716106539559583
-0.006258749492667722   -0.016857077415052178   -0.0014428766690748997
-0.00625409611921505   -0.016801023172453928   -0.0015008937230648275
-0.005207266967079635   -0.010831843414943221   -0.0012450980396375223
-0.003068464709303057   -0.016759465303505857   -0.0013716106539559583
-0.00625409611921505   -0.016801023172453928   -0.0015008937230648275
-0.0024642032697147764   -0.01067321456165623   -0.0012263411827948248
-0.005207266967079635   -0.010831843414943221   -0.0012450980396375223
-0.006258749492667722   -0.016857077415052178   -0.0014428766690748997
-0.002455985037241935   -0.010704090666896976   -0.0011815592464922376
-0.005196820642001784   -0.010869613420295337   -0.0011666471590683855
-0.006258749492667722   -0.016857077415052178   -0.0014428766690748997
-0.003068464709303057   -0.016759465303505857   -0.0013716106539559583
-0.002455985037241935   -0.010704090666896976   -0.0011815592464922376
-0.0030558644977530898   -0.01677950449584329   -0.001341754821392777
-0.005196820642001784   -0.010869613420295337   -0.0011666471590683855
-0.002442876540427331   -0.010713757060645764   -0.0011429916378471688
-0.0030558644977530898   -0.01677950449584329   -0.001341754821392777
-0.002455985037241935   -0.010704090666896976   -0.0011815592464922376
-0.005196820642001784   -0.010869613420295337   -0.0011666471590683855
-0.0030558644977530898   -0.01677950449584329   -0.001341754821392777
-0.006245106865782321   -0.016903211835686483   -0.0013904346197309637
-0.006258749492667722   -0.016857077415052178   -0.0014428766690748997
-0.005196820642001784   -0.010869613420295337   -0.0011666471590683855
-0.0030558644977530898   -0.01677950449584329   -0.001341754821392777
-0.006258749492667722   -0.016857077415052178   -0.0014428766690748997
-0.002455985037241935   -0.010704090666896976   -0.0011815592464922376
-0.0024710333837094896   -0.010620687481324768   -0.0012773541105772612
-0.003083647542249843   -0.016683148854227118   -0.0014505408763852883
0.00016183305538795744   -0.010616862568488553   -0.0011897638843358096
-0.0024642032697147764   -0.01067321456165623   -0.0012263411827948248
-0.003083647542249843   -0.016683148854227118   -0.0014505408763852883
-6.103256244154669e-06   -0.016674959045300575   -0.0013838267232744556
0.00016183305538795744   -0.010616862568488553   -0.0011897638843358096
5.609990540492337e-06   -0.016692703081131063   -0.0013631915944201812
-0.0024642032697147764   -0.01067321456165623   -0.0012263411827948248
0.00017387990209453578   -0.010640138874289159   -0.001177682526154491
5.609990540492337e-06   -0.016692703081131063   -0.0013631915944201812
0.00016183305538795744   -0.010616862568488553   -0.0011897638843358096
-0.0024642032697147764   -0.01067321456165623   -0.0012263411827948248
5.609990540492337e-06   -0.016692703081131063   -0.0013631915944201812
-0.0030771237591552003   -0.016727417026671104   -0.0014079085060484063
-0.003083647542249843   -0.016683148854227118   -0.0014505408763852883
-0.0024642032697147764   -0.01067321456165623   -0.0012263411827948248
5.609990540492337e-06   -0.016692703081131063   -0.0013631915944201812
-0.003083647542249843   -0.016683148854227118   -0.0014505408763852883
0.00016183305538795744   -0.010616862568488553   -0.0011897638843358096
-0.0024642032697147764   -0.01067321456165623   -0.0012263411827948248
-0.0030771237591552003   -0.016727417026671104   -0.0014079085060484063
0.00017387990209453578   -0.010640138874289159   -0.001177682526154491
-0.002455985037241935   -0.010704090666896976   -0.0011815592464922376
-0.0030771237591552003   -0.016727417026671104   -0.0014079085060484063
5.609990540492337e-06   -0.016692703081131063   -0.0013631915944201812
0.00017387990209453578   -0.010640138874289159   -0.001177682526154491
1.4138309429938492e-05   -0.016698142111221635   -0.001348813124053593
-0.002455985037241935   -0.010704090666896976   -0.0011815592464922376
0.0001818318143283646   -0.010641849807103086   -0.0011716716071877155
1.4138309429938492e-05   -0.016698142111221635   -0.001348813124053593
0.00017387990209453578   -0.010640138874289159   -0.001177682526154491
-0.002455985037241935   -0.010704090666896976   -0.0011815592464922376
1.4138309429938492e-05   -0.016698142111221635   -0.001348813124053593
-0.003068464709303057   -0.016759465303505857   -0.0013716106539559583
-0.0030771237591552003   -0.016727417026671104   -0.0014079085060484063
-0.002455985037241935   -0.010704090666896976   -0.0011815592464922376
1.4138309429938492e-05   -0.016698142111221635   -0.001348813124053593
-0.0030771237591552003   -0.016727417026671104   -0.0014079085060484063
0.00017387990209453578   -0.010640138874289159   -0.001177682526154491
-0.002455985037241935   -0.010704090666896976   -0.0011815592464922376
-0.003068464709303057   -0.016759465303505857   -0.0013716106539559583
0.0001818318143283646   -0.010641849807103086   -0.0011716716071877155
-0.002442876540427331   -0.010713757060645764   -0.0011429916378471688
-0.003068464709303057   -0.016759465303505857   -0.0013716106539559583
1.4138309429938492e-05   -0.016698142111221635   -0.001348813124053593
0.0001818318143283646   -0.010641849807103086   -0.0011716716071877155
1.980705182505569e-05   -0.016691106832015613   -0.0013409661348537916
-0.002442876540427331   -0.010713757060645764   -0.0011429916378471688
0.00018776869714844102   -0.01062167473146136   -0.0011720975595026206
1.980705182505569e-05   -0.016691106832015613   -0.0013409661348537916
0.0001818318143283646   -0.010641849807103086   -0.0011716716071877155
-0.002442876540427331   -0.010713757060645764   -0.0011429916378471688
1.980705182505569e-05   -0.016691106832015613   -0.0013409661348537916
-0.0030558644977530898   -0.01677950449584329   -0.001341754821392777
-0.003068464709303057   -0.016759465303505857   -0.0013716106539559583
-0.002442876540427331   -0.010713757060645764   -0.0011429916378471688
1.980705182505569e-05   -0.016691106832015613   -0.0013409661348537916
-0.003068464709303057   -0.016759465303505857   -0.0013716106539559583
0.0001818318143283646   -0.010641849807103086   -0.0011716716071877155
0.00016183305538795744   -0.010616862568488553   -0.0011897638843358096
-6.103256244154669e-06   -0.016674959045300575   -0.0013838267232744556
0.0029072548763136347   -0.010676825104643345   -0.0011546020478528213
0.00017387990209453578   -0.010640138874289159   -0.001177682526154491
-6.103256244154669e-06   -0.016674959045300575   -0.0013838267232744556
0.0031773108031336902   -0.01670247140758542   -0.0013649591648396582
0.0029072548763136347   -0.010676825104643345   -0.0011546020478528213
0.003191548476426489   -0.016695212100694277   -0.0013667795596683232
0.00017387990209453578   -0.010640138874289159   -0.001177682526154491
0.002917924055709747   -0.010673267402531161   -0.0011822554708893636
0.003191548476426489   -0.016695212100694277   -0.0013667795596683232
0.0029072548763136347   -0.010676825104643345   -0.0011546020478528213
0.00017387990209453578   -0.010640138874289159   -0.001177682526154491
0.003191548476426489   -0.016695212100694277   -0.0013667795596683232
5.609990540492337e-06   -0.016692703081131063   -0.0013631915944201812
-6.103256244154669e-06   -0.016674959045300575   -0.0013838267232744556
0.00017387990209453578   -0.010640138874289159   -0.001177682526154491
0.003191548476426489   -0.016695212100694277   -0.0013667795596683232
-6.103256244154669e-06   -0.016674959045300575   -0.0013838267232744556
0.0029072548763136347   -0.010676825104643345   -0.0011546020478528213
0.00017387990209453578   -0.010640138874289159   -0.001177682526154491
5.609990540492337e-06   -0.016692703081131063   -0.0013631915944201812
0.002917924055709747   -0.010673267402531161   -0.0011822554708893636
0.0001818318143283646   -0.010641849807103086   -0.0011716716071877155
5.609990540492337e-06   -0.016692703081131063   -0.0013631915944201812
0.003191548476426489   -0.016695212100694277   -0.0013667795596683232
0.002917924055709747   -0.010673267402531161   -0.0011822554708893636
0.0031933645223110453   -0.016676615780169417   -0.0013745179909624404
0.0001818318143283646   -0.010641849807103086   -0.0011716716071877155
0.0029112756434759223   -0.01064862929135002   -0.00121553329004804
0.0031933645223110453   -0.016676615780169417   -0.0013745179909624404
0.002917924055709747   -0.010673267402531161   -0.0011822554708893636
0.0001818318143283646   -0.010641849807103086   -0.0011716716071877155
0.0031933645223110453   -0.016676615780169417   -0.0013745179909624404
1.4138309429938492e-05   -0.016698142111221635   -0.001348813124053593
5.609990540492337e-06   -0.016692703081131063   -0.0013631915944201812
0.0001818318143283646   -0.010641849807103086   -0.0011716716071877155
0.0031933645223110453   -0.016676615780169417   -0.0013745179909624404
5.609990540492337e-06   -0.016692703081131063   -0.0013631915944201812
0.002917924055709747   -0.010673267402531161   -0.0011822554708893636
0.0001818318143283646   -0.010641849807103086   -0.0011716716071877155
1.4138309429938492e-05   -0.016698142111221635   -0.001348813124053593
0.0029112756434759223   -0.01064862929135002   -0.00121553329004804
0.00018776869714844102   -0.01062167473146136   -0.0011720975595026206
1.4138309429938492e-05   -0.016698142111221635   -0.001348813124053593
0.0031933645223110453   -0.016676615780169417   -0.0013745179909624404
0.0029112756434759223   -0.01064862929135002   -0.00121553329004804
0.0031871459595449536   -0.01664205359437688   -0.0013884022313271152
0.00018776869714844102   -0.01062167473146136   -0.0011720975595026206
0.0029009006588705316   -0.010597665915972942   -0.0012551038655389043
0.0031871459595449536   -0.01664205359437688   -0.0013884022313271152
0.0029112756434759223   -0.01064862929135002   -0.00121553329004804
0.00018776869714844102   -0.01062167473146136   -0.0011720975595026206
0.0031871459595449536   -0.01664205359437688   -0.0013884022313271152
1.980705182505569e-05   -0.016691106832015613   -0.0013409661348537916
1.4138309429938492e-05   -0.016698142111221635   -0.001348813124053593
0.00018776869714844102   -0.01062167473146136   -0.0011720975595026206
0.0031871459595449536   -0.01664205359437688   -0.0013884022313271152
1.4138309429938492e-05   -0.016698142111221635   -0.001348813124053593
0.0029112756434759223   -0.01064862929135002   -0.00121553329004804
0.0029072548763136347   -0.010676825104643345   -0.0011546020478528213
0.0031773108031336902   -0.01670247140758542   -0.0013649591648396582
0.006034264230131562   -0.01078543640580949   -0.0011558567922761542
0.002917924055709747   -0.010673267402531161   -0.0011822554708893636
0.0031773108031336902   -0.01670247140758542   -0.0013649591648396582
0.006692512307537793   -0.016752911342181914   -0.0013836128857680004
0.006034264230131562   -0.01078543640580949   -0.0011558567922761542
0.006687515947573235   -0.01672869054256164   -0.0014095837910081293
0.002917924055709747   -0.010673267402531161   -0.0011822554708893636
0.005982872501088436   -0.010766380568941279   -0.0012282858295683892
0.006687515947573235   -0.01672869054256164   -0.0014095837910081293
0.006034264230131562   -0.01078543640580949   -0.0011558567922761542
0.002917924055709747   -0.010673267402531161   -0.0011822554708893636
0.006687515947573235   -0.01672869054256164   -0.0014095837910081293
0.003191548476426489   -0.016695212100694277   -0.0013667795596683232
0.0031773108031336902   -0.01670247140758542   -0.0013649591648396582
0.002917924055709747   -0.010673267402531161   -0.0011822554708893636
0.006687515947573235   -0.01672869054256164   -0.0014095837910081293
0.0031773108031336902   -0.01670247140758542   -0.0013649591648396582
0.006034264230131562   -0.01078543640580949   -0.0011558567922761542
0.002917924055709747   -0.010673267402531161   -0.0011822554708893636
0.003191548476426489   -0.016695212100694277   -0.0013667795596683232
0.005982872501088436   -0.010766380568941279   -0.0012282858295683892
0.0029112756434759223   -0.01064862929135002   -0.00121553329004804
0.003191548476426489   -0.016695212100694277   -0.0013667795596683232
0.006687515947573235   -0.01672869054256164   -0.0014095837910081293
0.005982872501088436   -0.010766380568941279   -0.0012282858295683892
0.006671808248751129   -0.016698407886923405   -0.0014451612150032853
0.0029112756434759223   -0.01064862929135002   -0.00121553329004804
0.0059314178914434785   -0.010728490801826978   -0.00131085764067354
0.006671808248751129   -0.016698407886923405   -0.0014451612150032853
0.005982872501088436   -0.010766380568941279   -0.0012282858295683892
0.0029112756434759223   -0.01064862929135002   -0.00121553329004804
0.006671808248751129   -0.016698407886923405   -0.0014451612150032853
0.0031933645223110453   -0.016676615780169417   -0.0013745179909624404
0.003191548476426489   -0.016695212100694277   -0.0013667795596683232
0.0029112756434759223   -0.01064862929135002   -0.00121553329004804
0.006671808248751129   -0.016698407886923405   -0.0014451612150032853
0.003191548476426489   -0.016695212100694277   -0.0013667795596683232
0.005982872501088436   -0.010766380568941279   -0.0012282858295683892
0.0029112756434759223   -0.01064862929135002   -0.00121553329004804
0.0031933645223110453   -0.016676615780169417   -0.0013745179909624404
0.0059314178914434785   -0.010728490801826978   -0.00131085764067354
0.0029009006588705316   -0.010597665915972942   -0.0012551038655389043
0.0031933645223110453   -0.016676615780169417   -0.0013745179909624404
0.006671808248751129   -0.016698407886923405   -0.0014451612150032853
0.0059314178914434785   -0.010728490801826978   -0.00131085764067354
0.006627239447021815   -0.01664091633407349   -0.0014902753953652348
0.0029009006588705316   -0.010597665915972942   -0.0012551038655389043
0.005839292837628991   -0.010649252423590421   -0.001403583283059484
0.006627239447021815   -0.01664091633407349   -0.0014902753953652348
0.0059314178914434785   -0.010728490801826978   -0.00131085764067354
0.0029009006588705316   -0.010597665915972942   -0.0012551038655389043
0.006627239447021815   -0.01664091633407349   -0.0014902753953652348
0.0031871459595449536   -0.01664205359437688   -0.0013884022313271152
0.0031933645223110453   -0.016676615780169417   -0.0013745179909624404
0.0029009006588705316   -0.010597665915972942   -0.0012551038655389043
0.006627239447021815   -0.01664091633407349   -0.0014902753953652348
0.0031933645223110453   -0.016676615780169417   -0.0013745179909624404
0.0059314178914434785   -0.010728490801826978   -0.00131085764067354
-0.009622501107475359   -0.01682160328643553   -0.0017311739096412078
-0.010565002543393905   -0.023331669410340223   -0.001763713166123863
-0.006247266532959664   -0.01673039397936132   -0.0015653455015110927
-0.009718081823411738   -0.016917189488477126   -0.001638000651445893
-0.010565002543393905   -0.023331669410340223   -0.001763713166123863
-0.0069444575904006375   -0.023294634819935336   -0.0016318544390892243
-0.006247266532959664   -0.01673039397936132   -0.0015653455015110927
-0.006941103279747385   -0.02335478425334032   -0.0015923758141418525
-0.009718081823411738   -0.016917189488477126   -0.001638000651445893
-0.00625409611921505   -0.016801023172453928   -0.0015008937230648275
-0.006941103279747385   -0.02335478425334032   -0.0015923758141418525
-0.006247266532959664   -0.01673039397936132   -0.0015653455015110927
-0.009718081823411738   -0.016917189488477126   -0.001638000651445893
-0.006941103279747385   -0.02335478425334032   -0.0015923758141418525
-0.010609214039841355   -0.02341255844465558   -0.0017158317320274928
-0.010565002543393905   -0.023331669410340223   -0.001763713166123863
-0.009718081823411738   -0.016917189488477126   -0.001638000651445893
-0.006941103279747385   -0.02335478425334032   -0.0015923758141418525
-0.010565002543393905   -0.023331669410340223   -0.001763713166123863
-0.006247266532959664   -0.01673039397936132   -0.0015653455015110927
-0.009718081823411738   -0.016917189488477126   -0.001638000651445893
-0.010609214039841355   -0.02341255844465558   -0.0017158317320274928
-0.00625409611921505   -0.016801023172453928   -0.0015008937230648275
-0.009772586860099073   -0.016984891063903496   -0.0015537974463372204
-0.010609214039841355   -0.02341255844465558   -0.0017158317320274928
-0.006941103279747385   -0.02335478425334032   -0.0015923758141418525
-0.00625409611921505   -0.016801023172453928   -0.0015008937230648275
-0.006931200222729199   -0.023410344288747678   -0.0015594547235126264
-0.009772586860099073   -0.016984891063903496   -0.0015537974463372204
-0.006258749492667722   -0.016857077415052178   -0.0014428766690748997
-0.006931200222729199   -0.023410344288747678   -0.0015594547235126264
-0.00625409611921505   -0.016801023172453928   -0.0015008937230648275
-0.009772586860099073   -0.016984891063903496   -0.0015537974463372204
-0.006931200222729199   -0.023410344288747678   -0.0015594547235126264
-0.010622806842326553   -0.023478621112766312   -0.0016773865626883567
-0.010609214039841355   -0.02341255844465558   -0.0017158317320274928
-0.009772586860099073   -0.016984891063903496   -0.0015537974463372204
-0.006931200222729199   -0.023410344288747678   -0.0015594547235126264
-0.010609214039841355   -0.02341255844465558   -0.0017158317320274928
-0.00625409611921505   -0.016801023172453928   -0.0015008937230648275
-0.009772586860099073   -0.016984891063903496   -0.0015537974463372204
-0.010622806842326553   -0.023478621112766312   -0.0016773865626883567
-0.006258749492667722   -0.016857077415052178   -0.0014428766690748997
-0.00982867276623028   -0.017045701340257183   -0.001479634524546269
-0.010622806842326553   -0.023478621112766312   -0.0016773865626883567
-0.006931200222729199   -0.023410344288747678   -0.0015594547235126264
-0.006258749492667722   -0.016857077415052178   -0.0014428766690748997
-0.006907697239410487   -0.023465556826519293   -0.001532625499440165
-0.00982867276623028   -0.017045701340257183   -0.001479634524546269
-0.006245106865782321   -0.016903211835686483   -0.0013904346197309637
-0.006907697239410487   -0.023465556826519293   -0.001532625499440165
-0.006258749492667722   -0.016857077415052178   -0.0014428766690748997
-0.00982867276623028   -0.017045701340257183   -0.001479634524546269
-0.006907697239410487   -0.023465556826519293   -0.001532625499440165
-0.010626812300858764   -0.02355048207443545   -0.001649195060848861
-0.010622806842326553   -0.023478621112766312   -0.0016773865626883567
-0.00982867276623028   -0.017045701340257183   -0.001479634524546269
-0.006907697239410487   -0.023465556826519293   -0.001532625499440165
-0.010622806842326553   -0.023478621112766312   -0.0016773865626883567
-0.006258749492667722   -0.016857077415052178   -0.0014428766690748997
-0.006247266532959664   -0.01673039397936132   -0.0015653455015110927
-0.0069444575904006375   -0.023294634819935336   -0.0016318544390892243
-0.003083647542249843   -0.016683148854227118   -0.0014505408763852883
-0.00625409611921505   -0.016801023172453928   -0.0015008937230648275
-0.0069444575904006375   -0.023294634819935336   -0.0016318544390892243
-0.003581364457837578   -0.023273243441530703   -0.001542106972918283
-0.003083647542249843   -0.016683148854227118   -0.0014505408763852883
-0.003568221250427257   -0.023309598614892093   -0.0015075895899506284
-0.00625409611921505   -0.016801023172453928   -0.0015008937230648275
-0.0030771237591552003   -0.016727417026671104   -0.0014079085060484063
-0.003568221250427257   -0.023309598614892093   -0.0015075895899506284
-0.003083647542249843   -0.016683148854227118   -0.0014505408763852883
-0.00625409611921505   -0.016801023172453928   -0.0015008937230648275
-0.003568221250427257   -0.023309598614892093   -0.0015075895899506284
-0.006941103279747385   -0.02335478425334032   -0.0015923758141418525
-0.0069444575904006375   -0.023294634819935336   -0.0016318544390892243
-0.00625409611921505   -0.016801023172453928   -0.0015008937230648275
-0.003568221250427257   -0.023309598614892093   -0.0015075895899506284
-0.0069444575904006375   -0.023294634819935336   -0.0016318544390892243
-0.003083647542249843   -0.016683148854227118   -0.0014505408763852883
-0.00625409611921505   -0.016801023172453928   -0.0015008937230648275
-0.006941103279747385   -0.02335478425334032   -0.0015923758141418525
-0.0030771237591552003   -0.016727417026671104   -0.0014079085060484063
-0.006258749492667722   -0.016857077415052178   -0.0014428766690748997
-0.006941103279747385   -0.02335478425334032   -0.0015923758141418525
-0.003568221250427257   -0.023309598614892093   -0.0015075895899506284
-0.0030771237591552003   -0.016727417026671104   -0.0014079085060484063
-0.0035522450035713428   -0.023343013618365424   -0.0014796318845599174
-0.006258749492667722   -0.016857077415052178   -0.0014428766690748997
-0.003068464709303057   -0.016759465303505857   -0.0013716106539559583
-0.0035522450035713428   -0.023343013618365424   -0.0014796318845599174
-0.0030771237591552003   -0.016727417026671104   -0.0014079085060484063
-0.006258749492667722   -0.016857077415052178   -0.0014428766690748997
-0.0035522450035713428   -0.023343013618365424   -0.0014796318845599174
-0.006931200222729199   -0.023410344288747678   -0.0015594547235126264
-0.006941103279747385   -0.02335478425334032   -0.0015923758141418525
-0.006258749492667722   -0.016857077415052178   -0.0014428766690748997
-0.0035522450035713428   -0.023343013618365424   -0.0014796318845599174
-0.006941103279747385   -0.02335478425334032   -0.0015923758141418525
-0.0030771237591552003   -0.016727417026671104   -0.0014079085060484063
-0.006258749492667722   -0.016857077415052178   -0.0014428766690748997
-0.006931200222729199   -0.023410344288747678   -0.0015594547235126264
-0.003068464709303057   -0.016759465303505857   -0.0013716106539559583
-0.006245106865782321   -0.016903211835686483   -0.0013904346197309637
-0.006931200222729199   -0.023410344288747678   -0.0015594547235126264
-0.0035522450035713428   -0.023343013618365424   -0.0014796318845599174
-0.003068464709303057   -0.016759465303505857   -0.0013716106539559583
-0.003533156428218249   -0.02337359953709492   -0.0014583946656160035
-0.006245106865782321   -0.016903211835686483   -0.0013904346197309637
-0.0030558644977530898   -0.01677950449584329   -0.001341754821392777
-0.003533156428218249   -0.02337359953709492   -0.0014583946656160035
-0.003068464709303057   -0.016759465303505857   -0.0013716106539559583
-0.006245106865782321   -0.016903211835686483   -0.0013904346197309637
-0.003533156428218249   -0.02337359953709492   -0.0014583946656160035
-0.006907697239410487   -0.023465556826519293   -0.001532625499440165
-0.006931200222729199   -0.023410344288747678   -0.0015594547235126264
-0.006245106865782321   -0.016903211835686483   -0.0013904346197309637
-0.003533156428218249   -0.02337359953709492   -0.0014583946656160035
-0.006931200222729199   -0.023410344288747678   -0.0015594547235126264
-0.003068464709303057   -0.016759465303505857   -0.0013716106539559583
-0.003083647542249843   -0.016683148854227118   -0.0014505408763852883
-0.003581364457837578   -0.023273243441530703   -0.001542106972918283
-6.103256244154669e-06   -0.016674959045300575   -0.0013838267232744556
-0.0030771237591552003   -0.016727417026671104   -0.0014079085060484063
-0.003581364457837578   -0.023273243441530703   -0.001542106972918283
-0.00030930913498815544   -0.02326089794439147   -0.0014958493649429902
-6.103256244154669e-06   -0.016674959045300575   -0.0013838267232744556
-0.0002911564314141718   -0.02327299566034779   -0.0014666454860401202
-0.0030771237591552003   -0.016727417026671104   -0.0014079085060484063
5.609990540492337e-06   -0.016692703081131063   -0.0013631915944201812
-0.0002911564314141718   -0.02327299566034779   -0.0014666454860401202
-6.103256244154669e-06   -0.016674959045300575   -0.0013838267232744556
-0.0030771237591552003   -0.016727417026671104   -0.0014079085060484063
-0.0002911564314141718   -0.02327299566034779   -0.0014666454860401202
-0.003568221250427257   -0.023309598614892093   -0.0015075895899506284
-0.003581364457837578   -0.023273243441530703   -0.001542106972918283
-0.0030771237591552003   -0.016727417026671104   -0.0014079085060484063
-0.0002911564314141718   -0.02327299566034779   -0.0014666454860401202
-0.003581364457837578   -0.023273243441530703   -0.001542106972918283
-6.103256244154669e-06   -0.016674959045300575   -0.0013838267232744556
-0.0030771237591552003   -0.016727417026671104   -0.0014079085060484063
-0.003568221250427257   -0.023309598614892093   -0.0015075895899506284
5.609990540492337e-06   -0.016692703081131063   -0.0013631915944201812
-0.003068464709303057   -0.016759465303505857   -0.0013716106539559583
-0.003568221250427257   -0.023309598614892093   -0.0015075895899506284
-0.0002911564314141718   -0.02327299566034779   -0.0014666454860401202
5.609990540492337e-06   -0.016692703081131063   -0.0013631915944201812
-0.00027536191707228086   -0.023281941732795054   -0.0014439473700416845
-0.003068464709303057   -0.016759465303505857   -0.0013716106539559583
1.4138309429938492e-05   -0.016698142111221635   -0.001348813124053593
-0.00027536191707228086   -0.023281941732795054   -0.0014439473700416845
5.609990540492337e-06   -0.016692703081131063   -0.0013631915944201812
-0.003068464709303057   -0.016759465303505857   -0.0013716106539559583
-0.00027536191707228086   -0.023281941732795054   -0.0014439473700416845
-0.0035522450035713428   -0.023343013618365424   -0.0014796318845599174
-0.003568221250427257   -0.023309598614892093   -0.0015075895899506284
-0.003068464709303057   -0.016759465303505857   -0.0013716106539559583
-0.00027536191707228086   -0.023281941732795054   -0.0014439473700416845
-0.003568221250427257   -0.023309598614892093   -0.0015075895899506284
5.609990540492337e-06   -0.016692703081131063   -0.0013631915944201812
-0.003068464709303057   -0.016759465303505857   -0.0013716106539559583
-0.0035522450035713428   -0.023343013618365424   -0.0014796318845599174
1.4138309429938492e-05   -0.016698142111221635   -0.001348813124053593
-0.0030558644977530898   -0.01677950449584329   -0.001341754821392777
-0.0035522450035713428   -0.023343013618365424   -0.0014796318845599174
-0.00027536191707228086   -0.023281941732795054   -0.0014439473700416845
1.4138309429938492e-05   -0.016698142111221635   -0.001348813124053593
-0.0002631711982195396   -0.023287688247367613   -0.0014279905128533421
-0.0030558644977530898   -0.01677950449584329   -0.001341754821392777
1.980705182505569e-05   -0.016691106832015613   -0.0013409661348537916
-0.0002631711982195396   -0.023287688247367613   -0.0014279905128533421
1.4138309429938492e-05   -0.016698142111221635   -0.001348813124053593
-0.0030558644977530898   -0.01677950449584329   -0.001341754821392777
-0.0002631711982195396   -0.023287688247367613   -0.0014279905128533421
-0.003533156428218249   -0.02337359953709492   -0.0014583946656160035
-0.0035522450035713428   -0.023343013618365424   -0.0014796318845599174
-0.0030558644977530898   -0.01677950449584329   -0.001341754821392777
-0.0002631711982195396   -0.023287688247367613   -0.0014279905128533421
-0.0035522450035713428   -0.023343013618365424   -0.0014796318845599174
1.4138309429938492e-05   -0.016698142111221635   -0.001348813124053593
-6.103256244154669e-06   -0.016674959045300575   -0.0013838267232744556
-0.00030930913498815544   -0.02326089794439147   -0.0014958493649429902
0.0031773108031336902   -0.01670247140758542   -0.0013649591648396582
5.609990540492337e-06   -0.016692703081131063   -0.0013631915944201812
-0.00030930913498815544   -0.02326089794439147   -0.0014958493649429902
0.003062482042387643   -0.023255466774294957   -0.0014935147019963398
0.0031773108031336902   -0.01670247140758542   -0.0013649591648396582
0.0030863923403181624   -0.023244049727610405   -0.0014698877204885794
5.609990540492337e-06   -0.016692703081131063   -0.0013631915944201812
0.003191548476426489   -0.016695212100694277   -0.0013667795596683232
0.0030863923403181624   -0.023244049727610405   -0.0014698877204885794
0.0031773108031336902   -0.01670247140758542   -0.0013649591648396582
5.609990540492337e-06   -0.016692703081131063   -0.0013631915944201812
0.0030863923403181624   -0.023244049727610405   -0.0014698877204885794
-0.0002911564314141718   -0.02327299566034779   -0.0014666454860401202
-0.00030930913498815544   -0.02326089794439147   -0.0014958493649429902
5.609990540492337e-06   -0.016692703081131063   -0.0013631915944201812
0.0030863923403181624   -0.023244049727610405   -0.0014698877204885794
-0.00030930913498815544   -0.02326089794439147   -0.0014958493649429902
0.0031773108031336902   -0.01670247140758542   -0.0013649591648396582
5.609990540492337e-06   -0.016692703081131063   -0.0013631915944201812
-0.0002911564314141718   -0.02327299566034779   -0.0014666454860401202
0.003191548476426489   -0.016695212100694277   -0.0013667795596683232
1.4138309429938492e-05   -0.016698142111221635   -0.001348813124053593
-0.0002911564314141718   -0.02327299566034779   -0.0014666454860401202
0.0030863923403181624   -0.023244049727610405   -0.0014698877204885794
0.003191548476426489   -0.016695212100694277   -0.0013667795596683232
0.0031026526065110025   -0.023230853928633534   -0.0014525779466769263
1.4138309429938492e-05   -0.016698142111221635   -0.001348813124053593
0.0031933645223110453   -0.016676615780169417   -0.0013745179909624404
0.0031026526065110025   -0.023230853928633534   -0.0014525779466769263
0.003191548476426489   -0.016695212100694277   -0.0013667795596683232
1.4138309429938492e-05   -0.016698142111221635   -0.001348813124053593
0.0031026526065110025   -0.023230853928633534   -0.0014525779466769263
-0.00027536191707228086   -0.023281941732795054   -0.0014439473700416845
-0.0002911564314141718   -0.02327299566034779   -0.0014666454860401202
1.4138309429938492e-05   -0.016698142111221635   -0.001348813124053593
0.0031026526065110025   -0.023230853928633534   -0.0014525779466769263
-0.0002911564314141718   -0.02327299566034779   -0.0014666454860401202
0.003191548476426489   -0.016695212100694277   -0.0013667795596683232
1.4138309429938492e-05   -0.016698142111221635   -0.001348813124053593
-0.00027536191707228086   -0.023281941732795054   -0.0014439473700416845
0.0031933645223110453   -0.016676615780169417   -0.0013745179909624404
1.980705182505569e-05   -0.016691106832015613   -0.0013409661348537916
-0.00027536191707228086   -0.023281941732795054   -0.0014439473700416845
0.0031026526065110025   -0.023230853928633534   -0.0014525779466769263
0.0031933645223110453   -0.016676615780169417   -0.0013745179909624404
0.0031065048653043073   -0.02321158586816883   -0.0014414573836832307
1.980705182505569e-05   -0.016691106832015613   -0.0013409661348537916
0.0031871459595449536   -0.01664205359437688   -0.0013884022313271152
0.0031065048653043073   -0.02321158586816883   -0.0014414573836832307
0.0031933645223110453   -0.016676615780169417   -0.0013745179909624404
1.980705182505569e-05   -0.016691106832015613   -0.0013409661348537916
0.0031065048653043073   -0.02321158586816883   -0.0014414573836832307
-0.0002631711982195396   -0.023287688247367613   -0.0014279905128533421
-0.00027536191707228086   -0.023281941732795054   -0.0014439473700416845
1.980705182505569e-05   -0.016691106832015613   -0.0013409661348537916
0.0031065048653043073   -0.02321158586816883   -0.0014414573836832307
-0.00027536191707228086   -0.023281941732795054   -0.0014439473700416845
0.0031933645223110453   -0.016676615780169417   -0.0013745179909624404
0.0031773108031336902   -0.01670247140758542   -0.0013649591648396582
0.003062482042387643   -0.023255466774294957   -0.0014935147019963398
0.006692512307537793   -0.016752911342181914   -0.0013836128857680004
0.003191548476426489   -0.016695212100694277   -0.0013667795596683232
0.003062482042387643   -0.023255466774294957   -0.0014935147019963398
0.006715956749501878   -0.023247763203270506   -0.0015308034556692422
0.006692512307537793   -0.016752911342181914   -0.0013836128857680004
0.006762537213041937   -0.02321773865460591   -0.0015112030756914555
0.003191548476426489   -0.016695212100694277   -0.0013667795596683232
0.006687515947573235   -0.01672869054256164   -0.0014095837910081293
0.006762537213041937   -0.02321773865460591   -0.0015112030756914555
0.006692512307537793   -0.016752911342181914   -0.0013836128857680004
0.003191548476426489   -0.016695212100694277   -0.0013667795596683232
0.006762537213041937   -0.02321773865460591   -0.0015112030756914555
0.0030863923403181624   -0.023244049727610405   -0.0014698877204885794
0.003062482042387643   -0.023255466774294957   -0.0014935147019963398
0.003191548476426489   -0.016695212100694277   -0.0013667795596683232
0.006762537213041937   -0.02321773865460591   -0.0015112030756914555
0.003062482042387643   -0.023255466774294957   -0.0014935147019963398
0.006692512307537793   -0.016752911342181914   -0.0013836128857680004
0.003191548476426489   -0.016695212100694277   -0.0013667795596683232
0.0030863923403181624   -0.023244049727610405   -0.0014698877204885794
0.006687515947573235   -0.01672869054256164   -0.0014095837910081293
0.0031933645223110453   -0.016676615780169417   -0.0013745179909624404
0.0030863923403181624   -0.023244049727610405   -0.0014698877204885794
0.006762537213041937   -0.02321773865460591   -0.0015112030756914555
0.006687515947573235   -0.01672869054256164   -0.0014095837910081293
0.006787566873248744   -0.02319408916768492   -0.0015012086057545886
0.0031933645223110453   -0.016676615780169417   -0.0013745179909624404
0.006671808248751129   -0.016698407886923405   -0.0014451612150032853
0.006787566873248744   -0.02319408916768492   -0.0015012086057545886
0.006687515947573235   -0.01672869054256164   -0.0014095837910081293
0.0031933645223110453   -0.016676615780169417   -0.0013745179909624404
0.006787566873248744   -0.02319408916768492   -0.0015012086057545886
0.0031026526065110025   -0.023230853928633534   -0.0014525779466769263
0.0030863923403181624   -0.023244049727610405   -0.0014698877204885794
0.0031933645223110453   -0.016676615780169417   -0.0013745179909624404
0.006787566873248744   -0.02319408916768492   -0.0015012086057545886
0.0030863923403181624   -0.023244049727610405   -0.0014698877204885794
0.006687515947573235   -0.01672869054256164   -0.0014095837910081293
0.0031933645223110453   -0.016676615780169417   -0.0013745179909624404
0.0031026526065110025   -0.023230853928633534   -0.0014525779466769263
0.006671808248751129   -0.016698407886923405   -0.0014451612150032853
0.0031871459595449536   -0.01664205359437688   -0.0013884022313271152
0.0031026526065110025   -0.023230853928633534   -0.0014525779466769263
0.006787566873248744   -0.02319408916768492   -0.0015012086057545886
0.006671808248751129   -0.016698407886923405   -0.0014451612150032853
0.006794476471989129   -0.02315633479998334   -0.0015009840494922579
0.0031871459595449536   -0.01664205359437688   -0.0013884022313271152
0.006627239447021815   -0.01664091633407349   -0.0014902753953652348
0.006794476471989129   -0.02315633479998334   -0.0015009840494922579
0.006671808248751129   -0.016698407886923405   -0.0014451612150032853
0.0031871459595449536   -0.01664205359437688   -0.0013884022313271152
0.006794476471989129   -0.02315633479998334   -0.0015009840494922579
0.0031065048653043073   -0.02321158586816883   -0.0014414573836832307
0.0031026526065110025   -0.023230853928633534   -0.0014525779466769263
0.0031871459595449536   -0.01664205359437688   -0.0013884022313271152
0.006794476471989129   -0.02315633479998334   -0.0015009840494922579
0.0031026526065110025   -0.023230853928633534   -0.0014525779466769263
0.006671808248751129   -0.016698407886923405   -0.0014451612150032853
-0.010565002543393905   -0.023331669410340223   -0.001763713166123863
-0.01089107482358148   -0.029953854740091105   -0.0017347234582360078
-0.0069444575904006375   -0.023294634819935336   -0.0016318544390892243
-0.010609214039841355   -0.02341255844465558   -0.0017158317320274928
-0.01089107482358148   -0.029953854740091105   -0.0017347234582360078
-0.007277105521579035   -0.02997127952920454   -0.0016374231242263402
-0.0069444575904006375   -0.023294634819935336   -0.0016318544390892243
-0.00725721706984422   -0.030020772060542964   -0.001622485677988516
-0.010609214039841355   -0.02341255844465558   -0.0017158317320274928
-0.006941103279747385   -0.02335478425334032   -0.0015923758141418525
-0.00725721706984422   -0.030020772060542964   -0.001622485677988516
-0.0069444575904006375   -0.023294634819935336   -0.0016318544390892243
-0.010609214039841355   -0.02341255844465558   -0.0017158317320274928
-0.00725721706984422   -0.030020772060542964   -0.001622485677988516
-0.01087793659118923   -0.030020098926322982   -0.0017318431440058212
-0.01089107482358148   -0.029953854740091105   -0.0017347234582360078
-0.010609214039841355   -0.02341255844465558   -0.0017158317320274928
-0.00725721706984422   -0.030020772060542964   -0.001622485677988516
-0.01089107482358148   -0.029953854740091105   -0.0017347234582360078
-0.0069444575904006375   -0.023294634819935336   -0.0016318544390892243
-0.010609214039841355   -0.02341255844465558   -0.0017158317320274928
-0.01087793659118923   -0.030020098926322982   -0.0017318431440058212
-0.006941103279747385   -0.02335478425334032   -0.0015923758141418525
-0.010622806842326553   -0.023478621112766312   -0.0016773865626883567
-0.01087793659118923   -0.030020098926322982   -0.0017318431440058212
-0.00725721706984422   -0.030020772060542964   -0.001622485677988516
-0.006941103279747385   -0.02335478425334032   -0.0015923758141418525
-0.007226430647202956   -0.030075698006966998   -0.0016142887648362754
-0.010622806842326553   -0.023478621112766312   -0.0016773865626883567
-0.006931200222729199   -0.023410344288747678   -0.0015594547235126264
-0.007226430647202956   -0.030075698006966998   -0.0016142887648362754
-0.006941103279747385   -0.02335478425334032   -0.0015923758141418525
-0.010622806842326553   -0.023478621112766312   -0.0016773865626883567
-0.007226430647202956   -0.030075698006966998   -0.0016142887648362754
-0.010844178418682874   -0.03008452865638859   -0.0017390335886185292
-0.01087793659118923   -0.030020098926322982   -0.0017318431440058212
-0.010622806842326553   -0.023478621112766312   -0.0016773865626883567
-0.007226430647202956   -0.030075698006966998   -0.0016142887648362754
-0.01087793659118923   -0.030020098926322982   -0.0017318431440058212
-0.006941103279747385   -0.02335478425334032   -0.0015923758141418525
-0.010622806842326553   -0.023478621112766312   -0.0016773865626883567
-0.010844178418682874   -0.03008452865638859   -0.0017390335886185292
-0.006931200222729199   -0.023410344288747678   -0.0015594547235126264
-0.010626812300858764   -0.02355048207443545   -0.001649195060848861
-0.010844178418682874   -0.03008452865638859   -0.0017390335886185292
-0.007226430647202956   -0.030075698006966998   -0.0016142887648362754
-0.006931200222729199   -0.023410344288747678   -0.0015594547235126264
-0.007186700934561654   -0.03013984566240895   -0.0016127165247245623
-0.010626812300858764   -0.02355048207443545   -0.001649195060848861
-0.006907697239410487   -0.023465556826519293   -0.001532625499440165
-0.007186700934561654   -0.03013984566240895   -0.0016127165247245623
-0.006931200222729199   -0.023410344288747678   -0.0015594547235126264
-0.010626812300858764   -0.02355048207443545   -0.001649195060848861
-0.007186700934561654   -0.03013984566240895   -0.0016127165247245623
-0.01078972053098252   -0.03016762141468074   -0.0017568122077046223
-0.010844178418682874   -0.03008452865638859   -0.0017390335886185292
-0.010626812300858764   -0.02355048207443545   -0.001649195060848861
-0.007186700934561654   -0.03013984566240895   -0.0016127165247245623
-0.010844178418682874   -0.03008452865638859   -0.0017390335886185292
-0.006931200222729199   -0.023410344288747678   -0.0015594547235126264
-0.0069444575904006375   -0.023294634819935336   -0.0016318544390892243
-0.007277105521579035   -0.02997127952920454   -0.0016374231242263402
-0.003581364457837578   -0.023273243441530703   -0.001542106972918283
-0.006941103279747385   -0.02335478425334032   -0.0015923758141418525
-0.007277105521579035   -0.02997127952920454   -0.0016374231242263402
-0.0039663411040757116   -0.029974964056572927   -0.001572775652642753
-0.003581364457837578   -0.023273243441530703   -0.001542106972918283
-0.003939887946046834   -0.030003302285186464   -0.0015461214560886073
-0.006941103279747385   -0.02335478425334032   -0.0015923758141418525
-0.003568221250427257   -0.023309598614892093   -0.0015075895899506284
-0.003939887946046834   -0.030003302285186464   -0.0015461214560886073
-0.003581364457837578   -0.023273243441530703   -0.001542106972918283
-0.006941103279747385   -0.02335478425334032   -0.0015923758141418525
-0.003939887946046834   -0.030003302285186464   -0.0015461214560886073
-0.00725721706984422   -0.030020772060542964   -0.001622485677988516
-0.007277105521579035   -0.02997127952920454   -0.0016374231242263402
-0.006941103279747385   -0.02335478425334032   -0.0015923758141418525
-0.003939887946046834   -0.030003302285186464   -0.0015461214560886073
-0.007277105521579035   -0.02997127952920454   -0.0016374231242263402
-0.003581364457837578   -0.023273243441530703   -0.001542106972918283
-0.006941103279747385   -0.02335478425334032   -0.0015923758141418525
-0.00725721706984422   -0.030020772060542964   -0.001622485677988516
-0.003568221250427257   -0.023309598614892093   -0.0015075895899506284
-0.006931200222729199   -0.023410344288747678   -0.0015594547235126264
-0.00725721706984422   -0.030020772060542964   -0.001622485677988516
-0.003939887946046834   -0.030003302285186464   -0.0015461214560886073
-0.003568221250427257   -0.023309598614892093   -0.0015075895899506284
-0.0039100643974980115   -0.03003784316318876   -0.0015262307866644198
-0.006931200222729199   -0.023410344288747678   -0.0015594547235126264
-0.0035522450035713428   -0.023343013618365424   -0.0014796318845599174
-0.0039100643974980115   -0.03003784316318876   -0.0015262307866644198
-0.003568221250427257   -0.023309598614892093   -0.0015075895899506284
-0.006931200222729199   -0.023410344288747678   -0.0015594547235126264
-0.0039100643974980115   -0.03003784316318876   -0.0015262307866644198
-0.007226430647202956   -0.030075698006966998   -0.0016142887648362754
-0.00725721706984422   -0.030020772060542964   -0.001622485677988516
-0.006931200222729199   -0.023410344288747678   -0.0015594547235126264
-0.0039100643974980115   -0.03003784316318876   -0.0015262307866644198
-0.00725721706984422   -0.030020772060542964   -0.001622485677988516
-0.003568221250427257   -0.023309598614892093   -0.0015075895899506284
-0.006931200222729199   -0.023410344288747678   -0.0015594547235126264
-0.007226430647202956   -0.030075698006966998   -0.0016142887648362754
-0.0035522450035713428   -0.023343013618365424   -0.0014796318845599174
-0.006907697239410487   -0.023465556826519293   -0.001532625499440165
-0.007226430647202956   -0.030075698006966998   -0.0016142887648362754
-0.0039100643974980115   -0.03003784316318876   -0.0015262307866644198
-0.0035522450035713428   -0.023343013618365424   -0.0014796318845599174
-0.0038779513974119286   -0.030078694567677935   -0.0015133264385191517
-0.006907697239410487   -0.023465556826519293   -0.001532625499440165
-0.003533156428218249   -0.02337359953709492   -0.0014583946656160035
-0.0038779513974119286   -0.030078694567677935   -0.0015133264385191517
-0.0035522450035713428   -0.023343013618365424   -0.0014796318845599174
-0.006907697239410487   -0.023465556826519293   -0.001532625499440165
-0.0038779513974119286   -0.030078694567677935   -0.0015133264385191517
-0.007186700934561654   -0.03013984566240895   -0.0016127165247245623
-0.007226430647202956   -0.030075698006966998   -0.0016142887648362754
-0.006907697239410487   -0.023465556826519293   -0.001532625499440165
-0.0038779513974119286   -0.030078694567677935   -0.0015133264385191517
-0.007226430647202956   -0.030075698006966998   -0.0016142887648362754
-0.0035522450035713428   -0.023343013618365424   -0.0014796318845599174
-0.003581364457837578   -0.023273243441530703   -0.001542106972918283
-0.0039663411040757116   -0.029974964056572927   -0.001572775652642753
-0.00030930913498815544   -0.02326089794439147   -0.0014958493649429902
-0.003568221250427257   -0.023309598614892093   -0.0015075895899506284
-0.0039663411040757116   -0.029974964056572927   -0.001572775652642753
-0.0007491567206434395   -0.029957296000538623   -0.0015465391581222965
-0.00030930913498815544   -0.02326089794439147   -0.0014958493649429902
-0.000717935165325357   -0.029963746026714443   -0.0015087526018499442
-0.003568221250427257   -0.023309598614892093   -0.0015075895899506284
-0.0002911564314141718   -0.02327299566034779   -0.0014666454860401202
-0.000717935165325357   -0.029963746026714443   -0.0015087526018499442
-0.00030930913498815544   -0.02326089794439147   -0.0014958493649429902
-0.003568221250427257   -0.023309598614892093   -0.0015075895899506284
-0.000717935165325357   -0.029963746026714443   -0.0015087526018499442
-0.003939887946046834   -0.030003302285186464   -0.0015461214560886073
-0.0039663411040757116   -0.029974964056572927   -0.001572775652642753
-0.003568221250427257   -0.023309598614892093   -0.0015075895899506284
-0.000717935165325357   -0.029963746026714443   -0.0015087526018499442
-0.0039663411040757116   -0.029974964056572927   -0.001572775652642753
-0.00030930913498815544   -0.02326089794439147   -0.0014958493649429902
-0.003568221250427257   -0.023309598614892093   -0.0015075895899506284
-0.003939887946046834   -0.030003302285186464   -0.0015461214560886073
-0.0002911564314141718   -0.02327299566034779   -0.0014666454860401202
-0.0035522450035713428   -0.023343013618365424   -0.0014796318845599174
-0.003939887946046834   -0.030003302285186464   -0.0015461214560886073
-0.000717935165325357   -0.029963746026714443   -0.0015087526018499442
-0.0002911564314141718   -0.02327299566034779   -0.0014666454860401202
-0.00068837751277063   -0.029975921253422966   -0.0014776846130813075
-0.0035522450035713428   -0.023343013618365424   -0.0014796318845599174
-0.00027536191707228086   -0.023281941732795054   -0.0014439473700416845
-0.00068837751277063   -0.029975921253422966   -0.0014776846130813075
-0.0002911564314141718   -0.02327299566034779   -0.0014666454860401202
-0.0035522450035713428   -0.023343013618365424   -0.0014796318845599174
-0.00068837751277063   -0.029975921253422966   -0.0014776846130813075
-0.0039100643974980115   -0.03003784316318876   -0.0015262307866644198
-0.003939887946046834   -0.030003302285186464   -0.0015461214560886073
-0.0035522450035713428   -0.023343013618365424   -0.0014796318845599174
-0.00068837751277063   -0.029975921253422966   -0.0014776846130813075
-0.003939887946046834   -0.030003302285186464   -0.0015461214560886073
-0.0002911564314141718   -0.02327299566034779   -0.0014666454860401202
-0.0035522450035713428   -0.023343013618365424   -0.0014796318845599174
-0.0039100643974980115   -0.03003784316318876   -0.0015262307866644198
-0.00027536191707228086   -0.023281941732795054   -0.0014439473700416845
-0.003533156428218249   -0.02337359953709492   -0.0014583946656160035
-0.0039100643974980115   -0.03003784316318876   -0.0015262307866644198
-0.00068837751277063   -0.029975921253422966   -0.0014776846130813075
-0.00027536191707228086   -0.023281941732795054   -0.0014439473700416845
-0.0006632108964801951   -0.029994095670753673   -0.0014535682789210682
-0.003533156428218249   -0.02337359953709492   -0.0014583946656160035
-0.0002631711982195396   -0.023287688247367613   -0.0014279905128533421
-0.0006632108964801951   -0.029994095670753673   -0.0014535682789210682
-0.00027536191707228086   -0.023281941732795054   -0.0014439473700416845
-0.003533156428218249   -0.02337359953709492   -0.0014583946656160035
-0.0006632108964801951   -0.029994095670753673   -0.0014535682789210682
-0.0038779513974119286   -0.030078694567677935   -0.0015133264385191517
-0.0039100643974980115   -0.03003784316318876   -0.0015262307866644198
-0.003533156428218249   -0.02337359953709492   -0.0014583946656160035
-0.0006632108964801951   -0.029994095670753673   -0.0014535682789210682
-0.0039100643974980115   -0.03003784316318876   -0.0015262307866644198
-0.00027536191707228086   -0.023281941732795054   -0.0014439473700416845
-0.00030930913498815544   -0.02326089794439147   -0.0014958493649429902
-0.0007491567206434395   -0.029957296000538623   -0.0015465391581222965
0.003062482042387643   -0.023255466774294957   -0.0014935147019963398
-0.0002911564314141718   -0.02327299566034779   -0.0014666454860401202
-0.0007491567206434395   -0.029957296000538623   -0.0015465391581222965
0.0025645300638314577   -0.02991807678646539   -0.0015599967693194208
0.003062482042387643   -0.023255466774294957   -0.0014935147019963398
0.0026042880431872964   -0.029902552298504755   -0.0015112638122602657
-0.0002911564314141718   -0.02327299566034779   -0.0014666454860401202
0.0030863923403181624   -0.023244049727610405   -0.0014698877204885794
0.0026042880431872964   -0.029902552298504755   -0.0015112638122602657
0.003062482042387643   -0.023255466774294957   -0.0014935147019963398
-0.0002911564314141718   -0.02327299566034779   -0.0014666454860401202
0.0026042880431872964   -0.029902552298504755   -0.0015112638122602657
-0.000717935165325357   -0.029963746026714443   -0.0015087526018499442
-0.0007491567206434395   -0.029957296000538623   -0.0015465391581222965
-0.0002911564314141718   -0.02327299566034779   -0.0014666454860401202
0.0026042880431872964   -0.029902552298504755   -0.0015112638122602657
-0.0007491567206434395   -0.029957296000538623   -0.0015465391581222965
0.003062482042387643   -0.023255466774294957   -0.0014935147019963398
-0.0002911564314141718   -0.02327299566034779   -0.0014666454860401202
-0.000717935165325357   -0.029963746026714443   -0.0015087526018499442
0.0030863923403181624   -0.023244049727610405   -0.0014698877204885794
-0.00027536191707228086   -0.023281941732795054   -0.0014439473700416845
-0.000717935165325357   -0.029963746026714443   -0.0015087526018499442
0.0026042880431872964   -0.029902552298504755   -0.0015112638122602657
0.0030863923403181624   -0.023244049727610405   -0.0014698877204885794
0.0026411080248233054   -0.029894470711190366   -0.0014692274802134793
-0.00027536191707228086   -0.023281941732795054   -0.0014439473700416845
0.0031026526065110025   -0.023230853928633534   -0.0014525779466769263
0.0026411080248233054   -0.029894470711190366   -0.0014692274802134793
0.0030863923403181624   -0.023244049727610405   -0.0014698877204885794
-0.00027536191707228086   -0.023281941732795054   -0.0014439473700416845
0.0026411080248233054   -0.029894470711190366   -0.0014692274802134793
-0.00068837751277063   -0.029975921253422966   -0.0014776846130813075
-0.000717935165325357   -0.029963746026714443   -0.0015087526018499442
-0.00027536191707228086   -0.023281941732795054   -0.0014439473700416845
0.0026411080248233054   -0.029894470711190366   -0.0014692274802134793
-0.000717935165325357   -0.029963746026714443   -0.0015087526018499442
0.0030863923403181624   -0.023244049727610405   -0.0014698877204885794
-0.00027536191707228086   -0.023281941732795054   -0.0014439473700416845
-0.00068837751277063   -0.029975921253422966   -0.0014776846130813075
0.0031026526065110025   -0.023230853928633534   -0.0014525779466769263
-0.0002631711982195396   -0.023287688247367613   -0.0014279905128533421
-0.00068837751277063   -0.029975921253422966   -0.0014776846130813075
0.0026411080248233054   -0.029894470711190366   -0.0014692274802134793
0.0031026526065110025   -0.023230853928633534   -0.0014525779466769263
0.0026610916724651955   -0.029889967079650415   -0.001433450547703891
-0.0002631711982195396   -0.023287688247367613   -0.0014279905128533421
0.0031065048653043073   -0.02321158586816883   -0.0014414573836832307
0.0026610916724651955   -0.029889967079650415   -0.001433450547703891
0.0031026526065110025   -0.023230853928633534   -0.0014525779466769263
-0.0002631711982195396   -0.023287688247367613   -0.0014279905128533421
0.0026610916724651955   -0.029889967079650415   -0.001433450547703891
-0.0006632108964801951   -0.029994095670753673   -0.0014535682789210682
-0.00068837751277063   -0.029975921253422966   -0.0014776846130813075
-0.0002631711982195396   -0.023287688247367613   -0.0014279905128533421
0.0026610916724651955   -0.029889967079650415   -0.001433450547703891
-0.00068837751277063   -0.029975921253422966   -0.0014776846130813075
0.0031026526065110025   -0.023230853928633534   -0.0014525779466769263
0.003062482042387643   -0.023255466774294957   -0.0014935147019963398
0.0025645300638314577   -0.02991807678646539   -0.0015599967693194208
0.006715956749501878   -0.023247763203270506   -0.0015308034556692422
0.0030863923403181624   -0.023244049727610405   -0.0014698877204885794
0.0025645300638314577   -0.02991807678646539   -0.0015599967693194208
0.006111399571054516   -0.029852078897521717   -0.0016153011021849324
0.006715956749501878   -0.023247763203270506   -0.0015308034556692422
0.006214778715699189   -0.029816611629880373   -0.0015512230992972055
0.0030863923403181624   -0.023244049727610405   -0.0014698877204885794
0.006762537213041937   -0.02321773865460591   -0.0015112030756914555
0.006214778715699189   -0.029816611629880373   -0.0015512230992972055
0.006715956749501878   -0.023247763203270506   -0.0015308034556692422
0.0030863923403181624   -0.023244049727610405   -0.0014698877204885794
0.006214778715699189   -0.029816611629880373   -0.0015512230992972055
0.0026042880431872964   -0.029902552298504755   -0.0015112638122602657
0.0025645300638314577   -0.02991807678646539   -0.0015599967693194208
0.0030863923403181624   -0.023244049727610405   -0.0014698877204885794
0.006214778715699189   -0.029816611629880373   -0.0015512230992972055
0.0025645300638314577   -0.02991807678646539   -0.0015599967693194208
0.006715956749501878   -0.023247763203270506   -0.0015308034556692422
0.0030863923403181624   -0.023244049727610405   -0.0014698877204885794
0.0026042880431872964   -0.029902552298504755   -0.0015112638122602657
0.006762537213041937   -0.02321773865460591   -0.0015112030756914555
0.0031026526065110025   -0.023230853928633534   -0.0014525779466769263
0.0026042880431872964   -0.029902552298504755   -0.0015112638122602657
0.006214778715699189   -0.029816611629880373   -0.0015512230992972055
0.006762537213041937   -0.02321773865460591   -0.0015112030756914555
0.006286006101176725   -0.029799400718111775   -0.001496689980785382
0.0031026526065110025   -0.023230853928633534   -0.0014525779466769263
0.006787566873248744   -0.02319408916768492   -0.0015012086057545886
0.006286006101176725   -0.029799400718111775   -0.001496689980785382
0.006762537213041937   -0.02321773865460591   -0.0015112030756914555
0.0031026526065110025   -0.023230853928633534   -0.0014525779466769263
0.006286006101176725   -0.029799400718111775   -0.001496689980785382
0.0026411080248233054   -0.029894470711190366   -0.0014692274802134793
0.0026042880431872964   -0.029902552298504755   -0.0015112638122602657
0.0031026526065110025   -0.023230853928633534   -0.0014525779466769263
0.006286006101176725   -0.029799400718111775   -0.001496689980785382
0.0026042880431872964   -0.029902552298504755   -0.0015112638122602657
0.006762537213041937   -0.02321773865460591   -0.0015112030756914555
0.0031026526065110025   -0.023230853928633534   -0.0014525779466769263
0.0026411080248233054   -0.029894470711190366   -0.0014692274802134793
0.006787566873248744   -0.02319408916768492   -0.0015012086057545886
0.0031065048653043073   -0.02321158586816883   -0.0014414573836832307
0.0026411080248233054   -0.029894470711190366   -0.0014692274802134793
0.006286006101176725   -0.029799400718111775   -0.001496689980785382
0.006787566873248744   -0.02319408916768492   -0.0015012086057545886
0.006349504436334639   -0.029780808708336003   -0.0014520999646840543
0.0031065048653043073   -0.02321158586816883   -0.0014414573836832307
0.006794476471989129   -0.02315633479998334   -0.0015009840494922579
0.006349504436334639   -0.029780808708336003   -0.0014520999646840543
0.006787566873248744   -0.02319408916768492   -0.0015012086057545886
0.0031065048653043073   -0.02321158586816883   -0.0014414573836832307
0.006349504436334639   -0.029780808708336003   -0.0014520999646840543
0.0026610916724651955   -0.029889967079650415   -0.001433450547703891
0.0026411080248233054   -0.029894470711190366   -0.0014692274802134793
0.0031065048653043073   -0.02321158586816883   -0.0014414573836832307
0.006349504436334639   -0.029780808708336003   -0.0014520999646840543
0.0026411080248233054   -0.029894470711190366   -0.0014692274802134793
0.006787566873248744   -0.02319408916768492   -0.0015012086057545886
-0.01089107482358148   -0.029953854740091105   -0.0017347234582360078
-0.010597053183575103   -0.03627278400513477   -0.0016592277992350602
-0.007277105521579035   -0.02997127952920454   -0.0016374231242263402
-0.01087793659118923   -0.030020098926322982   -0.0017318431440058212
-0.010597053183575103   -0.03627278400513477   -0.0016592277992350602
-0.007246533416419274   -0.03634551724747598   -0.0016007734843207617
-0.007277105521579035   -0.02997127952920454   -0.0016374231242263402
-0.007204007515351558   -0.03638241321130214   -0.0016096796230267677
-0.01087793659118923   -0.030020098926322982   -0.0017318431440058212
-0.00725721706984422   -0.030020772060542964   -0.001622485677988516
-0.007204007515351558   -0.03638241321130214   -0.0016096796230267677
-0.007277105521579035   -0.02997127952920454   -0.0016374231242263402
-0.01087793659118923   -0.030020098926322982   -0.0017318431440058212
-0.007204007515351558   -0.03638241321130214   -0.0016096796230267677
-0.010520257554163944   -0.03632260971617487   -0.0017013437870076042
-0.010597053183575103   -0.03627278400513477   -0.0016592277992350602
-0.01087793659118923   -0.030020098926322982   -0.0017318431440058212
-0.007204007515351558   -0.03638241321130214   -0.0016096796230267677
-0.010597053183575103   -0.03627278400513477   -0.0016592277992350602
-0.007277105521579035   -0.02997127952920454   -0.0016374231242263402
-0.01087793659118923   -0.030020098926322982   -0.0017318431440058212
-0.010520257554163944   -0.03632260971617487   -0.0017013437870076042
-0.00725721706984422   -0.030020772060542964   -0.001622485677988516
-0.010844178418682874   -0.03008452865638859   -0.0017390335886185292
-0.010520257554163944   -0.03632260971617487   -0.0017013437870076042
-0.007204007515351558   -0.03638241321130214   -0.0016096796230267677
-0.00725721706984422   -0.030020772060542964   -0.001622485677988516
-0.007146511752919135   -0.03643505312197011   -0.0016254801260790102
-0.010844178418682874   -0.03008452865638859   -0.0017390335886185292
-0.007226430647202956   -0.030075698006966998   -0.0016142887648362754
-0.007146511752919135   -0.03643505312197011   -0.0016254801260790102
-0.00725721706984422   -0.030020772060542964   -0.001622485677988516
-0.010844178418682874   -0.03008452865638859   -0.0017390335886185292
-0.007146511752919135   -0.03643505312197011   -0.0016254801260790102
-0.010432770914527607   -0.03638390154869108   -0.0017542997439610787
-0.010520257554163944   -0.03632260971617487   -0.0017013437870076042
-0.010844178418682874   -0.03008452865638859   -0.0017390335886185292
-0.007146511752919135   -0.03643505312197011   -0.0016254801260790102
-0.010520257554163944   -0.03632260971617487   -0.0017013437870076042
-0.00725721706984422   -0.030020772060542964   -0.001622485677988516
-0.010844178418682874   -0.03008452865638859   -0.0017390335886185292
-0.010432770914527607   -0.03638390154869108   -0.0017542997439610787
-0.007226430647202956   -0.030075698006966998   -0.0016142887648362754
-0.01078972053098252   -0.03016762141468074   -0.0017568122077046223
-0.010432770914527607   -0.03638390154869108   -0.0017542997439610787
-0.007146511752919135   -0.03643505312197011   -0.0016254801260790102
-0.007226430647202956   -0.030075698006966998   -0.0016142887648362754
-0.007084855616585973   -0.03650665350539125   -0.0016483726986975815
-0.01078972053098252   -0.03016762141468074   -0.0017568122077046223
-0.007186700934561654   -0.03013984566240895   -0.0016127165247245623
-0.007084855616585973   -0.03650665350539125   -0.0016483726986975815
-0.007226430647202956   -0.030075698006966998   -0.0016142887648362754
-0.01078972053098252   -0.03016762141468074   -0.0017568122077046223
-0.007084855616585973   -0.03650665350539125   -0.0016483726986975815
-0.010313764839436574   -0.03647727149021138   -0.0018183043859833676
-0.010432770914527607   -0.03638390154869108   -0.0017542997439610787
-0.01078972053098252   -0.03016762141468074   -0.0017568122077046223
-0.007084855616585973   -0.03650665350539125   -0.0016483726986975815
-0.010432770914527607   -0.03638390154869108   -0.0017542997439610787
-0.007226430647202956   -0.030075698006966998   -0.0016142887648362754
-0.007277105521579035   -0.02997127952920454   -0.0016374231242263402
-0.007246533416419274   -0.03634551724747598   -0.0016007734843207617
-0.0039663411040757116   -0.029974964056572927   -0.001572775652642753
-0.00725721706984422   -0.030020772060542964   -0.001622485677988516
-0.007246533416419274   -0.03634551724747598   -0.0016007734843207617
-0.004242230524475239   -0.03637415573741319   -0.0015633949616923929
-0.0039663411040757116   -0.029974964056572927   -0.001572775652642753
-0.004195966028808087   -0.036393289903492686   -0.0015439803715136338
-0.00725721706984422   -0.030020772060542964   -0.001622485677988516
-0.003939887946046834   -0.030003302285186464   -0.0015461214560886073
-0.004195966028808087   -0.036393289903492686   -0.0015439803715136338
-0.0039663411040757116   -0.029974964056572927   -0.001572775652642753
-0.00725721706984422   -0.030020772060542964   -0.001622485677988516
-0.004195966028808087   -0.036393289903492686   -0.0015439803715136338
-0.007204007515351558   -0.03638241321130214   -0.0016096796230267677
-0.007246533416419274   -0.03634551724747598   -0.0016007734843207617
-0.00725721706984422   -0.030020772060542964   -0.001622485677988516
-0.004195966028808087   -0.036393289903492686   -0.0015439803715136338
-0.007246533416419274   -0.03634551724747598   -0.0016007734843207617
-0.0039663411040757116   -0.029974964056572927   -0.001572775652642753
-0.00725721706984422   -0.030020772060542964   -0.001622485677988516
-0.007204007515351558   -0.03638241321130214   -0.0016096796230267677
-0.003939887946046834   -0.030003302285186464   -0.0015461214560886073
-0.007226430647202956   -0.030075698006966998   -0.0016142887648362754
-0.007204007515351558   -0.03638241321130214   -0.0016096796230267677
-0.004195966028808087   -0.036393289903492686   -0.0015439803715136338
-0.003939887946046834   -0.030003302285186464   -0.0015461214560886073
-0.00414621622883542   -0.03642755251496244   -0.0015313750838293451
-0.007226430647202956   -0.030075698006966998   -0.0016142887648362754
-0.0039100643974980115   -0.03003784316318876   -0.0015262307866644198
-0.00414621622883542   -0.03642755251496244   -0.0015313750838293451
-0.003939887946046834   -0.030003302285186464   -0.0015461214560886073
-0.007226430647202956   -0.030075698006966998   -0.0016142887648362754
-0.00414621622883542   -0.03642755251496244   -0.0015313750838293451
-0.007146511752919135   -0.03643505312197011   -0.0016254801260790102
-0.007204007515351558   -0.03638241321130214   -0.0016096796230267677
-0.007226430647202956   -0.030075698006966998   -0.0016142887648362754
-0.00414621622883542   -0.03642755251496244   -0.0015313750838293451
-0.007204007515351558   -0.03638241321130214   -0.0016096796230267677
-0.003939887946046834   -0.030003302285186464   -0.0015461214560886073
-0.007226430647202956   -0.030075698006966998   -0.0016142887648362754
-0.007146511752919135   -0.03643505312197011   -0.0016254801260790102
-0.0039100643974980115   -0.03003784316318876   -0.0015262307866644198
-0.007186700934561654   -0.03013984566240895   -0.0016127165247245623
-0.007146511752919135   -0.03643505312197011   -0.0016254801260790102
-0.00414621622883542   -0.03642755251496244   -0.0015313750838293451
-0.0039100643974980115   -0.03003784316318876   -0.0015262307866644198
-0.00409508025891352   -0.036477372274351536   -0.0015259157174584835
-0.007186700934561654   -0.03013984566240895   -0.0016127165247245623
-0.0038779513974119286   -0.030078694567677935   -0.0015133264385191517
-0.00409508025891352   -0.036477372274351536   -0.0015259157174584835
-0.0039100643974980115   -0.03003784316318876   -0.0015262307866644198
-0.007186700934561654   -0.03013984566240895   -0.0016127165247245623
-0.00409508025891352   -0.036477372274351536   -0.0015259157174584835
-0.007084855616585973   -0.03650665350539125   -0.0016483726986975815
-0.007146511752919135   -0.03643505312197011   -0.0016254801260790102
-0.007186700934561654   -0.03013984566240895   -0.0016127165247245623
-0.00409508025891352   -0.036477372274351536   -0.0015259157174584835
-0.007146511752919135   -0.03643505312197011   -0.0016254801260790102
-0.0039100643974980115   -0.03003784316318876   -0.0015262307866644198
-0.0039663411040757116   -0.029974964056572927   -0.001572775652642753
-0.004242230524475239   -0.03637415573741319   -0.0015633949616923929
-0.0007491567206434395   -0.029957296000538623   -0.0015465391581222965
-0.003939887946046834   -0.030003302285186464   -0.0015461214560886073
-0.004242230524475239   -0.03637415573741319   -0.0015633949616923929
-0.0013287623276899444   -0.03635189187174926   -0.0015574521791865477
-0.0007491567206434395   -0.029957296000538623   -0.0015465391581222965
-0.0012775989598130426   -0.03635221126529766   -0.0015106882735581113
-0.003939887946046834   -0.030003302285186464   -0.0015461214560886073
-0.000717935165325357   -0.029963746026714443   -0.0015087526018499442
-0.0012775989598130426   -0.03635221126529766   -0.0015106882735581113
-0.0007491567206434395   -0.029957296000538623   -0.0015465391581222965
-0.003939887946046834   -0.030003302285186464   -0.0015461214560886073
-0.0012775989598130426   -0.03635221126529766   -0.0015106882735581113
-0.004195966028808087   -0.036393289903492686   -0.0015439803715136338
-0.004242230524475239   -0.03637415573741319   -0.0015633949616923929
-0.003939887946046834   -0.030003302285186464   -0.0015461214560886073
-0.0012775989598130426   -0.03635221126529766   -0.0015106882735581113
-0.004242230524475239   -0.03637415573741319   -0.0015633949616923929
-0.0007491567206434395   -0.029957296000538623   -0.0015465391581222965
-0.003939887946046834   -0.030003302285186464   -0.0015461214560886073
-0.004195966028808087   -0.036393289903492686   -0.0015439803715136338
-0.000717935165325357   -0.029963746026714443   -0.0015087526018499442
-0.0039100643974980115   -0.03003784316318876   -0.0015262307866644198
-0.004195966028808087   -0.036393289903492686   -0.0015439803715136338
-0.0012775989598130426   -0.03635221126529766   -0.0015106882735581113
-0.000717935165325357   -0.029963746026714443   -0.0015087526018499442
-0.001227764427957853   -0.03636656444252985   -0.0014707529521220469
-0.0039100643974980115   -0.03003784316318876   -0.0015262307866644198
-0.00068837751277063   -0.029975921253422966   -0.0014776846130813075
-0.001227764427957853   -0.03636656444252985   -0.0014707529521220469
-0.000717935165325357   -0.029963746026714443   -0.0015087526018499442
-0.0039100643974980115   -0.03003784316318876   -0.0015262307866644198
-0.001227764427957853   -0.03636656444252985   -0.0014707529521220469
-0.00414621622883542   -0.03642755251496244   -0.0015313750838293451
-0.004195966028808087   -0.036393289903492686   -0.0015439803715136338
-0.0039100643974980115   -0.03003784316318876   -0.0015262307866644198
-0.001227764427957853   -0.03636656444252985   -0.0014707529521220469
-0.004195966028808087   -0.036393289903492686   -0.0015439803715136338
-0.000717935165325357   -0.029963746026714443   -0.0015087526018499442
-0.0039100643974980115   -0.03003784316318876   -0.0015262307866644198
-0.00414621622883542   -0.03642755251496244   -0.0015313750838293451
-0.00068837751277063   -0.029975921253422966   -0.0014776846130813075
-0.0038779513974119286   -0.030078694567677935   -0.0015133264385191517
-0.00414621622883542   -0.03642755251496244   -0.0015313750838293451
-0.001227764427957853   -0.03636656444252985   -0.0014707529521220469
-0.00068837751277063   -0.029975921253422966   -0.0014776846130813075
-0.0011832653926032554   -0.036396129496131836   -0.0014378825010635632
-0.0038779513974119286   -0.030078694567677935   -0.0015133264385191517
-0.0006632108964801951   -0.029994095670753673   -0.0014535682789210682
-0.0011832653926032554   -0.036396129496131836   -0.0014378825010635632
-0.00068837751277063   -0.029975921253422966   -0.0014776846130813075
-0.0038779513974119286   -0.030078694567677935   -0.0015133264385191517
-0.0011832653926032554   -0.036396129496131836   -0.0014378825010635632
-0.00409508025891352   -0.036477372274351536   -0.0015259157174584835
-0.00414621622883542   -0.03642755251496244   -0.0015313750838293451
-0.0038779513974119286   -0.030078694567677935   -0.0015133264385191517
-0.0011832653926032554   -0.036396129496131836   -0.0014378825010635632
-0.00414621622883542   -0.03642755251496244   -0.0015313750838293451
-0.00068837751277063   -0.029975921253422966   -0.0014776846130813075
-0.0007491567206434395   -0.029957296000538623   -0.0015465391581222965
-0.0013287623276899444   -0.03635189187174926   -0.0015574521791865477
0.0025645300638314577   -0.02991807678646539   -0.0015599967693194208
-0.000717935165325357   -0.029963746026714443   -0.0015087526018499442
-0.0013287623276899444   -0.03635189187174926   -0.0015574521791865477
0.0016844952799879393   -0.03628016575677647   -0.001585408213776417
0.0025645300638314577   -0.02991807678646539   -0.0015599967693194208
0.0017470645510972577   -0.03626040041651918   -0.0015115401847082704
-0.000717935165325357   -0.029963746026714443   -0.0015087526018499442
0.0026042880431872964   -0.029902552298504755   -0.0015112638122602657
0.0017470645510972577   -0.03626040041651918   -0.0015115401847082704
0.0025645300638314577   -0.02991807678646539   -0.0015599967693194208
-0.000717935165325357   -0.029963746026714443   -0.0015087526018499442
0.0017470645510972577   -0.03626040041651918   -0.0015115401847082704
-0.0012775989598130426   -0.03635221126529766   -0.0015106882735581113
-0.0013287623276899444   -0.03635189187174926   -0.0015574521791865477
-0.000717935165325357   -0.029963746026714443   -0.0015087526018499442
0.0017470645510972577   -0.03626040041651918   -0.0015115401847082704
-0.0013287623276899444   -0.03635189187174926   -0.0015574521791865477
0.0025645300638314577   -0.02991807678646539   -0.0015599967693194208
-0.000717935165325357   -0.029963746026714443   -0.0015087526018499442
-0.0012775989598130426   -0.03635221126529766   -0.0015106882735581113
0.0026042880431872964   -0.029902552298504755   -0.0015112638122602657
-0.00068837751277063   -0.029975921253422966   -0.0014776846130813075
-0.0012775989598130426   -0.03635221126529766   -0.0015106882735581113
0.0017470645510972577   -0.03626040041651918   -0.0015115401847082704
0.0026042880431872964   -0.029902552298504755   -0.0015112638122602657
0.0018112689205851175   -0.0362566742316201   -0.001444934809606953
-0.00068837751277063   -0.029975921253422966   -0.0014776846130813075
0.0026411080248233054   -0.029894470711190366   -0.0014692274802134793
0.0018112689205851175   -0.0362566742316201   -0.001444934809606953
0.0026042880431872964   -0.029902552298504755   -0.0015112638122602657
-0.00068837751277063   -0.029975921253422966   -0.0014776846130813075
0.0018112689205851175   -0.0362566742316201   -0.001444934809606953
-0.001227764427957853   -0.03636656444252985   -0.0014707529521220469
-0.0012775989598130426   -0.03635221126529766   -0.0015106882735581113
-0.00068837751277063   -0.029975921253422966   -0.0014776846130813075
0.0018112689205851175   -0.0362566742316201   -0.001444934809606953
-0.0012775989598130426   -0.03635221126529766   -0.0015106882735581113
0.0026042880431872964   -0.029902552298504755   -0.0015112638122602657
-0.00068837751277063   -0.029975921253422966   -0.0014776846130813075
-0.001227764427957853   -0.03636656444252985   -0.0014707529521220469
0.0026411080248233054   -0.029894470711190366   -0.0014692274802134793
-0.0006632108964801951   -0.029994095670753673   -0.0014535682789210682
-0.001227764427957853   -0.03636656444252985   -0.0014707529521220469
0.0018112689205851175   -0.0362566742316201   -0.001444934809606953
0.0026411080248233054   -0.029894470711190366   -0.0014692274802134793
0.001854048626643329   -0.03626603756870239   -0.001384633319532101
-0.0006632108964801951   -0.029994095670753673   -0.0014535682789210682
0.0026610916724651955   -0.029889967079650415   -0.001433450547703891
0.001854048626643329   -0.03626603756870239   -0.001384633319532101
0.0026411080248233054   -0.029894470711190366   -0.0014692274802134793
-0.0006632108964801951   -0.029994095670753673   -0.0014535682789210682
0.001854048626643329   -0.03626603756870239   -0.001384633319532101
-0.0011832653926032554   -0.036396129496131836   -0.0014378825010635632
-0.001227764427957853   -0.03636656444252985   -0.0014707529521220469
-0.0006632108964801951   -0.029994095670753673   -0.0014535682789210682
0.001854048626643329   -0.03626603756870239   -0.001384633319532101
-0.001227764427957853   -0.03636656444252985   -0.0014707529521220469
0.0026411080248233054   -0.029894470711190366   -0.0014692274802134793
0.0025645300638314577   -0.02991807678646539   -0.0015599967693194208
0.0016844952799879393   -0.03628016575677647   -0.001585408213776417
0.006111399571054516   -0.029852078897521717   -0.0016153011021849324
0.0026042880431872964   -0.029902552298504755   -0.0015112638122602657
0.0016844952799879393   -0.03628016575677647   -0.001585408213776417
0.004888609148168432   -0.03615681353654076   -0.0016571298746268144
0.006111399571054516   -0.029852078897521717   -0.0016153011021849324
0.005055128591701672   -0.036116174493825065   -0.0015495748957664057
0.0026042880431872964   -0.029902552298504755   -0.0015112638122602657
0.006214778715699189   -0.029816611629880373   -0.0015512230992972055
0.005055128591701672   -0.036116174493825065   -0.0015495748957664057
0.006111399571054516   -0.029852078897521717   -0.0016153011021849324
0.0026042880431872964   -0.029902552298504755   -0.0015112638122602657
0.005055128591701672   -0.036116174493825065   -0.0015495748957664057
0.0017470645510972577   -0.03626040041651918   -0.0015115401847082704
0.0016844952799879393   -0.03628016575677647   -0.001585408213776417
0.0026042880431872964   -0.029902552298504755   -0.0015112638122602657
0.005055128591701672   -0.036116174493825065   -0.0015495748957664057
0.0016844952799879393   -0.03628016575677647   -0.001585408213776417
0.006111399571054516   -0.029852078897521717   -0.0016153011021849324
0.0026042880431872964   -0.029902552298504755   -0.0015112638122602657
0.0017470645510972577   -0.03626040041651918   -0.0015115401847082704
0.006214778715699189   -0.029816611629880373   -0.0015512230992972055
0.0026411080248233054   -0.029894470711190366   -0.0014692274802134793
0.0017470645510972577   -0.03626040041651918   -0.0015115401847082704
0.005055128591701672   -0.036116174493825065   -0.0015495748957664057
0.006214778715699189   -0.029816611629880373   -0.0015512230992972055
0.0051785389910219545   -0.03610496196221099   -0.0014516853040741557
0.0026411080248233054   -0.029894470711190366   -0.0014692274802134793
0.006286006101176725   -0.029799400718111775   -0.001496689980785382
0.0051785389910219545   -0.03610496196221099   -0.0014516853040741557
0.006214778715699189   -0.029816611629880373   -0.0015512230992972055
0.0026411080248233054   -0.029894470711190366   -0.0014692274802134793
0.0051785389910219545   -0.03610496196221099   -0.0014516853040741557
0.0018112689205851175   -0.0362566742316201   -0.001444934809606953
0.0017470645510972577   -0.03626040041651918   -0.0015115401847082704
0.0026411080248233054   -0.029894470711190366   -0.0014692274802134793
0.0051785389910219545   -0.03610496196221099   -0.0014516853040741557
0.0017470645510972577   -0.03626040041651918   -0.0015115401847082704
0.006214778715699189   -0.029816611629880373   -0.0015512230992972055
0.0026411080248233054   -0.029894470711190366   -0.0014692274802134793
0.0018112689205851175   -0.0362566742316201   -0.001444934809606953
0.006286006101176725   -0.029799400718111775   -0.001496689980785382
0.0026610916724651955   -0.029889967079650415   -0.001433450547703891
0.0018112689205851175   -0.0362566742316201   -0.001444934809606953
0.0051785389910219545   -0.03610496196221099   -0.0014516853040741557
0.006286006101176725   -0.029799400718111775   -0.001496689980785382
0.005303842767179971   -0.03610489359067364   -0.0013639066957696474
0.0026610916724651955   -0.029889967079650415   -0.001433450547703891
0.006349504436334639   -0.029780808708336003   -0.0014520999646840543
0.005303842767179971   -0.03610489359067364   -0.0013639066957696474
0.006286006101176725   -0.029799400718111775   -0.001496689980785382
0.0026610916724651955   -0.029889967079650415   -0.001433450547703891
0.005303842767179971   -0.03610489359067364   -0.0013639066957696474
0.001854048626643329   -0.03626603756870239   -0.001384633319532101
0.0018112689205851175   -0.0362566742316201   -0.001444934809606953
0.0026610916724651955   -0.029889967079650415   -0.001433450547703891
0.005303842767179971   -0.03610489359067364   -0.0013639066957696474
0.0018112689205851175   -0.0362566742316201   -0.001444934809606953
0.006286006101176725   -0.029799400718111775   -0.001496689980785382
-0.010597053183575103   -0.03627278400513477   -0.0016592277992350602
-0.009671828192827619   -0.04186050291218462   -0.001547796276376479
-0.007246533416419274   -0.03634551724747598   -0.0016007734843207617
-0.010520257554163944   -0.03632260971617487   -0.0017013437870076042
-0.009671828192827619   -0.04186050291218462   -0.001547796276376479
-0.006852823150705357   -0.04199142821440122   -0.0015384760427258983
-0.007246533416419274   -0.03634551724747598   -0.0016007734843207617
-0.006782708906772452   -0.042010345924646086   -0.001569476705871194
-0.010520257554163944   -0.03632260971617487   -0.0017013437870076042
-0.007204007515351558   -0.03638241321130214   -0.0016096796230267677
-0.006782708906772452   -0.042010345924646086   -0.001569476705871194
-0.007246533416419274   -0.03634551724747598   -0.0016007734843207617
-0.010520257554163944   -0.03632260971617487   -0.0017013437870076042
-0.006782708906772452   -0.042010345924646086   -0.001569476705871194
-0.009525574916495598   -0.041888553151568024   -0.0016346828919030934
-0.009671828192827619   -0.04186050291218462   -0.001547796276376479
-0.010520257554163944   -0.03632260971617487   -0.0017013437870076042
-0.006782708906772452   -0.042010345924646086   -0.001569476705871194
-0.009671828192827619   -0.04186050291218462   -0.001547796276376479
-0.007246533416419274   -0.03634551724747598   -0.0016007734843207617
-0.010520257554163944   -0.03632260971617487   -0.0017013437870076042
-0.009525574916495598   -0.041888553151568024   -0.0016346828919030934
-0.007204007515351558   -0.03638241321130214   -0.0016096796230267677
-0.010432770914527607   -0.03638390154869108   -0.0017542997439610787
-0.009525574916495598   -0.041888553151568024   -0.0016346828919030934
-0.006782708906772452   -0.042010345924646086   -0.001569476705871194
-0.007204007515351558   -0.03638241321130214   -0.0016096796230267677
-0.006694634524404788   -0.042055765017317434   -0.001607458148362321
-0.010432770914527607   -0.03638390154869108   -0.0017542997439610787
-0.007146511752919135   -0.03643505312197011   -0.0016254801260790102
-0.006694634524404788   -0.042055765017317434   -0.001607458148362321
-0.007204007515351558   -0.03638241321130214   -0.0016096796230267677
-0.010432770914527607   -0.03638390154869108   -0.0017542997439610787
-0.006694634524404788   -0.042055765017317434   -0.001607458148362321
-0.009379807295145553   -0.041941859875876134   -0.0017329348575354881
-0.009525574916495598   -0.041888553151568024   -0.0016346828919030934
-0.010432770914527607   -0.03638390154869108   -0.0017542997439610787
-0.006694634524404788   -0.042055765017317434   -0.001607458148362321
-0.009525574916495598   -0.041888553151568024   -0.0016346828919030934
-0.007204007515351558   -0.03638241321130214   -0.0016096796230267677
-0.010432770914527607   -0.03638390154869108   -0.0017542997439610787
-0.009379807295145553   -0.041941859875876134   -0.0017329348575354881
-0.007146511752919135   -0.03643505312197011   -0.0016254801260790102
-0.010313764839436574   -0.03647727149021138   -0.0018183043859833676
-0.009379807295145553   -0.041941859875876134   -0.0017329348575354881
-0.006694634524404788   -0.042055765017317434   -0.001607458148362321
-0.007146511752919135   -0.03643505312197011   -0.0016254801260790102
-0.006607754909076369   -0.042130267203723766   -0.0016523544838802596
-0.010313764839436574   -0.03647727149021138   -0.0018183043859833676
-0.007084855616585973   -0.03650665350539125   -0.0016483726986975815
-0.006607754909076369   -0.042130267203723766   -0.0016523544838802596
-0.007146511752919135   -0.03643505312197011   -0.0016254801260790102
-0.010313764839436574   -0.03647727149021138   -0.0018183043859833676
-0.006607754909076369   -0.042130267203723766   -0.0016523544838802596
-0.009193120909612405   -0.04204126211715266   -0.0018423517553403435
-0.009379807295145553   -0.041941859875876134   -0.0017329348575354881
-0.010313764839436574   -0.03647727149021138   -0.0018183043859833676
-0.006607754909076369   -0.042130267203723766   -0.0016523544838802596
-0.009379807295145553   -0.041941859875876134   -0.0017329348575354881
-0.007146511752919135   -0.03643505312197011   -0.0016254801260790102
-0.007246533416419274   -0.03634551724747598   -0.0016007734843207617
-0.006852823150705357   -0.04199142821440122   -0.0015384760427258983
-0.004242230524475239   -0.03637415573741319   -0.0015633949616923929
-0.007204007515351558   -0.03638241321130214   -0.0016096796230267677
-0.006852823150705357   -0.04199142821440122   -0.0015384760427258983
-0.004410509882162253   -0.04205253869171936   -0.0015348442395290076
-0.004242230524475239   -0.03637415573741319   -0.0015633949616923929
-0.0043386143521800926   -0.04205870868259359   -0.0015209182324805975
-0.007204007515351558   -0.03638241321130214   -0.0016096796230267677
-0.004195966028808087   -0.036393289903492686   -0.0015439803715136338
-0.0043386143521800926   -0.04205870868259359   -0.0015209182324805975
-0.004242230524475239   -0.03637415573741319   -0.0015633949616923929
-0.007204007515351558   -0.03638241321130214   -0.0016096796230267677
-0.0043386143521800926   -0.04205870868259359   -0.0015209182324805975
-0.006782708906772452   -0.042010345924646086   -0.001569476705871194
-0.006852823150705357   -0.04199142821440122   -0.0015384760427258983
-0.007204007515351558   -0.03638241321130214   -0.0016096796230267677
-0.0043386143521800926   -0.04205870868259359   -0.0015209182324805975
-0.006852823150705357   -0.04199142821440122   -0.0015384760427258983
-0.004242230524475239   -0.03637415573741319   -0.0015633949616923929
-0.007204007515351558   -0.03638241321130214   -0.0016096796230267677
-0.006782708906772452   -0.042010345924646086   -0.001569476705871194
-0.004195966028808087   -0.036393289903492686   -0.0015439803715136338
-0.007146511752919135   -0.03643505312197011   -0.0016254801260790102
-0.006782708906772452   -0.042010345924646086   -0.001569476705871194
-0.0043386143521800926   -0.04205870868259359   -0.0015209182324805975
-0.004195966028808087   -0.036393289903492686   -0.0015439803715136338
-0.004264393573689776   -0.042088551309859085   -0.0015137660949880833
-0.007146511752919135   -0.03643505312197011   -0.0016254801260790102
-0.00414621622883542   -0.03642755251496244   -0.0015313750838293451
-0.004264393573689776   -0.042088551309859085   -0.0015137660949880833
-0.004195966028808087   -0.036393289903492686   -0.0015439803715136338
-0.007146511752919135   -0.03643505312197011   -0.0016254801260790102
-0.004264393573689776   -0.042088551309859085   -0.0015137660949880833
-0.006694634524404788   -0.042055765017317434   -0.001607458148362321
-0.006782708906772452   -0.042010345924646086   -0.001569476705871194
-0.007146511752919135   -0.03643505312197011   -0.0016254801260790102
-0.004264393573689776   -0.042088551309859085   -0.0015137660949880833
-0.006782708906772452   -0.042010345924646086   -0.001569476705871194
-0.004195966028808087   -0.036393289903492686   -0.0015439803715136338
-0.007146511752919135   -0.03643505312197011   -0.0016254801260790102
-0.006694634524404788   -0.042055765017317434   -0.001607458148362321
-0.00414621622883542   -0.03642755251496244   -0.0015313750838293451
-0.007084855616585973   -0.03650665350539125   -0.0016483726986975815
-0.006694634524404788   -0.042055765017317434   -0.001607458148362321
-0.004264393573689776   -0.042088551309859085   -0.0015137660949880833
-0.00414621622883542   -0.03642755251496244   -0.0015313750838293451
-0.0041902856506107235   -0.0421434411802057   -0.0015133075410277618
-0.007084855616585973   -0.03650665350539125   -0.0016483726986975815
-0.00409508025891352   -0.036477372274351536   -0.0015259157174584835
-0.0041902856506107235   -0.0421434411802057   -0.0015133075410277618
-0.00414621622883542   -0.03642755251496244   -0.0015313750838293451
-0.007084855616585973   -0.03650665350539125   -0.0016483726986975815
-0.0041902856506107235   -0.0421434411802057   -0.0015133075410277618
-0.006607754909076369   -0.042130267203723766   -0.0016523544838802596
-0.006694634524404788   -0.042055765017317434   -0.001607458148362321
-0.007084855616585973   -0.03650665350539125   -0.0016483726986975815
-0.0041902856506107235   -0.0421434411802057   -0.0015133075410277618
-0.006694634524404788   -0.042055765017317434   -0.001607458148362321
-0.00414621622883542   -0.03642755251496244   -0.0015313750838293451
-0.004242230524475239   -0.03637415573741319   -0.0015633949616923929
-0.004410509882162253   -0.04205253869171936   -0.0015348442395290076
-0.0013287623276899444   -0.03635189187174926   -0.0015574521791865477
-0.004195966028808087   -0.036393289903492686   -0.0015439803715136338
-0.004410509882162253   -0.04205253869171936   -0.0015348442395290076
-0.0020491299298619073   -0.04204101517343041   -0.001552535935127418
-0.0013287623276899444   -0.03635189187174926   -0.0015574521791865477
-0.0019703835346219657   -0.04203285204359871   -0.001495255167905537
-0.004195966028808087   -0.036393289903492686   -0.0015439803715136338
-0.0012775989598130426   -0.03635221126529766   -0.0015106882735581113
-0.0019703835346219657   -0.04203285204359871   -0.001495255167905537
-0.0013287623276899444   -0.03635189187174926   -0.0015574521791865477
-0.004195966028808087   -0.036393289903492686   -0.0015439803715136338
-0.0019703835346219657   -0.04203285204359871   -0.001495255167905537
-0.0043386143521800926   -0.04205870868259359   -0.0015209182324805975
-0.004410509882162253   -0.04205253869171936   -0.0015348442395290076
-0.004195966028808087   -0.036393289903492686   -0.0015439803715136338
-0.0019703835346219657   -0.04203285204359871   -0.001495255167905537
-0.004410509882162253   -0.04205253869171936   -0.0015348442395290076
-0.0013287623276899444   -0.03635189187174926   -0.0015574521791865477
-0.004195966028808087   -0.036393289903492686   -0.0015439803715136338
-0.0043386143521800926   -0.04205870868259359   -0.0015209182324805975
-0.0012775989598130426   -0.03635221126529766   -0.0015106882735581113
-0.00414621622883542   -0.03642755251496244   -0.0015313750838293451
-0.0043386143521800926   -0.04205870868259359   -0.0015209182324805975
-0.0019703835346219657   -0.04203285204359871   -0.001495255167905537
-0.0012775989598130426   -0.03635221126529766   -0.0015106882735581113
-0.0018939357537326863   -0.04204611928555593   -0.0014451959636720899
-0.00414621622883542   -0.03642755251496244   -0.0015313750838293451
-0.001227764427957853   -0.03636656444252985   -0.0014707529521220469
-0.0018939357537326863   -0.04204611928555593   -0.0014451959636720899
-0.0012775989598130426   -0.03635221126529766   -0.0015106882735581113
-0.00414621622883542   -0.03642755251496244   -0.0015313750838293451
-0.0018939357537326863   -0.04204611928555593   -0.0014451959636720899
-0.004264393573689776   -0.042088551309859085   -0.0015137660949880833
-0.0043386143521800926   -0.04205870868259359   -0.0015209182324805975
-0.00414621622883542   -0.03642755251496244   -0.0015313750838293451
-0.0018939357537326863   -0.04204611928555593   -0.0014451959636720899
-0.0043386143521800926   -0.04205870868259359   -0.0015209182324805975
-0.0012775989598130426   -0.03635221126529766   -0.0015106882735581113
-0.00414621622883542   -0.03642755251496244   -0.0015313750838293451
-0.004264393573689776   -0.042088551309859085   -0.0015137660949880833
-0.001227764427957853   -0.03636656444252985   -0.0014707529521220469
-0.00409508025891352   -0.036477372274351536   -0.0015259157174584835
-0.004264393573689776   -0.042088551309859085   -0.0015137660949880833
-0.0018939357537326863   -0.04204611928555593   -0.0014451959636720899
-0.001227764427957853   -0.03636656444252985   -0.0014707529521220469
-0.0018248461733946888   -0.042083883334534014   -0.0014017363942193078
-0.00409508025891352   -0.036477372274351536   -0.0015259157174584835
-0.0011832653926032554   -0.036396129496131836   -0.0014378825010635632
-0.0018248461733946888   -0.042083883334534014   -0.0014017363942193078
-0.001227764427957853   -0.03636656444252985   -0.0014707529521220469
-0.00409508025891352   -0.036477372274351536   -0.0015259157174584835
-0.0018248461733946888   -0.042083883334534014   -0.0014017363942193078
-0.0041902856506107235   -0.0421434411802057   -0.0015133075410277618
-0.004264393573689776   -0.042088551309859085   -0.0015137660949880833
-0.00409508025891352   -0.036477372274351536   -0.0015259157174584835
-0.0018248461733946888   -0.042083883334534014   -0.0014017363942193078
-0.004264393573689776   -0.042088551309859085   -0.0015137660949880833
-0.001227764427957853   -0.03636656444252985   -0.0014707529521220469
-0.0013287623276899444   -0.03635189187174926   -0.0015574521791865477
-0.0020491299298619073   -0.04204101517343041   -0.001552535935127418
0.0016844952799879393   -0.03628016575677647   -0.001585408213776417
-0.0012775989598130426   -0.03635221126529766   -0.0015106882735581113
-0.0020491299298619073   -0.04204101517343041   -0.001552535935127418
0.0004218792668253484   -0.04195425066986059   -0.0015953680792099771
0.0016844952799879393   -0.03628016575677647   -0.001585408213776417
0.0005177192006827834   -0.041927914458481375   -0.0014948686416549131
-0.0012775989598130426   -0.03635221126529766   -0.0015106882735581113
0.0017470645510972577   -0.03626040041651918   -0.0015115401847082704
0.0005177192006827834   -0.041927914458481375   -0.0014948686416549131
0.0016844952799879393   -0.03628016575677647   -0.001585408213776417
-0.0012775989598130426   -0.03635221126529766   -0.0015106882735581113
0.0005177192006827834   -0.041927914458481375   -0.0014948686416549131
-0.0019703835346219657   -0.04203285204359871   -0.001495255167905537
-0.0020491299298619073   -0.04204101517343041   -0.001552535935127418
-0.0012775989598130426   -0.03635221126529766   -0.0015106882735581113
0.0005177192006827834   -0.041927914458481375   -0.0014948686416549131
-0.0020491299298619073   -0.04204101517343041   -0.001552535935127418
0.0016844952799879393   -0.03628016575677647   -0.001585408213776417
-0.0012775989598130426   -0.03635221126529766   -0.0015106882735581113
-0.0019703835346219657   -0.04203285204359871   -0.001495255167905537
0.0017470645510972577   -0.03626040041651918   -0.0015115401847082704
-0.001227764427957853   -0.03636656444252985   -0.0014707529521220469
-0.0019703835346219657   -0.04203285204359871   -0.001495255167905537
0.0005177192006827834   -0.041927914458481375   -0.0014948686416549131
0.0017470645510972577   -0.03626040041651918   -0.0015115401847082704
0.0006187931206803522   -0.04192553537102755   -0.0014035174002602407
-0.001227764427957853   -0.03636656444252985   -0.0014707529521220469
0.0018112689205851175   -0.0362566742316201   -0.001444934809606953
0.0006187931206803522   -0.04192553537102755   -0.0014035174002602407
0.0017470645510972577   -0.03626040041651918   -0.0015115401847082704
-0.001227764427957853   -0.03636656444252985   -0.0014707529521220469
0.0006187931206803522   -0.04192553537102755   -0.0014035174002602407
-0.0018939357537326863   -0.04204611928555593   -0.0014451959636720899
-0.0019703835346219657   -0.04203285204359871   -0.001495255167905537
-0.001227764427957853   -0.03636656444252985   -0.0014707529521220469
0.0006187931206803522   -0.04192553537102755   -0.0014035174002602407
-0.0019703835346219657   -0.04203285204359871   -0.001495255167905537
0.0017470645510972577   -0.03626040041651918   -0.0015115401847082704
-0.001227764427957853   -0.03636656444252985   -0.0014707529521220469
-0.0018939357537326863   -0.04204611928555593   -0.0014451959636720899
0.0018112689205851175   -0.0362566742316201   -0.001444934809606953
-0.0011832653926032554   -0.036396129496131836   -0.0014378825010635632
-0.0018939357537326863   -0.04204611928555593   -0.0014451959636720899
0.0006187931206803522   -0.04192553537102755   -0.0014035174002602407
0.0018112689205851175   -0.0362566742316201   -0.001444934809606953
0.0006927133311658766   -0.041946012624626536   -0.0013184623546948755
-0.0011832653926032554   -0.036396129496131836   -0.0014378825010635632
0.001854048626643329   -0.03626603756870239   -0.001384633319532101
0.0006927133311658766   -0.041946012624626536   -0.0013184623546948755
0.0018112689205851175   -0.0362566742316201   -0.001444934809606953
-0.0011832653926032554   -0.036396129496131836   -0.0014378825010635632
0.0006927133311658766   -0.041946012624626536   -0.0013184623546948755
-0.0018248461733946888   -0.042083883334534014   -0.0014017363942193078
-0.0018939357537326863   -0.04204611928555593   -0.0014451959636720899
-0.0011832653926032554   -0.036396129496131836   -0.0014378825010635632
0.0006927133311658766   -0.041946012624626536   -0.0013184623546948755
-0.0018939357537326863   -0.04204611928555593   -0.0014451959636720899
0.0018112689205851175   -0.0362566742316201   -0.001444934809606953
0.0016844952799879393   -0.03628016575677647   -0.001585408213776417
0.0004218792668253484   -0.04195425066986059   -0.0015953680792099771
0.004888609148168432   -0.03615681353654076   -0.0016571298746268144
0.0017470645510972577   -0.03626040041651918   -0.0015115401847082704
0.0004218792668253484   -0.04195425066986059   -0.0015953680792099771
0.0030543035432568756   -0.04178404955272591   -0.0016865931196846542
0.004888609148168432   -0.03615681353654076   -0.0016571298746268144
0.003297619444577359   -0.04173356293233625   -0.0015327486633733246
0.0017470645510972577   -0.03626040041651918   -0.0015115401847082704
0.005055128591701672   -0.036116174493825065   -0.0015495748957664057
0.003297619444577359   -0.04173356293233625   -0.0015327486633733246
0.004888609148168432   -0.03615681353654076   -0.0016571298746268144
0.0017470645510972577   -0.03626040041651918   -0.0015115401847082704
0.003297619444577359   -0.04173356293233625   -0.0015327486633733246
0.0005177192006827834   -0.041927914458481375   -0.0014948686416549131
0.0004218792668253484   -0.04195425066986059   -0.0015953680792099771
0.0017470645510972577   -0.03626040041651918   -0.0015115401847082704
0.003297619444577359   -0.04173356293233625   -0.0015327486633733246
0.0004218792668253484   -0.04195425066986059   -0.0015953680792099771
0.004888609148168432   -0.03615681353654076   -0.0016571298746268144
0.0017470645510972577   -0.03626040041651918   -0.0015115401847082704
0.0005177192006827834   -0.041927914458481375   -0.0014948686416549131
0.005055128591701672   -0.036116174493825065   -0.0015495748957664057
0.0018112689205851175   -0.0362566742316201   -0.001444934809606953
0.0005177192006827834   -0.041927914458481375   -0.0014948686416549131
0.003297619444577359   -0.04173356293233625   -0.0015327486633733246
0.005055128591701672   -0.036116174493825065   -0.0015495748957664057
0.0034842173936801865   -0.041724818610213536   -0.0013902512071125256
0.0018112689205851175   -0.0362566742316201   -0.001444934809606953
0.0051785389910219545   -0.03610496196221099   -0.0014516853040741557
0.0034842173936801865   -0.041724818610213536   -0.0013902512071125256
0.005055128591701672   -0.036116174493825065   -0.0015495748957664057
0.0018112689205851175   -0.0362566742316201   -0.001444934809606953
0.0034842173936801865   -0.041724818610213536   -0.0013902512071125256
0.0006187931206803522   -0.04192553537102755   -0.0014035174002602407
0.0005177192006827834   -0.041927914458481375   -0.0014948686416549131
0.0018112689205851175   -0.0362566742316201   -0.001444934809606953
0.0034842173936801865   -0.041724818610213536   -0.0013902512071125256
0.0005177192006827834   -0.041927914458481375   -0.0014948686416549131
0.005055128591701672   -0.036116174493825065   -0.0015495748957664057
0.0018112689205851175   -0.0362566742316201   -0.001444934809606953
0.0006187931206803522   -0.04192553537102755   -0.0014035174002602407
0.0051785389910219545   -0.03610496196221099   -0.0014516853040741557
0.001854048626643329   -0.03626603756870239   -0.001384633319532101
0.0006187931206803522   -0.04192553537102755   -0.0014035174002602407
0.0034842173936801865   -0.041724818610213536   -0.0013902512071125256
0.0051785389910219545   -0.03610496196221099   -0.0014516853040741557
0.003677785746664748   -0.041739882040965536   -0.00126026058647853
0.001854048626643329   -0.03626603756870239   -0.001384633319532101
0.005303842767179971   -0.03610489359067364   -0.0013639066957696474
0.003677785746664748   -0.041739882040965536   -0.00126026058647853
0.0051785389910219545   -0.03610496196221099   -0.0014516853040741557
0.001854048626643329   -0.03626603756870239   -0.001384633319532101
0.003677785746664748   -0.041739882040965536   -0.00126026058647853
0.0006927133311658766   -0.041946012624626536   -0.0013184623546948755
0.0006187931206803522   -0.04192553537102755   -0.0014035174002602407
0.001854048626643329   -0.03626603756870239   -0.001384633319532101
0.003677785746664748   -0.041739882040965536   -0.00126026058647853
0.0006187931206803522   -0.04192553537102755   -0.0014035174002602407
0.0051785389910219545   -0.03610496196221099   -0.0014516853040741557
-0.009671828192827619   -0.04186050291218462   -0.001547796276376479
-0.008105538612340948   -0.046244932759889015   -0.0014047135389747521
-0.006852823150705357   -0.04199142821440122   -0.0015384760427258983
-0.009525574916495598   -0.041888553151568024   -0.0016346828919030934
-0.008105538612340948   -0.046244932759889015   -0.0014047135389747521
-0.006098762359764295   -0.04643848770501378   -0.0014627019546201228
-0.006852823150705357   -0.04199142821440122   -0.0015384760427258983
-0.005998094125469368   -0.04642862647746616   -0.0015103936611140915
-0.009525574916495598   -0.041888553151568024   -0.0016346828919030934
-0.006782708906772452   -0.042010345924646086   -0.001569476705871194
-0.005998094125469368   -0.04642862647746616   -0.0015103936611140915
-0.006852823150705357   -0.04199142821440122   -0.0015384760427258983
-0.009525574916495598   -0.041888553151568024   -0.0016346828919030934
-0.005998094125469368   -0.04642862647746616   -0.0015103936611140915
-0.007888052973138333   -0.04623955556654836   -0.001533281458321484
-0.008105538612340948   -0.046244932759889015   -0.0014047135389747521
-0.009525574916495598   -0.041888553151568024   -0.0016346828919030934
-0.005998094125469368   -0.04642862647746616   -0.0015103936611140915
-0.008105538612340948   -0.046244932759889015   -0.0014047135389747521
-0.006852823150705357   -0.04199142821440122   -0.0015384760427258983
-0.009525574916495598   -0.041888553151568024   -0.0016346828919030934
-0.007888052973138333   -0.04623955556654836   -0.001533281458321484
-0.006782708906772452   -0.042010345924646086   -0.001569476705871194
-0.009379807295145553   -0.041941859875876134   -0.0017329348575354881
-0.007888052973138333   -0.04623955556654836   -0.001533281458321484
-0.005998094125469368   -0.04642862647746616   -0.0015103936611140915
-0.006782708906772452   -0.042010345924646086   -0.001569476705871194
-0.005879617008204014   -0.04645667613513392   -0.0015652033554121893
-0.009379807295145553   -0.041941859875876134   -0.0017329348575354881
-0.006694634524404788   -0.042055765017317434   -0.001607458148362321
-0.005879617008204014   -0.04645667613513392   -0.0015652033554121893
-0.006782708906772452   -0.042010345924646086   -0.001569476705871194
-0.009379807295145553   -0.041941859875876134   -0.0017329348575354881
-0.005879617008204014   -0.04645667613513392   -0.0015652033554121893
-0.007687654879281965   -0.04627418140388926   -0.0016718796406016655
-0.007888052973138333   -0.04623955556654836   -0.001533281458321484
-0.009379807295145553   -0.041941859875876134   -0.0017329348575354881
-0.005879617008204014   -0.04645667613513392   -0.0015652033554121893
-0.007888052973138333   -0.04623955556654836   -0.001533281458321484
-0.006782708906772452   -0.042010345924646086   -0.001569476705871194
-0.009379807295145553   -0.041941859875876134   -0.0017329348575354881
-0.007687654879281965   -0.04627418140388926   -0.0016718796406016655
-0.006694634524404788   -0.042055765017317434   -0.001607458148362321
-0.009193120909612405   -0.04204126211715266   -0.0018423517553403435
-0.007687654879281965   -0.04627418140388926   -0.0016718796406016655
-0.005879617008204014   -0.04645667613513392   -0.0015652033554121893
-0.006694634524404788   -0.042055765017317434   -0.001607458148362321
-0.00577213918986735   -0.0465232872303025   -0.001626677339292431
-0.009193120909612405   -0.04204126211715266   -0.0018423517553403435
-0.006607754909076369   -0.042130267203723766   -0.0016523544838802596
-0.00577213918986735   -0.0465232872303025   -0.001626677339292431
-0.006694634524404788   -0.042055765017317434   -0.001607458148362321
-0.009193120909612405   -0.04204126211715266   -0.0018423517553403435
-0.00577213918986735   -0.0465232872303025   -0.001626677339292431
-0.007443183399585069   -0.04636639852818666   -0.0018199258739652398
-0.007687654879281965   -0.04627418140388926   -0.0016718796406016655
-0.009193120909612405   -0.04204126211715266   -0.0018423517553403435
-0.00577213918986735   -0.0465232872303025   -0.001626677339292431
-0.007687654879281965   -0.04627418140388926   -0.0016718796406016655
-0.006694634524404788   -0.042055765017317434   -0.001607458148362321
-0.006852823150705357   -0.04199142821440122   -0.0015384760427258983
-0.006098762359764295   -0.04643848770501378   -0.0014627019546201228
-0.004410509882162253   -0.04205253869171936   -0.0015348442395290076
-0.006782708906772452   -0.042010345924646086   -0.001569476705871194
-0.006098762359764295   -0.04643848770501378   -0.0014627019546201228
-0.0044574931988503735   -0.04656343704313933   -0.001508101005096166
-0.004410509882162253   -0.04205253869171936   -0.0015348442395290076
-0.004354263519206749   -0.04654752683889476   -0.0014935250562652768
-0.006782708906772452   -0.042010345924646086   -0.001569476705871194
-0.0043386143521800926   -0.04205870868259359   -0.0015209182324805975
-0.004354263519206749   -0.04654752683889476   -0.0014935250562652768
-0.004410509882162253   -0.04205253869171936   -0.0015348442395290076
-0.006782708906772452   -0.042010345924646086   -0.001569476705871194
-0.004354263519206749   -0.04654752683889476   -0.0014935250562652768
-0.005998094125469368   -0.04642862647746616   -0.0015103936611140915
-0.006098762359764295   -0.04643848770501378   -0.0014627019546201228
-0.006782708906772452   -0.042010345924646086   -0.001569476705871194
-0.004354263519206749   -0.04654752683889476   -0.0014935250562652768
-0.006098762359764295   -0.04643848770501378   -0.0014627019546201228
-0.004410509882162253   -0.04205253869171936   -0.0015348442395290076
-0.006782708906772452   -0.042010345924646086   -0.001569476705871194
-0.005998094125469368   -0.04642862647746616   -0.0015103936611140915
-0.0043386143521800926   -0.04205870868259359   -0.0015209182324805975
-0.006694634524404788   -0.042055765017317434   -0.001607458148362321
-0.005998094125469368   -0.04642862647746616   -0.0015103936611140915
-0.004354263519206749   -0.04654752683889476   -0.0014935250562652768
-0.0043386143521800926   -0.04205870868259359   -0.0015209182324805975
-0.004252442535668588   -0.046564363897316156   -0.0014858677561578838
-0.006694634524404788   -0.042055765017317434   -0.001607458148362321
-0.004264393573689776   -0.042088551309859085   -0.0015137660949880833
-0.004252442535668588   -0.046564363897316156   -0.0014858677561578838
-0.0043386143521800926   -0.04205870868259359   -0.0015209182324805975
-0.006694634524404788   -0.042055765017317434   -0.001607458148362321
-0.004252442535668588   -0.046564363897316156   -0.0014858677561578838
-0.005879617008204014   -0.04645667613513392   -0.0015652033554121893
-0.005998094125469368   -0.04642862647746616   -0.0015103936611140915
-0.006694634524404788   -0.042055765017317434   -0.001607458148362321
-0.004252442535668588   -0.046564363897316156   -0.0014858677561578838
-0.005998094125469368   -0.04642862647746616   -0.0015103936611140915
-0.0043386143521800926   -0.04205870868259359   -0.0015209182324805975
-0.006694634524404788   -0.042055765017317434   -0.001607458148362321
-0.005879617008204014   -0.04645667613513392   -0.0015652033554121893
-0.004264393573689776   -0.042088551309859085   -0.0015137660949880833
-0.006607754909076369   -0.042130267203723766   -0.0016523544838802596
-0.005879617008204014   -0.04645667613513392   -0.0015652033554121893
-0.004252442535668588   -0.046564363897316156   -0.0014858677561578838
-0.004264393573689776   -0.042088551309859085   -0.0015137660949880833
-0.004158708815245961   -0.04661501817275296   -0.0014865708193720463
-0.006607754909076369   -0.042130267203723766   -0.0016523544838802596
-0.0041902856506107235   -0.0421434411802057   -0.0015133075410277618
-0.004158708815245961   -0.04661501817275296   -0.0014865708193720463
-0.004264393573689776   -0.042088551309859085   -0.0015137660949880833
-0.006607754909076369   -0.042130267203723766   -0.0016523544838802596
-0.004158708815245961   -0.04661501817275296   -0.0014865708193720463
-0.00577213918986735   -0.0465232872303025   -0.001626677339292431
-0.005879617008204014   -0.04645667613513392   -0.0015652033554121893
-0.006607754909076369   -0.042130267203723766   -0.0016523544838802596
-0.004158708815245961   -0.04661501817275296   -0.0014865708193720463
-0.005879617008204014   -0.04645667613513392   -0.0015652033554121893
-0.004264393573689776   -0.042088551309859085   -0.0015137660949880833
-0.004410509882162253   -0.04205253869171936   -0.0015348442395290076
-0.0044574931988503735   -0.04656343704313933   -0.001508101005096166
-0.0020491299298619073   -0.04204101517343041   -0.001552535935127418
-0.0043386143521800926   -0.04205870868259359   -0.0015209182324805975
-0.0044574931988503735   -0.04656343704313933   -0.001508101005096166
-0.0028853279837471784   -0.046628300854005045   -0.001561920737167399
-0.0020491299298619073   -0.04204101517343041   -0.001552535935127418
-0.002768975622770131   -0.046605242422982696   -0.0014885920181090372
-0.0043386143521800926   -0.04205870868259359   -0.0015209182324805975
-0.0019703835346219657   -0.04203285204359871   -0.001495255167905537
-0.002768975622770131   -0.046605242422982696   -0.0014885920181090372
-0.0020491299298619073   -0.04204101517343041   -0.001552535935127418
-0.0043386143521800926   -0.04205870868259359   -0.0015209182324805975
-0.002768975622770131   -0.046605242422982696   -0.0014885920181090372
-0.004354263519206749   -0.04654752683889476   -0.0014935250562652768
-0.0044574931988503735   -0.04656343704313933   -0.001508101005096166
-0.0043386143521800926   -0.04205870868259359   -0.0015209182324805975
-0.002768975622770131   -0.046605242422982696   -0.0014885920181090372
-0.0044574931988503735   -0.04656343704313933   -0.001508101005096166
-0.0020491299298619073   -0.04204101517343041   -0.001552535935127418
-0.0043386143521800926   -0.04205870868259359   -0.0015209182324805975
-0.004354263519206749   -0.04654752683889476   -0.0014935250562652768
-0.0019703835346219657   -0.04203285204359871   -0.001495255167905537
-0.004264393573689776   -0.042088551309859085   -0.0015137660949880833
-0.004354263519206749   -0.04654752683889476   -0.0014935250562652768
-0.002768975622770131   -0.046605242422982696   -0.0014885920181090372
-0.0019703835346219657   -0.04203285204359871   -0.001495255167905537
-0.0026580276071629092   -0.04661102231940782   -0.0014213972684430467
-0.004264393573689776   -0.042088551309859085   -0.0015137660949880833
-0.0018939357537326863   -0.04204611928555593   -0.0014451959636720899
-0.0026580276071629092   -0.04661102231940782   -0.0014213972684430467
-0.0019703835346219657   -0.04203285204359871   -0.001495255167905537
-0.004264393573689776   -0.042088551309859085   -0.0015137660949880833
-0.0026580276071629092   -0.04661102231940782   -0.0014213972684430467
-0.004252442535668588   -0.046564363897316156   -0.0014858677561578838
-0.004354263519206749   -0.04654752683889476   -0.0014935250562652768
-0.004264393573689776   -0.042088551309859085   -0.0015137660949880833
-0.0026580276071629092   -0.04661102231940782   -0.0014213972684430467
-0.004354263519206749   -0.04654752683889476   -0.0014935250562652768
-0.0019703835346219657   -0.04203285204359871   -0.001495255167905537
-0.004264393573689776   -0.042088551309859085   -0.0015137660949880833
-0.004252442535668588   -0.046564363897316156   -0.0014858677561578838
-0.0018939357537326863   -0.04204611928555593   -0.0014451959636720899
-0.0041902856506107235   -0.0421434411802057   -0.0015133075410277618
-0.004252442535668588   -0.046564363897316156   -0.0014858677561578838
-0.0026580276071629092   -0.04661102231940782   -0.0014213972684430467
-0.0018939357537326863   -0.04204611928555593   -0.0014451959636720899
-0.002565686083803735   -0.04665118117422023   -0.0013641269073220786
-0.0041902856506107235   -0.0421434411802057   -0.0015133075410277618
-0.0018248461733946888   -0.042083883334534014   -0.0014017363942193078
-0.002565686083803735   -0.04665118117422023   -0.0013641269073220786
-0.0018939357537326863   -0.04204611928555593   -0.0014451959636720899
-0.0041902856506107235   -0.0421434411802057   -0.0015133075410277618
-0.002565686083803735   -0.04665118117422023   -0.0013641269073220786
-0.004158708815245961   -0.04661501817275296   -0.0014865708193720463
-0.004252442535668588   -0.046564363897316156   -0.0014858677561578838
-0.0041902856506107235   -0.0421434411802057   -0.0015133075410277618
-0.002565686083803735   -0.04665118117422023   -0.0013641269073220786
-0.004252442535668588   -0.046564363897316156   -0.0014858677561578838
-0.0018939357537326863   -0.04204611928555593   -0.0014451959636720899
-0.0020491299298619073   -0.04204101517343041   -0.001552535935127418
-0.0028853279837471784   -0.046628300854005045   -0.001561920737167399
0.0004218792668253484   -0.04195425066986059   -0.0015953680792099771
-0.0019703835346219657   -0.04203285204359871   -0.001495255167905537
-0.0028853279837471784   -0.046628300854005045   -0.001561920737167399
-0.0012147022551735759   -0.04661023557017282   -0.0016254630424150567
0.0004218792668253484   -0.04195425066986059   -0.0015953680792099771
-0.0010653127709702394   -0.04657405844328342   -0.0014958843333500566
-0.0019703835346219657   -0.04203285204359871   -0.001495255167905537
0.0005177192006827834   -0.041927914458481375   -0.0014948686416549131
-0.0010653127709702394   -0.04657405844328342   -0.0014958843333500566
0.0004218792668253484   -0.04195425066986059   -0.0015953680792099771
-0.0019703835346219657   -0.04203285204359871   -0.001495255167905537
-0.0010653127709702394   -0.04657405844328342   -0.0014958843333500566
-0.002768975622770131   -0.046605242422982696   -0.0014885920181090372
-0.0028853279837471784   -0.046628300854005045   -0.001561920737167399
-0.0019703835346219657   -0.04203285204359871   -0.001495255167905537
-0.0010653127709702394   -0.04657405844328342   -0.0014958843333500566
-0.0028853279837471784   -0.046628300854005045   -0.001561920737167399
0.0004218792668253484   -0.04195425066986059   -0.0015953680792099771
-0.0019703835346219657   -0.04203285204359871   -0.001495255167905537
-0.002768975622770131   -0.046605242422982696   -0.0014885920181090372
0.0005177192006827834   -0.041927914458481375   -0.0014948686416549131
-0.0018939357537326863   -0.04204611928555593   -0.0014451959636720899
-0.002768975622770131   -0.046605242422982696   -0.0014885920181090372
-0.0010653127709702394   -0.04657405844328342   -0.0014958843333500566
0.0005177192006827834   -0.041927914458481375   -0.0014948686416549131
-0.0009124170983597651   -0.046567772081327105   -0.0013728566319859581
-0.0018939357537326863   -0.04204611928555593   -0.0014451959636720899
0.0006187931206803522   -0.04192553537102755   -0.0014035174002602407
-0.0009124170983597651   -0.046567772081327105   -0.0013728566319859581
0.0005177192006827834   -0.041927914458481375   -0.0014948686416549131
-0.0018939357537326863   -0.04204611928555593   -0.0014451959636720899
-0.0009124170983597651   -0.046567772081327105   -0.0013728566319859581
-0.0026580276071629092   -0.04661102231940782   -0.0014213972684430467
-0.002768975622770131   -0.046605242422982696   -0.0014885920181090372
-0.0018939357537326863   -0.04204611928555593   -0.0014451959636720899
-0.0009124170983597651   -0.046567772081327105   -0.0013728566319859581
-0.002768975622770131   -0.046605242422982696   -0.0014885920181090372
0.0005177192006827834   -0.041927914458481375   -0.0014948686416549131
-0.0018939357537326863   -0.04204611928555593   -0.0014451959636720899
-0.0026580276071629092   -0.04661102231940782   -0.0014213972684430467
0.0006187931206803522   -0.04192553537102755   -0.0014035174002602407
-0.0018248461733946888   -0.042083883334534014   -0.0014017363942193078
-0.0026580276071629092   -0.04661102231940782   -0.0014213972684430467
-0.0009124170983597651   -0.046567772081327105   -0.0013728566319859581
0.0006187931206803522   -0.04192553537102755   -0.0014035174002602407
-0.0007992674554713847   -0.04659774628459559   -0.001261038473746784
-0.0018248461733946888   -0.042083883334534014   -0.0014017363942193078
0.0006927133311658766   -0.041946012624626536   -0.0013184623546948755
-0.0007992674554713847   -0.04659774628459559   -0.001261038473746784
0.0006187931206803522   -0.04192553537102755   -0.0014035174002602407
-0.0018248461733946888   -0.042083883334534014   -0.0014017363942193078
-0.0007992674554713847   -0.04659774628459559   -0.001261038473746784
-0.002565686083803735   -0.04665118117422023   -0.0013641269073220786
-0.0026580276071629092   -0.04661102231940782   -0.0014213972684430467
-0.0018248461733946888   -0.042083883334534014   -0.0014017363942193078
-0.0007992674554713847   -0.04659774628459559   -0.001261038473746784
-0.0026580276071629092   -0.04661102231940782   -0.0014213972684430467
0.0006187931206803522   -0.04192553537102755   -0.0014035174002602407
0.0004218792668253484   -0.04195425066986059   -0.0015953680792099771
-0.0012147022551735759   -0.04661023557017282   -0.0016254630424150567
0.0030543035432568756   -0.04178404955272591   -0.0016865931196846542
0.0005177192006827834   -0.041927914458481375   -0.0014948686416549131
-0.0012147022551735759   -0.04661023557017282   -0.0016254630424150567
0.0005810109809212413   -0.04644924138695986   -0.0017551750883324703
0.0030543035432568756   -0.04178404955272591   -0.0016865931196846542
0.0009304123842340041   -0.04637067809971603   -0.001543297338850351
0.0005177192006827834   -0.041927914458481375   -0.0014948686416549131
0.003297619444577359   -0.04173356293233625   -0.0015327486633733246
0.0009304123842340041   -0.04637067809971603   -0.001543297338850351
0.0030543035432568756   -0.04178404955272591   -0.0016865931196846542
0.0005177192006827834   -0.041927914458481375   -0.0014948686416549131
0.0009304123842340041   -0.04637067809971603   -0.001543297338850351
-0.0010653127709702394   -0.04657405844328342   -0.0014958843333500566
-0.0012147022551735759   -0.04661023557017282   -0.0016254630424150567
0.0005177192006827834   -0.041927914458481375   -0.0014948686416549131
0.0009304123842340041   -0.04637067809971603   -0.001543297338850351
-0.0012147022551735759   -0.04661023557017282   -0.0016254630424150567
0.0030543035432568756   -0.04178404955272591   -0.0016865931196846542
0.0005177192006827834   -0.041927914458481375   -0.0014948686416549131
-0.0010653127709702394   -0.04657405844328342   -0.0014958843333500566
0.003297619444577359   -0.04173356293233625   -0.0015327486633733246
0.0006187931206803522   -0.04192553537102755   -0.0014035174002602407
-0.0010653127709702394   -0.04657405844328342   -0.0014958843333500566
0.0009304123842340041   -0.04637067809971603   -0.001543297338850351
0.003297619444577359   -0.04173356293233625   -0.0015327486633733246
0.0012049295891415324   -0.04635484653694348   -0.0013442541718797717
0.0006187931206803522   -0.04192553537102755   -0.0014035174002602407
0.0034842173936801865   -0.041724818610213536   -0.0013902512071125256
0.0012049295891415324   -0.04635484653694348   -0.0013442541718797717
0.003297619444577359   -0.04173356293233625   -0.0015327486633733246
0.0006187931206803522   -0.04192553537102755   -0.0014035174002602407
0.0012049295891415324   -0.04635484653694348   -0.0013442541718797717
-0.0009124170983597651   -0.046567772081327105   -0.0013728566319859581
-0.0010653127709702394   -0.04657405844328342   -0.0014958843333500566
0.0006187931206803522   -0.04192553537102755   -0.0014035174002602407
0.0012049295891415324   -0.04635484653694348   -0.0013442541718797717
-0.0010653127709702394   -0.04657405844328342   -0.0014958843333500566
0.003297619444577359   -0.04173356293233625   -0.0015327486633733246
0.0006187931206803522   -0.04192553537102755   -0.0014035174002602407
-0.0009124170983597651   -0.046567772081327105   -0.0013728566319859581
0.0034842173936801865   -0.041724818610213536   -0.0013902512071125256
0.0006927133311658766   -0.041946012624626536   -0.0013184623546948755
-0.0009124170983597651   -0.046567772081327105   -0.0013728566319859581
0.0012049295891415324   -0.04635484653694348   -0.0013442541718797717
0.0034842173936801865   -0.041724818610213536   -0.0013902512071125256
0.0014905203849604472   -0.046368555359509   -0.0011623483345414728
0.0006927133311658766   -0.041946012624626536   -0.0013184623546948755
0.003677785746664748   -0.041739882040965536   -0.00126026058647853
0.0014905203849604472   -0.046368555359509   -0.0011623483345414728
0.0034842173936801865   -0.041724818610213536   -0.0013902512071125256
0.0006927133311658766   -0.041946012624626536   -0.0013184623546948755
0.0014905203849604472   -0.046368555359509   -0.0011623483345414728
-0.0007992674554713847   -0.04659774628459559   -0.001261038473746784
-0.0009124170983597651   -0.046567772081327105   -0.0013728566319859581
0.0006927133311658766   -0.041946012624626536   -0.0013184623546948755
0.0014905203849604472   -0.046368555359509   -0.0011623483345414728
-0.0009124170983597651   -0.046567772081327105   -0.0013728566319859581
0.0034842173936801865   -0.041724818610213536   -0.0013902512071125256
-0.008105538612340948   -0.046244932759889015   -0.0014047135389747521
-0.0059552616512963   -0.048853322986786026   -0.0012365184202132791
-0.006098762359764295   -0.04643848770501378   -0.0014627019546201228
-0.007888052973138333   -0.04623955556654836   -0.001533281458321484
-0.0059552616512963   -0.048853322986786026   -0.0012365184202132791
-0.005018712423565755   -0.04909786488439507   -0.001383122094720187
-0.006098762359764295   -0.04643848770501378   -0.0014627019546201228
-0.004891923924714142   -0.049049797446376914   -0.001433957226252228
-0.007888052973138333   -0.04623955556654836   -0.001533281458321484
-0.005998094125469368   -0.04642862647746616   -0.0015103936611140915
-0.004891923924714142   -0.049049797446376914   -0.001433957226252228
-0.006098762359764295   -0.04643848770501378   -0.0014627019546201228
-0.007888052973138333   -0.04623955556654836   -0.001533281458321484
-0.004891923924714142   -0.049049797446376914   -0.001433957226252228
-0.005684541863589425   -0.04879913642348528   -0.0013907027209704341
-0.0059552616512963   -0.048853322986786026   -0.0012365184202132791
-0.007888052973138333   -0.04623955556654836   -0.001533281458321484
-0.004891923924714142   -0.049049797446376914   -0.001433957226252228
-0.0059552616512963   -0.048853322986786026   -0.0012365184202132791
-0.006098762359764295   -0.04643848770501378   -0.0014627019546201228
-0.007888052973138333   -0.04623955556654836   -0.001533281458321484
-0.005684541863589425   -0.04879913642348528   -0.0013907027209704341
-0.005998094125469368   -0.04642862647746616   -0.0015103936611140915
-0.007687654879281965   -0.04627418140388926   -0.0016718796406016655
-0.005684541863589425   -0.04879913642348528   -0.0013907027209704341
-0.004891923924714142   -0.049049797446376914   -0.001433957226252228
-0.005998094125469368   -0.04642862647746616   -0.0015103936611140915
-0.004751375046646957   -0.049052509871006844   -0.0014853134199652946
-0.007687654879281965   -0.04627418140388926   -0.0016718796406016655
-0.005879617008204014   -0.04645667613513392   -0.0015652033554121893
-0.004751375046646957   -0.049052509871006844   -0.0014853134199652946
-0.005998094125469368   -0.04642862647746616   -0.0015103936611140915
-0.007687654879281965   -0.04627418140388926   -0.0016718796406016655
-0.004751375046646957   -0.049052509871006844   -0.0014853134199652946
-0.005450995046522773   -0.048804151132488954   -0.001544322916864742
-0.005684541863589425   -0.04879913642348528   -0.0013907027209704341
-0.007687654879281965   -0.04627418140388926   -0.0016718796406016655
-0.004751375046646957   -0.049052509871006844   -0.0014853134199652946
-0.005684541863589425   -0.04879913642348528   -0.0013907027209704341
-0.005998094125469368   -0.04642862647746616   -0.0015103936611140915
-0.007687654879281965   -0.04627418140388926   -0.0016718796406016655
-0.005450995046522773   -0.048804151132488954   -0.001544322916864742
-0.005879617008204014   -0.04645667613513392   -0.0015652033554121893
-0.007443183399585069   -0.04636639852818666   -0.0018199258739652398
-0.005450995046522773   -0.048804151132488954   -0.001544322916864742
-0.004751375046646957   -0.049052509871006844   -0.0014853134199652946
-0.005879617008204014   -0.04645667613513392   -0.0015652033554121893
-0.004620876789516234   -0.04910625375482226   -0.0015374049096381643
-0.007443183399585069   -0.04636639852818666   -0.0018199258739652398
-0.00577213918986735   -0.0465232872303025   -0.001626677339292431
-0.004620876789516234   -0.04910625375482226   -0.0015374049096381643
-0.005879617008204014   -0.04645667613513392   -0.0015652033554121893
-0.007443183399585069   -0.04636639852818666   -0.0018199258739652398
-0.004620876789516234   -0.04910625375482226   -0.0015374049096381643
-0.005173880263819913   -0.04887180280757026   -0.001701242595280544
-0.005450995046522773   -0.048804151132488954   -0.001544322916864742
-0.007443183399585069   -0.04636639852818666   -0.0018199258739652398
-0.004620876789516234   -0.04910625375482226   -0.0015374049096381643
-0.005450995046522773   -0.048804151132488954   -0.001544322916864742
-0.005879617008204014   -0.04645667613513392   -0.0015652033554121893
-0.006098762359764295   -0.04643848770501378   -0.0014627019546201228
-0.005018712423565755   -0.04909786488439507   -0.001383122094720187
-0.0044574931988503735   -0.04656343704313933   -0.001508101005096166
-0.005998094125469368   -0.04642862647746616   -0.0015103936611140915
-0.005018712423565755   -0.04909786488439507   -0.001383122094720187
-0.004331501808997444   -0.049342049289790316   -0.0015126042294869922
-0.0044574931988503735   -0.04656343704313933   -0.001508101005096166
-0.004197854649530605   -0.04929266456715583   -0.0014773461429964951
-0.005998094125469368   -0.04642862647746616   -0.0015103936611140915
-0.004354263519206749   -0.04654752683889476   -0.0014935250562652768
-0.004197854649530605   -0.04929266456715583   -0.0014773461429964951
-0.0044574931988503735   -0.04656343704313933   -0.001508101005096166
-0.005998094125469368   -0.04642862647746616   -0.0015103936611140915
-0.004197854649530605   -0.04929266456715583   -0.0014773461429964951
-0.004891923924714142   -0.049049797446376914   -0.001433957226252228
-0.005018712423565755   -0.04909786488439507   -0.001383122094720187
-0.005998094125469368   -0.04642862647746616   -0.0015103936611140915
-0.004197854649530605   -0.04929266456715583   -0.0014773461429964951
-0.005018712423565755   -0.04909786488439507   -0.001383122094720187
-0.0044574931988503735   -0.04656343704313933   -0.001508101005096166
-0.005998094125469368   -0.04642862647746616   -0.0015103936611140915
-0.004891923924714142   -0.049049797446376914   -0.001433957226252228
-0.004354263519206749   -0.04654752683889476   -0.0014935250562652768
-0.005879617008204014   -0.04645667613513392   -0.0015652033554121893
-0.004891923924714142   -0.049049797446376914   -0.001433957226252228
-0.004197854649530605   -0.04929266456715583   -0.0014773461429964951
-0.004354263519206749   -0.04654752683889476   -0.0014935250562652768
-0.004068580093133452   -0.04929202990438839   -0.0014416583196887453
-0.005879617008204014   -0.04645667613513392   -0.0015652033554121893
-0.004252442535668588   -0.046564363897316156   -0.0014858677561578838
-0.004068580093133452   -0.04929202990438839   -0.0014416583196887453
-0.004354263519206749   -0.04654752683889476   -0.0014935250562652768
-0.005879617008204014   -0.04645667613513392   -0.0015652033554121893
-0.004068580093133452   -0.04929202990438839   -0.0014416583196887453
-0.004751375046646957   -0.049052509871006844   -0.0014853134199652946
-0.004891923924714142   -0.049049797446376914   -0.001433957226252228
-0.005879617008204014   -0.04645667613513392   -0.0015652033554121893
-0.004068580093133452   -0.04929202990438839   -0.0014416583196887453
-0.004891923924714142   -0.049049797446376914   -0.001433957226252228
-0.004354263519206749   -0.04654752683889476   -0.0014935250562652768
-0.005879617008204014   -0.04645667613513392   -0.0015652033554121893
-0.004751375046646957   -0.049052509871006844   -0.0014853134199652946
-0.004252442535668588   -0.046564363897316156   -0.0014858677561578838
-0.00577213918986735   -0.0465232872303025   -0.001626677339292431
-0.004751375046646957   -0.049052509871006844   -0.0014853134199652946
-0.004068580093133452   -0.04929202990438839   -0.0014416583196887453
-0.004252442535668588   -0.046564363897316156   -0.0014858677561578838
-0.00393385099619922   -0.049339143261630844   -0.0014074012393306232
-0.00577213918986735   -0.0465232872303025   -0.001626677339292431
-0.004158708815245961   -0.04661501817275296   -0.0014865708193720463
-0.00393385099619922   -0.049339143261630844   -0.0014074012393306232
-0.004252442535668588   -0.046564363897316156   -0.0014858677561578838
-0.00577213918986735   -0.0465232872303025   -0.001626677339292431
-0.00393385099619922   -0.049339143261630844   -0.0014074012393306232
-0.004620876789516234   -0.04910625375482226   -0.0015374049096381643
-0.004751375046646957   -0.049052509871006844   -0.0014853134199652946
-0.00577213918986735   -0.0465232872303025   -0.001626677339292431
-0.00393385099619922   -0.049339143261630844   -0.0014074012393306232
-0.004751375046646957   -0.049052509871006844   -0.0014853134199652946
-0.004252442535668588   -0.046564363897316156   -0.0014858677561578838
-0.0044574931988503735   -0.04656343704313933   -0.001508101005096166
-0.004331501808997444   -0.049342049289790316   -0.0015126042294869922
-0.0028853279837471784   -0.046628300854005045   -0.001561920737167399
-0.004354263519206749   -0.04654752683889476   -0.0014935250562652768
-0.004331501808997444   -0.049342049289790316   -0.0015126042294869922
-0.0037034403601155868   -0.049635408849601874   -0.0016553714111053298
-0.0028853279837471784   -0.046628300854005045   -0.001561920737167399
-0.003539683455373885   -0.04959241414679853   -0.001529217415427503
-0.004354263519206749   -0.04654752683889476   -0.0014935250562652768
-0.002768975622770131   -0.046605242422982696   -0.0014885920181090372
-0.003539683455373885   -0.04959241414679853   -0.001529217415427503
-0.0028853279837471784   -0.046628300854005045   -0.001561920737167399
-0.004354263519206749   -0.04654752683889476   -0.0014935250562652768
-0.003539683455373885   -0.04959241414679853   -0.001529217415427503
-0.004197854649530605   -0.04929266456715583   -0.0014773461429964951
-0.004331501808997444   -0.049342049289790316   -0.0015126042294869922
-0.004354263519206749   -0.04654752683889476   -0.0014935250562652768
-0.003539683455373885   -0.04959241414679853   -0.001529217415427503
-0.004331501808997444   -0.049342049289790316   -0.0015126042294869922
-0.0028853279837471784   -0.046628300854005045   -0.001561920737167399
-0.004354263519206749   -0.04654752683889476   -0.0014935250562652768
-0.004197854649530605   -0.04929266456715583   -0.0014773461429964951
-0.002768975622770131   -0.046605242422982696   -0.0014885920181090372
-0.004252442535668588   -0.046564363897316156   -0.0014858677561578838
-0.004197854649530605   -0.04929266456715583   -0.0014773461429964951
-0.003539683455373885   -0.04959241414679853   -0.001529217415427503
-0.002768975622770131   -0.046605242422982696   -0.0014885920181090372
-0.003387858927233545   -0.049590259314587506   -0.001403436392574928
-0.004252442535668588   -0.046564363897316156   -0.0014858677561578838
-0.0026580276071629092   -0.04661102231940782   -0.0014213972684430467
-0.003387858927233545   -0.049590259314587506   -0.001403436392574928
-0.002768975622770131   -0.046605242422982696   -0.0014885920181090372
-0.004252442535668588   -0.046564363897316156   -0.0014858677561578838
-0.003387858927233545   -0.049590259314587506   -0.001403436392574928
-0.004068580093133452   -0.04929202990438839   -0.0014416583196887453
-0.004197854649530605   -0.04929266456715583   -0.0014773461429964951
-0.004252442535668588   -0.046564363897316156   -0.0014858677561578838
-0.003387858927233545   -0.049590259314587506   -0.001403436392574928
-0.004197854649530605   -0.04929266456715583   -0.0014773461429964951
-0.002768975622770131   -0.046605242422982696   -0.0014885920181090372
-0.004252442535668588   -0.046564363897316156   -0.0014858677561578838
-0.004068580093133452   -0.04929202990438839   -0.0014416583196887453
-0.0026580276071629092   -0.04661102231940782   -0.0014213972684430467
-0.004158708815245961   -0.04661501817275296   -0.0014865708193720463
-0.004068580093133452   -0.04929202990438839   -0.0014416583196887453
-0.003387858927233545   -0.049590259314587506   -0.001403436392574928
-0.0026580276071629092   -0.04661102231940782   -0.0014213972684430467
-0.0032249735404884998   -0.04962677709003976   -0.001277465665874157
-0.004158708815245961   -0.04661501817275296   -0.0014865708193720463
-0.002565686083803735   -0.04665118117422023   -0.0013641269073220786
-0.0032249735404884998   -0.04962677709003976   -0.001277465665874157
-0.0026580276071629092   -0.04661102231940782   -0.0014213972684430467
-0.004158708815245961   -0.04661501817275296   -0.0014865708193720463
-0.0032249735404884998   -0.04962677709003976   -0.001277465665874157
-0.00393385099619922   -0.049339143261630844   -0.0014074012393306232
-0.004068580093133452   -0.04929202990438839   -0.0014416583196887453
-0.004158708815245961   -0.04661501817275296   -0.0014865708193720463
-0.0032249735404884998   -0.04962677709003976   -0.001277465665874157
-0.004068580093133452   -0.04929202990438839   -0.0014416583196887453
-0.0026580276071629092   -0.04661102231940782   -0.0014213972684430467
-0.0028853279837471784   -0.046628300854005045   -0.001561920737167399
-0.0037034403601155868   -0.049635408849601874   -0.0016553714111053298
-0.0012147022551735759   -0.04661023557017282   -0.0016254630424150567
-0.002768975622770131   -0.046605242422982696   -0.0014885920181090372
-0.0037034403601155868   -0.049635408849601874   -0.0016553714111053298
-0.0030853144170615507   -0.05   -0.0017657391237664846
-0.0012147022551735759   -0.04661023557017282   -0.0016254630424150567
-0.002879155745702449   -0.05   -0.001573590878091927
-0.002768975622770131   -0.046605242422982696   -0.0014885920181090372
-0.0010653127709702394   -0.04657405844328342   -0.0014958843333500566
-0.002879155745702449   -0.05   -0.001573590878091927
-0.0012147022551735759   -0.04661023557017282   -0.0016254630424150567
-0.002768975622770131   -0.046605242422982696   -0.0014885920181090372
-0.002879155745702449   -0.05   -0.001573590878091927
-0.003539683455373885   -0.04959241414679853   -0.001529217415427503
-0.0037034403601155868   -0.049635408849601874   -0.0016553714111053298
-0.002768975622770131   -0.046605242422982696   -0.0014885920181090372
-0.002879155745702449   -0.05   -0.001573590878091927
-0.0037034403601155868   -0.049635408849601874   -0.0016553714111053298
-0.0012147022551735759   -0.04661023557017282   -0.0016254630424150567
-0.002768975622770131   -0.046605242422982696   -0.0014885920181090372
-0.003539683455373885   -0.04959241414679853   -0.001529217415427503
-0.0010653127709702394   -0.04657405844328342   -0.0014958843333500566
-0.0026580276071629092   -0.04661102231940782   -0.0014213972684430467
-0.003539683455373885   -0.04959241414679853   -0.001529217415427503
-0.002879155745702449   -0.05   -0.001573590878091927
-0.0010653127709702394   -0.04657405844328342   -0.0014958843333500566
-0.0026718590343374196   -0.05   -0.0013791692860891218
-0.0026580276071629092   -0.04661102231940782   -0.0014213972684430467
-0.0009124170983597651   -0.046567772081327105   -0.0013728566319859581
-0.0026718590343374196   -0.05   -0.0013791692860891218
-0.0010653127709702394   -0.04657405844328342   -0.0014958843333500566
-0.0026580276071629092   -0.04661102231940782   -0.0014213972684430467
-0.0026718590343374196   -0.05   -0.0013791692860891218
-0.003387858927233545   -0.049590259314587506   -0.001403436392574928
-0.003539683455373885   -0.04959241414679853   -0.001529217415427503
-0.0026580276071629092   -0.04661102231940782   -0.0014213972684430467
-0.0026718590343374196   -0.05   -0.0013791692860891218
-0.003539683455373885   -0.04959241414679853   -0.001529217415427503
-0.0010653127709702394   -0.04657405844328342   -0.0014958843333500566
-0.0026580276071629092   -0.04661102231940782   -0.0014213972684430467
-0.003387858927233545   -0.049590259314587506   -0.001403436392574928
-0.0009124170983597651   -0.046567772081327105   -0.0013728566319859581
-0.002565686083803735   -0.04665118117422023   -0.0013641269073220786
-0.003387858927233545   -0.049590259314587506   -0.001403436392574928
-0.0026718590343374196   -0.05   -0.0013791692860891218
-0.0009124170983597651   -0.046567772081327105   -0.0013728566319859581
-0.002469419944932249   -0.05   -0.0011873316343700905
-0.002565686083803735   -0.04665118117422023   -0.0013641269073220786
-0.0007992674554713847   -0.04659774628459559   -0.001261038473746784
-0.002469419944932249   -0.05   -0.0011873316343700905
-0.0009124170983597651   -0.046567772081327105   -0.0013728566319859581
-0.002565686083803735   -0.04665118117422023   -0.0013641269073220786
-0.002469419944932249   -0.05   -0.0011873316343700905
-0.0032249735404884998   -0.04962677709003976   -0.001277465665874157
-0.003387858927233545   -0.049590259314587506   -0.001403436392574928
-0.002565686083803735   -0.04665118117422023   -0.0013641269073220786
-0.002469419944932249   -0.05   -0.0011873316343700905
-0.003387858927233545   -0.049590259314587506   -0.001403436392574928
-0.0009124170983597651   -0.046567772081327105   -0.0013728566319859581
-0.0012147022551735759   -0.04661023557017282   -0.0016254630424150567
-0.0030853144170615507   -0.05   -0.0017657391237664846
0.0005810109809212413   -0.04644924138695986   -0.0017551750883324703
-0.0010653127709702394   -0.04657405844328342   -0.0014958843333500566
-0.0030853144170615507   -0.05   -0.0017657391237664846
-0.002635208736077126   -0.05   -0.0018994003871512922
0.0005810109809212413   -0.04644924138695986   -0.0017551750883324703
-0.002202888881479125   -0.05   -0.0016211349029908255
-0.0010653127709702394   -0.04657405844328342   -0.0014958843333500566
0.0009304123842340041   -0.04637067809971603   -0.001543297338850351
-0.002202888881479125   -0.05   -0.0016211349029908255
0.0005810109809212413   -0.04644924138695986   -0.0017551750883324703
-0.0010653127709702394   -0.04657405844328342   -0.0014958843333500566
-0.002202888881479125   -0.05   -0.0016211349029908255
-0.002879155745702449   -0.05   -0.001573590878091927
-0.0030853144170615507   -0.05   -0.0017657391237664846
-0.0010653127709702394   -0.04657405844328342   -0.0014958843333500566
-0.002202888881479125   -0.05   -0.0016211349029908255
-0.0030853144170615507   -0.05   -0.0017657391237664846
0.0005810109809212413   -0.04644924138695986   -0.0017551750883324703
-0.0010653127709702394   -0.04657405844328342   -0.0014958843333500566
-0.002879155745702449   -0.05   -0.001573590878091927
0.0009304123842340041   -0.04637067809971603   -0.001543297338850351
-0.0009124170983597651   -0.046567772081327105   -0.0013728566319859581
-0.002879155745702449   -0.05   -0.001573590878091927
-0.002202888881479125   -0.05   -0.0016211349029908255
0.0009304123842340041   -0.04637067809971603   -0.001543297338850351
-0.0018581330570246347   -0.05   -0.0013549553074809213
-0.0009124170983597651   -0.046567772081327105   -0.0013728566319859581
0.0012049295891415324   -0.04635484653694348   -0.0013442541718797717
-0.0018581330570246347   -0.05   -0.0013549553074809213
0.0009304123842340041   -0.04637067809971603   -0.001543297338850351
-0.0009124170983597651   -0.046567772081327105   -0.0013728566319859581
-0.0018581330570246347   -0.05   -0.0013549553074809213
-0.0026718590343374196   -0.05   -0.0013791692860891218
-0.002879155745702449   -0.05   -0.001573590878091927
-0.0009124170983597651   -0.046567772081327105   -0.0013728566319859581
-0.0018581330570246347   -0.05   -0.0013549553074809213
-0.002879155745702449   -0.05   -0.001573590878091927
0.0009304123842340041   -0.04637067809971603   -0.001543297338850351
-0.0009124170983597651   -0.046567772081327105   -0.0013728566319859581
-0.0026718590343374196   -0.05   -0.0013791692860891218
0.0012049295891415324   -0.04635484653694348   -0.0013442541718797717
-0.0007992674554713847   -0.04659774628459559   -0.001261038473746784
-0.0026718590343374196   -0.05   -0.0013791692860891218
-0.0018581330570246347   -0.05   -0.0013549553074809213
0.0012049295891415324   -0.04635484653694348   -0.0013442541718797717
-0.00143230622219377   -0.05   -0.0010786170416657028
-0.0007992674554713847   -0.04659774628459559   -0.001261038473746784
0.0014905203849604472   -0.046368555359509   -0.0011623483345414728
-0.00143230622219377   -0.05   -0.0010786170416657028
0.0012049295891415324   -0.04635484653694348   -0.0013442541718797717
-0.0007992674554713847   -0.04659774628459559   -0.001261038473746784
-0.00143230622219377   -0.05   -0.0010786170416657028
-0.002469419944932249   -0.05   -0.0011873316343700905
-0.0026718590343374196   -0.05   -0.0013791692860891218
-0.0007992674554713847   -0.04659774628459559   -0.001261038473746784
-0.00143230622219377   -0.05   -0.0010786170416657028
-0.0026718590343374196   -0.05   -0.0013791692860891218
0.0012049295891415324   -0.04635484653694348   -0.0013442541718797717
-0.0059552616512963   -0.048853322986786026   -0.0012365184202132791
-0.0035763942395568957   -0.04899592163578852   -0.0010585903116668333
-0.005018712423565755   -0.04909786488439507   -0.001383122094720187
-0.005684541863589425   -0.04879913642348528   -0.0013907027209704341
-0.0035763942395568957   -0.04899592163578852   -0.0010585903116668333
-0.0037855492293393743   -0.04918485960666842   -0.0012473887451964288
-0.005018712423565755   -0.04909786488439507   -0.001383122094720187
-0.0036895649256842027   -0.04911916099546953   -0.0013165780318432822
-0.005684541863589425   -0.04879913642348528   -0.0013907027209704341
-0.004891923924714142   -0.049049797446376914   -0.001433957226252228
-0.0036895649256842027   -0.04911916099546953   -0.0013165780318432822
-0.005018712423565755   -0.04909786488439507   -0.001383122094720187
-0.005684541863589425   -0.04879913642348528   -0.0013907027209704341
-0.0036895649256842027   -0.04911916099546953   -0.0013165780318432822
-0.0033308135243318346   -0.0489115239605876   -0.0012206226113794056
-0.0035763942395568957   -0.04899592163578852   -0.0010585903116668333
-0.005684541863589425   -0.04879913642348528   -0.0013907027209704341
-0.0036895649256842027   -0.04911916099546953   -0.0013165780318432822
-0.0035763942395568957   -0.04899592163578852   -0.0010585903116668333
-0.005018712423565755   -0.04909786488439507   -0.001383122094720187
-0.005684541863589425   -0.04879913642348528   -0.0013907027209704341
-0.0033308135243318346   -0.0489115239605876   -0.0012206226113794056
-0.004891923924714142   -0.049049797446376914   -0.001433957226252228
-0.005450995046522773   -0.048804151132488954   -0.001544322916864742
-0.0033308135243318346   -0.0489115239605876   -0.0012206226113794056
-0.0036895649256842027   -0.04911916099546953   -0.0013165780318432822
-0.004891923924714142   -0.049049797446376914   -0.001433957226252228
-0.0035769028672851698   -0.0490952486130366   -0.0013804658833141217
-0.005450995046522773   -0.048804151132488954   -0.001544322916864742
-0.004751375046646957   -0.049052509871006844   -0.0014853134199652946
-0.0035769028672851698   -0.0490952486130366   -0.0013804658833141217
-0.004891923924714142   -0.049049797446376914   -0.001433957226252228
-0.005450995046522773   -0.048804151132488954   -0.001544322916864742
-0.0035769028672851698   -0.0490952486130366   -0.0013804658833141217
-0.0031264199512131686   -0.04888592911005708   -0.0013760791768555318
-0.0033308135243318346   -0.0489115239605876   -0.0012206226113794056
-0.005450995046522773   -0.048804151132488954   -0.001544322916864742
-0.0035769028672851698   -0.0490952486130366   -0.0013804658833141217
-0.0033308135243318346   -0.0489115239605876   -0.0012206226113794056
-0.004891923924714142   -0.049049797446376914   -0.001433957226252228
-0.005450995046522773   -0.048804151132488954   -0.001544322916864742
-0.0031264199512131686   -0.04888592911005708   -0.0013760791768555318
-0.004751375046646957   -0.049052509871006844   -0.0014853134199652946
-0.005173880263819913   -0.04887180280757026   -0.001701242595280544
-0.0031264199512131686   -0.04888592911005708   -0.0013760791768555318
-0.0035769028672851698   -0.0490952486130366   -0.0013804658833141217
-0.004751375046646957   -0.049052509871006844   -0.0014853134199652946
-0.00348043840894871   -0.049113483567527115   -0.0014387237804810576
-0.005173880263819913   -0.04887180280757026   -0.001701242595280544
-0.004620876789516234   -0.04910625375482226   -0.0015374049096381643
-0.00348043840894871   -0.049113483567527115   -0.0014387237804810576
-0.004751375046646957   -0.049052509871006844   -0.0014853134199652946
-0.005173880263819913   -0.04887180280757026   -0.001701242595280544
-0.00348043840894871   -0.049113483567527115   -0.0014387237804810576
-0.0028949904287394134   -0.048908661467289644   -0.0015242808622749236
-0.0031264199512131686   -0.04888592911005708   -0.0013760791768555318
-0.005173880263819913   -0.04887180280757026   -0.001701242595280544
-0.00348043840894871   -0.049113483567527115   -0.0014387237804810576
-0.0031264199512131686   -0.04888592911005708   -0.0013760791768555318
-0.004751375046646957   -0.049052509871006844   -0.0014853134199652946
-0.005018712423565755   -0.04909786488439507   -0.001383122094720187
-0.0037855492293393743   -0.04918485960666842   -0.0012473887451964288
-0.004331501808997444   -0.049342049289790316   -0.0015126042294869922
-0.004891923924714142   -0.049049797446376914   -0.001433957226252228
-0.0037855492293393743   -0.04918485960666842   -0.0012473887451964288
-0.004071873632121792   -0.04930111162508045   -0.001398258780612778
-0.004331501808997444   -0.049342049289790316   -0.0015126042294869922
-0.003986973412909695   -0.049242422630756885   -0.001399991947517512
-0.004891923924714142   -0.049049797446376914   -0.001433957226252228
-0.004197854649530605   -0.04929266456715583   -0.0014773461429964951
-0.003986973412909695   -0.049242422630756885   -0.001399991947517512
-0.004331501808997444   -0.049342049289790316   -0.0015126042294869922
-0.004891923924714142   -0.049049797446376914   -0.001433957226252228
-0.003986973412909695   -0.049242422630756885   -0.001399991947517512
-0.0036895649256842027   -0.04911916099546953   -0.0013165780318432822
-0.0037855492293393743   -0.04918485960666842   -0.0012473887451964288
-0.004891923924714142   -0.049049797446376914   -0.001433957226252228
-0.003986973412909695   -0.049242422630756885   -0.001399991947517512
-0.0037855492293393743   -0.04918485960666842   -0.0012473887451964288
-0.004331501808997444   -0.049342049289790316   -0.0015126042294869922
-0.004891923924714142   -0.049049797446376914   -0.001433957226252228
-0.0036895649256842027   -0.04911916099546953   -0.0013165780318432822
-0.004197854649530605   -0.04929266456715583   -0.0014773461429964951
-0.004751375046646957   -0.049052509871006844   -0.0014853134199652946
-0.0036895649256842027   -0.04911916099546953   -0.0013165780318432822
-0.003986973412909695   -0.049242422630756885   -0.001399991947517512
-0.004197854649530605   -0.04929266456715583   -0.0014773461429964951
-0.0038924944083834887   -0.049221575994380595   -0.0013948526575351036
-0.004751375046646957   -0.049052509871006844   -0.0014853134199652946
-0.004068580093133452   -0.04929202990438839   -0.0014416583196887453
-0.0038924944083834887   -0.049221575994380595   -0.0013948526575351036
-0.004197854649530605   -0.04929266456715583   -0.0014773461429964951
-0.004751375046646957   -0.049052509871006844   -0.0014853134199652946
-0.0038924944083834887   -0.049221575994380595   -0.0013948526575351036
-0.0035769028672851698   -0.0490952486130366   -0.0013804658833141217
-0.0036895649256842027   -0.04911916099546953   -0.0013165780318432822
-0.004751375046646957   -0.049052509871006844   -0.0014853134199652946
-0.0038924944083834887   -0.049221575994380595   -0.0013948526575351036
-0.0036895649256842027   -0.04911916099546953   -0.0013165780318432822
-0.004197854649530605   -0.04929266456715583   -0.0014773461429964951
-0.004751375046646957   -0.049052509871006844   -0.0014853134199652946
-0.0035769028672851698   -0.0490952486130366   -0.0013804658833141217
-0.004068580093133452   -0.04929202990438839   -0.0014416583196887453
-0.004620876789516234   -0.04910625375482226   -0.0015374049096381643
-0.0035769028672851698   -0.0490952486130366   -0.0013804658833141217
-0.0038924944083834887   -0.049221575994380595   -0.0013948526575351036
-0.004068580093133452   -0.04929202990438839   -0.0014416583196887453
-0.003796458176193747   -0.04923687129196249   -0.0013843193500637921
-0.004620876789516234   -0.04910625375482226   -0.0015374049096381643
-0.00393385099619922   -0.049339143261630844   -0.0014074012393306232
-0.003796458176193747   -0.04923687129196249   -0.0013843193500637921
-0.004068580093133452   -0.04929202990438839   -0.0014416583196887453
-0.004620876789516234   -0.04910625375482226   -0.0015374049096381643
-0.003796458176193747   -0.04923687129196249   -0.0013843193500637921
-0.00348043840894871   -0.049113483567527115   -0.0014387237804810576
-0.0035769028672851698   -0.0490952486130366   -0.0013804658833141217
-0.004620876789516234   -0.04910625375482226   -0.0015374049096381643
-0.003796458176193747   -0.04923687129196249   -0.0013843193500637921
-0.0035769028672851698   -0.0490952486130366   -0.0013804658833141217
-0.004068580093133452   -0.04929202990438839   -0.0014416583196887453
-0.004331501808997444   -0.049342049289790316   -0.0015126042294869922
-0.004071873632121792   -0.04930111162508045   -0.001398258780612778
-0.0037034403601155868   -0.049635408849601874   -0.0016553714111053298
-0.004197854649530605   -0.04929266456715583   -0.0014773461429964951
-0.004071873632121792   -0.04930111162508045   -0.001398258780612778
-0.004379233227917097   -0.049349111951439   -0.0015468392308792072
-0.0037034403601155868   -0.049635408849601874   -0.0016553714111053298
-0.004291282654611189   -0.04929308027364115   -0.0014837014610676212
-0.004197854649530605   -0.04929266456715583   -0.0014773461429964951
-0.003539683455373885   -0.04959241414679853   -0.001529217415427503
-0.004291282654611189   -0.04929308027364115   -0.0014837014610676212
-0.0037034403601155868   -0.049635408849601874   -0.0016553714111053298
-0.004197854649530605   -0.04929266456715583   -0.0014773461429964951
-0.004291282654611189   -0.04929308027364115   -0.0014837014610676212
-0.003986973412909695   -0.049242422630756885   -0.001399991947517512
-0.004071873632121792   -0.04930111162508045   -0.001398258780612778
-0.004197854649530605   -0.04929266456715583   -0.0014773461429964951
-0.004291282654611189   -0.04929308027364115   -0.0014837014610676212
-0.004071873632121792   -0.04930111162508045   -0.001398258780612778
-0.0037034403601155868   -0.049635408849601874   -0.0016553714111053298
-0.004197854649530605   -0.04929266456715583   -0.0014773461429964951
-0.003986973412909695   -0.049242422630756885   -0.001399991947517512
-0.003539683455373885   -0.04959241414679853   -0.001529217415427503
-0.004068580093133452   -0.04929202990438839   -0.0014416583196887453
-0.003986973412909695   -0.049242422630756885   -0.001399991947517512
-0.004291282654611189   -0.04929308027364115   -0.0014837014610676212
-0.003539683455373885   -0.04959241414679853   -0.001529217415427503
-0.004185847278677877   -0.049275502177499375   -0.00141219171471635
-0.004068580093133452   -0.04929202990438839   -0.0014416583196887453
-0.003387858927233545   -0.049590259314587506   -0.001403436392574928
-0.004185847278677877   -0.049275502177499375   -0.00141219171471635
-0.003539683455373885   -0.04959241414679853   -0.001529217415427503
-0.004068580093133452   -0.04929202990438839   -0.0014416583196887453
-0.004185847278677877   -0.049275502177499375   -0.00141219171471635
-0.0038924944083834887   -0.049221575994380595   -0.0013948526575351036
-0.003986973412909695   -0.049242422630756885   -0.001399991947517512
-0.004068580093133452   -0.04929202990438839   -0.0014416583196887453
-0.004185847278677877   -0.049275502177499375   -0.00141219171471635
-0.003986973412909695   -0.049242422630756885   -0.001399991947517512
-0.003539683455373885   -0.04959241414679853   -0.001529217415427503
-0.004068580093133452   -0.04929202990438839   -0.0014416583196887453
-0.0038924944083834887   -0.049221575994380595   -0.0013948526575351036
-0.003387858927233545   -0.049590259314587506   -0.001403436392574928
-0.00393385099619922   -0.049339143261630844   -0.0014074012393306232
-0.0038924944083834887   -0.049221575994380595   -0.0013948526575351036
-0.004185847278677877   -0.049275502177499375   -0.00141219171471635
-0.003387858927233545   -0.049590259314587506   -0.001403436392574928
-0.004077455651842922   -0.04929040609478716   -0.0013360604446068553
-0.00393385099619922   -0.049339143261630844   -0.0014074012393306232
-0.0032249735404884998   -0.04962677709003976   -0.001277465665874157
-0.004077455651842922   -0.04929040609478716   -0.0013360604446068553
-0.003387858927233545   -0.049590259314587506   -0.001403436392574928
-0.00393385099619922   -0.049339143261630844   -0.0014074012393306232
-0.004077455651842922   -0.04929040609478716   -0.0013360604446068553
-0.003796458176193747   -0.04923687129196249   -0.0013843193500637921
-0.0038924944083834887   -0.049221575994380595   -0.0013948526575351036
-0.00393385099619922   -0.049339143261630844   -0.0014074012393306232
-0.004077455651842922   -0.04929040609478716   -0.0013360604446068553
-0.0038924944083834887   -0.049221575994380595   -0.0013948526575351036
-0.003387858927233545   -0.049590259314587506   -0.001403436392574928
-0.0037034403601155868   -0.049635408849601874   -0.0016553714111053298
-0.004379233227917097   -0.049349111951439   -0.0015468392308792072
-0.0030853144170615507   -0.05   -0.0017657391237664846
-0.003539683455373885   -0.04959241414679853   -0.001529217415427503
-0.004379233227917097   -0.049349111951439   -0.0015468392308792072
-0.004824645498713527   -0.049294967937793754   -0.0016882387006659065
-0.0030853144170615507   -0.05   -0.0017657391237664846
-0.004709790429314156   -0.049241939468803404   -0.0015632847336462927
-0.003539683455373885   -0.04959241414679853   -0.001529217415427503
-0.002879155745702449   -0.05   -0.001573590878091927
-0.004709790429314156   -0.049241939468803404   -0.0015632847336462927
-0.0030853144170615507   -0.05   -0.0017657391237664846
-0.003539683455373885   -0.04959241414679853   -0.001529217415427503
-0.004709790429314156   -0.049241939468803404   -0.0015632847336462927
-0.004291282654611189   -0.04929308027364115   -0.0014837014610676212
-0.004379233227917097   -0.049349111951439   -0.0015468392308792072
-0.003539683455373885   -0.04959241414679853   -0.001529217415427503
-0.004709790429314156   -0.049241939468803404   -0.0015632847336462927
-0.004379233227917097   -0.049349111951439   -0.0015468392308792072
-0.0030853144170615507   -0.05   -0.0017657391237664846
-0.003539683455373885   -0.04959241414679853   -0.001529217415427503
-0.004291282654611189   -0.04929308027364115   -0.0014837014610676212
-0.002879155745702449   -0.05   -0.001573590878091927
-0.003387858927233545   -0.049590259314587506   -0.001403436392574928
-0.004291282654611189   -0.04929308027364115   -0.0014837014610676212
-0.004709790429314156   -0.049241939468803404   -0.0015632847336462927
-0.002879155745702449   -0.05   -0.001573590878091927
-0.004558102813717862   -0.049230056550413716   -0.001428986529770049
-0.003387858927233545   -0.049590259314587506   -0.001403436392574928
-0.0026718590343374196   -0.05   -0.0013791692860891218
-0.004558102813717862   -0.049230056550413716   -0.001428986529770049
-0.002879155745702449   -0.05   -0.001573590878091927
-0.003387858927233545   -0.049590259314587506   -0.001403436392574928
-0.004558102813717862   -0.049230056550413716   -0.001428986529770049
-0.004185847278677877   -0.049275502177499375   -0.00141219171471635
-0.004291282654611189   -0.04929308027364115   -0.0014837014610676212
-0.003387858927233545   -0.049590259314587506   -0.001403436392574928
-0.004558102813717862   -0.049230056550413716   -0.001428986529770049
-0.004291282654611189   -0.04929308027364115   -0.0014837014610676212
-0.002879155745702449   -0.05   -0.001573590878091927
-0.003387858927233545   -0.049590259314587506   -0.001403436392574928
-0.004185847278677877   -0.049275502177499375   -0.00141219171471635
-0.0026718590343374196   -0.05   -0.0013791692860891218
-0.0032249735404884998   -0.04962677709003976   -0.001277465665874157
-0.004185847278677877   -0.049275502177499375   -0.00141219171471635
-0.004558102813717862   -0.049230056550413716   -0.001428986529770049
-0.0026718590343374196   -0.05   -0.0013791692860891218
-0.004415627852192616   -0.049251429348802014   -0.00128955067917543
-0.0032249735404884998   -0.04962677709003976   -0.001277465665874157
-0.002469419944932249   -0.05   -0.0011873316343700905
-0.004415627852192616   -0.049251429348802014   -0.00128955067917543
-0.0026718590343374196   -0.05   -0.0013791692860891218
-0.0032249735404884998   -0.04962677709003976   -0.001277465665874157
-0.004415627852192616   -0.049251429348802014   -0.00128955067917543
-0.004077455651842922   -0.04929040609478716   -0.0013360604446068553
-0.004185847278677877   -0.049275502177499375   -0.00141219171471635
-0.0032249735404884998   -0.04962677709003976   -0.001277465665874157
-0.004415627852192616   -0.049251429348802014   -0.00128955067917543
-0.004185847278677877   -0.049275502177499375   -0.00141219171471635
-0.0026718590343374196   -0.05   -0.0013791692860891218
-0.0030853144170615507   -0.05   -0.0017657391237664846
-0.004824645498713527   -0.049294967937793754   -0.0016882387006659065
-0.002635208736077126   -0.05   -0.0018994003871512922
-0.002879155745702449   -0.05   -0.001573590878091927
-0.004824645498713527   -0.049294967937793754   -0.0016882387006659065
-0.00569362488811138   -0.049054016443740134   -0.0018386158187972115
-0.002635208736077126   -0.05   -0.0018994003871512922
-0.00538682952058693   -0.04900910033884673   -0.0016336425111104446
-0.002879155745702449   -0.05   -0.001573590878091927
-0.002202888881479125   -0.05   -0.0016211349029908255
-0.00538682952058693   -0.04900910033884673   -0.0016336425111104446
-0.002635208736077126   -0.05   -0.0018994003871512922
-0.002879155745702449   -0.05   -0.001573590878091927
-0.00538682952058693   -0.04900910033884673   -0.0016336425111104446
-0.004709790429314156   -0.049241939468803404   -0.0015632847336462927
-0.004824645498713527   -0.049294967937793754   -0.0016882387006659065
-0.002879155745702449   -0.05   -0.001573590878091927
-0.00538682952058693   -0.04900910033884673   -0.0016336425111104446
-0.004824645498713527   -0.049294967937793754   -0.0016882387006659065
-0.002635208736077126   -0.05   -0.0018994003871512922
-0.002879155745702449   -0.05   -0.001573590878091927
-0.004709790429314156   -0.049241939468803404   -0.0015632847336462927
-0.002202888881479125   -0.05   -0.0016211349029908255
-0.0026718590343374196   -0.05   -0.0013791692860891218
-0.004709790429314156   -0.049241939468803404   -0.0015632847336462927
-0.00538682952058693   -0.04900910033884673   -0.0016336425111104446
-0.002202888881479125   -0.05   -0.0016211349029908255
-0.005105243567790932   -0.049003083697651384   -0.0014149931032306656
-0.0026718590343374196   -0.05   -0.0013791692860891218
-0.0018581330570246347   -0.05   -0.0013549553074809213
-0.005105243567790932   -0.049003083697651384   -0.0014149931032306656
-0.002202888881479125   -0.05   -0.0016211349029908255
-0.0026718590343374196   -0.05   -0.0013791692860891218
-0.005105243567790932   -0.049003083697651384   -0.0014149931032306656
-0.004558102813717862   -0.049230056550413716   -0.001428986529770049
-0.004709790429314156   -0.049241939468803404   -0.0015632847336462927
-0.0026718590343374196   -0.05   -0.0013791692860891218
-0.005105243567790932   -0.049003083697651384   -0.0014149931032306656
-0.004709790429314156   -0.049241939468803404   -0.0015632847336462927
-0.002202888881479125   -0.05   -0.0016211349029908255
-0.0026718590343374196   -0.05   -0.0013791692860891218
-0.004558102813717862   -0.049230056550413716   -0.001428986529770049
-0.0018581330570246347   -0.05   -0.0013549553074809213
-0.002469419944932249   -0.05   -0.0011873316343700905
-0.004558102813717862   -0.049230056550413716   -0.001428986529770049
-0.005105243567790932   -0.049003083697651384   -0.0014149931032306656
-0.0018581330570246347   -0.05   -0.0013549553074809213
-0.004749575433682709   -0.04906197136966415   -0.0011864362739136109
-0.002469419944932249   -0.05   -0.0011873316343700905
-0.00143230622219377   -0.05   -0.0010786170416657028
-0.004749575433682709   -0.04906197136966415   -0.0011864362739136109
-0.0018581330570246347   -0.05   -0.0013549553074809213
-0.002469419944932249   -0.05   -0.0011873316343700905
-0.004749575433682709   -0.04906197136966415   -0.0011864362739136109
-0.004415627852192616   -0.049251429348802014   -0.00128955067917543
-0.004558102813717862   -0.049230056550413716   -0.001428986529770049
-0.002469419944932249   -0.05   -0.0011873316343700905
-0.004749575433682709   -0.04906197136966415   -0.0011864362739136109
-0.004558102813717862   -0.049230056550413716   -0.001428986529770049
-0.0018581330570246347   -0.05   -0.0013549553074809213
-0.0035763942395568957   -0.04899592163578852   -0.0010585903116668333
-0.0014804269021650965   -0.04716246216455265   -0.0009140728521854605
-0.0037855492293393743   -0.04918485960666842   -0.0012473887451964288
-0.0033308135243318346   -0.0489115239605876   -0.0012206226113794056
-0.0014804269021650965   -0.04716246216455265   -0.0009140728521854605
-0.002726251271891425   -0.0473053694712484   -0.0011147092440755109
-0.0037855492293393743   -0.04918485960666842   -0.0012473887451964288
-0.002658009992097505   -0.04722584613604043   -0.0011764863680706888
-0.0033308135243318346   -0.0489115239605876   -0.0012206226113794056
-0.0036895649256842027   -0.04911916099546953   -0.0013165780318432822
-0.002658009992097505   -0.04722584613604043   -0.0011764863680706888
-0.0037855492293393743   -0.04918485960666842   -0.0012473887451964288
-0.0033308135243318346   -0.0489115239605876   -0.0012206226113794056
-0.002658009992097505   -0.04722584613604043   -0.0011764863680706888
-0.001284284836411464   -0.04706398690798971   -0.0010543566880733598
-0.0014804269021650965   -0.04716246216455265   -0.0009140728521854605
-0.0033308135243318346   -0.0489115239605876   -0.0012206226113794056
-0.002658009992097505   -0.04722584613604043   -0.0011764863680706888
-0.0014804269021650965   -0.04716246216455265   -0.0009140728521854605
-0.0037855492293393743   -0.04918485960666842   -0.0012473887451964288
-0.0033308135243318346   -0.0489115239605876   -0.0012206226113794056
-0.001284284836411464   -0.04706398690798971   -0.0010543566880733598
-0.0036895649256842027   -0.04911916099546953   -0.0013165780318432822
-0.0031264199512131686   -0.04888592911005708   -0.0013760791768555318
-0.001284284836411464   -0.04706398690798971   -0.0010543566880733598
-0.002658009992097505   -0.04722584613604043   -0.0011764863680706888
-0.0036895649256842027   -0.04911916099546953   -0.0013165780318432822
-0.0025810923721788013   -0.04718212644081408   -0.0012327431079462723
-0.0031264199512131686   -0.04888592911005708   -0.0013760791768555318
-0.0035769028672851698   -0.0490952486130366   -0.0013804658833141217
-0.0025810923721788013   -0.04718212644081408   -0.0012327431079462723
-0.0036895649256842027   -0.04911916099546953   -0.0013165780318432822
-0.0031264199512131686   -0.04888592911005708   -0.0013760791768555318
-0.0025810923721788013   -0.04718212644081408   -0.0012327431079462723
-0.0011299351991669413   -0.04701747645711748   -0.00118646079779929
-0.001284284836411464   -0.04706398690798971   -0.0010543566880733598
-0.0031264199512131686   -0.04888592911005708   -0.0013760791768555318
-0.0025810923721788013   -0.04718212644081408   -0.0012327431079462723
-0.001284284836411464   -0.04706398690798971   -0.0010543566880733598
-0.0036895649256842027   -0.04911916099546953   -0.0013165780318432822
-0.0031264199512131686   -0.04888592911005708   -0.0013760791768555318
-0.0011299351991669413   -0.04701747645711748   -0.00118646079779929
-0.0035769028672851698   -0.0490952486130366   -0.0013804658833141217
-0.0028949904287394134   -0.048908661467289644   -0.0015242808622749236
-0.0011299351991669413   -0.04701747645711748   -0.00118646079779929
-0.0025810923721788013   -0.04718212644081408   -0.0012327431079462723
-0.0035769028672851698   -0.0490952486130366   -0.0013804658833141217
-0.0025221462105897677   -0.047172984695210175   -0.0012836589097385937
-0.0028949904287394134   -0.048908661467289644   -0.0015242808622749236
-0.00348043840894871   -0.049113483567527115   -0.0014387237804810576
-0.0025221462105897677   -0.047172984695210175   -0.0012836589097385937
-0.0035769028672851698   -0.0490952486130366   -0.0013804658833141217
-0.0028949904287394134   -0.048908661467289644   -0.0015242808622749236
-0.0025221462105897677   -0.047172984695210175   -0.0012836589097385937
-0.0009611632999936245   -0.04700949284139121   -0.0013100433135164067
-0.0011299351991669413   -0.04701747645711748   -0.00118646079779929
-0.0028949904287394134   -0.048908661467289644   -0.0015242808622749236
-0.0025221462105897677   -0.047172984695210175   -0.0012836589097385937
-0.0011299351991669413   -0.04701747645711748   -0.00118646079779929
-0.0035769028672851698   -0.0490952486130366   -0.0013804658833141217
-0.0037855492293393743   -0.04918485960666842   -0.0012473887451964288
-0.002726251271891425   -0.0473053694712484   -0.0011147092440755109
-0.004071873632121792   -0.04930111162508045   -0.001398258780612778
-0.0036895649256842027   -0.04911916099546953   -0.0013165780318432822
-0.002726251271891425   -0.0473053694712484   -0.0011147092440755109
-0.0039575674568100815   -0.04735565027441702   -0.0012782135292928507
-0.004071873632121792   -0.04930111162508045   -0.001398258780612778
-0.0039002482449394297   -0.04728628538490393   -0.0012815333866455548
-0.0036895649256842027   -0.04911916099546953   -0.0013165780318432822
-0.003986973412909695   -0.049242422630756885   -0.001399991947517512
-0.0039002482449394297   -0.04728628538490393   -0.0012815333866455548
-0.004071873632121792   -0.04930111162508045   -0.001398258780612778
-0.0036895649256842027   -0.04911916099546953   -0.0013165780318432822
-0.0039002482449394297   -0.04728628538490393   -0.0012815333866455548
-0.002658009992097505   -0.04722584613604043   -0.0011764863680706888
-0.002726251271891425   -0.0473053694712484   -0.0011147092440755109
-0.0036895649256842027   -0.04911916099546953   -0.0013165780318432822
-0.0039002482449394297   -0.04728628538490393   -0.0012815333866455548
-0.002726251271891425   -0.0473053694712484   -0.0011147092440755109
-0.004071873632121792   -0.04930111162508045   -0.001398258780612778
-0.0036895649256842027   -0.04911916099546953   -0.0013165780318432822
-0.002658009992097505   -0.04722584613604043   -0.0011764863680706888
-0.003986973412909695   -0.049242422630756885   -0.001399991947517512
-0.0035769028672851698   -0.0490952486130366   -0.0013804658833141217
-0.002658009992097505   -0.04722584613604043   -0.0011764863680706888
-0.0039002482449394297   -0.04728628538490393   -0.0012815333866455548
-0.003986973412909695   -0.049242422630756885   -0.001399991947517512
-0.0038409541396060756   -0.04724919144859586   -0.0012797393938483994
-0.0035769028672851698   -0.0490952486130366   -0.0013804658833141217
-0.0038924944083834887   -0.049221575994380595   -0.0013948526575351036
-0.0038409541396060756   -0.04724919144859586   -0.0012797393938483994
-0.003986973412909695   -0.049242422630756885   -0.001399991947517512
-0.0035769028672851698   -0.0490952486130366   -0.0013804658833141217
-0.0038409541396060756   -0.04724919144859586   -0.0012797393938483994
-0.0025810923721788013   -0.04718212644081408   -0.0012327431079462723
-0.002658009992097505   -0.04722584613604043   -0.0011764863680706888
-0.0035769028672851698   -0.0490952486130366   -0.0013804658833141217
-0.0038409541396060756   -0.04724919144859586   -0.0012797393938483994
-0.002658009992097505   -0.04722584613604043   -0.0011764863680706888
-0.003986973412909695   -0.049242422630756885   -0.001399991947517512
-0.0035769028672851698   -0.0490952486130366   -0.0013804658833141217
-0.0025810923721788013   -0.04718212644081408   -0.0012327431079462723
-0.0038924944083834887   -0.049221575994380595   -0.0013948526575351036
-0.00348043840894871   -0.049113483567527115   -0.0014387237804810576
-0.0025810923721788013   -0.04718212644081408   -0.0012327431079462723
-0.0038409541396060756   -0.04724919144859586   -0.0012797393938483994
-0.0038924944083834887   -0.049221575994380595   -0.0013948526575351036
-0.003783783577848058   -0.047242836467160355   -0.0012727896987574194
-0.00348043840894871   -0.049113483567527115   -0.0014387237804810576
-0.003796458176193747   -0.04923687129196249   -0.0013843193500637921
-0.003783783577848058   -0.047242836467160355   -0.0012727896987574194
-0.0038924944083834887   -0.049221575994380595   -0.0013948526575351036
-0.00348043840894871   -0.049113483567527115   -0.0014387237804810576
-0.003783783577848058   -0.047242836467160355   -0.0012727896987574194
-0.0025221462105897677   -0.047172984695210175   -0.0012836589097385937
-0.0025810923721788013   -0.04718212644081408   -0.0012327431079462723
-0.00348043840894871   -0.049113483567527115   -0.0014387237804810576
-0.003783783577848058   -0.047242836467160355   -0.0012727896987574194
-0.0025810923721788013   -0.04718212644081408   -0.0012327431079462723
-0.0038924944083834887   -0.049221575994380595   -0.0013948526575351036
-0.004071873632121792   -0.04930111162508045   -0.001398258780612778
-0.0039575674568100815   -0.04735565027441702   -0.0012782135292928507
-0.004379233227917097   -0.049349111951439   -0.0015468392308792072
-0.003986973412909695   -0.049242422630756885   -0.001399991947517512
-0.0039575674568100815   -0.04735565027441702   -0.0012782135292928507
-0.005180594149884077   -0.047310652115287136   -0.001431274315341016
-0.004379233227917097   -0.049349111951439   -0.0015468392308792072
-0.005123728359388845   -0.04724901452886805   -0.0013785282852471828
-0.003986973412909695   -0.049242422630756885   -0.001399991947517512
-0.004291282654611189   -0.04929308027364115   -0.0014837014610676212
-0.005123728359388845   -0.04724901452886805   -0.0013785282852471828
-0.004379233227917097   -0.049349111951439   -0.0015468392308792072
-0.003986973412909695   -0.049242422630756885   -0.001399991947517512
-0.005123728359388845   -0.04724901452886805   -0.0013785282852471828
-0.0039002482449394297   -0.04728628538490393   -0.0012815333866455548
-0.0039575674568100815   -0.04735565027441702   -0.0012782135292928507
-0.003986973412909695   -0.049242422630756885   -0.001399991947517512
-0.005123728359388845   -0.04724901452886805   -0.0013785282852471828
-0.0039575674568100815   -0.04735565027441702   -0.0012782135292928507
-0.004379233227917097   -0.049349111951439   -0.0015468392308792072
-0.003986973412909695   -0.049242422630756885   -0.001399991947517512
-0.0039002482449394297   -0.04728628538490393   -0.0012815333866455548
-0.004291282654611189   -0.04929308027364115   -0.0014837014610676212
-0.0038924944083834887   -0.049221575994380595   -0.0013948526575351036
-0.0039002482449394297   -0.04728628538490393   -0.0012815333866455548
-0.005123728359388845   -0.04724901452886805   -0.0013785282852471828
-0.004291282654611189   -0.04929308027364115   -0.0014837014610676212
-0.005059914141701915   -0.04721911343773178   -0.001320746892615142
-0.0038924944083834887   -0.049221575994380595   -0.0013948526575351036
-0.004185847278677877   -0.049275502177499375   -0.00141219171471635
-0.005059914141701915   -0.04721911343773178   -0.001320746892615142
-0.004291282654611189   -0.04929308027364115   -0.0014837014610676212
-0.0038924944083834887   -0.049221575994380595   -0.0013948526575351036
-0.005059914141701915   -0.04721911343773178   -0.001320746892615142
-0.0038409541396060756   -0.04724919144859586   -0.0012797393938483994
-0.0039002482449394297   -0.04728628538490393   -0.0012815333866455548
-0.0038924944083834887   -0.049221575994380595   -0.0013948526575351036
-0.005059914141701915   -0.04721911343773178   -0.001320746892615142
-0.0039002482449394297   -0.04728628538490393   -0.0012815333866455548
-0.004291282654611189   -0.04929308027364115   -0.0014837014610676212
-0.0038924944083834887   -0.049221575994380595   -0.0013948526575351036
-0.0038409541396060756   -0.04724919144859586   -0.0012797393938483994
-0.004185847278677877   -0.049275502177499375   -0.00141219171471635
-0.003796458176193747   -0.04923687129196249   -0.0013843193500637921
-0.0038409541396060756   -0.04724919144859586   -0.0012797393938483994
-0.005059914141701915   -0.04721911343773178   -0.001320746892615142
-0.004185847278677877   -0.049275502177499375   -0.00141219171471635
-0.004995865520740028   -0.04721792754792652   -0.0012573171530712848
-0.003796458176193747   -0.04923687129196249   -0.0013843193500637921
-0.004077455651842922   -0.04929040609478716   -0.0013360604446068553
-0.004995865520740028   -0.04721792754792652   -0.0012573171530712848
-0.004185847278677877   -0.049275502177499375   -0.00141219171471635
-0.003796458176193747   -0.04923687129196249   -0.0013843193500637921
-0.004995865520740028   -0.04721792754792652   -0.0012573171530712848
-0.003783783577848058   -0.047242836467160355   -0.0012727896987574194
-0.0038409541396060756   -0.04724919144859586   -0.0012797393938483994
-0.003796458176193747   -0.04923687129196249   -0.0013843193500637921
-0.004995865520740028   -0.04721792754792652   -0.0012573171530712848
-0.0038409541396060756   -0.04724919144859586   -0.0012797393938483994
-0.004185847278677877   -0.049275502177499375   -0.00141219171471635
-0.004379233227917097   -0.049349111951439   -0.0015468392308792072
-0.005180594149884077   -0.047310652115287136   -0.001431274315341016
-0.004824645498713527   -0.049294967937793754   -0.0016882387006659065
-0.004291282654611189   -0.04929308027364115   -0.0014837014610676212
-0.005180594149884077   -0.047310652115287136   -0.001431274315341016
-0.006523667855548249   -0.04716446902275025   -0.0015719826985529182
-0.004824645498713527   -0.049294967937793754   -0.0016882387006659065
-0.006453973292880073   -0.04711055159174955   -0.0014643877791463461
-0.004291282654611189   -0.04929308027364115   -0.0014837014610676212
-0.004709790429314156   -0.049241939468803404   -0.0015632847336462927
-0.006453973292880073   -0.04711055159174955   -0.0014643877791463461
-0.004824645498713527   -0.049294967937793754   -0.0016882387006659065
-0.004291282654611189   -0.04929308027364115   -0.0014837014610676212
-0.006453973292880073   -0.04711055159174955   -0.0014643877791463461
-0.005123728359388845   -0.04724901452886805   -0.0013785282852471828
-0.005180594149884077   -0.047310652115287136   -0.001431274315341016
-0.004291282654611189   -0.04929308027364115   -0.0014837014610676212
-0.006453973292880073   -0.04711055159174955   -0.0014643877791463461
-0.005180594149884077   -0.047310652115287136   -0.001431274315341016
-0.004824645498713527   -0.049294967937793754   -0.0016882387006659065
-0.004291282654611189   -0.04929308027364115   -0.0014837014610676212
-0.005123728359388845   -0.04724901452886805   -0.0013785282852471828
-0.004709790429314156   -0.049241939468803404   -0.0015632847336462927
-0.004185847278677877   -0.049275502177499375   -0.00141219171471635
-0.005123728359388845   -0.04724901452886805   -0.0013785282852471828
-0.006453973292880073   -0.04711055159174955   -0.0014643877791463461
-0.004709790429314156   -0.049241939468803404   -0.0015632847336462927
-0.006357668674318181   -0.047087814891474226   -0.001352135465559624
-0.004185847278677877   -0.049275502177499375   -0.00141219171471635
-0.004558102813717862   -0.049230056550413716   -0.001428986529770049
-0.006357668674318181   -0.047087814891474226   -0.001352135465559624
-0.004709790429314156   -0.049241939468803404   -0.0015632847336462927
-0.004185847278677877   -0.049275502177499375   -0.00141219171471635
-0.006357668674318181   -0.047087814891474226   -0.001352135465559624
-0.005059914141701915   -0.04721911343773178   -0.001320746892615142
-0.005123728359388845   -0.04724901452886805   -0.0013785282852471828
-0.004185847278677877   -0.049275502177499375   -0.00141219171471635
-0.006357668674318181   -0.047087814891474226   -0.001352135465559624
-0.005123728359388845   -0.04724901452886805   -0.0013785282852471828
-0.004709790429314156   -0.049241939468803404   -0.0015632847336462927
-0.004185847278677877   -0.049275502177499375   -0.00141219171471635
-0.005059914141701915   -0.04721911343773178   -0.001320746892615142
-0.004558102813717862   -0.049230056550413716   -0.001428986529770049
-0.004077455651842922   -0.04929040609478716   -0.0013360604446068553
-0.005059914141701915   -0.04721911343773178   -0.001320746892615142
-0.006357668674318181   -0.047087814891474226   -0.001352135465559624
-0.004558102813717862   -0.049230056550413716   -0.001428986529770049
-0.006273750159246011   -0.04709628801067172   -0.001232120183242824
-0.004077455651842922   -0.04929040609478716   -0.0013360604446068553
-0.004415627852192616   -0.049251429348802014   -0.00128955067917543
-0.006273750159246011   -0.04709628801067172   -0.001232120183242824
-0.004558102813717862   -0.049230056550413716   -0.001428986529770049
-0.004077455651842922   -0.04929040609478716   -0.0013360604446068553
-0.006273750159246011   -0.04709628801067172   -0.001232120183242824
-0.004995865520740028   -0.04721792754792652   -0.0012573171530712848
-0.005059914141701915   -0.04721911343773178   -0.001320746892615142
-0.004077455651842922   -0.04929040609478716   -0.0013360604446068553
-0.006273750159246011   -0.04709628801067172   -0.001232120183242824
-0.005059914141701915   -0.04721911343773178   -0.001320746892615142
-0.004558102813717862   -0.049230056550413716   -0.001428986529770049
-0.004824645498713527   -0.049294967937793754   -0.0016882387006659065
-0.006523667855548249   -0.04716446902275025   -0.0015719826985529182
-0.00569362488811138   -0.049054016443740134   -0.0018386158187972115
-0.004709790429314156   -0.049241939468803404   -0.0015632847336462927
-0.006523667855548249   -0.04716446902275025   -0.0015719826985529182
-0.00825309754801647   -0.04692672678363899   -0.0017073832656181718
-0.00569362488811138   -0.049054016443740134   -0.0018386158187972115
-0.00802743503238765   -0.04686812532282275   -0.0015374722231325003
-0.004709790429314156   -0.049241939468803404   -0.0015632847336462927
-0.00538682952058693   -0.04900910033884673   -0.0016336425111104446
-0.00802743503238765   -0.04686812532282275   -0.0015374722231325003
-0.00569362488811138   -0.049054016443740134   -0.0018386158187972115
-0.004709790429314156   -0.049241939468803404   -0.0015632847336462927
-0.00802743503238765   -0.04686812532282275   -0.0015374722231325003
-0.006453973292880073   -0.04711055159174955   -0.0014643877791463461
-0.006523667855548249   -0.04716446902275025   -0.0015719826985529182
-0.004709790429314156   -0.049241939468803404   -0.0015632847336462927
-0.00802743503238765   -0.04686812532282275   -0.0015374722231325003
-0.006523667855548249   -0.04716446902275025   -0.0015719826985529182
-0.00569362488811138   -0.049054016443740134   -0.0018386158187972115
-0.004709790429314156   -0.049241939468803404   -0.0015632847336462927
-0.006453973292880073   -0.04711055159174955   -0.0014643877791463461
-0.00538682952058693   -0.04900910033884673   -0.0016336425111104446
-0.004558102813717862   -0.049230056550413716   -0.001428986529770049
-0.006453973292880073   -0.04711055159174955   -0.0014643877791463461
-0.00802743503238765   -0.04686812532282275   -0.0015374722231325003
-0.00538682952058693   -0.04900910033884673   -0.0016336425111104446
-0.007825407433604839   -0.04684709463642781   -0.0013577757589099265
-0.004558102813717862   -0.049230056550413716   -0.001428986529770049
-0.005105243567790932   -0.049003083697651384   -0.0014149931032306656
-0.007825407433604839   -0.04684709463642781   -0.0013577757589099265
-0.00538682952058693   -0.04900910033884673   -0.0016336425111104446
-0.004558102813717862   -0.049230056550413716   -0.001428986529770049
-0.007825407433604839   -0.04684709463642781   -0.0013577757589099265
-0.006357668674318181   -0.047087814891474226   -0.001352135465559624
-0.006453973292880073   -0.04711055159174955   -0.0014643877791463461
-0.004558102813717862   -0.049230056550413716   -0.001428986529770049
-0.007825407433604839   -0.04684709463642781   -0.0013577757589099265
-0.006453973292880073   -0.04711055159174955   -0.0014643877791463461
-0.00538682952058693   -0.04900910033884673   -0.0016336425111104446
-0.004558102813717862   -0.049230056550413716   -0.001428986529770049
-0.006357668674318181   -0.047087814891474226   -0.001352135465559624
-0.005105243567790932   -0.049003083697651384   -0.0014149931032306656
-0.004415627852192616   -0.049251429348802014   -0.00128955067917543
-0.006357668674318181   -0.047087814891474226   -0.001352135465559624
-0.007825407433604839   -0.04684709463642781   -0.0013577757589099265
-0.005105243567790932   -0.049003083697651384   -0.0014149931032306656
-0.007563601230775975   -0.04687456535464432   -0.0011699916570023301
-0.004415627852192616   -0.049251429348802014   -0.00128955067917543
-0.004749575433682709   -0.04906197136966415   -0.0011864362739136109
-0.007563601230775975   -0.04687456535464432   -0.0011699916570023301
-0.005105243567790932   -0.049003083697651384   -0.0014149931032306656
-0.004415627852192616   -0.049251429348802014   -0.00128955067917543
-0.007563601230775975   -0.04687456535464432   -0.0011699916570023301
-0.006273750159246011   -0.04709628801067172   -0.001232120183242824
-0.006357668674318181   -0.047087814891474226   -0.001352135465559624
-0.004415627852192616   -0.049251429348802014   -0.00128955067917543
-0.007563601230775975   -0.04687456535464432   -0.0011699916570023301
-0.006357668674318181   -0.047087814891474226   -0.001352135465559624
-0.005105243567790932   -0.049003083697651384   -0.0014149931032306656
-0.0014804269021650965   -0.04716246216455265   -0.0009140728521854605
0.00022343407153797563   -0.043774568930572265   -0.0007555962383273975
-0.002726251271891425   -0.0473053694712484   -0.0011147092440755109
-0.001284284836411464   -0.04706398690798971   -0.0010543566880733598
0.00022343407153797563   -0.043774568930572265   -0.0007555962383273975
-0.0018832955461533878   -0.04387966136363112   -0.0009526622375492557
-0.002726251271891425   -0.0473053694712484   -0.0011147092440755109
-0.0018470233765747772   -0.04379630028611961   -0.001001779311617335
-0.001284284836411464   -0.04706398690798971   -0.0010543566880733598
-0.002658009992097505   -0.04722584613604043   -0.0011764863680706888
-0.0018470233765747772   -0.04379630028611961   -0.001001779311617335
-0.002726251271891425   -0.0473053694712484   -0.0011147092440755109
-0.001284284836411464   -0.04706398690798971   -0.0010543566880733598
-0.0018470233765747772   -0.04379630028611961   -0.001001779311617335
0.0003608106858599596   -0.04367446195010705   -0.0008675669534128327
0.00022343407153797563   -0.043774568930572265   -0.0007555962383273975
-0.001284284836411464   -0.04706398690798971   -0.0010543566880733598
-0.0018470233765747772   -0.04379630028611961   -0.001001779311617335
0.00022343407153797563   -0.043774568930572265   -0.0007555962383273975
-0.002726251271891425   -0.0473053694712484   -0.0011147092440755109
-0.001284284836411464   -0.04706398690798971   -0.0010543566880733598
0.0003608106858599596   -0.04367446195010705   -0.0008675669534128327
-0.002658009992097505   -0.04722584613604043   -0.0011764863680706888
-0.0011299351991669413   -0.04701747645711748   -0.00118646079779929
0.0003608106858599596   -0.04367446195010705   -0.0008675669534128327
-0.0018470233765747772   -0.04379630028611961   -0.001001779311617335
-0.002658009992097505   -0.04722584613604043   -0.0011764863680706888
-0.0018056472383188825   -0.04374220201338699   -0.0010452266525450594
-0.0011299351991669413   -0.04701747645711748   -0.00118646079779929
-0.0025810923721788013   -0.04718212644081408   -0.0012327431079462723
-0.0018056472383188825   -0.04374220201338699   -0.0010452266525450594
-0.002658009992097505   -0.04722584613604043   -0.0011764863680706888
-0.0011299351991669413   -0.04701747645711748   -0.00118646079779929
-0.0018056472383188825   -0.04374220201338699   -0.0010452266525450594
0.00046190941180945084   -0.04361701718979904   -0.0009716015220043745
0.0003608106858599596   -0.04367446195010705   -0.0008675669534128327
-0.0011299351991669413   -0.04701747645711748   -0.00118646079779929
-0.0018056472383188825   -0.04374220201338699   -0.0010452266525450594
0.0003608106858599596   -0.04367446195010705   -0.0008675669534128327
-0.002658009992097505   -0.04722584613604043   -0.0011764863680706888
-0.0011299351991669413   -0.04701747645711748   -0.00118646079779929
0.00046190941180945084   -0.04361701718979904   -0.0009716015220043745
-0.0025810923721788013   -0.04718212644081408   -0.0012327431079462723
-0.0009611632999936245   -0.04700949284139121   -0.0013100433135164067
0.00046190941180945084   -0.04361701718979904   -0.0009716015220043745
-0.0018056472383188825   -0.04374220201338699   -0.0010452266525450594
-0.0025810923721788013   -0.04718212644081408   -0.0012327431079462723
-0.0017809014062679831   -0.04371575362058261   -0.0010835645462962196
-0.0009611632999936245   -0.04700949284139121   -0.0013100433135164067
-0.0025221462105897677   -0.047172984695210175   -0.0012836589097385937
-0.0017809014062679831   -0.04371575362058261   -0.0010835645462962196
-0.0025810923721788013   -0.04718212644081408   -0.0012327431079462723
-0.0009611632999936245   -0.04700949284139121   -0.0013100433135164067
-0.0017809014062679831   -0.04371575362058261   -0.0010835645462962196
0.0005703353927279449   -0.043589306243557814   -0.0010676643775294615
0.00046190941180945084   -0.04361701718979904   -0.0009716015220043745
-0.0009611632999936245   -0.04700949284139121   -0.0013100433135164067
-0.0017809014062679831   -0.04371575362058261   -0.0010835645462962196
0.00046190941180945084   -0.04361701718979904   -0.0009716015220043745
-0.0025810923721788013   -0.04718212644081408   -0.0012327431079462723
-0.002726251271891425   -0.0473053694712484   -0.0011147092440755109
-0.0018832955461533878   -0.04387966136363112   -0.0009526622375492557
-0.0039575674568100815   -0.04735565027441702   -0.0012782135292928507
-0.002658009992097505   -0.04722584613604043   -0.0011764863680706888
-0.0018832955461533878   -0.04387966136363112   -0.0009526622375492557
-0.003922731941945272   -0.0438997978750987   -0.001114827120851026
-0.0039575674568100815   -0.04735565027441702   -0.0012782135292928507
-0.0038961208459016117   -0.04382828849961379   -0.0011160303548628573
-0.002658009992097505   -0.04722584613604043   -0.0011764863680706888
-0.0039002482449394297   -0.04728628538490393   -0.0012815333866455548
-0.0038961208459016117   -0.04382828849961379   -0.0011160303548628573
-0.0039575674568100815   -0.04735565027441702   -0.0012782135292928507
-0.002658009992097505   -0.04722584613604043   -0.0011764863680706888
-0.0038961208459016117   -0.04382828849961379   -0.0011160303548628573
-0.0018470233765747772   -0.04379630028611961   -0.001001779311617335
-0.0018832955461533878   -0.04387966136363112   -0.0009526622375492557
-0.002658009992097505   -0.04722584613604043   -0.0011764863680706888
-0.0038961208459016117   -0.04382828849961379   -0.0011160303548628573
-0.0018832955461533878   -0.04387966136363112   -0.0009526622375492557
-0.0039575674568100815   -0.04735565027441702   -0.0012782135292928507
-0.002658009992097505   -0.04722584613604043   -0.0011764863680706888
-0.0018470233765747772   -0.04379630028611961   -0.001001779311617335
-0.0039002482449394297   -0.04728628538490393   -0.0012815333866455548
-0.0025810923721788013   -0.04718212644081408   -0.0012327431079462723
-0.0018470233765747772   -0.04379630028611961   -0.001001779311617335
-0.0038961208459016117   -0.04382828849961379   -0.0011160303548628573
-0.0039002482449394297   -0.04728628538490393   -0.0012815333866455548
-0.0038687472586603016   -0.04378296562029561   -0.0011117986003368054
-0.0025810923721788013   -0.04718212644081408   -0.0012327431079462723
-0.0038409541396060756   -0.04724919144859586   -0.0012797393938483994
-0.0038687472586603016   -0.04378296562029561   -0.0011117986003368054
-0.0039002482449394297   -0.04728628538490393   -0.0012815333866455548
-0.0025810923721788013   -0.04718212644081408   -0.0012327431079462723
-0.0038687472586603016   -0.04378296562029561   -0.0011117986003368054
-0.0018056472383188825   -0.04374220201338699   -0.0010452266525450594
-0.0018470233765747772   -0.04379630028611961   -0.001001779311617335
-0.0025810923721788013   -0.04718212644081408   -0.0012327431079462723
-0.0038687472586603016   -0.04378296562029561   -0.0011117986003368054
-0.0018470233765747772   -0.04379630028611961   -0.001001779311617335
-0.0039002482449394297   -0.04728628538490393   -0.0012815333866455548
-0.0025810923721788013   -0.04718212644081408   -0.0012327431079462723
-0.0018056472383188825   -0.04374220201338699   -0.0010452266525450594
-0.0038409541396060756   -0.04724919144859586   -0.0012797393938483994
-0.0025221462105897677   -0.047172984695210175   -0.0012836589097385937
-0.0018056472383188825   -0.04374220201338699   -0.0010452266525450594
-0.0038687472586603016   -0.04378296562029561   -0.0011117986003368054
-0.0038409541396060756   -0.04724919144859586   -0.0012797393938483994
-0.003844808718552236   -0.043763405296664455   -0.001102498142903682
-0.0025221462105897677   -0.047172984695210175   -0.0012836589097385937
-0.003783783577848058   -0.047242836467160355   -0.0012727896987574194
-0.003844808718552236   -0.043763405296664455   -0.001102498142903682
-0.0038409541396060756   -0.04724919144859586   -0.0012797393938483994
-0.0025221462105897677   -0.047172984695210175   -0.0012836589097385937
-0.003844808718552236   -0.043763405296664455   -0.001102498142903682
-0.0017809014062679831   -0.04371575362058261   -0.0010835645462962196
-0.0018056472383188825   -0.04374220201338699   -0.0010452266525450594
-0.0025221462105897677   -0.047172984695210175   -0.0012836589097385937
-0.003844808718552236   -0.043763405296664455   -0.001102498142903682
-0.0018056472383188825   -0.04374220201338699   -0.0010452266525450594
-0.0038409541396060756   -0.04724919144859586   -0.0012797393938483994
-0.0039575674568100815   -0.04735565027441702   -0.0012782135292928507
-0.003922731941945272   -0.0438997978750987   -0.001114827120851026
-0.005180594149884077   -0.047310652115287136   -0.001431274315341016
-0.0039002482449394297   -0.04728628538490393   -0.0012815333866455548
-0.003922731941945272   -0.0438997978750987   -0.001114827120851026
-0.005930404840350689   -0.04383471266904777   -0.001261186933057071
-0.005180594149884077   -0.047310652115287136   -0.001431274315341016
-0.00590563524532281   -0.04377303233210149   -0.0012156280701165773
-0.0039002482449394297   -0.04728628538490393   -0.0012815333866455548
-0.005123728359388845   -0.04724901452886805   -0.0013785282852471828
-0.00590563524532281   -0.04377303233210149   -0.0012156280701165773
-0.005180594149884077   -0.047310652115287136   -0.001431274315341016
-0.0039002482449394297   -0.04728628538490393   -0.0012815333866455548
-0.00590563524532281   -0.04377303233210149   -0.0012156280701165773
-0.0038961208459016117   -0.04382828849961379   -0.0011160303548628573
-0.003922731941945272   -0.0438997978750987   -0.001114827120851026
-0.0039002482449394297   -0.04728628538490393   -0.0012815333866455548
-0.00590563524532281   -0.04377303233210149   -0.0012156280701165773
-0.003922731941945272   -0.0438997978750987   -0.001114827120851026
-0.005180594149884077   -0.047310652115287136   -0.001431274315341016
-0.0039002482449394297   -0.04728628538490393   -0.0012815333866455548
-0.0038961208459016117   -0.04382828849961379   -0.0011160303548628573
-0.005123728359388845   -0.04724901452886805   -0.0013785282852471828
-0.0038409541396060756   -0.04724919144859586   -0.0012797393938483994
-0.0038961208459016117   -0.04382828849961379   -0.0011160303548628573
-0.00590563524532281   -0.04377303233210149   -0.0012156280701165773
-0.005123728359388845   -0.04724901452886805   -0.0013785282852471828
-0.005875699113002839   -0.043737251945871525   -0.0011647545866180283
-0.0038409541396060756   -0.04724919144859586   -0.0012797393938483994
-0.005059914141701915   -0.04721911343773178   -0.001320746892615142
-0.005875699113002839   -0.043737251945871525   -0.0011647545866180283
-0.005123728359388845   -0.04724901452886805   -0.0013785282852471828
-0.0038409541396060756   -0.04724919144859586   -0.0012797393938483994
-0.005875699113002839   -0.043737251945871525   -0.0011647545866180283
-0.0038687472586603016   -0.04378296562029561   -0.0011117986003368054
-0.0038961208459016117   -0.04382828849961379   -0.0011160303548628573
-0.0038409541396060756   -0.04724919144859586   -0.0012797393938483994
-0.005875699113002839   -0.043737251945871525   -0.0011647545866180283
-0.0038961208459016117   -0.04382828849961379   -0.0011160303548628573
-0.005123728359388845   -0.04724901452886805   -0.0013785282852471828
-0.0038409541396060756   -0.04724919144859586   -0.0012797393938483994
-0.0038687472586603016   -0.04378296562029561   -0.0011117986003368054
-0.005059914141701915   -0.04721911343773178   -0.001320746892615142
-0.003783783577848058   -0.047242836467160355   -0.0012727896987574194
-0.0038687472586603016   -0.04378296562029561   -0.0011117986003368054
-0.005875699113002839   -0.043737251945871525   -0.0011647545866180283
-0.005059914141701915   -0.04721911343773178   -0.001320746892615142
-0.005846601469342934   -0.04372618350265646   -0.0011087295487226668
-0.003783783577848058   -0.047242836467160355   -0.0012727896987574194
-0.004995865520740028   -0.04721792754792652   -0.0012573171530712848
-0.005846601469342934   -0.04372618350265646   -0.0011087295487226668
-0.005059914141701915   -0.04721911343773178   -0.001320746892615142
-0.003783783577848058   -0.047242836467160355   -0.0012727896987574194
-0.005846601469342934   -0.04372618350265646   -0.0011087295487226668
-0.003844808718552236   -0.043763405296664455   -0.001102498142903682
-0.0038687472586603016   -0.04378296562029561   -0.0011117986003368054
-0.003783783577848058   -0.047242836467160355   -0.0012727896987574194
-0.005846601469342934   -0.04372618350265646   -0.0011087295487226668
-0.0038687472586603016   -0.04378296562029561   -0.0011117986003368054
-0.005059914141701915   -0.04721911343773178   -0.001320746892615142
-0.005180594149884077   -0.047310652115287136   -0.001431274315341016
-0.005930404840350689   -0.04383471266904777   -0.001261186933057071
-0.006523667855548249   -0.04716446902275025   -0.0015719826985529182
-0.005123728359388845   -0.04724901452886805   -0.0013785282852471828
-0.005930404840350689   -0.04383471266904777   -0.001261186933057071
-0.008033974262257645   -0.04368667146999718   -0.001391232761648412
-0.006523667855548249   -0.04716446902275025   -0.0015719826985529182
-0.008001534033444044   -0.04363434782384187   -0.0012988393680621402
-0.005123728359388845   -0.04724901452886805   -0.0013785282852471828
-0.006453973292880073   -0.04711055159174955   -0.0014643877791463461
-0.008001534033444044   -0.04363434782384187   -0.0012988393680621402
-0.006523667855548249   -0.04716446902275025   -0.0015719826985529182
-0.005123728359388845   -0.04724901452886805   -0.0013785282852471828
-0.008001534033444044   -0.04363434782384187   -0.0012988393680621402
-0.00590563524532281   -0.04377303233210149   -0.0012156280701165773
-0.005930404840350689   -0.04383471266904777   -0.001261186933057071
-0.005123728359388845   -0.04724901452886805   -0.0013785282852471828
-0.008001534033444044   -0.04363434782384187   -0.0012988393680621402
-0.005930404840350689   -0.04383471266904777   -0.001261186933057071
-0.006523667855548249   -0.04716446902275025   -0.0015719826985529182
-0.005123728359388845   -0.04724901452886805   -0.0013785282852471828
-0.00590563524532281   -0.04377303233210149   -0.0012156280701165773
-0.006453973292880073   -0.04711055159174955   -0.0014643877791463461
-0.005059914141701915   -0.04721911343773178   -0.001320746892615142
-0.00590563524532281   -0.04377303233210149   -0.0012156280701165773
-0.008001534033444044   -0.04363434782384187   -0.0012988393680621402
-0.006453973292880073   -0.04711055159174955   -0.0014643877791463461
-0.007946491742681331   -0.04360721845591458   -0.001201951973838679
-0.005059914141701915   -0.04721911343773178   -0.001320746892615142
-0.006357668674318181   -0.047087814891474226   -0.001352135465559624
-0.007946491742681331   -0.04360721845591458   -0.001201951973838679
-0.006453973292880073   -0.04711055159174955   -0.0014643877791463461
-0.005059914141701915   -0.04721911343773178   -0.001320746892615142
-0.007946491742681331   -0.04360721845591458   -0.001201951973838679
-0.005875699113002839   -0.043737251945871525   -0.0011647545866180283
-0.00590563524532281   -0.04377303233210149   -0.0012156280701165773
-0.005059914141701915   -0.04721911343773178   -0.001320746892615142
-0.007946491742681331   -0.04360721845591458   -0.001201951973838679
-0.00590563524532281   -0.04377303233210149   -0.0012156280701165773
-0.006453973292880073   -0.04711055159174955   -0.0014643877791463461
-0.005059914141701915   -0.04721911343773178   -0.001320746892615142
-0.005875699113002839   -0.043737251945871525   -0.0011647545866180283
-0.006357668674318181   -0.047087814891474226   -0.001352135465559624
-0.004995865520740028   -0.04721792754792652   -0.0012573171530712848
-0.005875699113002839   -0.043737251945871525   -0.0011647545866180283
-0.007946491742681331   -0.04360721845591458   -0.001201951973838679
-0.006357668674318181   -0.047087814891474226   -0.001352135465559624
-0.007901881743217739   -0.04360673778670462   -0.0010991610581525533
-0.004995865520740028   -0.04721792754792652   -0.0012573171530712848
-0.006273750159246011   -0.04709628801067172   -0.001232120183242824
-0.007901881743217739   -0.04360673778670462   -0.0010991610581525533
-0.006357668674318181   -0.047087814891474226   -0.001352135465559624
-0.004995865520740028   -0.04721792754792652   -0.0012573171530712848
-0.007901881743217739   -0.04360673778670462   -0.0010991610581525533
-0.005846601469342934   -0.04372618350265646   -0.0011087295487226668
-0.005875699113002839   -0.043737251945871525   -0.0011647545866180283
-0.004995865520740028   -0.04721792754792652   -0.0012573171530712848
-0.007901881743217739   -0.04360673778670462   -0.0010991610581525533
-0.005875699113002839   -0.043737251945871525   -0.0011647545866180283
-0.006357668674318181   -0.047087814891474226   -0.001352135465559624
-0.006523667855548249   -0.04716446902275025   -0.0015719826985529182
-0.008033974262257645   -0.04368667146999718   -0.001391232761648412
-0.00825309754801647   -0.04692672678363899   -0.0017073832656181718
-0.006453973292880073   -0.04711055159174955   -0.0014643877791463461
-0.008033974262257645   -0.04368667146999718   -0.001391232761648412
-0.010487021554757166   -0.04347324245781173   -0.001512725094747563
-0.00825309754801647   -0.04692672678363899   -0.0017073832656181718
-0.010320037882949084   -0.04341856352551726   -0.0013680502108218255
-0.006453973292880073   -0.04711055159174955   -0.0014643877791463461
-0.00802743503238765   -0.04686812532282275   -0.0015374722231325003
-0.010320037882949084   -0.04341856352551726   -0.0013680502108218255
-0.00825309754801647   -0.04692672678363899   -0.0017073832656181718
-0.006453973292880073   -0.04711055159174955   -0.0014643877791463461
-0.010320037882949084   -0.04341856352551726   -0.0013680502108218255
-0.008001534033444044   -0.04363434782384187   -0.0012988393680621402
-0.008033974262257645   -0.04368667146999718   -0.001391232761648412
-0.006453973292880073   -0.04711055159174955   -0.0014643877791463461
-0.010320037882949084   -0.04341856352551726   -0.0013680502108218255
-0.008033974262257645   -0.04368667146999718   -0.001391232761648412
-0.00825309754801647   -0.04692672678363899   -0.0017073832656181718
-0.006453973292880073   -0.04711055159174955   -0.0014643877791463461
-0.008001534033444044   -0.04363434782384187   -0.0012988393680621402
-0.00802743503238765   -0.04686812532282275   -0.0015374722231325003
-0.006357668674318181   -0.047087814891474226   -0.001352135465559624
-0.008001534033444044   -0.04363434782384187   -0.0012988393680621402
-0.010320037882949084   -0.04341856352551726   -0.0013680502108218255
-0.00802743503238765   -0.04686812532282275   -0.0015374722231325003
-0.01017526658811709   -0.04339378346410122   -0.0012159540768918776
-0.006357668674318181   -0.047087814891474226   -0.001352135465559624
-0.007825407433604839   -0.04684709463642781   -0.0013577757589099265
-0.01017526658811709   -0.04339378346410122   -0.0012159540768918776
-0.00802743503238765   -0.04686812532282275   -0.0015374722231325003
-0.006357668674318181   -0.047087814891474226   -0.001352135465559624
-0.01017526658811709   -0.04339378346410122   -0.0012159540768918776
-0.007946491742681331   -0.04360721845591458   -0.001201951973838679
-0.008001534033444044   -0.04363434782384187   -0.0012988393680621402
-0.006357668674318181   -0.047087814891474226   -0.001352135465559624
-0.01017526658811709   -0.04339378346410122   -0.0012159540768918776
-0.008001534033444044   -0.04363434782384187   -0.0012988393680621402
-0.00802743503238765   -0.04686812532282275   -0.0015374722231325003
-0.006357668674318181   -0.047087814891474226   -0.001352135465559624
-0.007946491742681331   -0.04360721845591458   -0.001201951973838679
-0.007825407433604839   -0.04684709463642781   -0.0013577757589099265
-0.006273750159246011   -0.04709628801067172   -0.001232120183242824
-0.007946491742681331   -0.04360721845591458   -0.001201951973838679
-0.01017526658811709   -0.04339378346410122   -0.0012159540768918776
-0.007825407433604839   -0.04684709463642781   -0.0013577757589099265
-0.009980288029542924   -0.04340969512943277   -0.001057403696268751
-0.006273750159246011   -0.04709628801067172   -0.001232120183242824
-0.007563601230775975   -0.04687456535464432   -0.0011699916570023301
-0.009980288029542924   -0.04340969512943277   -0.001057403696268751
-0.007825407433604839   -0.04684709463642781   -0.0013577757589099265
-0.006273750159246011   -0.04709628801067172   -0.001232120183242824
-0.009980288029542924   -0.04340969512943277   -0.001057403696268751
-0.007901881743217739   -0.04360673778670462   -0.0010991610581525533
-0.007946491742681331   -0.04360721845591458   -0.001201951973838679
-0.006273750159246011   -0.04709628801067172   -0.001232120183242824
-0.009980288029542924   -0.04340969512943277   -0.001057403696268751
-0.007946491742681331   -0.04360721845591458   -0.001201951973838679
-0.007825407433604839   -0.04684709463642781   -0.0013577757589099265
0.00022343407153797563   -0.043774568930572265   -0.0007555962383273975
0.0015206170960257515   -0.03916567104871749   -0.0005756121411383954
-0.0018832955461533878   -0.04387966136363112   -0.0009526622375492557
0.0003608106858599596   -0.04367446195010705   -0.0008675669534128327
0.0015206170960257515   -0.03916567104871749   -0.0005756121411383954
-0.0012729454113833735   -0.03923539853904347   -0.0007637533308959946
-0.0018832955461533878   -0.04387966136363112   -0.0009526622375492557
-0.0012652571413537524   -0.03915247952256864   -0.0007979215685887101
0.0003608106858599596   -0.04367446195010705   -0.0008675669534128327
-0.0018470233765747772   -0.04379630028611961   -0.001001779311617335
-0.0012652571413537524   -0.03915247952256864   -0.0007979215685887101
-0.0018832955461533878   -0.04387966136363112   -0.0009526622375492557
0.0003608106858599596   -0.04367446195010705   -0.0008675669534128327
-0.0012652571413537524   -0.03915247952256864   -0.0007979215685887101
0.0016026645359971726   -0.03906794887392835   -0.0006586867588321946
0.0015206170960257515   -0.03916567104871749   -0.0005756121411383954
0.0003608106858599596   -0.04367446195010705   -0.0008675669534128327
-0.0012652571413537524   -0.03915247952256864   -0.0007979215685887101
0.0015206170960257515   -0.03916567104871749   -0.0005756121411383954
-0.0018832955461533878   -0.04387966136363112   -0.0009526622375492557
0.0003608106858599596   -0.04367446195010705   -0.0008675669534128327
0.0016026645359971726   -0.03906794887392835   -0.0006586867588321946
-0.0018470233765747772   -0.04379630028611961   -0.001001779311617335
0.00046190941180945084   -0.04361701718979904   -0.0009716015220043745
0.0016026645359971726   -0.03906794887392835   -0.0006586867588321946
-0.0012652571413537524   -0.03915247952256864   -0.0007979215685887101
-0.0018470233765747772   -0.04379630028611961   -0.001001779311617335
-0.0012554549321844377   -0.03909270221354481   -0.0008268959334650188
0.00046190941180945084   -0.04361701718979904   -0.0009716015220043745
-0.0018056472383188825   -0.04374220201338699   -0.0010452266525450594
-0.0012554549321844377   -0.03909270221354481   -0.0008268959334650188
-0.0018470233765747772   -0.04379630028611961   -0.001001779311617335
0.00046190941180945084   -0.04361701718979904   -0.0009716015220043745
-0.0012554549321844377   -0.03909270221354481   -0.0008268959334650188
0.0016552422784153718   -0.0390042317309984   -0.0007344187307182799
0.0016026645359971726   -0.03906794887392835   -0.0006586867588321946
0.00046190941180945084   -0.04361701718979904   -0.0009716015220043745
-0.0012554549321844377   -0.03909270221354481   -0.0008268959334650188
0.0016026645359971726   -0.03906794887392835   -0.0006586867588321946
-0.0018470233765747772   -0.04379630028611961   -0.001001779311617335
0.00046190941180945084   -0.04361701718979904   -0.0009716015220043745
0.0016552422784153718   -0.0390042317309984   -0.0007344187307182799
-0.0018056472383188825   -0.04374220201338699   -0.0010452266525450594
0.0005703353927279449   -0.043589306243557814   -0.0010676643775294615
0.0016552422784153718   -0.0390042317309984   -0.0007344187307182799
-0.0012554549321844377   -0.03909270221354481   -0.0008268959334650188
-0.0018056472383188825   -0.04374220201338699   -0.0010452266525450594
-0.0012598770610577437   -0.03905413503311204   -0.0008510548003060944
0.0005703353927279449   -0.043589306243557814   -0.0010676643775294615
-0.0017809014062679831   -0.04371575362058261   -0.0010835645462962196
-0.0012598770610577437   -0.03905413503311204   -0.0008510548003060944
-0.0018056472383188825   -0.04374220201338699   -0.0010452266525450594
0.0005703353927279449   -0.043589306243557814   -0.0010676643775294615
-0.0012598770610577437   -0.03905413503311204   -0.0008510548003060944
0.0017094109711533   -0.03896205127505986   -0.0008029646970532419
0.0016552422784153718   -0.0390042317309984   -0.0007344187307182799
0.0005703353927279449   -0.043589306243557814   -0.0010676643775294615
-0.0012598770610577437   -0.03905413503311204   -0.0008510548003060944
0.0016552422784153718   -0.0390042317309984   -0.0007344187307182799
-0.0018056472383188825   -0.04374220201338699   -0.0010452266525450594
-0.0018832955461533878   -0.04387966136363112   -0.0009526622375492557
-0.0012729454113833735   -0.03923539853904347   -0.0007637533308959946
-0.003922731941945272   -0.0438997978750987   -0.001114827120851026
-0.0018470233765747772   -0.04379630028611961   -0.001001779311617335
-0.0012729454113833735   -0.03923539853904347   -0.0007637533308959946
-0.003962293839999495   -0.039235899904537005   -0.0009186538892516755
-0.003922731941945272   -0.0438997978750987   -0.001114827120851026
-0.00396256916525803   -0.03916583116585781   -0.0009154214226061691
-0.0018470233765747772   -0.04379630028611961   -0.001001779311617335
-0.0038961208459016117   -0.04382828849961379   -0.0011160303548628573
-0.00396256916525803   -0.03916583116585781   -0.0009154214226061691
-0.003922731941945272   -0.0438997978750987   -0.001114827120851026
-0.0018470233765747772   -0.04379630028611961   -0.001001779311617335
-0.00396256916525803   -0.03916583116585781   -0.0009154214226061691
-0.0012652571413537524   -0.03915247952256864   -0.0007979215685887101
-0.0012729454113833735   -0.03923539853904347   -0.0007637533308959946
-0.0018470233765747772   -0.04379630028611961   -0.001001779311617335
-0.00396256916525803   -0.03916583116585781   -0.0009154214226061691
-0.0012729454113833735   -0.03923539853904347   -0.0007637533308959946
-0.003922731941945272   -0.0438997978750987   -0.001114827120851026
-0.0018470233765747772   -0.04379630028611961   -0.001001779311617335
-0.0012652571413537524   -0.03915247952256864   -0.0007979215685887101
-0.0038961208459016117   -0.04382828849961379   -0.0011160303548628573
-0.0018056472383188825   -0.04374220201338699   -0.0010452266525450594
-0.0012652571413537524   -0.03915247952256864   -0.0007979215685887101
-0.00396256916525803   -0.03916583116585781   -0.0009154214226061691
-0.0038961208459016117   -0.04382828849961379   -0.0011160303548628573
-0.003962659585024523   -0.039116158575421264   -0.0009070122225004186
-0.0018056472383188825   -0.04374220201338699   -0.0010452266525450594
-0.0038687472586603016   -0.04378296562029561   -0.0011117986003368054
-0.003962659585024523   -0.039116158575421264   -0.0009070122225004186
-0.0038961208459016117   -0.04382828849961379   -0.0011160303548628573
-0.0018056472383188825   -0.04374220201338699   -0.0010452266525450594
-0.003962659585024523   -0.039116158575421264   -0.0009070122225004186
-0.0012554549321844377   -0.03909270221354481   -0.0008268959334650188
-0.0012652571413537524   -0.03915247952256864   -0.0007979215685887101
-0.0018056472383188825   -0.04374220201338699   -0.0010452266525450594
-0.003962659585024523   -0.039116158575421264   -0.0009070122225004186
-0.0012652571413537524   -0.03915247952256864   -0.0007979215685887101
-0.0038961208459016117   -0.04382828849961379   -0.0011160303548628573
-0.0018056472383188825   -0.04374220201338699   -0.0010452266525450594
-0.0012554549321844377   -0.03909270221354481   -0.0008268959334650188
-0.0038687472586603016   -0.04378296562029561   -0.0011117986003368054
-0.0017809014062679831   -0.04371575362058261   -0.0010835645462962196
-0.0012554549321844377   -0.03909270221354481   -0.0008268959334650188
-0.003962659585024523   -0.039116158575421264   -0.0009070122225004186
-0.0038687472586603016   -0.04378296562029561   -0.0011117986003368054
-0.0039663374444881844   -0.03908691947881707   -0.0008936988667222606
-0.0017809014062679831   -0.04371575362058261   -0.0010835645462962196
-0.003844808718552236   -0.043763405296664455   -0.001102498142903682
-0.0039663374444881844   -0.03908691947881707   -0.0008936988667222606
-0.0038687472586603016   -0.04378296562029561   -0.0011117986003368054
-0.0017809014062679831   -0.04371575362058261   -0.0010835645462962196
-0.0039663374444881844   -0.03908691947881707   -0.0008936988667222606
-0.0012598770610577437   -0.03905413503311204   -0.0008510548003060944
-0.0012554549321844377   -0.03909270221354481   -0.0008268959334650188
-0.0017809014062679831   -0.04371575362058261   -0.0010835645462962196
-0.0039663374444881844   -0.03908691947881707   -0.0008936988667222606
-0.0012554549321844377   -0.03909270221354481   -0.0008268959334650188
-0.0038687472586603016   -0.04378296562029561   -0.0011117986003368054
-0.003922731941945272   -0.0438997978750987   -0.001114827120851026
-0.003962293839999495   -0.039235899904537005   -0.0009186538892516755
-0.005930404840350689   -0.04383471266904777   -0.001261186933057071
-0.0038961208459016117   -0.04382828849961379   -0.0011160303548628573
-0.003962293839999495   -0.039235899904537005   -0.0009186538892516755
-0.006606237874917822   -0.03916885279972562   -0.0010542591486388314
-0.005930404840350689   -0.04383471266904777   -0.001261186933057071
-0.006608513147107337   -0.03911004798376501   -0.0010140807624462707
-0.0038961208459016117   -0.04382828849961379   -0.0011160303548628573
-0.00590563524532281   -0.04377303233210149   -0.0012156280701165773
-0.006608513147107337   -0.03911004798376501   -0.0010140807624462707
-0.005930404840350689   -0.04383471266904777   -0.001261186933057071
-0.0038961208459016117   -0.04382828849961379   -0.0011160303548628573
-0.006608513147107337   -0.03911004798376501   -0.0010140807624462707
-0.00396256916525803   -0.03916583116585781   -0.0009154214226061691
-0.003962293839999495   -0.039235899904537005   -0.0009186538892516755
-0.0038961208459016117   -0.04382828849961379   -0.0011160303548628573
-0.006608513147107337   -0.03911004798376501   -0.0010140807624462707
-0.003962293839999495   -0.039235899904537005   -0.0009186538892516755
-0.005930404840350689   -0.04383471266904777   -0.001261186933057071
-0.0038961208459016117   -0.04382828849961379   -0.0011160303548628573
-0.00396256916525803   -0.03916583116585781   -0.0009154214226061691
-0.00590563524532281   -0.04377303233210149   -0.0012156280701165773
-0.0038687472586603016   -0.04378296562029561   -0.0011117986003368054
-0.00396256916525803   -0.03916583116585781   -0.0009154214226061691
-0.006608513147107337   -0.03911004798376501   -0.0010140807624462707
-0.00590563524532281   -0.04377303233210149   -0.0012156280701165773
-0.006606289787666305   -0.03907145926418555   -0.0009688282386689025
-0.0038687472586603016   -0.04378296562029561   -0.0011117986003368054
-0.005875699113002839   -0.043737251945871525   -0.0011647545866180283
-0.006606289787666305   -0.03907145926418555   -0.0009688282386689025
-0.00590563524532281   -0.04377303233210149   -0.0012156280701165773
-0.0038687472586603016   -0.04378296562029561   -0.0011117986003368054
-0.006606289787666305   -0.03907145926418555   -0.0009688282386689025
-0.003962659585024523   -0.039116158575421264   -0.0009070122225004186
-0.00396256916525803   -0.03916583116585781   -0.0009154214226061691
-0.0038687472586603016   -0.04378296562029561   -0.0011117986003368054
-0.006606289787666305   -0.03907145926418555   -0.0009688282386689025
-0.00396256916525803   -0.03916583116585781   -0.0009154214226061691
-0.00590563524532281   -0.04377303233210149   -0.0012156280701165773
-0.0038687472586603016   -0.04378296562029561   -0.0011117986003368054
-0.003962659585024523   -0.039116158575421264   -0.0009070122225004186
-0.005875699113002839   -0.043737251945871525   -0.0011647545866180283
-0.003844808718552236   -0.043763405296664455   -0.001102498142903682
-0.003962659585024523   -0.039116158575421264   -0.0009070122225004186
-0.006606289787666305   -0.03907145926418555   -0.0009688282386689025
-0.005875699113002839   -0.043737251945871525   -0.0011647545866180283
-0.0066048870706704   -0.039052735719511296   -0.0009186484978959412
-0.003844808718552236   -0.043763405296664455   -0.001102498142903682
-0.005846601469342934   -0.04372618350265646   -0.0011087295487226668
-0.0066048870706704   -0.039052735719511296   -0.0009186484978959412
-0.005875699113002839   -0.043737251945871525   -0.0011647545866180283
-0.003844808718552236   -0.043763405296664455   -0.001102498142903682
-0.0066048870706704   -0.039052735719511296   -0.0009186484978959412
-0.0039663374444881844   -0.03908691947881707   -0.0008936988667222606
-0.003962659585024523   -0.039116158575421264   -0.0009070122225004186
-0.003844808718552236   -0.043763405296664455   -0.001102498142903682
-0.0066048870706704   -0.039052735719511296   -0.0009186484978959412
-0.003962659585024523   -0.039116158575421264   -0.0009070122225004186
-0.005875699113002839   -0.043737251945871525   -0.0011647545866180283
-0.005930404840350689   -0.04383471266904777   -0.001261186933057071
-0.006606237874917822   -0.03916885279972562   -0.0010542591486388314
-0.008033974262257645   -0.04368667146999718   -0.001391232761648412
-0.00590563524532281   -0.04377303233210149   -0.0012156280701165773
-0.006606237874917822   -0.03916885279972562   -0.0010542591486388314
-0.009332412852381832   -0.03903676276052873   -0.0011708631864685585
-0.008033974262257645   -0.04368667146999718   -0.001391232761648412
-0.009329085062996801   -0.038988721800205836   -0.0010932953477206014
-0.00590563524532281   -0.04377303233210149   -0.0012156280701165773
-0.008001534033444044   -0.04363434782384187   -0.0012988393680621402
-0.009329085062996801   -0.038988721800205836   -0.0010932953477206014
-0.008033974262257645   -0.04368667146999718   -0.001391232761648412
-0.00590563524532281   -0.04377303233210149   -0.0012156280701165773
-0.009329085062996801   -0.038988721800205836   -0.0010932953477206014
-0.006608513147107337   -0.03911004798376501   -0.0010140807624462707
-0.006606237874917822   -0.03916885279972562   -0.0010542591486388314
-0.00590563524532281   -0.04377303233210149   -0.0012156280701165773
-0.009329085062996801   -0.038988721800205836   -0.0010932953477206014
-0.006606237874917822   -0.03916885279972562   -0.0010542591486388314
-0.008033974262257645   -0.04368667146999718   -0.001391232761648412
-0.00590563524532281   -0.04377303233210149   -0.0012156280701165773
-0.006608513147107337   -0.03911004798376501   -0.0010140807624462707
-0.008001534033444044   -0.04363434782384187   -0.0012988393680621402
-0.005875699113002839   -0.043737251945871525   -0.0011647545866180283
-0.006608513147107337   -0.03911004798376501   -0.0010140807624462707
-0.009329085062996801   -0.038988721800205836   -0.0010932953477206014
-0.008001534033444044   -0.04363434782384187   -0.0012988393680621402
-0.009306072610274673   -0.03896018427928275   -0.0010114196615299872
-0.005875699113002839   -0.043737251945871525   -0.0011647545866180283
-0.007946491742681331   -0.04360721845591458   -0.001201951973838679
-0.009306072610274673   -0.03896018427928275   -0.0010114196615299872
-0.008001534033444044   -0.04363434782384187   -0.0012988393680621402
-0.005875699113002839   -0.043737251945871525   -0.0011647545866180283
-0.009306072610274673   -0.03896018427928275   -0.0010114196615299872
-0.006606289787666305   -0.03907145926418555   -0.0009688282386689025
-0.006608513147107337   -0.03911004798376501   -0.0010140807624462707
-0.005875699113002839   -0.043737251945871525   -0.0011647545866180283
-0.009306072610274673   -0.03896018427928275   -0.0010114196615299872
-0.006608513147107337   -0.03911004798376501   -0.0010140807624462707
-0.008001534033444044   -0.04363434782384187   -0.0012988393680621402
-0.005875699113002839   -0.043737251945871525   -0.0011647545866180283
-0.006606289787666305   -0.03907145926418555   -0.0009688282386689025
-0.007946491742681331   -0.04360721845591458   -0.001201951973838679
-0.005846601469342934   -0.04372618350265646   -0.0011087295487226668
-0.006606289787666305   -0.03907145926418555   -0.0009688282386689025
-0.009306072610274673   -0.03896018427928275   -0.0010114196615299872
-0.007946491742681331   -0.04360721845591458   -0.001201951973838679
-0.009290727457413338   -0.03895318560279974   -0.0009242185619757157
-0.005846601469342934   -0.04372618350265646   -0.0011087295487226668
-0.007901881743217739   -0.04360673778670462   -0.0010991610581525533
-0.009290727457413338   -0.03895318560279974   -0.0009242185619757157
-0.007946491742681331   -0.04360721845591458   -0.001201951973838679
-0.005846601469342934   -0.04372618350265646   -0.0011087295487226668
-0.009290727457413338   -0.03895318560279974   -0.0009242185619757157
-0.0066048870706704   -0.039052735719511296   -0.0009186484978959412
-0.006606289787666305   -0.03907145926418555   -0.0009688282386689025
-0.005846601469342934   -0.04372618350265646   -0.0011087295487226668
-0.009290727457413338   -0.03895318560279974   -0.0009242185619757157
-0.006606289787666305   -0.03907145926418555   -0.0009688282386689025
-0.007946491742681331   -0.04360721845591458   -0.001201951973838679
-0.008033974262257645   -0.04368667146999718   -0.001391232761648412
-0.009332412852381832   -0.03903676276052873   -0.0011708631864685585
-0.010487021554757166   -0.04347324245781173   -0.001512725094747563
-0.008001534033444044   -0.04363434782384187   -0.0012988393680621402
-0.009332412852381832   -0.03903676276052873   -0.0011708631864685585
-0.0123775762884384   -0.038854434673839075   -0.0012761412774000237
-0.010487021554757166   -0.04347324245781173   -0.001512725094747563
-0.012262956357010904   -0.03880722124687524   -0.001157399265946259
-0.008001534033444044   -0.04363434782384187   -0.0012988393680621402
-0.010320037882949084   -0.04341856352551726   -0.0013680502108218255
-0.012262956357010904   -0.03880722124687524   -0.001157399265946259
-0.010487021554757166   -0.04347324245781173   -0.001512725094747563
-0.008001534033444044   -0.04363434782384187   -0.0012988393680621402
-0.012262956357010904   -0.03880722124687524   -0.001157399265946259
-0.009329085062996801   -0.038988721800205836   -0.0010932953477206014
-0.009332412852381832   -0.03903676276052873   -0.0011708631864685585
-0.008001534033444044   -0.04363434782384187   -0.0012988393680621402
-0.012262956357010904   -0.03880722124687524   -0.001157399265946259
-0.009332412852381832   -0.03903676276052873   -0.0011708631864685585
-0.010487021554757166   -0.04347324245781173   -0.001512725094747563
-0.008001534033444044   -0.04363434782384187   -0.0012988393680621402
-0.009329085062996801   -0.038988721800205836   -0.0010932953477206014
-0.010320037882949084   -0.04341856352551726   -0.0013680502108218255
-0.007946491742681331   -0.04360721845591458   -0.001201951973838679
-0.009329085062996801   -0.038988721800205836   -0.0010932953477206014
-0.012262956357010904   -0.03880722124687524   -0.001157399265946259
-0.010320037882949084   -0.04341856352551726   -0.0013680502108218255
-0.012165028734733815   -0.03878235439050878   -0.001031407436472808
-0.007946491742681331   -0.04360721845591458   -0.001201951973838679
-0.01017526658811709   -0.04339378346410122   -0.0012159540768918776
-0.012165028734733815   -0.03878235439050878   -0.001031407436472808
-0.010320037882949084   -0.04341856352551726   -0.0013680502108218255
-0.007946491742681331   -0.04360721845591458   -0.001201951973838679
-0.012165028734733815   -0.03878235439050878   -0.001031407436472808
-0.009306072610274673   -0.03896018427928275   -0.0010114196615299872
-0.009329085062996801   -0.038988721800205836   -0.0010932953477206014
-0.007946491742681331   -0.04360721845591458   -0.001201951973838679
-0.012165028734733815   -0.03878235439050878   -0.001031407436472808
-0.009329085062996801   -0.038988721800205836   -0.0010932953477206014
-0.010320037882949084   -0.04341856352551726   -0.0013680502108218255
-0.007946491742681331   -0.04360721845591458   -0.001201951973838679
-0.009306072610274673   -0.03896018427928275   -0.0010114196615299872
-0.01017526658811709   -0.04339378346410122   -0.0012159540768918776
-0.007901881743217739   -0.04360673778670462   -0.0010991610581525533
-0.009306072610274673   -0.03896018427928275   -0.0010114196615299872
-0.012165028734733815   -0.03878235439050878   -0.001031407436472808
-0.01017526658811709   -0.04339378346410122   -0.0012159540768918776
-0.012023837263971781   -0.038791614866285344   -0.000899163861636968
-0.007901881743217739   -0.04360673778670462   -0.0010991610581525533
-0.009980288029542924   -0.04340969512943277   -0.001057403696268751
-0.012023837263971781   -0.038791614866285344   -0.000899163861636968
-0.01017526658811709   -0.04339378346410122   -0.0012159540768918776
-0.007901881743217739   -0.04360673778670462   -0.0010991610581525533
-0.012023837263971781   -0.038791614866285344   -0.000899163861636968
-0.009290727457413338   -0.03895318560279974   -0.0009242185619757157
-0.009306072610274673   -0.03896018427928275   -0.0010114196615299872
-0.007901881743217739   -0.04360673778670462   -0.0010991610581525533
-0.012023837263971781   -0.038791614866285344   -0.000899163861636968
-0.009306072610274673   -0.03896018427928275   -0.0010114196615299872
-0.01017526658811709   -0.04339378346410122   -0.0012159540768918776
0.0015206170960257515   -0.03916567104871749   -0.0005756121411383954
0.002417847258087465   -0.03361374328893954   -0.0003836028016445545
-0.0012729454113833735   -0.03923539853904347   -0.0007637533308959946
0.0016026645359971726   -0.03906794887392835   -0.0006586867588321946
0.002417847258087465   -0.03361374328893954   -0.0003836028016445545
-0.0009004293559211604   -0.03364832117636146   -0.0005605859046957224
-0.0012729454113833735   -0.03923539853904347   -0.0007637533308959946
-0.0009157749078382479   -0.03356744142744916   -0.0005791336715247099
0.0016026645359971726   -0.03906794887392835   -0.0006586867588321946
-0.0012652571413537524   -0.03915247952256864   -0.0007979215685887101
-0.0009157749078382479   -0.03356744142744916   -0.0005791336715247099
-0.0012729454113833735   -0.03923539853904347   -0.0007637533308959946
0.0016026645359971726   -0.03906794887392835   -0.0006586867588321946
-0.0009157749078382479   -0.03356744142744916   -0.0005791336715247099
0.002450807971598722   -0.033519590387993944   -0.00043828551359750996
0.002417847258087465   -0.03361374328893954   -0.0003836028016445545
0.0016026645359971726   -0.03906794887392835   -0.0006586867588321946
-0.0009157749078382479   -0.03356744142744916   -0.0005791336715247099
0.002417847258087465   -0.03361374328893954   -0.0003836028016445545
-0.0012729454113833735   -0.03923539853904347   -0.0007637533308959946
0.0016026645359971726   -0.03906794887392835   -0.0006586867588321946
0.002450807971598722   -0.033519590387993944   -0.00043828551359750996
-0.0012652571413537524   -0.03915247952256864   -0.0007979215685887101
0.0016552422784153718   -0.0390042317309984   -0.0007344187307182799
0.002450807971598722   -0.033519590387993944   -0.00043828551359750996
-0.0009157749078382479   -0.03356744142744916   -0.0005791336715247099
-0.0012652571413537524   -0.03915247952256864   -0.0007979215685887101
-0.0009318705375620185   -0.0335037625112426   -0.0005930318777316227
0.0016552422784153718   -0.0390042317309984   -0.0007344187307182799
-0.0012554549321844377   -0.03909270221354481   -0.0008268959334650188
-0.0009318705375620185   -0.0335037625112426   -0.0005930318777316227
-0.0012652571413537524   -0.03915247952256864   -0.0007979215685887101
0.0016552422784153718   -0.0390042317309984   -0.0007344187307182799
-0.0009318705375620185   -0.0335037625112426   -0.0005930318777316227
0.002461219910176485   -0.0334513592672787   -0.0004861055594154013
0.002450807971598722   -0.033519590387993944   -0.00043828551359750996
0.0016552422784153718   -0.0390042317309984   -0.0007344187307182799
-0.0009318705375620185   -0.0335037625112426   -0.0005930318777316227
0.002450807971598722   -0.033519590387993944   -0.00043828551359750996
-0.0012652571413537524   -0.03915247952256864   -0.0007979215685887101
0.0016552422784153718   -0.0390042317309984   -0.0007344187307182799
0.002461219910176485   -0.0334513592672787   -0.0004861055594154013
-0.0012554549321844377   -0.03909270221354481   -0.0008268959334650188
0.0017094109711533   -0.03896205127505986   -0.0008029646970532419
0.002461219910176485   -0.0334513592672787   -0.0004861055594154013
-0.0009318705375620185   -0.0335037625112426   -0.0005930318777316227
-0.0012554549321844377   -0.03909270221354481   -0.0008268959334650188
-0.0009595190287074399   -0.03345526211748595   -0.0006024370189365154
0.0017094109711533   -0.03896205127505986   -0.0008029646970532419
-0.0012598770610577437   -0.03905413503311204   -0.0008510548003060944
-0.0009595190287074399   -0.03345526211748595   -0.0006024370189365154
-0.0012554549321844377   -0.03909270221354481   -0.0008268959334650188
0.0017094109711533   -0.03896205127505986   -0.0008029646970532419
-0.0009595190287074399   -0.03345526211748595   -0.0006024370189365154
0.002467515734927641   -0.03339689605369126   -0.0005273893293970329
0.002461219910176485   -0.0334513592672787   -0.0004861055594154013
0.0017094109711533   -0.03896205127505986   -0.0008029646970532419
-0.0009595190287074399   -0.03345526211748595   -0.0006024370189365154
0.002461219910176485   -0.0334513592672787   -0.0004861055594154013
-0.0012554549321844377   -0.03909270221354481   -0.0008268959334650188
-0.0012729454113833735   -0.03923539853904347   -0.0007637533308959946
-0.0009004293559211604   -0.03364832117636146   -0.0005605859046957224
-0.003962293839999495   -0.039235899904537005   -0.0009186538892516755
-0.0012652571413537524   -0.03915247952256864   -0.0007979215685887101
-0.0009004293559211604   -0.03364832117636146   -0.0005605859046957224
-0.004081907979600087   -0.03363093095967835   -0.000706010335211883
-0.003962293839999495   -0.039235899904537005   -0.0009186538892516755
-0.004103360190515872   -0.033563458208090084   -0.0006974433855390247
-0.0012652571413537524   -0.03915247952256864   -0.0007979215685887101
-0.00396256916525803   -0.03916583116585781   -0.0009154214226061691
-0.004103360190515872   -0.033563458208090084   -0.0006974433855390247
-0.003962293839999495   -0.039235899904537005   -0.0009186538892516755
-0.0012652571413537524   -0.03915247952256864   -0.0007979215685887101
-0.004103360190515872   -0.033563458208090084   -0.0006974433855390247
-0.0009157749078382479   -0.03356744142744916   -0.0005791336715247099
-0.0009004293559211604   -0.03364832117636146   -0.0005605859046957224
-0.0012652571413537524   -0.03915247952256864   -0.0007979215685887101
-0.004103360190515872   -0.033563458208090084   -0.0006974433855390247
-0.0009004293559211604   -0.03364832117636146   -0.0005605859046957224
-0.003962293839999495   -0.039235899904537005   -0.0009186538892516755
-0.0012652571413537524   -0.03915247952256864   -0.0007979215685887101
-0.0009157749078382479   -0.03356744142744916   -0.0005791336715247099
-0.00396256916525803   -0.03916583116585781   -0.0009154214226061691
-0.0012554549321844377   -0.03909270221354481   -0.0008268959334650188
-0.0009157749078382479   -0.03356744142744916   -0.0005791336715247099
-0.004103360190515872   -0.033563458208090084   -0.0006974433855390247
-0.00396256916525803   -0.03916583116585781   -0.0009154214226061691
-0.004125108591406357   -0.03351072695748781   -0.0006840868683882343
-0.0012554549321844377   -0.03909270221354481   -0.0008268959334650188
-0.003962659585024523   -0.039116158575421264   -0.0009070122225004186
-0.004125108591406357   -0.03351072695748781   -0.0006840868683882343
-0.00396256916525803   -0.03916583116585781   -0.0009154214226061691
-0.0012554549321844377   -0.03909270221354481   -0.0008268959334650188
-0.004125108591406357   -0.03351072695748781   -0.0006840868683882343
-0.0009318705375620185   -0.0335037625112426   -0.0005930318777316227
-0.0009157749078382479   -0.03356744142744916   -0.0005791336715247099
-0.0012554549321844377   -0.03909270221354481   -0.0008268959334650188
-0.004125108591406357   -0.03351072695748781   -0.0006840868683882343
-0.0009157749078382479   -0.03356744142744916   -0.0005791336715247099
-0.00396256916525803   -0.03916583116585781   -0.0009154214226061691
-0.0012554549321844377   -0.03909270221354481   -0.0008268959334650188
-0.0009318705375620185   -0.0335037625112426   -0.0005930318777316227
-0.003962659585024523   -0.039116158575421264   -0.0009070122225004186
-0.0012598770610577437   -0.03905413503311204   -0.0008510548003060944
-0.0009318705375620185   -0.0335037625112426   -0.0005930318777316227
-0.004125108591406357   -0.03351072695748781   -0.0006840868683882343
-0.003962659585024523   -0.039116158575421264   -0.0009070122225004186
-0.004150267150399725   -0.03347298601085528   -0.0006661754316617584
-0.0012598770610577437   -0.03905413503311204   -0.0008510548003060944
-0.0039663374444881844   -0.03908691947881707   -0.0008936988667222606
-0.004150267150399725   -0.03347298601085528   -0.0006661754316617584
-0.003962659585024523   -0.039116158575421264   -0.0009070122225004186
-0.0012598770610577437   -0.03905413503311204   -0.0008510548003060944
-0.004150267150399725   -0.03347298601085528   -0.0006661754316617584
-0.0009595190287074399   -0.03345526211748595   -0.0006024370189365154
-0.0009318705375620185   -0.0335037625112426   -0.0005930318777316227
-0.0012598770610577437   -0.03905413503311204   -0.0008510548003060944
-0.004150267150399725   -0.03347298601085528   -0.0006661754316617584
-0.0009318705375620185   -0.0335037625112426   -0.0005930318777316227
-0.003962659585024523   -0.039116158575421264   -0.0009070122225004186
-0.003962293839999495   -0.039235899904537005   -0.0009186538892516755
-0.004081907979600087   -0.03363093095967835   -0.000706010335211883
-0.006606237874917822   -0.03916885279972562   -0.0010542591486388314
-0.00396256916525803   -0.03916583116585781   -0.0009154214226061691
-0.004081907979600087   -0.03363093095967835   -0.000706010335211883
-0.0072097792157183515   -0.033564872988581566   -0.000830297333335168
-0.006606237874917822   -0.03916885279972562   -0.0010542591486388314
-0.007232960617430578   -0.03350955767157632   -0.0007947542628668846
-0.00396256916525803   -0.03916583116585781   -0.0009154214226061691
-0.006608513147107337   -0.03911004798376501   -0.0010140807624462707
-0.007232960617430578   -0.03350955767157632   -0.0007947542628668846
-0.006606237874917822   -0.03916885279972562   -0.0010542591486388314
-0.00396256916525803   -0.03916583116585781   -0.0009154214226061691
-0.007232960617430578   -0.03350955767157632   -0.0007947542628668846
-0.004103360190515872   -0.033563458208090084   -0.0006974433855390247
-0.004081907979600087   -0.03363093095967835   -0.000706010335211883
-0.00396256916525803   -0.03916583116585781   -0.0009154214226061691
-0.007232960617430578   -0.03350955767157632   -0.0007947542628668846
-0.004081907979600087   -0.03363093095967835   -0.000706010335211883
-0.006606237874917822   -0.03916885279972562   -0.0010542591486388314
-0.00396256916525803   -0.03916583116585781   -0.0009154214226061691
-0.004103360190515872   -0.033563458208090084   -0.0006974433855390247
-0.006608513147107337   -0.03911004798376501   -0.0010140807624462707
-0.003962659585024523   -0.039116158575421264   -0.0009070122225004186
-0.004103360190515872   -0.033563458208090084   -0.0006974433855390247
-0.007232960617430578   -0.03350955767157632   -0.0007947542628668846
-0.006608513147107337   -0.03911004798376501   -0.0010140807624462707
-0.007252140828918609   -0.03346884359370895   -0.000754508109794589
-0.003962659585024523   -0.039116158575421264   -0.0009070122225004186
-0.006606289787666305   -0.03907145926418555   -0.0009688282386689025
-0.007252140828918609   -0.03346884359370895   -0.000754508109794589
-0.006608513147107337   -0.03911004798376501   -0.0010140807624462707
-0.003962659585024523   -0.039116158575421264   -0.0009070122225004186
-0.007252140828918609   -0.03346884359370895   -0.000754508109794589
-0.004125108591406357   -0.03351072695748781   -0.0006840868683882343
-0.004103360190515872   -0.033563458208090084   -0.0006974433855390247
-0.003962659585024523   -0.039116158575421264   -0.0009070122225004186
-0.007252140828918609   -0.03346884359370895   -0.000754508109794589
-0.004103360190515872   -0.033563458208090084   -0.0006974433855390247
-0.006608513147107337   -0.03911004798376501   -0.0010140807624462707
-0.003962659585024523   -0.039116158575421264   -0.0009070122225004186
-0.004125108591406357   -0.03351072695748781   -0.0006840868683882343
-0.006606289787666305   -0.03907145926418555   -0.0009688282386689025
-0.0039663374444881844   -0.03908691947881707   -0.0008936988667222606
-0.004125108591406357   -0.03351072695748781   -0.0006840868683882343
-0.007252140828918609   -0.03346884359370895   -0.000754508109794589
-0.006606289787666305   -0.03907145926418555   -0.0009688282386689025
-0.007271887157736009   -0.03344266829762067   -0.0007096961573940331
-0.0039663374444881844   -0.03908691947881707   -0.0008936988667222606
-0.0066048870706704   -0.039052735719511296   -0.0009186484978959412
-0.007271887157736009   -0.03344266829762067   -0.0007096961573940331
-0.006606289787666305   -0.03907145926418555   -0.0009688282386689025
-0.0039663374444881844   -0.03908691947881707   -0.0008936988667222606
-0.007271887157736009   -0.03344266829762067   -0.0007096961573940331
-0.004150267150399725   -0.03347298601085528   -0.0006661754316617584
-0.004125108591406357   -0.03351072695748781   -0.0006840868683882343
-0.0039663374444881844   -0.03908691947881707   -0.0008936988667222606
-0.007271887157736009   -0.03344266829762067   -0.0007096961573940331
-0.004125108591406357   -0.03351072695748781   -0.0006840868683882343
-0.006606289787666305   -0.03907145926418555   -0.0009688282386689025
-0.006606237874917822   -0.03916885279972562   -0.0010542591486388314
-0.0072097792157183515   -0.033564872988581566   -0.000830297333335168
-0.009332412852381832   -0.03903676276052873   -0.0011708631864685585
-0.006608513147107337   -0.03911004798376501   -0.0010140807624462707
-0.0072097792157183515   -0.033564872988581566   -0.000830297333335168
-0.010412026595454022   -0.03345144972723974   -0.0009339519338420875
-0.009332412852381832   -0.03903676276052873   -0.0011708631864685585
-0.010431140083697298   -0.03340799335025561   -0.0008710619269480164
-0.006608513147107337   -0.03911004798376501   -0.0010140807624462707
-0.009329085062996801   -0.038988721800205836   -0.0010932953477206014
-0.010431140083697298   -0.03340799335025561   -0.0008710619269480164
-0.009332412852381832   -0.03903676276052873   -0.0011708631864685585
-0.006608513147107337   -0.03911004798376501   -0.0010140807624462707
-0.010431140083697298   -0.03340799335025561   -0.0008710619269480164
-0.007232960617430578   -0.03350955767157632   -0.0007947542628668846
-0.0072097792157183515   -0.033564872988581566   -0.000830297333335168
-0.006608513147107337   -0.03911004798376501   -0.0010140807624462707
-0.010431140083697298   -0.03340799335025561   -0.0008710619269480164
-0.0072097792157183515   -0.033564872988581566   -0.000830297333335168
-0.009332412852381832   -0.03903676276052873   -0.0011708631864685585
-0.006608513147107337   -0.03911004798376501   -0.0010140807624462707
-0.007232960617430578   -0.03350955767157632   -0.0007947542628668846
-0.009329085062996801   -0.038988721800205836   -0.0010932953477206014
-0.006606289787666305   -0.03907145926418555   -0.0009688282386689025
-0.007232960617430578   -0.03350955767157632   -0.0007947542628668846
-0.010431140083697298   -0.03340799335025561   -0.0008710619269480164
-0.009329085062996801   -0.038988721800205836   -0.0010932953477206014
-0.010433369223554742   -0.03337827084050723   -0.0008041190189442202
-0.006606289787666305   -0.03907145926418555   -0.0009688282386689025
-0.009306072610274673   -0.03896018427928275   -0.0010114196615299872
-0.010433369223554742   -0.03337827084050723   -0.0008041190189442202
-0.009329085062996801   -0.038988721800205836   -0.0010932953477206014
-0.006606289787666305   -0.03907145926418555   -0.0009688282386689025
-0.010433369223554742   -0.03337827084050723   -0.0008041190189442202
-0.007252140828918609   -0.03346884359370895   -0.000754508109794589
-0.007232960617430578   -0.03350955767157632   -0.0007947542628668846
-0.006606289787666305   -0.03907145926418555   -0.0009688282386689025
-0.010433369223554742   -0.03337827084050723   -0.0008041190189442202
-0.007232960617430578   -0.03350955767157632   -0.0007947542628668846
-0.009329085062996801   -0.038988721800205836   -0.0010932953477206014
-0.006606289787666305   -0.03907145926418555   -0.0009688282386689025
-0.007252140828918609   -0.03346884359370895   -0.000754508109794589
-0.009306072610274673   -0.03896018427928275   -0.0010114196615299872
-0.0066048870706704   -0.039052735719511296   -0.0009186484978959412
-0.007252140828918609   -0.03346884359370895   -0.000754508109794589
-0.010433369223554742   -0.03337827084050723   -0.0008041190189442202
-0.009306072610274673   -0.03896018427928275   -0.0010114196615299872
-0.010440443101072783   -0.03336440096437231   -0.0007322629557456644
-0.0066048870706704   -0.039052735719511296   -0.0009186484978959412
-0.009290727457413338   -0.03895318560279974   -0.0009242185619757157
-0.010440443101072783   -0.03336440096437231   -0.0007322629557456644
-0.009306072610274673   -0.03896018427928275   -0.0010114196615299872
-0.0066048870706704   -0.039052735719511296   -0.0009186484978959412
-0.010440443101072783   -0.03336440096437231   -0.0007322629557456644
-0.007271887157736009   -0.03344266829762067   -0.0007096961573940331
-0.007252140828918609   -0.03346884359370895   -0.000754508109794589
-0.0066048870706704   -0.039052735719511296   -0.0009186484978959412
-0.010440443101072783   -0.03336440096437231   -0.0007322629557456644
-0.007252140828918609   -0.03346884359370895   -0.000754508109794589
-0.009306072610274673   -0.03896018427928275   -0.0010114196615299872
-0.009332412852381832   -0.03903676276052873   -0.0011708631864685585
-0.010412026595454022   -0.03345144972723974   -0.0009339519338420875
-0.0123775762884384   -0.038854434673839075   -0.0012761412774000237
-0.009329085062996801   -0.038988721800205836   -0.0010932953477206014
-0.010412026595454022   -0.03345144972723974   -0.0009339519338420875
-0.013904395696908675   -0.033302402546743076   -0.0010225124768553364
-0.0123775762884384   -0.038854434673839075   -0.0012761412774000237
-0.013836756129529091   -0.03326270374370146   -0.0009306230732797225
-0.009329085062996801   -0.038988721800205836   -0.0010932953477206014
-0.012262956357010904   -0.03880722124687524   -0.001157399265946259
-0.013836756129529091   -0.03326270374370146   -0.0009306230732797225
-0.0123775762884384   -0.038854434673839075   -0.0012761412774000237
-0.009329085062996801   -0.038988721800205836   -0.0010932953477206014
-0.013836756129529091   -0.03326270374370146   -0.0009306230732797225
-0.010431140083697298   -0.03340799335025561   -0.0008710619269480164
-0.010412026595454022   -0.03345144972723974   -0.0009339519338420875
-0.009329085062996801   -0.038988721800205836   -0.0010932953477206014
-0.013836756129529091   -0.03326270374370146   -0.0009306230732797225
-0.010412026595454022   -0.03345144972723974   -0.0009339519338420875
-0.0123775762884384   -0.038854434673839075   -0.0012761412774000237
-0.009329085062996801   -0.038988721800205836   -0.0010932953477206014
-0.010431140083697298   -0.03340799335025561   -0.0008710619269480164
-0.012262956357010904   -0.03880722124687524   -0.001157399265946259
-0.009306072610274673   -0.03896018427928275   -0.0010114196615299872
-0.010431140083697298   -0.03340799335025561   -0.0008710619269480164
-0.013836756129529091   -0.03326270374370146   -0.0009306230732797225
-0.012262956357010904   -0.03880722124687524   -0.001157399265946259
-0.013779778952190957   -0.033237645036006354   -0.0008316521192039901
-0.009306072610274673   -0.03896018427928275   -0.0010114196615299872
-0.012165028734733815   -0.03878235439050878   -0.001031407436472808
-0.013779778952190957   -0.033237645036006354   -0.0008316521192039901
-0.012262956357010904   -0.03880722124687524   -0.001157399265946259
-0.009306072610274673   -0.03896018427928275   -0.0010114196615299872
-0.013779778952190957   -0.033237645036006354   -0.0008316521192039901
-0.010433369223554742   -0.03337827084050723   -0.0008041190189442202
-0.010431140083697298   -0.03340799335025561   -0.0008710619269480164
-0.009306072610274673   -0.03896018427928275   -0.0010114196615299872
-0.013779778952190957   -0.033237645036006354   -0.0008316521192039901
-0.010431140083697298   -0.03340799335025561   -0.0008710619269480164
-0.012262956357010904   -0.03880722124687524   -0.001157399265946259
-0.009306072610274673   -0.03896018427928275   -0.0010114196615299872
-0.010433369223554742   -0.03337827084050723   -0.0008041190189442202
-0.012165028734733815   -0.03878235439050878   -0.001031407436472808
-0.009290727457413338   -0.03895318560279974   -0.0009242185619757157
-0.010433369223554742   -0.03337827084050723   -0.0008041190189442202
-0.013779778952190957   -0.033237645036006354   -0.0008316521192039901
-0.012165028734733815   -0.03878235439050878   -0.001031407436472808
-0.013686055808377352   -0.03323948093624795   -0.0007264840534436566
-0.009290727457413338   -0.03895318560279974   -0.0009242185619757157
-0.012023837263971781   -0.038791614866285344   -0.000899163861636968
-0.013686055808377352   -0.03323948093624795   -0.0007264840534436566
-0.012165028734733815   -0.03878235439050878   -0.001031407436472808
-0.009290727457413338   -0.03895318560279974   -0.0009242185619757157
-0.013686055808377352   -0.03323948093624795   -0.0007264840534436566
-0.010440443101072783   -0.03336440096437231   -0.0007322629557456644
-0.010433369223554742   -0.03337827084050723   -0.0008041190189442202
-0.009290727457413338   -0.03895318560279974   -0.0009242185619757157
-0.013686055808377352   -0.03323948093624795   -0.0007264840534436566
-0.010433369223554742   -0.03337827084050723   -0.0008041190189442202
-0.012165028734733815   -0.03878235439050878   -0.001031407436472808
0.002417847258087465   -0.03361374328893954   -0.0003836028016445545
0.0029198199632940137   -0.027376200615267632   -0.00019587362365370043
-0.0009004293559211604   -0.03364832117636146   -0.0005605859046957224
0.002450807971598722   -0.033519590387993944   -0.00043828551359750996
0.0029198199632940137   -0.027376200615267632   -0.00019587362365370043
-0.0007677362730048614   -0.027375893632095655   -0.0003598866922257009
-0.0009004293559211604   -0.03364832117636146   -0.0005605859046957224
-0.00080036987726385   -0.02729770712002876   -0.0003625689557506722
0.002450807971598722   -0.033519590387993944   -0.00043828551359750996
-0.0009157749078382479   -0.03356744142744916   -0.0005791336715247099
-0.00080036987726385   -0.02729770712002876   -0.0003625689557506722
-0.0009004293559211604   -0.03364832117636146   -0.0005605859046957224
0.002450807971598722   -0.033519590387993944   -0.00043828551359750996
-0.00080036987726385   -0.02729770712002876   -0.0003625689557506722
0.0029100056289794282   -0.02728609900566386   -0.00022240046782746024
0.0029198199632940137   -0.027376200615267632   -0.00019587362365370043
0.002450807971598722   -0.033519590387993944   -0.00043828551359750996
-0.00080036987726385   -0.02729770712002876   -0.0003625689557506722
0.0029198199632940137   -0.027376200615267632   -0.00019587362365370043
-0.0009004293559211604   -0.03364832117636146   -0.0005605859046957224
0.002450807971598722   -0.033519590387993944   -0.00043828551359750996
0.0029100056289794282   -0.02728609900566386   -0.00022240046782746024
-0.0009157749078382479   -0.03356744142744916   -0.0005791336715247099
0.002461219910176485   -0.0334513592672787   -0.0004861055594154013
0.0029100056289794282   -0.02728609900566386   -0.00022240046782746024
-0.00080036987726385   -0.02729770712002876   -0.0003625689557506722
-0.0009157749078382479   -0.03356744142744916   -0.0005791336715247099
-0.0008366381931578101   -0.027230660848498782   -0.0003611156587238719
0.002461219910176485   -0.0334513592672787   -0.0004861055594154013
-0.0009318705375620185   -0.0335037625112426   -0.0005930318777316227
-0.0008366381931578101   -0.027230660848498782   -0.0003611156587238719
-0.0009157749078382479   -0.03356744142744916   -0.0005791336715247099
0.002461219910176485   -0.0334513592672787   -0.0004861055594154013
-0.0008366381931578101   -0.027230660848498782   -0.0003611156587238719
0.002884171846147844   -0.027213939471623372   -0.0002422986479141769
0.0029100056289794282   -0.02728609900566386   -0.00022240046782746024
0.002461219910176485   -0.0334513592672787   -0.0004861055594154013
-0.0008366381931578101   -0.027230660848498782   -0.0003611156587238719
0.0029100056289794282   -0.02728609900566386   -0.00022240046782746024
-0.0009157749078382479   -0.03356744142744916   -0.0005791336715247099
0.002461219910176485   -0.0334513592672787   -0.0004861055594154013
0.002884171846147844   -0.027213939471623372   -0.0002422986479141769
-0.0009318705375620185   -0.0335037625112426   -0.0005930318777316227
0.002467515734927641   -0.03339689605369126   -0.0005273893293970329
0.002884171846147844   -0.027213939471623372   -0.0002422986479141769
-0.0008366381931578101   -0.027230660848498782   -0.0003611156587238719
-0.0009318705375620185   -0.0335037625112426   -0.0005930318777316227
-0.0008817775368592062   -0.02717299774732687   -0.00035536376213701987
0.002467515734927641   -0.03339689605369126   -0.0005273893293970329
-0.0009595190287074399   -0.03345526211748595   -0.0006024370189365154
-0.0008817775368592062   -0.02717299774732687   -0.00035536376213701987
-0.0009318705375620185   -0.0335037625112426   -0.0005930318777316227
0.002467515734927641   -0.03339689605369126   -0.0005273893293970329
-0.0008817775368592062   -0.02717299774732687   -0.00035536376213701987
0.002847982970085932   -0.027147804599246275   -0.00025603120761600164
0.002884171846147844   -0.027213939471623372   -0.0002422986479141769
0.002467515734927641   -0.03339689605369126   -0.0005273893293970329
-0.0008817775368592062   -0.02717299774732687   -0.00035536376213701987
0.002884171846147844   -0.027213939471623372   -0.0002422986479141769
-0.0009318705375620185   -0.0335037625112426   -0.0005930318777316227
-0.0009004293559211604   -0.03364832117636146   -0.0005605859046957224
-0.0007677362730048614   -0.027375893632095655   -0.0003598866922257009
-0.004081907979600087   -0.03363093095967835   -0.000706010335211883
-0.0009157749078382479   -0.03356744142744916   -0.0005791336715247099
-0.0007677362730048614   -0.027375893632095655   -0.0003598866922257009
-0.004285402900608892   -0.0273426582950524   -0.0004948908886290587
-0.004081907979600087   -0.03363093095967835   -0.000706010335211883
-0.0043220557243043465   -0.027277903906388852   -0.00048052651198991905
-0.0009157749078382479   -0.03356744142744916   -0.0005791336715247099
-0.004103360190515872   -0.033563458208090084   -0.0006974433855390247
-0.0043220557243043465   -0.027277903906388852   -0.00048052651198991905
-0.004081907979600087   -0.03363093095967835   -0.000706010335211883
-0.0009157749078382479   -0.03356744142744916   -0.0005791336715247099
-0.0043220557243043465   -0.027277903906388852   -0.00048052651198991905
-0.00080036987726385   -0.02729770712002876   -0.0003625689557506722
-0.0007677362730048614   -0.027375893632095655   -0.0003598866922257009
-0.0009157749078382479   -0.03356744142744916   -0.0005791336715247099
-0.0043220557243043465   -0.027277903906388852   -0.00048052651198991905
-0.0007677362730048614   -0.027375893632095655   -0.0003598866922257009
-0.004081907979600087   -0.03363093095967835   -0.000706010335211883
-0.0009157749078382479   -0.03356744142744916   -0.0005791336715247099
-0.00080036987726385   -0.02729770712002876   -0.0003625689557506722
-0.004103360190515872   -0.033563458208090084   -0.0006974433855390247
-0.0009318705375620185   -0.0335037625112426   -0.0005930318777316227
-0.00080036987726385   -0.02729770712002876   -0.0003625689557506722
-0.0043220557243043465   -0.027277903906388852   -0.00048052651198991905
-0.004103360190515872   -0.033563458208090084   -0.0006974433855390247
-0.004359454273571218   -0.02722221756273524   -0.0004618511437574739
-0.0009318705375620185   -0.0335037625112426   -0.0005930318777316227
-0.004125108591406357   -0.03351072695748781   -0.0006840868683882343
-0.004359454273571218   -0.02722221756273524   -0.0004618511437574739
-0.004103360190515872   -0.033563458208090084   -0.0006974433855390247
-0.0009318705375620185   -0.0335037625112426   -0.0005930318777316227
-0.004359454273571218   -0.02722221756273524   -0.0004618511437574739
-0.0008366381931578101   -0.027230660848498782   -0.0003611156587238719
-0.00080036987726385   -0.02729770712002876   -0.0003625689557506722
-0.0009318705375620185   -0.0335037625112426   -0.0005930318777316227
-0.004359454273571218   -0.02722221756273524   -0.0004618511437574739
-0.00080036987726385   -0.02729770712002876   -0.0003625689557506722
-0.004103360190515872   -0.033563458208090084   -0.0006974433855390247
-0.0009318705375620185   -0.0335037625112426   -0.0005930318777316227
-0.0008366381931578101   -0.027230660848498782   -0.0003611156587238719
-0.004125108591406357   -0.03351072695748781   -0.0006840868683882343
-0.0009595190287074399   -0.03345526211748595   -0.0006024370189365154
-0.0008366381931578101   -0.027230660848498782   -0.0003611156587238719
-0.004359454273571218   -0.02722221756273524   -0.0004618511437574739
-0.004125108591406357   -0.03351072695748781   -0.0006840868683882343
-0.004400035957150278   -0.027176134336633188   -0.0004390705359779341
-0.0009595190287074399   -0.03345526211748595   -0.0006024370189365154
-0.004150267150399725   -0.03347298601085528   -0.0006661754316617584
-0.004400035957150278   -0.027176134336633188   -0.0004390705359779341
-0.004125108591406357   -0.03351072695748781   -0.0006840868683882343
-0.0009595190287074399   -0.03345526211748595   -0.0006024370189365154
-0.004400035957150278   -0.027176134336633188   -0.0004390705359779341
-0.0008817775368592062   -0.02717299774732687   -0.00035536376213701987
-0.0008366381931578101   -0.027230660848498782   -0.0003611156587238719
-0.0009595190287074399   -0.03345526211748595   -0.0006024370189365154
-0.004400035957150278   -0.027176134336633188   -0.0004390705359779341
-0.0008366381931578101   -0.027230660848498782   -0.0003611156587238719
-0.004125108591406357   -0.03351072695748781   -0.0006840868683882343
-0.004081907979600087   -0.03363093095967835   -0.000706010335211883
-0.004285402900608892   -0.0273426582950524   -0.0004948908886290587
-0.0072097792157183515   -0.033564872988581566   -0.000830297333335168
-0.004103360190515872   -0.033563458208090084   -0.0006974433855390247
-0.004285402900608892   -0.0273426582950524   -0.0004948908886290587
-0.007743610591618539   -0.02728031160072927   -0.0006085861343601028
-0.0072097792157183515   -0.033564872988581566   -0.000830297333335168
-0.007781388808398753   -0.02722791640564038   -0.0005772167007046491
-0.004103360190515872   -0.033563458208090084   -0.0006974433855390247
-0.007232960617430578   -0.03350955767157632   -0.0007947542628668846
-0.007781388808398753   -0.02722791640564038   -0.0005772167007046491
-0.0072097792157183515   -0.033564872988581566   -0.000830297333335168
-0.004103360190515872   -0.033563458208090084   -0.0006974433855390247
-0.007781388808398753   -0.02722791640564038   -0.0005772167007046491
-0.0043220557243043465   -0.027277903906388852   -0.00048052651198991905
-0.004285402900608892   -0.0273426582950524   -0.0004948908886290587
-0.004103360190515872   -0.033563458208090084   -0.0006974433855390247
-0.007781388808398753   -0.02722791640564038   -0.0005772167007046491
-0.004285402900608892   -0.0273426582950524   -0.0004948908886290587
-0.0072097792157183515   -0.033564872988581566   -0.000830297333335168
-0.004103360190515872   -0.033563458208090084   -0.0006974433855390247
-0.0043220557243043465   -0.027277903906388852   -0.00048052651198991905
-0.007232960617430578   -0.03350955767157632   -0.0007947542628668846
-0.004125108591406357   -0.03351072695748781   -0.0006840868683882343
-0.0043220557243043465   -0.027277903906388852   -0.00048052651198991905
-0.007781388808398753   -0.02722791640564038   -0.0005772167007046491
-0.007232960617430578   -0.03350955767157632   -0.0007947542628668846
-0.007815639796050655   -0.027184525257278547   -0.0005416379030295967
-0.004125108591406357   -0.03351072695748781   -0.0006840868683882343
-0.007252140828918609   -0.03346884359370895   -0.000754508109794589
-0.007815639796050655   -0.027184525257278547   -0.0005416379030295967
-0.007232960617430578   -0.03350955767157632   -0.0007947542628668846
-0.004125108591406357   -0.03351072695748781   -0.0006840868683882343
-0.007815639796050655   -0.027184525257278547   -0.0005416379030295967
-0.004359454273571218   -0.02722221756273524   -0.0004618511437574739
-0.0043220557243043465   -0.027277903906388852   -0.00048052651198991905
-0.004125108591406357   -0.03351072695748781   -0.0006840868683882343
-0.007815639796050655   -0.027184525257278547   -0.0005416379030295967
-0.0043220557243043465   -0.027277903906388852   -0.00048052651198991905
-0.007232960617430578   -0.03350955767157632   -0.0007947542628668846
-0.004125108591406357   -0.03351072695748781   -0.0006840868683882343
-0.004359454273571218   -0.02722221756273524   -0.0004618511437574739
-0.007252140828918609   -0.03346884359370895   -0.000754508109794589
-0.004150267150399725   -0.03347298601085528   -0.0006661754316617584
-0.004359454273571218   -0.02722221756273524   -0.0004618511437574739
-0.007815639796050655   -0.027184525257278547   -0.0005416379030295967
-0.007252140828918609   -0.03346884359370895   -0.000754508109794589
-0.007850218366994946   -0.027150208724297967   -0.0005020088684902274
-0.004150267150399725   -0.03347298601085528   -0.0006661754316617584
-0.007271887157736009   -0.03344266829762067   -0.0007096961573940331
-0.007850218366994946   -0.027150208724297967   -0.0005020088684902274
-0.007252140828918609   -0.03346884359370895   -0.000754508109794589
-0.004150267150399725   -0.03347298601085528   -0.0006661754316617584
-0.007850218366994946   -0.027150208724297967   -0.0005020088684902274
-0.004400035957150278   -0.027176134336633188   -0.0004390705359779341
-0.004359454273571218   -0.02722221756273524   -0.0004618511437574739
-0.004150267150399725   -0.03347298601085528   -0.0006661754316617584
-0.007850218366994946   -0.027150208724297967   -0.0005020088684902274
-0.004359454273571218   -0.02722221756273524   -0.0004618511437574739
-0.007252140828918609   -0.03346884359370895   -0.000754508109794589
-0.0072097792157183515   -0.033564872988581566   -0.000830297333335168
-0.007743610591618539   -0.02728031160072927   -0.0006085861343601028
-0.010412026595454022   -0.03345144972723974   -0.0009339519338420875
-0.007232960617430578   -0.03350955767157632   -0.0007947542628668846
-0.007743610591618539   -0.02728031160072927   -0.0006085861343601028
-0.011270402109196649   -0.0271875340590117   -0.0007012511098341275
-0.010412026595454022   -0.03345144972723974   -0.0009339519338420875
-0.011305438916104327   -0.02714759198315656   -0.0006527446535578474
-0.007232960617430578   -0.03350955767157632   -0.0007947542628668846
-0.010431140083697298   -0.03340799335025561   -0.0008710619269480164
-0.011305438916104327   -0.02714759198315656   -0.0006527446535578474
-0.010412026595454022   -0.03345144972723974   -0.0009339519338420875
-0.007232960617430578   -0.03350955767157632   -0.0007947542628668846
-0.011305438916104327   -0.02714759198315656   -0.0006527446535578474
-0.007781388808398753   -0.02722791640564038   -0.0005772167007046491
-0.007743610591618539   -0.02728031160072927   -0.0006085861343601028
-0.007232960617430578   -0.03350955767157632   -0.0007947542628668846
-0.011305438916104327   -0.02714759198315656   -0.0006527446535578474
-0.007743610591618539   -0.02728031160072927   -0.0006085861343601028
-0.010412026595454022   -0.03345144972723974   -0.0009339519338420875
-0.007232960617430578   -0.03350955767157632   -0.0007947542628668846
-0.007781388808398753   -0.02722791640564038   -0.0005772167007046491
-0.010431140083697298   -0.03340799335025561   -0.0008710619269480164
-0.007252140828918609   -0.03346884359370895   -0.000754508109794589
-0.007781388808398753   -0.02722791640564038   -0.0005772167007046491
-0.011305438916104327   -0.02714759198315656   -0.0006527446535578474
-0.010431140083697298   -0.03340799335025561   -0.0008710619269480164
-0.011326510088587989   -0.027115538065074978   -0.0006005937669240712
-0.007252140828918609   -0.03346884359370895   -0.000754508109794589
-0.010433369223554742   -0.03337827084050723   -0.0008041190189442202
-0.011326510088587989   -0.027115538065074978   -0.0006005937669240712
-0.010431140083697298   -0.03340799335025561   -0.0008710619269480164
-0.007252140828918609   -0.03346884359370895   -0.000754508109794589
-0.011326510088587989   -0.027115538065074978   -0.0006005937669240712
-0.007815639796050655   -0.027184525257278547   -0.0005416379030295967
-0.007781388808398753   -0.02722791640564038   -0.0005772167007046491
-0.007252140828918609   -0.03346884359370895   -0.000754508109794589
-0.011326510088587989   -0.027115538065074978   -0.0006005937669240712
-0.007781388808398753   -0.02722791640564038   -0.0005772167007046491
-0.010431140083697298   -0.03340799335025561   -0.0008710619269480164
-0.007252140828918609   -0.03346884359370895   -0.000754508109794589
-0.007815639796050655   -0.027184525257278547   -0.0005416379030295967
-0.010433369223554742   -0.03337827084050723   -0.0008041190189442202
-0.007271887157736009   -0.03344266829762067   -0.0007096961573940331
-0.007815639796050655   -0.027184525257278547   -0.0005416379030295967
-0.011326510088587989   -0.027115538065074978   -0.0006005937669240712
-0.010433369223554742   -0.03337827084050723   -0.0008041190189442202
-0.011349733004297617   -0.02709335331850965   -0.0005440463945276223
-0.007271887157736009   -0.03344266829762067   -0.0007096961573940331
-0.010440443101072783   -0.03336440096437231   -0.0007322629557456644
-0.011349733004297617   -0.02709335331850965   -0.0005440463945276223
-0.010433369223554742   -0.03337827084050723   -0.0008041190189442202
-0.007271887157736009   -0.03344266829762067   -0.0007096961573940331
-0.011349733004297617   -0.02709335331850965   -0.0005440463945276223
-0.007850218366994946   -0.027150208724297967   -0.0005020088684902274
-0.007815639796050655   -0.027184525257278547   -0.0005416379030295967
-0.007271887157736009   -0.03344266829762067   -0.0007096961573940331
-0.011349733004297617   -0.02709335331850965   -0.0005440463945276223
-0.007815639796050655   -0.027184525257278547   -0.0005416379030295967
-0.010433369223554742   -0.03337827084050723   -0.0008041190189442202
-0.010412026595454022   -0.03345144972723974   -0.0009339519338420875
-0.011270402109196649   -0.0271875340590117   -0.0007012511098341275
-0.013904395696908675   -0.033302402546743076   -0.0010225124768553364
-0.010431140083697298   -0.03340799335025561   -0.0008710619269480164
-0.011270402109196649   -0.0271875340590117   -0.0007012511098341275
-0.015056271473255691   -0.02707313912807709   -0.0007747880215143944
-0.013904395696908675   -0.033302402546743076   -0.0010225124768553364
-0.015029487846052441   -0.027039555814366376   -0.0007100085139596142
-0.010431140083697298   -0.03340799335025561   -0.0008710619269480164
-0.013836756129529091   -0.03326270374370146   -0.0009306230732797225
-0.015029487846052441   -0.027039555814366376   -0.0007100085139596142
-0.013904395696908675   -0.033302402546743076   -0.0010225124768553364
-0.010431140083697298   -0.03340799335025561   -0.0008710619269480164
-0.015029487846052441   -0.027039555814366376   -0.0007100085139596142
-0.011305438916104327   -0.02714759198315656   -0.0006527446535578474
-0.011270402109196649   -0.0271875340590117   -0.0007012511098341275
-0.010431140083697298   -0.03340799335025561   -0.0008710619269480164
-0.015029487846052441   -0.027039555814366376   -0.0007100085139596142
-0.011270402109196649   -0.0271875340590117   -0.0007012511098341275
-0.013904395696908675   -0.033302402546743076   -0.0010225124768553364
-0.010431140083697298   -0.03340799335025561   -0.0008710619269480164
-0.011305438916104327   -0.02714759198315656   -0.0006527446535578474
-0.013836756129529091   -0.03326270374370146   -0.0009306230732797225
-0.010433369223554742   -0.03337827084050723   -0.0008041190189442202
-0.011305438916104327   -0.02714759198315656   -0.0006527446535578474
-0.015029487846052441   -0.027039555814366376   -0.0007100085139596142
-0.013836756129529091   -0.03326270374370146   -0.0009306230732797225
-0.015007650962787663   -0.027012845789841675   -0.0006385411458265232
-0.010433369223554742   -0.03337827084050723   -0.0008041190189442202
-0.013779778952190957   -0.033237645036006354   -0.0008316521192039901
-0.015007650962787663   -0.027012845789841675   -0.0006385411458265232
-0.013836756129529091   -0.03326270374370146   -0.0009306230732797225
-0.010433369223554742   -0.03337827084050723   -0.0008041190189442202
-0.015007650962787663   -0.027012845789841675   -0.0006385411458265232
-0.011326510088587989   -0.027115538065074978   -0.0006005937669240712
-0.011305438916104327   -0.02714759198315656   -0.0006527446535578474
-0.010433369223554742   -0.03337827084050723   -0.0008041190189442202
-0.015007650962787663   -0.027012845789841675   -0.0006385411458265232
-0.011305438916104327   -0.02714759198315656   -0.0006527446535578474
-0.013836756129529091   -0.03326270374370146   -0.0009306230732797225
-0.010433369223554742   -0.03337827084050723   -0.0008041190189442202
-0.011326510088587989   -0.027115538065074978   -0.0006005937669240712
-0.013779778952190957   -0.033237645036006354   -0.0008316521192039901
-0.010440443101072783   -0.03336440096437231   -0.0007322629557456644
-0.011326510088587989   -0.027115538065074978   -0.0006005937669240712
-0.015007650962787663   -0.027012845789841675   -0.0006385411458265232
-0.013779778952190957   -0.033237645036006354   -0.0008316521192039901
-0.014955945039407132   -0.02700524636949699   -0.0005611477669031098
-0.010440443101072783   -0.03336440096437231   -0.0007322629557456644
-0.013686055808377352   -0.03323948093624795   -0.0007264840534436566
-0.014955945039407132   -0.02700524636949699   -0.0005611477669031098
-0.013779778952190957   -0.033237645036006354   -0.0008316521192039901
-0.010440443101072783   -0.03336440096437231   -0.0007322629557456644
-0.014955945039407132   -0.02700524636949699   -0.0005611477669031098
-0.011349733004297617   -0.02709335331850965   -0.0005440463945276223
-0.011326510088587989   -0.027115538065074978   -0.0006005937669240712
-0.010440443101072783   -0.03336440096437231   -0.0007322629557456644
-0.014955945039407132   -0.02700524636949699   -0.0005611477669031098
-0.011326510088587989   -0.027115538065074978   -0.0006005937669240712
-0.013779778952190957   -0.033237645036006354   -0.0008316521192039901
0.0029198199632940137   -0.027376200615267632   -0.00019587362365370043
0.0030255956535527226   -0.02070075197323925   -3.1559400610998334e-05
-0.0007677362730048614   -0.027375893632095655   -0.0003598866922257009
0.0029100056289794282   -0.02728609900566386   -0.00022240046782746024
0.0030255956535527226   -0.02070075197323925   -3.1559400610998334e-05
-0.0008748219188513363   -0.020666874551252098   -0.00017880332304330234
-0.0007677362730048614   -0.027375893632095655   -0.0003598866922257009
-0.0009197786378319383   -0.020592119728606403   -0.00016557539503271728
0.0029100056289794282   -0.02728609900566386   -0.00022240046782746024
-0.00080036987726385   -0.02729770712002876   -0.0003625689557506722
-0.0009197786378319383   -0.020592119728606403   -0.00016557539503271728
-0.0007677362730048614   -0.027375893632095655   -0.0003598866922257009
0.0029100056289794282   -0.02728609900566386   -0.00022240046782746024
-0.0009197786378319383   -0.020592119728606403   -0.00016557539503271728
0.002978342199499522   -0.02061487863220728   -2.936820817653307e-05
0.0030255956535527226   -0.02070075197323925   -3.1559400610998334e-05
0.0029100056289794282   -0.02728609900566386   -0.00022240046782746024
-0.0009197786378319383   -0.020592119728606403   -0.00016557539503271728
0.0030255956535527226   -0.02070075197323925   -3.1559400610998334e-05
-0.0007677362730048614   -0.027375893632095655   -0.0003598866922257009
0.0029100056289794282   -0.02728609900566386   -0.00022240046782746024
0.002978342199499522   -0.02061487863220728   -2.936820817653307e-05
-0.00080036987726385   -0.02729770712002876   -0.0003625689557506722
0.002884171846147844   -0.027213939471623372   -0.0002422986479141769
0.002978342199499522   -0.02061487863220728   -2.936820817653307e-05
-0.0009197786378319383   -0.020592119728606403   -0.00016557539503271728
-0.00080036987726385   -0.02729770712002876   -0.0003625689557506722
-0.0009712832232965492   -0.020521743463605798   -0.00014858642288949423
0.002884171846147844   -0.027213939471623372   -0.0002422986479141769
-0.0008366381931578101   -0.027230660848498782   -0.0003611156587238719
-0.0009712832232965492   -0.020521743463605798   -0.00014858642288949423
-0.00080036987726385   -0.02729770712002876   -0.0003625689557506722
0.002884171846147844   -0.027213939471623372   -0.0002422986479141769
-0.0009712832232965492   -0.020521743463605798   -0.00014858642288949423
0.0029199860984662797   -0.02053841599505925   -1.9499685606378457e-05
0.002978342199499522   -0.02061487863220728   -2.936820817653307e-05
0.002884171846147844   -0.027213939471623372   -0.0002422986479141769
-0.0009712832232965492   -0.020521743463605798   -0.00014858642288949423
0.002978342199499522   -0.02061487863220728   -2.936820817653307e-05
-0.00080036987726385   -0.02729770712002876   -0.0003625689557506722
0.002884171846147844   -0.027213939471623372   -0.0002422986479141769
0.0029199860984662797   -0.02053841599505925   -1.9499685606378457e-05
-0.0008366381931578101   -0.027230660848498782   -0.0003611156587238719
0.002847982970085932   -0.027147804599246275   -0.00025603120761600164
0.0029199860984662797   -0.02053841599505925   -1.9499685606378457e-05
-0.0009712832232965492   -0.020521743463605798   -0.00014858642288949423
-0.0008366381931578101   -0.027230660848498782   -0.0003611156587238719
-0.0010291789060998353   -0.02045477341309838   -0.00012689507854417604
0.002847982970085932   -0.027147804599246275   -0.00025603120761600164
-0.0008817775368592062   -0.02717299774732687   -0.00035536376213701987
-0.0010291789060998353   -0.02045477341309838   -0.00012689507854417604
-0.0008366381931578101   -0.027230660848498782   -0.0003611156587238719
0.002847982970085932   -0.027147804599246275   -0.00025603120761600164
-0.0010291789060998353   -0.02045477341309838   -0.00012689507854417604
0.0028429684567827193   -0.020458569888054116   -2.298910162609608e-06
0.0029199860984662797   -0.02053841599505925   -1.9499685606378457e-05
0.002847982970085932   -0.027147804599246275   -0.00025603120761600164
-0.0010291789060998353   -0.02045477341309838   -0.00012689507854417604
0.0029199860984662797   -0.02053841599505925   -1.9499685606378457e-05
-0.0008366381931578101   -0.027230660848498782   -0.0003611156587238719
-0.0007677362730048614   -0.027375893632095655   -0.0003598866922257009
-0.0008748219188513363   -0.020666874551252098   -0.00017880332304330234
-0.004285402900608892   -0.0273426582950524   -0.0004948908886290587
-0.00080036987726385   -0.02729770712002876   -0.0003625689557506722
-0.0008748219188513363   -0.020666874551252098   -0.00017880332304330234
-0.004570544157782519   -0.020626951069253042   -0.0003030411861124852
-0.004285402900608892   -0.0273426582950524   -0.0004948908886290587
-0.004616518386091935   -0.020564594453178486   -0.00028248880514420614
-0.00080036987726385   -0.02729770712002876   -0.0003625689557506722
-0.0043220557243043465   -0.027277903906388852   -0.00048052651198991905
-0.004616518386091935   -0.020564594453178486   -0.00028248880514420614
-0.004285402900608892   -0.0273426582950524   -0.0004948908886290587
-0.00080036987726385   -0.02729770712002876   -0.0003625689557506722
-0.004616518386091935   -0.020564594453178486   -0.00028248880514420614
-0.0009197786378319383   -0.020592119728606403   -0.00016557539503271728
-0.0008748219188513363   -0.020666874551252098   -0.00017880332304330234
-0.00080036987726385   -0.02729770712002876   -0.0003625689557506722
-0.004616518386091935   -0.020564594453178486   -0.00028248880514420614
-0.0008748219188513363   -0.020666874551252098   -0.00017880332304330234
-0.004285402900608892   -0.0273426582950524   -0.0004948908886290587
-0.00080036987726385   -0.02729770712002876   -0.0003625689557506722
-0.0009197786378319383   -0.020592119728606403   -0.00016557539503271728
-0.0043220557243043465   -0.027277903906388852   -0.00048052651198991905
-0.0008366381931578101   -0.027230660848498782   -0.0003611156587238719
-0.0009197786378319383   -0.020592119728606403   -0.00016557539503271728
-0.004616518386091935   -0.020564594453178486   -0.00028248880514420614
-0.0043220557243043465   -0.027277903906388852   -0.00048052651198991905
-0.004663535432949022   -0.020505632558436487   -0.0002583463613599272
-0.0008366381931578101   -0.027230660848498782   -0.0003611156587238719
-0.004359454273571218   -0.02722221756273524   -0.0004618511437574739
-0.004663535432949022   -0.020505632558436487   -0.0002583463613599272
-0.0043220557243043465   -0.027277903906388852   -0.00048052651198991905
-0.0008366381931578101   -0.027230660848498782   -0.0003611156587238719
-0.004663535432949022   -0.020505632558436487   -0.0002583463613599272
-0.0009712832232965492   -0.020521743463605798   -0.00014858642288949423
-0.0009197786378319383   -0.020592119728606403   -0.00016557539503271728
-0.0008366381931578101   -0.027230660848498782   -0.0003611156587238719
-0.004663535432949022   -0.020505632558436487   -0.0002583463613599272
-0.0009197786378319383   -0.020592119728606403   -0.00016557539503271728
-0.0043220557243043465   -0.027277903906388852   -0.00048052651198991905
-0.0008366381931578101   -0.027230660848498782   -0.0003611156587238719
-0.0009712832232965492   -0.020521743463605798   -0.00014858642288949423
-0.004359454273571218   -0.02722221756273524   -0.0004618511437574739
-0.0008817775368592062   -0.02717299774732687   -0.00035536376213701987
-0.0009712832232965492   -0.020521743463605798   -0.00014858642288949423
-0.004663535432949022   -0.020505632558436487   -0.0002583463613599272
-0.004359454273571218   -0.02722221756273524   -0.0004618511437574739
-0.004713562878230612   -0.020450996438010204   -0.0002305796011176597
-0.0008817775368592062   -0.02717299774732687   -0.00035536376213701987
-0.004400035957150278   -0.027176134336633188   -0.0004390705359779341
-0.004713562878230612   -0.020450996438010204   -0.0002305796011176597
-0.004359454273571218   -0.02722221756273524   -0.0004618511437574739
-0.0008817775368592062   -0.02717299774732687   -0.00035536376213701987
-0.004713562878230612   -0.020450996438010204   -0.0002305796011176597
-0.0010291789060998353   -0.02045477341309838   -0.00012689507854417604
-0.0009712832232965492   -0.020521743463605798   -0.00014858642288949423
-0.0008817775368592062   -0.02717299774732687   -0.00035536376213701987
-0.004713562878230612   -0.020450996438010204   -0.0002305796011176597
-0.0009712832232965492   -0.020521743463605798   -0.00014858642288949423
-0.004359454273571218   -0.02722221756273524   -0.0004618511437574739
-0.004285402900608892   -0.0273426582950524   -0.0004948908886290587
-0.004570544157782519   -0.020626951069253042   -0.0003030411861124852
-0.007743610591618539   -0.02728031160072927   -0.0006085861343601028
-0.0043220557243043465   -0.027277903906388852   -0.00048052651198991905
-0.004570544157782519   -0.020626951069253042   -0.0003030411861124852
-0.008205914921816361   -0.020578874446530684   -0.0004083274279372112
-0.007743610591618539   -0.02728031160072927   -0.0006085861343601028
-0.008251600674308683   -0.020527983181864367   -0.00038047315335159655
-0.0043220557243043465   -0.027277903906388852   -0.00048052651198991905
-0.007781388808398753   -0.02722791640564038   -0.0005772167007046491
-0.008251600674308683   -0.020527983181864367   -0.00038047315335159655
-0.007743610591618539   -0.02728031160072927   -0.0006085861343601028
-0.0043220557243043465   -0.027277903906388852   -0.00048052651198991905
-0.008251600674308683   -0.020527983181864367   -0.00038047315335159655
-0.004616518386091935   -0.020564594453178486   -0.00028248880514420614
-0.004570544157782519   -0.020626951069253042   -0.0003030411861124852
-0.0043220557243043465   -0.027277903906388852   -0.00048052651198991905
-0.008251600674308683   -0.020527983181864367   -0.00038047315335159655
-0.004570544157782519   -0.020626951069253042   -0.0003030411861124852
-0.007743610591618539   -0.02728031160072927   -0.0006085861343601028
-0.0043220557243043465   -0.027277903906388852   -0.00048052651198991905
-0.004616518386091935   -0.020564594453178486   -0.00028248880514420614
-0.007781388808398753   -0.02722791640564038   -0.0005772167007046491
-0.004359454273571218   -0.02722221756273524   -0.0004618511437574739
-0.004616518386091935   -0.020564594453178486   -0.00028248880514420614
-0.008251600674308683   -0.020527983181864367   -0.00038047315335159655
-0.007781388808398753   -0.02722791640564038   -0.0005772167007046491
-0.0082943179865277   -0.02048067156013168   -0.0003491512875930847
-0.004359454273571218   -0.02722221756273524   -0.0004618511437574739
-0.007815639796050655   -0.027184525257278547   -0.0005416379030295967
-0.0082943179865277   -0.02048067156013168   -0.0003491512875930847
-0.007781388808398753   -0.02722791640564038   -0.0005772167007046491
-0.004359454273571218   -0.02722221756273524   -0.0004618511437574739
-0.0082943179865277   -0.02048067156013168   -0.0003491512875930847
-0.004663535432949022   -0.020505632558436487   -0.0002583463613599272
-0.004616518386091935   -0.020564594453178486   -0.00028248880514420614
-0.004359454273571218   -0.02722221756273524   -0.0004618511437574739
-0.0082943179865277   -0.02048067156013168   -0.0003491512875930847
-0.004616518386091935   -0.020564594453178486   -0.00028248880514420614
-0.007781388808398753   -0.02722791640564038   -0.0005772167007046491
-0.004359454273571218   -0.02722221756273524   -0.0004618511437574739
-0.004663535432949022   -0.020505632558436487   -0.0002583463613599272
-0.007815639796050655   -0.027184525257278547   -0.0005416379030295967
-0.004400035957150278   -0.027176134336633188   -0.0004390705359779341
-0.004663535432949022   -0.020505632558436487   -0.0002583463613599272
-0.0082943179865277   -0.02048067156013168   -0.0003491512875930847
-0.007815639796050655   -0.027184525257278547   -0.0005416379030295967
-0.008337188511707935   -0.020437067903466766   -0.0003145322311191798
-0.004400035957150278   -0.027176134336633188   -0.0004390705359779341
-0.007850218366994946   -0.027150208724297967   -0.0005020088684902274
-0.008337188511707935   -0.020437067903466766   -0.0003145322311191798
-0.007815639796050655   -0.027184525257278547   -0.0005416379030295967
-0.004400035957150278   -0.027176134336633188   -0.0004390705359779341
-0.008337188511707935   -0.020437067903466766   -0.0003145322311191798
-0.004713562878230612   -0.020450996438010204   -0.0002305796011176597
-0.004663535432949022   -0.020505632558436487   -0.0002583463613599272
-0.004400035957150278   -0.027176134336633188   -0.0004390705359779341
-0.008337188511707935   -0.020437067903466766   -0.0003145322311191798
-0.004663535432949022   -0.020505632558436487   -0.0002583463613599272
-0.007815639796050655   -0.027184525257278547   -0.0005416379030295967
-0.007743610591618539   -0.02728031160072927   -0.0006085861343601028
-0.008205914921816361   -0.020578874446530684   -0.0004083274279372112
-0.011270402109196649   -0.0271875340590117   -0.0007012511098341275
-0.007781388808398753   -0.02722791640564038   -0.0005772167007046491
-0.008205914921816361   -0.020578874446530684   -0.0004083274279372112
-0.011907086444522002   -0.020513749533245623   -0.0004937588386007157
-0.011270402109196649   -0.0271875340590117   -0.0007012511098341275
-0.011950818157170438   -0.020474917860535936   -0.0004586904353218977
-0.007781388808398753   -0.02722791640564038   -0.0005772167007046491
-0.011305438916104327   -0.02714759198315656   -0.0006527446535578474
-0.011950818157170438   -0.020474917860535936   -0.0004586904353218977
-0.011270402109196649   -0.0271875340590117   -0.0007012511098341275
-0.007781388808398753   -0.02722791640564038   -0.0005772167007046491
-0.011950818157170438   -0.020474917860535936   -0.0004586904353218977
-0.008251600674308683   -0.020527983181864367   -0.00038047315335159655
-0.008205914921816361   -0.020578874446530684   -0.0004083274279372112
-0.007781388808398753   -0.02722791640564038   -0.0005772167007046491
-0.011950818157170438   -0.020474917860535936   -0.0004586904353218977
-0.008205914921816361   -0.020578874446530684   -0.0004083274279372112
-0.011270402109196649   -0.0271875340590117   -0.0007012511098341275
-0.007781388808398753   -0.02722791640564038   -0.0005772167007046491
-0.008251600674308683   -0.020527983181864367   -0.00038047315335159655
-0.011305438916104327   -0.02714759198315656   -0.0006527446535578474
-0.007815639796050655   -0.027184525257278547   -0.0005416379030295967
-0.008251600674308683   -0.020527983181864367   -0.00038047315335159655
-0.011950818157170438   -0.020474917860535936   -0.0004586904353218977
-0.011305438916104327   -0.02714759198315656   -0.0006527446535578474
-0.011983867291224415   -0.020438346673074884   -0.0004207203347189003
-0.007815639796050655   -0.027184525257278547   -0.0005416379030295967
-0.011326510088587989   -0.027115538065074978   -0.0006005937669240712
-0.011983867291224415   -0.020438346673074884   -0.0004207203347189003
-0.011305438916104327   -0.02714759198315656   -0.0006527446535578474
-0.007815639796050655   -0.027184525257278547   -0.0005416379030295967
-0.011983867291224415   -0.020438346673074884   -0.0004207203347189003
-0.0082943179865277   -0.02048067156013168   -0.0003491512875930847
-0.008251600674308683   -0.020527983181864367   -0.00038047315335159655
-0.007815639796050655   -0.027184525257278547   -0.0005416379030295967
-0.011983867291224415   -0.020438346673074884   -0.0004207203347189003
-0.008251600674308683   -0.020527983181864367   -0.00038047315335159655
-0.011305438916104327   -0.02714759198315656   -0.0006527446535578474
-0.007815639796050655   -0.027184525257278547   -0.0005416379030295967
-0.0082943179865277   -0.02048067156013168   -0.0003491512875930847
-0.011326510088587989   -0.027115538065074978   -0.0006005937669240712
-0.007850218366994946   -0.027150208724297967   -0.0005020088684902274
-0.0082943179865277   -0.02048067156013168   -0.0003491512875930847
-0.011983867291224415   -0.020438346673074884   -0.0004207203347189003
-0.011326510088587989   -0.027115538065074978   -0.0006005937669240712
-0.012016683766819957   -0.020405696971944182   -0.0003790970719591678
-0.007850218366994946   -0.027150208724297967   -0.0005020088684902274
-0.011349733004297617   -0.02709335331850965   -0.0005440463945276223
-0.012016683766819957   -0.020405696971944182   -0.0003790970719591678
-0.011326510088587989   -0.027115538065074978   -0.0006005937669240712
-0.007850218366994946   -0.027150208724297967   -0.0005020088684902274
-0.012016683766819957   -0.020405696971944182   -0.0003790970719591678
-0.008337188511707935   -0.020437067903466766   -0.0003145322311191798
-0.0082943179865277   -0.02048067156013168   -0.0003491512875930847
-0.007850218366994946   -0.027150208724297967   -0.0005020088684902274
-0.012016683766819957   -0.020405696971944182   -0.0003790970719591678
-0.0082943179865277   -0.02048067156013168   -0.0003491512875930847
-0.011326510088587989   -0.027115538065074978   -0.0006005937669240712
-0.011270402109196649   -0.0271875340590117   -0.0007012511098341275
-0.011907086444522002   -0.020513749533245623   -0.0004937588386007157
-0.015056271473255691   -0.02707313912807709   -0.0007747880215143944
-0.011305438916104327   -0.02714759198315656   -0.0006527446535578474
-0.011907086444522002   -0.020513749533245623   -0.0004937588386007157
-0.015830832475189335   -0.020436580740634213   -0.0005568360473377236
-0.015056271473255691   -0.02707313912807709   -0.0007747880215143944
-0.015836916346183973   -0.020405770464882622   -0.0005179025202952787
-0.011305438916104327   -0.02714759198315656   -0.0006527446535578474
-0.015029487846052441   -0.027039555814366376   -0.0007100085139596142
-0.015836916346183973   -0.020405770464882622   -0.0005179025202952787
-0.015056271473255691   -0.02707313912807709   -0.0007747880215143944
-0.011305438916104327   -0.02714759198315656   -0.0006527446535578474
-0.015836916346183973   -0.020405770464882622   -0.0005179025202952787
-0.011950818157170438   -0.020474917860535936   -0.0004586904353218977
-0.011907086444522002   -0.020513749533245623   -0.0004937588386007157
-0.011305438916104327   -0.02714759198315656   -0.0006527446535578474
-0.015836916346183973   -0.020405770464882622   -0.0005179025202952787
-0.011907086444522002   -0.020513749533245623   -0.0004937588386007157
-0.015056271473255691   -0.02707313912807709   -0.0007747880215143944
-0.011305438916104327   -0.02714759198315656   -0.0006527446535578474
-0.011950818157170438   -0.020474917860535936   -0.0004586904353218977
-0.015029487846052441   -0.027039555814366376   -0.0007100085139596142
-0.011326510088587989   -0.027115538065074978   -0.0006005937669240712
-0.011950818157170438   -0.020474917860535936   -0.0004586904353218977
-0.015836916346183973   -0.020405770464882622   -0.0005179025202952787
-0.015029487846052441   -0.027039555814366376   -0.0007100085139596142
-0.015843268916294326   -0.02037471843920744   -0.00047313377429499627
-0.011326510088587989   -0.027115538065074978   -0.0006005937669240712
-0.015007650962787663   -0.027012845789841675   -0.0006385411458265232
-0.015843268916294326   -0.02037471843920744   -0.00047313377429499627
-0.015029487846052441   -0.027039555814366376   -0.0007100085139596142
-0.011326510088587989   -0.027115538065074978   -0.0006005937669240712
-0.015843268916294326   -0.02037471843920744   -0.00047313377429499627
-0.011983867291224415   -0.020438346673074884   -0.0004207203347189003
-0.011950818157170438   -0.020474917860535936   -0.0004586904353218977
-0.011326510088587989   -0.027115538065074978   -0.0006005937669240712
-0.015843268916294326   -0.02037471843920744   -0.00047313377429499627
-0.011950818157170438   -0.020474917860535936   -0.0004586904353218977
-0.015029487846052441   -0.027039555814366376   -0.0007100085139596142
-0.011326510088587989   -0.027115538065074978   -0.0006005937669240712
-0.011983867291224415   -0.020438346673074884   -0.0004207203347189003
-0.015007650962787663   -0.027012845789841675   -0.0006385411458265232
-0.011349733004297617   -0.02709335331850965   -0.0005440463945276223
-0.011983867291224415   -0.020438346673074884   -0.0004207203347189003
-0.015843268916294326   -0.02037471843920744   -0.00047313377429499627
-0.015007650962787663   -0.027012845789841675   -0.0006385411458265232
-0.01582739422929292   -0.02035479305683753   -0.00042321800167255375
-0.011349733004297617   -0.02709335331850965   -0.0005440463945276223
-0.014955945039407132   -0.02700524636949699   -0.0005611477669031098
-0.01582739422929292   -0.02035479305683753   -0.00042321800167255375
-0.015007650962787663   -0.027012845789841675   -0.0006385411458265232
-0.011349733004297617   -0.02709335331850965   -0.0005440463945276223
-0.01582739422929292   -0.02035479305683753   -0.00042321800167255375
-0.012016683766819957   -0.020405696971944182   -0.0003790970719591678
-0.011983867291224415   -0.020438346673074884   -0.0004207203347189003
-0.011349733004297617   -0.02709335331850965   -0.0005440463945276223
-0.01582739422929292   -0.02035479305683753   -0.00042321800167255375
-0.011983867291224415   -0.020438346673074884   -0.0004207203347189003
-0.015007650962787663   -0.027012845789841675   -0.0006385411458265232
0.0030255956535527226   -0.02070075197323925   -3.1559400610998334e-05
0.0027170737955227705   -0.013820520962431202   8.19191264258199e-05
-0.0008748219188513363   -0.020666874551252098   -0.00017880332304330234
0.002978342199499522   -0.02061487863220728   -2.936820817653307e-05
0.0027170737955227705   -0.013820520962431202   8.19191264258199e-05
-0.0012159572630995067   -0.013756125661144095   -3.462320904291434e-05
-0.0008748219188513363   -0.020666874551252098   -0.00017880332304330234
-0.001269875392692665   -0.013688571087748645   -6.694866325522726e-06
0.002978342199499522   -0.02061487863220728   -2.936820817653307e-05
-0.0009197786378319383   -0.020592119728606403   -0.00016557539503271728
-0.001269875392692665   -0.013688571087748645   -6.694866325522726e-06
-0.0008748219188513363   -0.020666874551252098   -0.00017880332304330234
0.002978342199499522   -0.02061487863220728   -2.936820817653307e-05
-0.001269875392692665   -0.013688571087748645   -6.694866325522726e-06
0.0026324769979041277   -0.013738799603632161   0.00011640070423408951
0.0027170737955227705   -0.013820520962431202   8.19191264258199e-05
0.002978342199499522   -0.02061487863220728   -2.936820817653307e-05
-0.001269875392692665   -0.013688571087748645   -6.694866325522726e-06
0.0027170737955227705   -0.013820520962431202   8.19191264258199e-05
-0.0008748219188513363   -0.020666874551252098   -0.00017880332304330234
0.002978342199499522   -0.02061487863220728   -2.936820817653307e-05
0.0026324769979041277   -0.013738799603632161   0.00011640070423408951
-0.0009197786378319383   -0.020592119728606403   -0.00016557539503271728
0.0029199860984662797   -0.02053841599505925   -1.9499685606378457e-05
0.0026324769979041277   -0.013738799603632161   0.00011640070423408951
-0.001269875392692665   -0.013688571087748645   -6.694866325522726e-06
-0.0009197786378319383   -0.020592119728606403   -0.00016557539503271728
-0.0013330037731587982   -0.013617343605523281   2.6244859033741288e-05
0.0029199860984662797   -0.02053841599505925   -1.9499685606378457e-05
-0.0009712832232965492   -0.020521743463605798   -0.00014858642288949423
-0.0013330037731587982   -0.013617343605523281   2.6244859033741288e-05
-0.0009197786378319383   -0.020592119728606403   -0.00016557539503271728
0.0029199860984662797   -0.02053841599505925   -1.9499685606378457e-05
-0.0013330037731587982   -0.013617343605523281   2.6244859033741288e-05
0.002537757610811692   -0.013657810837664236   0.00016618067390292566
0.0026324769979041277   -0.013738799603632161   0.00011640070423408951
0.0029199860984662797   -0.02053841599505925   -1.9499685606378457e-05
-0.0013330037731587982   -0.013617343605523281   2.6244859033741288e-05
0.0026324769979041277   -0.013738799603632161   0.00011640070423408951
-0.0009197786378319383   -0.020592119728606403   -0.00016557539503271728
0.0029199860984662797   -0.02053841599505925   -1.9499685606378457e-05
0.002537757610811692   -0.013657810837664236   0.00016618067390292566
-0.0009712832232965492   -0.020521743463605798   -0.00014858642288949423
0.0028429684567827193   -0.020458569888054116   -2.298910162609608e-06
0.002537757610811692   -0.013657810837664236   0.00016618067390292566
-0.0013330037731587982   -0.013617343605523281   2.6244859033741288e-05
-0.0009712832232965492   -0.020521743463605798   -0.00014858642288949423
-0.0013983658128940513   -0.013541778918194062   6.413763550380171e-05
0.0028429684567827193   -0.020458569888054116   -2.298910162609608e-06
-0.0010291789060998353   -0.02045477341309838   -0.00012689507854417604
-0.0013983658128940513   -0.013541778918194062   6.413763550380171e-05
-0.0009712832232965492   -0.020521743463605798   -0.00014858642288949423
0.0028429684567827193   -0.020458569888054116   -2.298910162609608e-06
-0.0013983658128940513   -0.013541778918194062   6.413763550380171e-05
0.0024219956259731467   -0.013558255187404515   0.00022100090151027616
0.002537757610811692   -0.013657810837664236   0.00016618067390292566
0.0028429684567827193   -0.020458569888054116   -2.298910162609608e-06
-0.0013983658128940513   -0.013541778918194062   6.413763550380171e-05
0.002537757610811692   -0.013657810837664236   0.00016618067390292566
-0.0009712832232965492   -0.020521743463605798   -0.00014858642288949423
-0.0008748219188513363   -0.020666874551252098   -0.00017880332304330234
-0.0012159572630995067   -0.013756125661144095   -3.462320904291434e-05
-0.004570544157782519   -0.020626951069253042   -0.0003030411861124852
-0.0009197786378319383   -0.020592119728606403   -0.00016557539503271728
-0.0012159572630995067   -0.013756125661144095   -3.462320904291434e-05
-0.004918619262716781   -0.013739436786086374   -0.0001467481546235047
-0.004570544157782519   -0.020626951069253042   -0.0003030411861124852
-0.004967464638911301   -0.013680634760892433   -0.00012062722708677784
-0.0009197786378319383   -0.020592119728606403   -0.00016557539503271728
-0.004616518386091935   -0.020564594453178486   -0.00028248880514420614
-0.004967464638911301   -0.013680634760892433   -0.00012062722708677784
-0.004570544157782519   -0.020626951069253042   -0.0003030411861124852
-0.0009197786378319383   -0.020592119728606403   -0.00016557539503271728
-0.004967464638911301   -0.013680634760892433   -0.00012062722708677784
-0.001269875392692665   -0.013688571087748645   -6.694866325522726e-06
-0.0012159572630995067   -0.013756125661144095   -3.462320904291434e-05
-0.0009197786378319383   -0.020592119728606403   -0.00016557539503271728
-0.004967464638911301   -0.013680634760892433   -0.00012062722708677784
-0.0012159572630995067   -0.013756125661144095   -3.462320904291434e-05
-0.004570544157782519   -0.020626951069253042   -0.0003030411861124852
-0.0009197786378319383   -0.020592119728606403   -0.00016557539503271728
-0.001269875392692665   -0.013688571087748645   -6.694866325522726e-06
-0.004616518386091935   -0.020564594453178486   -0.00028248880514420614
-0.0009712832232965492   -0.020521743463605798   -0.00014858642288949423
-0.001269875392692665   -0.013688571087748645   -6.694866325522726e-06
-0.004967464638911301   -0.013680634760892433   -0.00012062722708677784
-0.004616518386091935   -0.020564594453178486   -0.00028248880514420614
-0.0050180194617635895   -0.013619497004523905   -9.188898937920938e-05
-0.0009712832232965492   -0.020521743463605798   -0.00014858642288949423
-0.004663535432949022   -0.020505632558436487   -0.0002583463613599272
-0.0050180194617635895   -0.013619497004523905   -9.188898937920938e-05
-0.004616518386091935   -0.020564594453178486   -0.00028248880514420614
-0.0009712832232965492   -0.020521743463605798   -0.00014858642288949423
-0.0050180194617635895   -0.013619497004523905   -9.188898937920938e-05
-0.0013330037731587982   -0.013617343605523281   2.6244859033741288e-05
-0.001269875392692665   -0.013688571087748645   -6.694866325522726e-06
-0.0009712832232965492   -0.020521743463605798   -0.00014858642288949423
-0.0050180194617635895   -0.013619497004523905   -9.188898937920938e-05
-0.001269875392692665   -0.013688571087748645   -6.694866325522726e-06
-0.004616518386091935   -0.020564594453178486   -0.00028248880514420614
-0.0009712832232965492   -0.020521743463605798   -0.00014858642288949423
-0.0013330037731587982   -0.013617343605523281   2.6244859033741288e-05
-0.004663535432949022   -0.020505632558436487   -0.0002583463613599272
-0.0010291789060998353   -0.02045477341309838   -0.00012689507854417604
-0.0013330037731587982   -0.013617343605523281   2.6244859033741288e-05
-0.0050180194617635895   -0.013619497004523905   -9.188898937920938e-05
-0.004663535432949022   -0.020505632558436487   -0.0002583463613599272
-0.0050706778905217995   -0.013557154469847803   -6.0016281325327735e-05
-0.0010291789060998353   -0.02045477341309838   -0.00012689507854417604
-0.004713562878230612   -0.020450996438010204   -0.0002305796011176597
-0.0050706778905217995   -0.013557154469847803   -6.0016281325327735e-05
-0.004663535432949022   -0.020505632558436487   -0.0002583463613599272
-0.0010291789060998353   -0.02045477341309838   -0.00012689507854417604
-0.0050706778905217995   -0.013557154469847803   -6.0016281325327735e-05
-0.0013983658128940513   -0.013541778918194062   6.413763550380171e-05
-0.0013330037731587982   -0.013617343605523281   2.6244859033741288e-05
-0.0010291789060998353   -0.02045477341309838   -0.00012689507854417604
-0.0050706778905217995   -0.013557154469847803   -6.0016281325327735e-05
-0.0013330037731587982   -0.013617343605523281   2.6244859033741288e-05
-0.004663535432949022   -0.020505632558436487   -0.0002583463613599272
-0.004570544157782519   -0.020626951069253042   -0.0003030411861124852
-0.004918619262716781   -0.013739436786086374   -0.0001467481546235047
-0.008205914921816361   -0.020578874446530684   -0.0004083274279372112
-0.004616518386091935   -0.020564594453178486   -0.00028248880514420614
-0.004918619262716781   -0.013739436786086374   -0.0001467481546235047
-0.00858260864632883   -0.01373476390381282   -0.0002479673962632246
-0.008205914921816361   -0.020578874446530684   -0.0004083274279372112
-0.008629357456021513   -0.013683318382027142   -0.0002229324968053292
-0.004616518386091935   -0.020564594453178486   -0.00028248880514420614
-0.008251600674308683   -0.020527983181864367   -0.00038047315335159655
-0.008629357456021513   -0.013683318382027142   -0.0002229324968053292
-0.008205914921816361   -0.020578874446530684   -0.0004083274279372112
-0.004616518386091935   -0.020564594453178486   -0.00028248880514420614
-0.008629357456021513   -0.013683318382027142   -0.0002229324968053292
-0.004967464638911301   -0.013680634760892433   -0.00012062722708677784
-0.004918619262716781   -0.013739436786086374   -0.0001467481546235047
-0.004616518386091935   -0.020564594453178486   -0.00028248880514420614
-0.008629357456021513   -0.013683318382027142   -0.0002229324968053292
-0.004918619262716781   -0.013739436786086374   -0.0001467481546235047
-0.008205914921816361   -0.020578874446530684   -0.0004083274279372112
-0.004616518386091935   -0.020564594453178486   -0.00028248880514420614
-0.004967464638911301   -0.013680634760892433   -0.00012062722708677784
-0.008251600674308683   -0.020527983181864367   -0.00038047315335159655
-0.004663535432949022   -0.020505632558436487   -0.0002583463613599272
-0.004967464638911301   -0.013680634760892433   -0.00012062722708677784
-0.008629357456021513   -0.013683318382027142   -0.0002229324968053292
-0.008251600674308683   -0.020527983181864367   -0.00038047315335159655
-0.008673893756054249   -0.013630987027540427   -0.0001956046198967027
-0.004663535432949022   -0.020505632558436487   -0.0002583463613599272
-0.0082943179865277   -0.02048067156013168   -0.0003491512875930847
-0.008673893756054249   -0.013630987027540427   -0.0001956046198967027
-0.008251600674308683   -0.020527983181864367   -0.00038047315335159655
-0.004663535432949022   -0.020505632558436487   -0.0002583463613599272
-0.008673893756054249   -0.013630987027540427   -0.0001956046198967027
-0.0050180194617635895   -0.013619497004523905   -9.188898937920938e-05
-0.004967464638911301   -0.013680634760892433   -0.00012062722708677784
-0.004663535432949022   -0.020505632558436487   -0.0002583463613599272
-0.008673893756054249   -0.013630987027540427   -0.0001956046198967027
-0.004967464638911301   -0.013680634760892433   -0.00012062722708677784
-0.008251600674308683   -0.020527983181864367   -0.00038047315335159655
-0.004663535432949022   -0.020505632558436487   -0.0002583463613599272
-0.0050180194617635895   -0.013619497004523905   -9.188898937920938e-05
-0.0082943179865277   -0.02048067156013168   -0.0003491512875930847
-0.004713562878230612   -0.020450996438010204   -0.0002305796011176597
-0.0050180194617635895   -0.013619497004523905   -9.188898937920938e-05
-0.008673893756054249   -0.013630987027540427   -0.0001956046198967027
-0.0082943179865277   -0.02048067156013168   -0.0003491512875930847
-0.008717984944039898   -0.013577464387905872   -0.0001661097029684522
-0.004713562878230612   -0.020450996438010204   -0.0002305796011176597
-0.008337188511707935   -0.020437067903466766   -0.0003145322311191798
-0.008717984944039898   -0.013577464387905872   -0.0001661097029684522
-0.0082943179865277   -0.02048067156013168   -0.0003491512875930847
-0.004713562878230612   -0.020450996438010204   -0.0002305796011176597
-0.008717984944039898   -0.013577464387905872   -0.0001661097029684522
-0.0050706778905217995   -0.013557154469847803   -6.0016281325327735e-05
-0.0050180194617635895   -0.013619497004523905   -9.188898937920938e-05
-0.004713562878230612   -0.020450996438010204   -0.0002305796011176597
-0.008717984944039898   -0.013577464387905872   -0.0001661097029684522
-0.0050180194617635895   -0.013619497004523905   -9.188898937920938e-05
-0.0082943179865277   -0.02048067156013168   -0.0003491512875930847
-0.008205914921816361   -0.020578874446530684   -0.0004083274279372112
-0.00858260864632883   -0.01373476390381282   -0.0002479673962632246
-0.011907086444522002   -0.020513749533245623   -0.0004937588386007157
-0.008251600674308683   -0.020527983181864367   -0.00038047315335159655
-0.00858260864632883   -0.01373476390381282   -0.0002479673962632246
-0.012324320478148012   -0.013713315093732172   -0.0003327295146882531
-0.011907086444522002   -0.020513749533245623   -0.0004937588386007157
-0.01236888524282133   -0.013671574157479573   -0.00030892168277403385
-0.008251600674308683   -0.020527983181864367   -0.00038047315335159655
-0.011950818157170438   -0.020474917860535936   -0.0004586904353218977
-0.01236888524282133   -0.013671574157479573   -0.00030892168277403385
-0.011907086444522002   -0.020513749533245623   -0.0004937588386007157
-0.008251600674308683   -0.020527983181864367   -0.00038047315335159655
-0.01236888524282133   -0.013671574157479573   -0.00030892168277403385
-0.008629357456021513   -0.013683318382027142   -0.0002229324968053292
-0.00858260864632883   -0.01373476390381282   -0.0002479673962632246
-0.008251600674308683   -0.020527983181864367   -0.00038047315335159655
-0.01236888524282133   -0.013671574157479573   -0.00030892168277403385
-0.00858260864632883   -0.01373476390381282   -0.0002479673962632246
-0.011907086444522002   -0.020513749533245623   -0.0004937588386007157
-0.008251600674308683   -0.020527983181864367   -0.00038047315335159655
-0.008629357456021513   -0.013683318382027142   -0.0002229324968053292
-0.011950818157170438   -0.020474917860535936   -0.0004586904353218977
-0.0082943179865277   -0.02048067156013168   -0.0003491512875930847
-0.008629357456021513   -0.013683318382027142   -0.0002229324968053292
-0.01236888524282133   -0.013671574157479573   -0.00030892168277403385
-0.011950818157170438   -0.020474917860535936   -0.0004586904353218977
-0.012406587563483156   -0.013627559584030217   -0.00028347294652604737
-0.0082943179865277   -0.02048067156013168   -0.0003491512875930847
-0.011983867291224415   -0.020438346673074884   -0.0004207203347189003
-0.012406587563483156   -0.013627559584030217   -0.00028347294652604737
-0.011950818157170438   -0.020474917860535936   -0.0004586904353218977
-0.0082943179865277   -0.02048067156013168   -0.0003491512875930847
-0.012406587563483156   -0.013627559584030217   -0.00028347294652604737
-0.008673893756054249   -0.013630987027540427   -0.0001956046198967027
-0.008629357456021513   -0.013683318382027142   -0.0002229324968053292
-0.0082943179865277   -0.02048067156013168   -0.0003491512875930847
-0.012406587563483156   -0.013627559584030217   -0.00028347294652604737
-0.008629357456021513   -0.013683318382027142   -0.0002229324968053292
-0.011950818157170438   -0.020474917860535936   -0.0004586904353218977
-0.0082943179865277   -0.02048067156013168   -0.0003491512875930847
-0.008673893756054249   -0.013630987027540427   -0.0001956046198967027
-0.011983867291224415   -0.020438346673074884   -0.0004207203347189003
-0.008337188511707935   -0.020437067903466766   -0.0003145322311191798
-0.008673893756054249   -0.013630987027540427   -0.0001956046198967027
-0.012406587563483156   -0.013627559584030217   -0.00028347294652604737
-0.011983867291224415   -0.020438346673074884   -0.0004207203347189003
-0.012442218504537379   -0.013582425333210777   -0.00025568061636320905
-0.008337188511707935   -0.020437067903466766   -0.0003145322311191798
-0.012016683766819957   -0.020405696971944182   -0.0003790970719591678
-0.012442218504537379   -0.013582425333210777   -0.00025568061636320905
-0.011983867291224415   -0.020438346673074884   -0.0004207203347189003
-0.008337188511707935   -0.020437067903466766   -0.0003145322311191798
-0.012442218504537379   -0.013582425333210777   -0.00025568061636320905
-0.008717984944039898   -0.013577464387905872   -0.0001661097029684522
-0.008673893756054249   -0.013630987027540427   -0.0001956046198967027
-0.008337188511707935   -0.020437067903466766   -0.0003145322311191798
-0.012442218504537379   -0.013582425333210777   -0.00025568061636320905
-0.008673893756054249   -0.013630987027540427   -0.0001956046198967027
-0.011983867291224415   -0.020438346673074884   -0.0004207203347189003
-0.011907086444522002   -0.020513749533245623   -0.0004937588386007157
-0.012324320478148012   -0.013713315093732172   -0.0003327295146882531
-0.015830832475189335   -0.020436580740634213   -0.0005568360473377236
-0.011950818157170438   -0.020474917860535936   -0.0004586904353218977
-0.012324320478148012   -0.013713315093732172   -0.0003327295146882531
-0.01624500066528782   -0.013677813927948047   -0.00039502076894955046
-0.015830832475189335   -0.020436580740634213   -0.0005568360473377236
-0.01627239231677692   -0.01364295985815005   -0.00037697979240078637
-0.011950818157170438   -0.020474917860535936   -0.0004586904353218977
-0.015836916346183973   -0.020405770464882622   -0.0005179025202952787
-0.01627239231677692   -0.01364295985815005   -0.00037697979240078637
-0.015830832475189335   -0.020436580740634213   -0.0005568360473377236
-0.011950818157170438   -0.020474917860535936   -0.0004586904353218977
-0.01627239231677692   -0.01364295985815005   -0.00037697979240078637
-0.01236888524282133   -0.013671574157479573   -0.00030892168277403385
-0.012324320478148012   -0.013713315093732172   -0.0003327295146882531
-0.011950818157170438   -0.020474917860535936   -0.0004586904353218977
-0.01627239231677692   -0.01364295985815005   -0.00037697979240078637
-0.012324320478148012   -0.013713315093732172   -0.0003327295146882531
-0.015830832475189335   -0.020436580740634213   -0.0005568360473377236
-0.011950818157170438   -0.020474917860535936   -0.0004586904353218977
-0.01236888524282133   -0.013671574157479573   -0.00030892168277403385
-0.015836916346183973   -0.020405770464882622   -0.0005179025202952787
-0.011983867291224415   -0.020438346673074884   -0.0004207203347189003
-0.01236888524282133   -0.013671574157479573   -0.00030892168277403385
-0.01627239231677692   -0.01364295985815005   -0.00037697979240078637
-0.015836916346183973   -0.020405770464882622   -0.0005179025202952787
-0.016297439030458258   -0.01360344367182426   -0.00035493908476267607
-0.011983867291224415   -0.020438346673074884   -0.0004207203347189003
-0.015843268916294326   -0.02037471843920744   -0.00047313377429499627
-0.016297439030458258   -0.01360344367182426   -0.00035493908476267607
-0.015836916346183973   -0.020405770464882622   -0.0005179025202952787
-0.011983867291224415   -0.020438346673074884   -0.0004207203347189003
-0.016297439030458258   -0.01360344367182426   -0.00035493908476267607
-0.012406587563483156   -0.013627559584030217   -0.00028347294652604737
-0.01236888524282133   -0.013671574157479573   -0.00030892168277403385
-0.011983867291224415   -0.020438346673074884   -0.0004207203347189003
-0.016297439030458258   -0.01360344367182426   -0.00035493908476267607
-0.01236888524282133   -0.013671574157479573   -0.00030892168277403385
-0.015836916346183973   -0.020405770464882622   -0.0005179025202952787
-0.011983867291224415   -0.020438346673074884   -0.0004207203347189003
-0.012406587563483156   -0.013627559584030217   -0.00028347294652604737
-0.015843268916294326   -0.02037471843920744   -0.00047313377429499627
-0.012016683766819957   -0.020405696971944182   -0.0003790970719591678
-0.012406587563483156   -0.013627559584030217   -0.00028347294652604737
-0.016297439030458258   -0.01360344367182426   -0.00035493908476267607
-0.015843268916294326   -0.02037471843920744   -0.00047313377429499627
-0.01630923481758749   -0.013567412228476985   -0.0003298841940590825
-0.012016683766819957   -0.020405696971944182   -0.0003790970719591678
-0.01582739422929292   -0.02035479305683753   -0.00042321800167255375
-0.01630923481758749   -0.013567412228476985   -0.0003298841940590825
-0.015843268916294326   -0.02037471843920744   -0.00047313377429499627
-0.012016683766819957   -0.020405696971944182   -0.0003790970719591678
-0.01630923481758749   -0.013567412228476985   -0.0003298841940590825
-0.012442218504537379   -0.013582425333210777   -0.00025568061636320905
-0.012406587563483156   -0.013627559584030217   -0.00028347294652604737
-0.012016683766819957   -0.020405696971944182   -0.0003790970719591678
-0.01630923481758749   -0.013567412228476985   -0.0003298841940590825
-0.012406587563483156   -0.013627559584030217   -0.00028347294652604737
-0.015843268916294326   -0.02037471843920744   -0.00047313377429499627
0.0027170737955227705   -0.013820520962431202   8.19191264258199e-05
0.0019068940701641305   -0.0069466493011310065   8.839155782844658e-05
-0.0012159572630995067   -0.013756125661144095   -3.462320904291434e-05
0.0026324769979041277   -0.013738799603632161   0.00011640070423408951
0.0019068940701641305   -0.0069466493011310065   8.839155782844658e-05
-0.001764562110103437   -0.006857602912639153   4.664031643211239e-05
-0.0012159572630995067   -0.013756125661144095   -3.462320904291434e-05
-0.0018183310660928895   -0.0068240107052288095   8.565072808636286e-05
0.0026324769979041277   -0.013738799603632161   0.00011640070423408951
-0.001269875392692665   -0.013688571087748645   -6.694866325522726e-06
-0.0018183310660928895   -0.0068240107052288095   8.565072808636286e-05
-0.0012159572630995067   -0.013756125661144095   -3.462320904291434e-05
0.0026324769979041277   -0.013738799603632161   0.00011640070423408951
-0.0018183310660928895   -0.0068240107052288095   8.565072808636286e-05
0.0017391509477286812   -0.006859604885226247   0.0001847598555424172
0.0019068940701641305   -0.0069466493011310065   8.839155782844658e-05
0.0026324769979041277   -0.013738799603632161   0.00011640070423408951
-0.0018183310660928895   -0.0068240107052288095   8.565072808636286e-05
0.0019068940701641305   -0.0069466493011310065   8.839155782844658e-05
-0.0012159572630995067   -0.013756125661144095   -3.462320904291434e-05
0.0026324769979041277   -0.013738799603632161   0.00011640070423408951
0.0017391509477286812   -0.006859604885226247   0.0001847598555424172
-0.001269875392692665   -0.013688571087748645   -6.694866325522726e-06
0.002537757610811692   -0.013657810837664236   0.00016618067390292566
0.0017391509477286812   -0.006859604885226247   0.0001847598555424172
-0.0018183310660928895   -0.0068240107052288095   8.565072808636286e-05
-0.001269875392692665   -0.013688571087748645   -6.694866325522726e-06
-0.0018892279915440945   -0.0067634038636571565   0.0001330870168395236
0.002537757610811692   -0.013657810837664236   0.00016618067390292566
-0.0013330037731587982   -0.013617343605523281   2.6244859033741288e-05
-0.0018892279915440945   -0.0067634038636571565   0.0001330870168395236
-0.001269875392692665   -0.013688571087748645   -6.694866325522726e-06
0.002537757610811692   -0.013657810837664236   0.00016618067390292566
-0.0018892279915440945   -0.0067634038636571565   0.0001330870168395236
0.0016410273799533361   -0.0067887754446057345   0.0002565474085578378
0.0017391509477286812   -0.006859604885226247   0.0001847598555424172
0.002537757610811692   -0.013657810837664236   0.00016618067390292566
-0.0018892279915440945   -0.0067634038636571565   0.0001330870168395236
0.0017391509477286812   -0.006859604885226247   0.0001847598555424172
-0.001269875392692665   -0.013688571087748645   -6.694866325522726e-06
0.002537757610811692   -0.013657810837664236   0.00016618067390292566
0.0016410273799533361   -0.0067887754446057345   0.0002565474085578378
-0.0013330037731587982   -0.013617343605523281   2.6244859033741288e-05
0.0024219956259731467   -0.013558255187404515   0.00022100090151027616
0.0016410273799533361   -0.0067887754446057345   0.0002565474085578378
-0.0018892279915440945   -0.0067634038636571565   0.0001330870168395236
-0.0013330037731587982   -0.013617343605523281   2.6244859033741288e-05
-0.0019489351293893705   -0.00669837846591982   0.00017483067563181471
0.0024219956259731467   -0.013558255187404515   0.00022100090151027616
-0.0013983658128940513   -0.013541778918194062   6.413763550380171e-05
-0.0019489351293893705   -0.00669837846591982   0.00017483067563181471
-0.0013330037731587982   -0.013617343605523281   2.6244859033741288e-05
0.0024219956259731467   -0.013558255187404515   0.00022100090151027616
-0.0019489351293893705   -0.00669837846591982   0.00017483067563181471
0.0015151116658945914   -0.006680176666528069   0.00033880729876498297
0.0016410273799533361   -0.0067887754446057345   0.0002565474085578378
0.0024219956259731467   -0.013558255187404515   0.00022100090151027616
-0.0019489351293893705   -0.00669837846591982   0.00017483067563181471
0.0016410273799533361   -0.0067887754446057345   0.0002565474085578378
-0.0013330037731587982   -0.013617343605523281   2.6244859033741288e-05
-0.0012159572630995067   -0.013756125661144095   -3.462320904291434e-05
-0.001764562110103437   -0.006857602912639153   4.664031643211239e-05
-0.004918619262716781   -0.013739436786086374   -0.0001467481546235047
-0.001269875392692665   -0.013688571087748645   -6.694866325522726e-06
-0.001764562110103437   -0.006857602912639153   4.664031643211239e-05
-0.0052560262261491025   -0.006959696410088838   -4.2040876939506645e-05
-0.004918619262716781   -0.013739436786086374   -0.0001467481546235047
-0.005305740593655279   -0.006907776709199611   -1.4324618806167703e-05
-0.001269875392692665   -0.013688571087748645   -6.694866325522726e-06
-0.004967464638911301   -0.013680634760892433   -0.00012062722708677784
-0.005305740593655279   -0.006907776709199611   -1.4324618806167703e-05
-0.004918619262716781   -0.013739436786086374   -0.0001467481546235047
-0.001269875392692665   -0.013688571087748645   -6.694866325522726e-06
-0.005305740593655279   -0.006907776709199611   -1.4324618806167703e-05
-0.0018183310660928895   -0.0068240107052288095   8.565072808636286e-05
-0.001764562110103437   -0.006857602912639153   4.664031643211239e-05
-0.001269875392692665   -0.013688571087748645   -6.694866325522726e-06
-0.005305740593655279   -0.006907776709199611   -1.4324618806167703e-05
-0.001764562110103437   -0.006857602912639153   4.664031643211239e-05
-0.004918619262716781   -0.013739436786086374   -0.0001467481546235047
-0.001269875392692665   -0.013688571087748645   -6.694866325522726e-06
-0.0018183310660928895   -0.0068240107052288095   8.565072808636286e-05
-0.004967464638911301   -0.013680634760892433   -0.00012062722708677784
-0.0013330037731587982   -0.013617343605523281   2.6244859033741288e-05
-0.0018183310660928895   -0.0068240107052288095   8.565072808636286e-05
-0.005305740593655279   -0.006907776709199611   -1.4324618806167703e-05
-0.004967464638911301   -0.013680634760892433   -0.00012062722708677784
-0.005357889003137071   -0.006849012707662112   1.506377777178129e-05
-0.0013330037731587982   -0.013617343605523281   2.6244859033741288e-05
-0.0050180194617635895   -0.013619497004523905   -9.188898937920938e-05
-0.005357889003137071   -0.006849012707662112   1.506377777178129e-05
-0.004967464638911301   -0.013680634760892433   -0.00012062722708677784
-0.0013330037731587982   -0.013617343605523281   2.6244859033741288e-05
-0.005357889003137071   -0.006849012707662112   1.506377777178129e-05
-0.0018892279915440945   -0.0067634038636571565   0.0001330870168395236
-0.0018183310660928895   -0.0068240107052288095   8.565072808636286e-05
-0.0013330037731587982   -0.013617343605523281   2.6244859033741288e-05
-0.005357889003137071   -0.006849012707662112   1.506377777178129e-05
-0.0018183310660928895   -0.0068240107052288095   8.565072808636286e-05
-0.004967464638911301   -0.013680634760892433   -0.00012062722708677784
-0.0013330037731587982   -0.013617343605523281   2.6244859033741288e-05
-0.0018892279915440945   -0.0067634038636571565   0.0001330870168395236
-0.0050180194617635895   -0.013619497004523905   -9.188898937920938e-05
-0.0013983658128940513   -0.013541778918194062   6.413763550380171e-05
-0.0018892279915440945   -0.0067634038636571565   0.0001330870168395236
-0.005357889003137071   -0.006849012707662112   1.506377777178129e-05
-0.0050180194617635895   -0.013619497004523905   -9.188898937920938e-05
-0.005407547623885903   -0.006784605717300845   4.7507805863292944e-05
-0.0013983658128940513   -0.013541778918194062   6.413763550380171e-05
-0.0050706778905217995   -0.013557154469847803   -6.0016281325327735e-05
-0.005407547623885903   -0.006784605717300845   4.7507805863292944e-05
-0.0050180194617635895   -0.013619497004523905   -9.188898937920938e-05
-0.0013983658128940513   -0.013541778918194062   6.413763550380171e-05
-0.005407547623885903   -0.006784605717300845   4.7507805863292944e-05
-0.0019489351293893705   -0.00669837846591982   0.00017483067563181471
-0.0018892279915440945   -0.0067634038636571565   0.0001330870168395236
-0.0013983658128940513   -0.013541778918194062   6.413763550380171e-05
-0.005407547623885903   -0.006784605717300845   4.7507805863292944e-05
-0.0018892279915440945   -0.0067634038636571565   0.0001330870168395236
-0.0050180194617635895   -0.013619497004523905   -9.188898937920938e-05
-0.004918619262716781   -0.013739436786086374   -0.0001467481546235047
-0.0052560262261491025   -0.006959696410088838   -4.2040876939506645e-05
-0.00858260864632883   -0.01373476390381282   -0.0002479673962632246
-0.004967464638911301   -0.013680634760892433   -0.00012062722708677784
-0.0052560262261491025   -0.006959696410088838   -4.2040876939506645e-05
-0.008831859487775824   -0.007039469968083193   -0.000140684139775116
-0.00858260864632883   -0.01373476390381282   -0.0002479673962632246
-0.008876599977083593   -0.006986124439037666   -0.00011913881882318264
-0.004967464638911301   -0.013680634760892433   -0.00012062722708677784
-0.008629357456021513   -0.013683318382027142   -0.0002229324968053292
-0.008876599977083593   -0.006986124439037666   -0.00011913881882318264
-0.00858260864632883   -0.01373476390381282   -0.0002479673962632246
-0.004967464638911301   -0.013680634760892433   -0.00012062722708677784
-0.008876599977083593   -0.006986124439037666   -0.00011913881882318264
-0.005305740593655279   -0.006907776709199611   -1.4324618806167703e-05
-0.0052560262261491025   -0.006959696410088838   -4.2040876939506645e-05
-0.004967464638911301   -0.013680634760892433   -0.00012062722708677784
-0.008876599977083593   -0.006986124439037666   -0.00011913881882318264
-0.0052560262261491025   -0.006959696410088838   -4.2040876939506645e-05
-0.00858260864632883   -0.01373476390381282   -0.0002479673962632246
-0.004967464638911301   -0.013680634760892433   -0.00012062722708677784
-0.005305740593655279   -0.006907776709199611   -1.4324618806167703e-05
-0.008629357456021513   -0.013683318382027142   -0.0002229324968053292
-0.0050180194617635895   -0.013619497004523905   -9.188898937920938e-05
-0.005305740593655279   -0.006907776709199611   -1.4324618806167703e-05
-0.008876599977083593   -0.006986124439037666   -0.00011913881882318264
-0.008629357456021513   -0.013683318382027142   -0.0002229324968053292
-0.008919487278055967   -0.006929719889774976   -9.762387392937206e-05
-0.0050180194617635895   -0.013619497004523905   -9.188898937920938e-05
-0.008673893756054249   -0.013630987027540427   -0.0001956046198967027
-0.008919487278055967   -0.006929719889774976   -9.762387392937206e-05
-0.008629357456021513   -0.013683318382027142   -0.0002229324968053292
-0.0050180194617635895   -0.013619497004523905   -9.188898937920938e-05
-0.008919487278055967   -0.006929719889774976   -9.762387392937206e-05
-0.005357889003137071   -0.006849012707662112   1.506377777178129e-05
-0.005305740593655279   -0.006907776709199611   -1.4324618806167703e-05
-0.0050180194617635895   -0.013619497004523905   -9.188898937920938e-05
-0.008919487278055967   -0.006929719889774976   -9.762387392937206e-05
-0.005305740593655279   -0.006907776709199611   -1.4324618806167703e-05
-0.008629357456021513   -0.013683318382027142   -0.0002229324968053292
-0.0050180194617635895   -0.013619497004523905   -9.188898937920938e-05
-0.005357889003137071   -0.006849012707662112   1.506377777178129e-05
-0.008673893756054249   -0.013630987027540427   -0.0001956046198967027
-0.0050706778905217995   -0.013557154469847803   -6.0016281325327735e-05
-0.005357889003137071   -0.006849012707662112   1.506377777178129e-05
-0.008919487278055967   -0.006929719889774976   -9.762387392937206e-05
-0.008673893756054249   -0.013630987027540427   -0.0001956046198967027
-0.008959069982572294   -0.006868601721143246   -7.415856297119579e-05
-0.0050706778905217995   -0.013557154469847803   -6.0016281325327735e-05
-0.008717984944039898   -0.013577464387905872   -0.0001661097029684522
-0.008959069982572294   -0.006868601721143246   -7.415856297119579e-05
-0.008673893756054249   -0.013630987027540427   -0.0001956046198967027
-0.0050706778905217995   -0.013557154469847803   -6.0016281325327735e-05
-0.008959069982572294   -0.006868601721143246   -7.415856297119579e-05
-0.005407547623885903   -0.006784605717300845   4.7507805863292944e-05
-0.005357889003137071   -0.006849012707662112   1.506377777178129e-05
-0.0050706778905217995   -0.013557154469847803   -6.0016281325327735e-05
-0.008959069982572294   -0.006868601721143246   -7.415856297119579e-05
-0.005357889003137071   -0.006849012707662112   1.506377777178129e-05
-0.008673893756054249   -0.013630987027540427   -0.0001956046198967027
-0.00858260864632883   -0.01373476390381282   -0.0002479673962632246
-0.008831859487775824   -0.007039469968083193   -0.000140684139775116
-0.012324320478148012   -0.013713315093732172   -0.0003327295146882531
-0.008629357456021513   -0.013683318382027142   -0.0002229324968053292
-0.008831859487775824   -0.007039469968083193   -0.000140684139775116
-0.012533334005349258   -0.007072265641830693   -0.00023166660507573206
-0.012324320478148012   -0.013713315093732172   -0.0003327295146882531
-0.012573661127586972   -0.007024456974296758   -0.00021590525563813665
-0.008629357456021513   -0.013683318382027142   -0.0002229324968053292
-0.01236888524282133   -0.013671574157479573   -0.00030892168277403385
-0.012573661127586972   -0.007024456974296758   -0.00021590525563813665
-0.012324320478148012   -0.013713315093732172   -0.0003327295146882531
-0.008629357456021513   -0.013683318382027142   -0.0002229324968053292
-0.012573661127586972   -0.007024456974296758   -0.00021590525563813665
-0.008876599977083593   -0.006986124439037666   -0.00011913881882318264
-0.008831859487775824   -0.007039469968083193   -0.000140684139775116
-0.008629357456021513   -0.013683318382027142   -0.0002229324968053292
-0.012573661127586972   -0.007024456974296758   -0.00021590525563813665
-0.008831859487775824   -0.007039469968083193   -0.000140684139775116
-0.012324320478148012   -0.013713315093732172   -0.0003327295146882531
-0.008629357456021513   -0.013683318382027142   -0.0002229324968053292
-0.008876599977083593   -0.006986124439037666   -0.00011913881882318264
-0.01236888524282133   -0.013671574157479573   -0.00030892168277403385
-0.008673893756054249   -0.013630987027540427   -0.0001956046198967027
-0.008876599977083593   -0.006986124439037666   -0.00011913881882318264
-0.012573661127586972   -0.007024456974296758   -0.00021590525563813665
-0.01236888524282133   -0.013671574157479573   -0.00030892168277403385
-0.012609600895204753   -0.006972301515727041   -0.00020055705644319915
-0.008673893756054249   -0.013630987027540427   -0.0001956046198967027
-0.012406587563483156   -0.013627559584030217   -0.00028347294652604737
-0.012609600895204753   -0.006972301515727041   -0.00020055705644319915
-0.01236888524282133   -0.013671574157479573   -0.00030892168277403385
-0.008673893756054249   -0.013630987027540427   -0.0001956046198967027
-0.012609600895204753   -0.006972301515727041   -0.00020055705644319915
-0.008919487278055967   -0.006929719889774976   -9.762387392937206e-05
-0.008876599977083593   -0.006986124439037666   -0.00011913881882318264
-0.008673893756054249   -0.013630987027540427   -0.0001956046198967027
-0.012609600895204753   -0.006972301515727041   -0.00020055705644319915
-0.008876599977083593   -0.006986124439037666   -0.00011913881882318264
-0.01236888524282133   -0.013671574157479573   -0.00030892168277403385
-0.008673893756054249   -0.013630987027540427   -0.0001956046198967027
-0.008919487278055967   -0.006929719889774976   -9.762387392937206e-05
-0.012406587563483156   -0.013627559584030217   -0.00028347294652604737
-0.008717984944039898   -0.013577464387905872   -0.0001661097029684522
-0.008919487278055967   -0.006929719889774976   -9.762387392937206e-05
-0.012609600895204753   -0.006972301515727041   -0.00020055705644319915
-0.012406587563483156   -0.013627559584030217   -0.00028347294652604737
-0.012642160618970524   -0.006916741554832702   -0.00018471084800910343
-0.008717984944039898   -0.013577464387905872   -0.0001661097029684522
-0.012442218504537379   -0.013582425333210777   -0.00025568061636320905
-0.012642160618970524   -0.006916741554832702   -0.00018471084800910343
-0.012406587563483156   -0.013627559584030217   -0.00028347294652604737
-0.008717984944039898   -0.013577464387905872   -0.0001661097029684522
-0.012642160618970524   -0.006916741554832702   -0.00018471084800910343
-0.008959069982572294   -0.006868601721143246   -7.415856297119579e-05
-0.008919487278055967   -0.006929719889774976   -9.762387392937206e-05
-0.008717984944039898   -0.013577464387905872   -0.0001661097029684522
-0.012642160618970524   -0.006916741554832702   -0.00018471084800910343
-0.008919487278055967   -0.006929719889774976   -9.762387392937206e-05
-0.012406587563483156   -0.013627559584030217   -0.00028347294652604737
-0.012324320478148012   -0.013713315093732172   -0.0003327295146882531
-0.012533334005349258   -0.007072265641830693   -0.00023166660507573206
-0.01624500066528782   -0.013677813927948047   -0.00039502076894955046
-0.01236888524282133   -0.013671574157479573   -0.00030892168277403385
-0.012533334005349258   -0.007072265641830693   -0.00023166660507573206
-0.016367741254817363   -0.007075835806067474   -0.00030692015107875207
-0.01624500066528782   -0.013677813927948047   -0.00039502076894955046
-0.016402302125605225   -0.007029476425583946   -0.0003000471645547142
-0.01236888524282133   -0.013671574157479573   -0.00030892168277403385
-0.01627239231677692   -0.01364295985815005   -0.00037697979240078637
-0.016402302125605225   -0.007029476425583946   -0.0003000471645547142
-0.01624500066528782   -0.013677813927948047   -0.00039502076894955046
-0.01236888524282133   -0.013671574157479573   -0.00030892168277403385
-0.016402302125605225   -0.007029476425583946   -0.0003000471645547142
-0.012573661127586972   -0.007024456974296758   -0.00021590525563813665
-0.012533334005349258   -0.007072265641830693   -0.00023166660507573206
-0.01236888524282133   -0.013671574157479573   -0.00030892168277403385
-0.016402302125605225   -0.007029476425583946   -0.0003000471645547142
-0.012533334005349258   -0.007072265641830693   -0.00023166660507573206
-0.01624500066528782   -0.013677813927948047   -0.00039502076894955046
-0.01236888524282133   -0.013671574157479573   -0.00030892168277403385
-0.012573661127586972   -0.007024456974296758   -0.00021590525563813665
-0.01627239231677692   -0.01364295985815005   -0.00037697979240078637
-0.012406587563483156   -0.013627559584030217   -0.00028347294652604737
-0.012573661127586972   -0.007024456974296758   -0.00021590525563813665
-0.016402302125605225   -0.007029476425583946   -0.0003000471645547142
-0.01627239231677692   -0.01364295985815005   -0.00037697979240078637
-0.016433265749711334   -0.006979269050412743   -0.0002919891271953627
-0.012406587563483156   -0.013627559584030217   -0.00028347294652604737
-0.016297439030458258   -0.01360344367182426   -0.00035493908476267607
-0.016433265749711334   -0.006979269050412743   -0.0002919891271953627
-0.01627239231677692   -0.01364295985815005   -0.00037697979240078637
-0.012406587563483156   -0.013627559584030217   -0.00028347294652604737
-0.016433265749711334   -0.006979269050412743   -0.0002919891271953627
-0.012609600895204753   -0.006972301515727041   -0.00020055705644319915
-0.012573661127586972   -0.007024456974296758   -0.00021590525563813665
-0.012406587563483156   -0.013627559584030217   -0.00028347294652604737
-0.016433265749711334   -0.006979269050412743   -0.0002919891271953627
-0.012573661127586972   -0.007024456974296758   -0.00021590525563813665
-0.01627239231677692   -0.01364295985815005   -0.00037697979240078637
-0.012406587563483156   -0.013627559584030217   -0.00028347294652604737
-0.012609600895204753   -0.006972301515727041   -0.00020055705644319915
-0.016297439030458258   -0.01360344367182426   -0.00035493908476267607
-0.012442218504537379   -0.013582425333210777   -0.00025568061636320905
-0.012609600895204753   -0.006972301515727041   -0.00020055705644319915
-0.016433265749711334   -0.006979269050412743   -0.0002919891271953627
-0.016297439030458258   -0.01360344367182426   -0.00035493908476267607
-0.016459190086472432   -0.006926120121152155   -0.0002844271513389081
-0.012442218504537379   -0.013582425333210777   -0.00025568061636320905
-0.01630923481758749   -0.013567412228476985   -0.0003298841940590825
-0.016459190086472432   -0.006926120121152155   -0.0002844271513389081
-0.016297439030458258   -0.01360344367182426   -0.00035493908476267607
-0.012442218504537379   -0.013582425333210777   -0.00025568061636320905
-0.016459190086472432   -0.006926120121152155   -0.0002844271513389081
-0.012642160618970524   -0.006916741554832702   -0.00018471084800910343
-0.012609600895204753   -0.006972301515727041   -0.00020055705644319915
-0.012442218504537379   -0.013582425333210777   -0.00025568061636320905
-0.016459190086472432   -0.006926120121152155   -0.0002844271513389081
-0.012609600895204753   -0.006972301515727041   -0.00020055705644319915
-0.016297439030458258   -0.01360344367182426   -0.00035493908476267607
0.0019068940701641305   -0.0069466493011310065   8.839155782844658e-05
0.0   0.0   0.0
-0.001764562110103437   -0.006857602912639153   4.664031643211239e-05
0.0017391509477286812   -0.006859604885226247   0.0001847598555424172
0.0   0.0   0.0
-0.0022116546505558726   -0.0005667329328634009   -1.722051142021358e-05
-0.001764562110103437   -0.006857602912639153   4.664031643211239e-05
-0.0023439230817245346   -0.00044164782638606546   5.957225893569498e-05
0.0017391509477286812   -0.006859604885226247   0.0001847598555424172
-0.0018183310660928895   -0.0068240107052288095   8.565072808636286e-05
-0.0023439230817245346   -0.00044164782638606546   5.957225893569498e-05
-0.001764562110103437   -0.006857602912639153   4.664031643211239e-05
0.0017391509477286812   -0.006859604885226247   0.0001847598555424172
-0.0023439230817245346   -0.00044164782638606546   5.957225893569498e-05
0.0   0.0   0.0
0.0   0.0   0.0
0.0017391509477286812   -0.006859604885226247   0.0001847598555424172
-0.0023439230817245346   -0.00044164782638606546   5.957225893569498e-05
0.0   0.0   0.0
-0.001764562110103437   -0.006857602912639153   4.664031643211239e-05
0.0017391509477286812   -0.006859604885226247   0.0001847598555424172
0.0   0.0   0.0
-0.0018183310660928895   -0.0068240107052288095   8.565072808636286e-05
0.0016410273799533361   -0.0067887754446057345   0.0002565474085578378
0.0   0.0   0.0
-0.0023439230817245346   -0.00044164782638606546   5.957225893569498e-05
-0.0018183310660928895   -0.0068240107052288095   8.565072808636286e-05
-0.0024271143261512195   -0.00038152897932304444   0.00010410154135091974
0.0016410273799533361   -0.0067887754446057345   0.0002565474085578378
-0.0018892279915440945   -0.0067634038636571565   0.0001330870168395236
-0.0024271143261512195   -0.00038152897932304444   0.00010410154135091974
-0.0018183310660928895   -0.0068240107052288095   8.565072808636286e-05
0.0016410273799533361   -0.0067887754446057345   0.0002565474085578378
-0.0024271143261512195   -0.00038152897932304444   0.00010410154135091974
0.0   0.0   0.0
0.0   0.0   0.0
0.0016410273799533361   -0.0067887754446057345   0.0002565474085578378
-0.0024271143261512195   -0.00038152897932304444   0.00010410154135091974
0.0   0.0   0.0
-0.0018183310660928895   -0.0068240107052288095   8.565072808636286e-05
0.0016410273799533361   -0.0067887754446057345   0.0002565474085578378
0.0   0.0   0.0
-0.0018892279915440945   -0.0067634038636571565   0.0001330870168395236
0.0015151116658945914   -0.006680176666528069   0.00033880729876498297
0.0   0.0   0.0
-0.0024271143261512195   -0.00038152897932304444   0.00010410154135091974
-0.0018892279915440945   -0.0067634038636571565   0.0001330870168395236
-0.0025389656991478063   -0.00030159273233654763   0.0001552521393494325
0.0015151116658945914   -0.006680176666528069   0.00033880729876498297
-0.0019489351293893705   -0.00669837846591982   0.00017483067563181471
-0.0025389656991478063   -0.00030159273233654763   0.0001552521393494325
-0.0018892279915440945   -0.0067634038636571565   0.0001330870168395236
0.0015151116658945914   -0.006680176666528069   0.00033880729876498297
-0.0025389656991478063   -0.00030159273233654763   0.0001552521393494325
0.0   0.0   0.0
0.0   0.0   0.0
0.0015151116658945914   -0.006680176666528069   0.00033880729876498297
-0.0025389656991478063   -0.00030159273233654763   0.0001552521393494325
0.0   0.0   0.0
-0.0018892279915440945   -0.0067634038636571565   0.0001330870168395236
-0.001764562110103437   -0.006857602912639153   4.664031643211239e-05
-0.0022116546505558726   -0.0005667329328634009   -1.722051142021358e-05
-0.0052560262261491025   -0.006959696410088838   -4.2040876939506645e-05
-0.0018183310660928895   -0.0068240107052288095   8.565072808636286e-05
-0.0022116546505558726   -0.0005667329328634009   -1.722051142021358e-05
-0.0054114165993216995   -0.0007445315185087994   -1.4194482834332281e-05
-0.0052560262261491025   -0.006959696410088838   -4.2040876939506645e-05
-0.005479809400269728   -0.0006764953784561676   5.755553022494898e-06
-0.0018183310660928895   -0.0068240107052288095   8.565072808636286e-05
-0.005305740593655279   -0.006907776709199611   -1.4324618806167703e-05
-0.005479809400269728   -0.0006764953784561676   5.755553022494898e-06
-0.0052560262261491025   -0.006959696410088838   -4.2040876939506645e-05
-0.0018183310660928895   -0.0068240107052288095   8.565072808636286e-05
-0.005479809400269728   -0.0006764953784561676   5.755553022494898e-06
-0.0023439230817245346   -0.00044164782638606546   5.957225893569498e-05
-0.0022116546505558726   -0.0005667329328634009   -1.722051142021358e-05
-0.0018183310660928895   -0.0068240107052288095   8.565072808636286e-05
-0.005479809400269728   -0.0006764953784561676   5.755553022494898e-06
-0.0022116546505558726   -0.0005667329328634009   -1.722051142021358e-05
-0.0052560262261491025   -0.006959696410088838   -4.2040876939506645e-05
-0.0018183310660928895   -0.0068240107052288095   8.565072808636286e-05
-0.0023439230817245346   -0.00044164782638606546   5.957225893569498e-05
-0.005305740593655279   -0.006907776709199611   -1.4324618806167703e-05
-0.0018892279915440945   -0.0067634038636571565   0.0001330870168395236
-0.0023439230817245346   -0.00044164782638606546   5.957225893569498e-05
-0.005479809400269728   -0.0006764953784561676   5.755553022494898e-06
-0.005305740593655279   -0.006907776709199611   -1.4324618806167703e-05
-0.005547997574888948   -0.0005968034918862287   4.129050643765613e-05
-0.0018892279915440945   -0.0067634038636571565   0.0001330870168395236
-0.005357889003137071   -0.006849012707662112   1.506377777178129e-05
-0.005547997574888948   -0.0005968034918862287   4.129050643765613e-05
-0.005305740593655279   -0.006907776709199611   -1.4324618806167703e-05
-0.0018892279915440945   -0.0067634038636571565   0.0001330870168395236
-0.005547997574888948   -0.0005968034918862287   4.129050643765613e-05
-0.0024271143261512195   -0.00038152897932304444   0.00010410154135091974
-0.0023439230817245346   -0.00044164782638606546   5.957225893569498e-05
-0.0018892279915440945   -0.0067634038636571565   0.0001330870168395236
-0.005547997574888948   -0.0005968034918862287   4.129050643765613e-05
-0.0023439230817245346   -0.00044164782638606546   5.957225893569498e-05
-0.005305740593655279   -0.006907776709199611   -1.4324618806167703e-05
-0.0018892279915440945   -0.0067634038636571565   0.0001330870168395236
-0.0024271143261512195   -0.00038152897932304444   0.00010410154135091974
-0.005357889003137071   -0.006849012707662112   1.506377777178129e-05
-0.0019489351293893705   -0.00669837846591982   0.00017483067563181471
-0.0024271143261512195   -0.00038152897932304444   0.00010410154135091974
-0.005547997574888948   -0.0005968034918862287   4.129050643765613e-05
-0.005357889003137071   -0.006849012707662112   1.506377777178129e-05
-0.005623828218514429   -0.0005044699479693954   7.544044515986784e-05
-0.0019489351293893705   -0.00669837846591982   0.00017483067563181471
-0.005407547623885903   -0.006784605717300845   4.7507805863292944e-05
-0.005623828218514429   -0.0005044699479693954   7.544044515986784e-05
-0.005357889003137071   -0.006849012707662112   1.506377777178129e-05
-0.0019489351293893705   -0.00669837846591982   0.00017483067563181471
-0.005623828218514429   -0.0005044699479693954   7.544044515986784e-05
-0.0025389656991478063   -0.00030159273233654763   0.0001552521393494325
-0.0024271143261512195   -0.00038152897932304444   0.00010410154135091974
-0.0019489351293893705   -0.00669837846591982   0.00017483067563181471
-0.005623828218514429   -0.0005044699479693954   7.544044515986784e-05
-0.0024271143261512195   -0.00038152897932304444   0.00010410154135091974
-0.005357889003137071   -0.006849012707662112   1.506377777178129e-05
-0.0052560262261491025   -0.006959696410088838   -4.2040876939506645e-05
-0.0054114165993216995   -0.0007445315185087994   -1.4194482834332281e-05
-0.008831859487775824   -0.007039469968083193   -0.000140684139775116
-0.005305740593655279   -0.006907776709199611   -1.4324618806167703e-05
-0.0054114165993216995   -0.0007445315185087994   -1.4194482834332281e-05
-0.008918772489796015   -0.0007953998451474759   -7.588928990401584e-05
-0.008831859487775824   -0.007039469968083193   -0.000140684139775116
-0.008960392143441128   -0.0007426875915650649   -7.025972139139358e-05
-0.005305740593655279   -0.006907776709199611   -1.4324618806167703e-05
-0.008876599977083593   -0.006986124439037666   -0.00011913881882318264
-0.008960392143441128   -0.0007426875915650649   -7.025972139139358e-05
-0.008831859487775824   -0.007039469968083193   -0.000140684139775116
-0.005305740593655279   -0.006907776709199611   -1.4324618806167703e-05
-0.008960392143441128   -0.0007426875915650649   -7.025972139139358e-05
-0.005479809400269728   -0.0006764953784561676   5.755553022494898e-06
-0.0054114165993216995   -0.0007445315185087994   -1.4194482834332281e-05
-0.005305740593655279   -0.006907776709199611   -1.4324618806167703e-05
-0.008960392143441128   -0.0007426875915650649   -7.025972139139358e-05
-0.0054114165993216995   -0.0007445315185087994   -1.4194482834332281e-05
-0.008831859487775824   -0.007039469968083193   -0.000140684139775116
-0.005305740593655279   -0.006907776709199611   -1.4324618806167703e-05
-0.005479809400269728   -0.0006764953784561676   5.755553022494898e-06
-0.008876599977083593   -0.006986124439037666   -0.00011913881882318264
-0.005357889003137071   -0.006849012707662112   1.506377777178129e-05
-0.005479809400269728   -0.0006764953784561676   5.755553022494898e-06
-0.008960392143441128   -0.0007426875915650649   -7.025972139139358e-05
-0.008876599977083593   -0.006986124439037666   -0.00011913881882318264
-0.009003690677299411   -0.0006813371487000722   -6.043936678146317e-05
-0.005357889003137071   -0.006849012707662112   1.506377777178129e-05
-0.008919487278055967   -0.006929719889774976   -9.762387392937206e-05
-0.009003690677299411   -0.0006813371487000722   -6.043936678146317e-05
-0.008876599977083593   -0.006986124439037666   -0.00011913881882318264
-0.005357889003137071   -0.006849012707662112   1.506377777178129e-05
-0.009003690677299411   -0.0006813371487000722   -6.043936678146317e-05
-0.005547997574888948   -0.0005968034918862287   4.129050643765613e-05
-0.005479809400269728   -0.0006764953784561676   5.755553022494898e-06
-0.005357889003137071   -0.006849012707662112   1.506377777178129e-05
-0.009003690677299411   -0.0006813371487000722   -6.043936678146317e-05
-0.005479809400269728   -0.0006764953784561676   5.755553022494898e-06
-0.008876599977083593   -0.006986124439037666   -0.00011913881882318264
-0.005357889003137071   -0.006849012707662112   1.506377777178129e-05
-0.005547997574888948   -0.0005968034918862287   4.129050643765613e-05
-0.008919487278055967   -0.006929719889774976   -9.762387392937206e-05
-0.005407547623885903   -0.006784605717300845   4.7507805863292944e-05
-0.005547997574888948   -0.0005968034918862287   4.129050643765613e-05
-0.009003690677299411   -0.0006813371487000722   -6.043936678146317e-05
-0.008919487278055967   -0.006929719889774976   -9.762387392937206e-05
-0.009045040910317865   -0.0006064103199928283   -4.744500563861166e-05
-0.005407547623885903   -0.006784605717300845   4.7507805863292944e-05
-0.008959069982572294   -0.006868601721143246   -7.415856297119579e-05
-0.009045040910317865   -0.0006064103199928283   -4.744500563861166e-05
-0.008919487278055967   -0.006929719889774976   -9.762387392937206e-05
-0.005407547623885903   -0.006784605717300845   4.7507805863292944e-05
-0.009045040910317865   -0.0006064103199928283   -4.744500563861166e-05
-0.005623828218514429   -0.0005044699479693954   7.544044515986784e-05
-0.005547997574888948   -0.0005968034918862287   4.129050643765613e-05
-0.005407547623885903   -0.006784605717300845   4.7507805863292944e-05
-0.009045040910317865   -0.0006064103199928283   -4.744500563861166e-05
-0.005547997574888948   -0.0005968034918862287   4.129050643765613e-05
-0.008919487278055967   -0.006929719889774976   -9.762387392937206e-05
-0.008831859487775824   -0.007039469968083193   -0.000140684139775116
-0.008918772489796015   -0.0007953998451474759   -7.588928990401584e-05
-0.012533334005349258   -0.007072265641830693   -0.00023166660507573206
-0.008876599977083593   -0.006986124439037666   -0.00011913881882318264
-0.008918772489796015   -0.0007953998451474759   -7.588928990401584e-05
-0.012598386157125625   -0.0007880107703562592   -0.00016550120263959589
-0.012533334005349258   -0.007072265641830693   -0.00023166660507573206
-0.012626528681122762   -0.0007408980127171897   -0.00016307536547836076
-0.008876599977083593   -0.006986124439037666   -0.00011913881882318264
-0.012573661127586972   -0.007024456974296758   -0.00021590525563813665
-0.012626528681122762   -0.0007408980127171897   -0.00016307536547836076
-0.012533334005349258   -0.007072265641830693   -0.00023166660507573206
-0.008876599977083593   -0.006986124439037666   -0.00011913881882318264
-0.012626528681122762   -0.0007408980127171897   -0.00016307536547836076
-0.008960392143441128   -0.0007426875915650649   -7.025972139139358e-05
-0.008918772489796015   -0.0007953998451474759   -7.588928990401584e-05
-0.008876599977083593   -0.006986124439037666   -0.00011913881882318264
-0.012626528681122762   -0.0007408980127171897   -0.00016307536547836076
-0.008918772489796015   -0.0007953998451474759   -7.588928990401584e-05
-0.012533334005349258   -0.007072265641830693   -0.00023166660507573206
-0.008876599977083593   -0.006986124439037666   -0.00011913881882318264
-0.008960392143441128   -0.0007426875915650649   -7.025972139139358e-05
-0.012573661127586972   -0.007024456974296758   -0.00021590525563813665
-0.008919487278055967   -0.006929719889774976   -9.762387392937206e-05
-0.008960392143441128   -0.0007426875915650649   -7.025972139139358e-05
-0.012626528681122762   -0.0007408980127171897   -0.00016307536547836076
-0.012573661127586972   -0.007024456974296758   -0.00021590525563813665
-0.012655882045600047   -0.0006882951960623812   -0.00016130056547503975
-0.008919487278055967   -0.006929719889774976   -9.762387392937206e-05
-0.012609600895204753   -0.006972301515727041   -0.00020055705644319915
-0.012655882045600047   -0.0006882951960623812   -0.00016130056547503975
-0.012573661127586972   -0.007024456974296758   -0.00021590525563813665
-0.008919487278055967   -0.006929719889774976   -9.762387392937206e-05
-0.012655882045600047   -0.0006882951960623812   -0.00016130056547503975
-0.009003690677299411   -0.0006813371487000722   -6.043936678146317e-05
-0.008960392143441128   -0.0007426875915650649   -7.025972139139358e-05
-0.008919487278055967   -0.006929719889774976   -9.762387392937206e-05
-0.012655882045600047   -0.0006882951960623812   -0.00016130056547503975
-0.008960392143441128   -0.0007426875915650649   -7.025972139139358e-05
-0.012573661127586972   -0.007024456974296758   -0.00021590525563813665
-0.008919487278055967   -0.006929719889774976   -9.762387392937206e-05
-0.009003690677299411   -0.0006813371487000722   -6.043936678146317e-05
-0.012609600895204753   -0.006972301515727041   -0.00020055705644319915
-0.008959069982572294   -0.006868601721143246   -7.415856297119579e-05
-0.009003690677299411   -0.0006813371487000722   -6.043936678146317e-05
-0.012655882045600047   -0.0006882951960623812   -0.00016130056547503975
-0.012609600895204753   -0.006972301515727041   -0.00020055705644319915
-0.012678353382790273   -0.0006311733449006237   -0.00016029349054424018
-0.008959069982572294   -0.006868601721143246   -7.415856297119579e-05
-0.012642160618970524   -0.006916741554832702   -0.00018471084800910343
-0.012678353382790273   -0.0006311733449006237   -0.00016029349054424018
-0.012609600895204753   -0.006972301515727041   -0.00020055705644319915
-0.008959069982572294   -0.006868601721143246   -7.415856297119579e-05
-0.012678353382790273   -0.0006311733449006237   -0.00016029349054424018
-0.009045040910317865   -0.0006064103199928283   -4.744500563861166e-05
-0.009003690677299411   -0.0006813371487000722   -6.043936678146317e-05
-0.008959069982572294   -0.006868601721143246   -7.415856297119579e-05
-0.012678353382790273   -0.0006311733449006237   -0.00016029349054424018
-0.009003690677299411   -0.0006813371487000722   -6.043936678146317e-05
-0.012609600895204753   -0.006972301515727041   -0.00020055705644319915
-0.012533334005349258   -0.007072265641830693   -0.00023166660507573206
-0.012598386157125625   -0.0007880107703562592   -0.00016550120263959589
-0.016367741254817363   -0.007075835806067474   -0.00030692015107875207
-0.012573661127586972   -0.007024456974296758   -0.00021590525563813665
-0.012598386157125625   -0.0007880107703562592   -0.00016550120263959589
-0.016380381405667672   -0.000782552197799996   -0.00025380147563508113
-0.016367741254817363   -0.007075835806067474   -0.00030692015107875207
-0.01640299717606228   -0.0007315059568949784   -0.0002537052634462147
-0.012573661127586972   -0.007024456974296758   -0.00021590525563813665
-0.016402302125605225   -0.007029476425583946   -0.0003000471645547142
-0.01640299717606228   -0.0007315059568949784   -0.0002537052634462147
-0.016367741254817363   -0.007075835806067474   -0.00030692015107875207
-0.012573661127586972   -0.007024456974296758   -0.00021590525563813665
-0.01640299717606228   -0.0007315059568949784   -0.0002537052634462147
-0.012626528681122762   -0.0007408980127171897   -0.00016307536547836076
-0.012598386157125625   -0.0007880107703562592   -0.00016550120263959589
-0.012573661127586972   -0.007024456974296758   -0.00021590525563813665
-0.01640299717606228   -0.0007315059568949784   -0.0002537052634462147
-0.012598386157125625   -0.0007880107703562592   -0.00016550120263959589
-0.016367741254817363   -0.007075835806067474   -0.00030692015107875207
-0.012573661127586972   -0.007024456974296758   -0.00021590525563813665
-0.012626528681122762   -0.0007408980127171897   -0.00016307536547836076
-0.016402302125605225   -0.007029476425583946   -0.0003000471645547142
-0.012609600895204753   -0.006972301515727041   -0.00020055705644319915
-0.012626528681122762   -0.0007408980127171897   -0.00016307536547836076
-0.01640299717606228   -0.0007315059568949784   -0.0002537052634462147
-0.016402302125605225   -0.007029476425583946   -0.0003000471645547142
-0.016427808144595536   -0.0006803990763817969   -0.0002575980251467129
-0.012609600895204753   -0.006972301515727041   -0.00020055705644319915
-0.016433265749711334   -0.006979269050412743   -0.0002919891271953627
-0.016427808144595536   -0.0006803990763817969   -0.0002575980251467129
-0.016402302125605225   -0.007029476425583946   -0.0003000471645547142
-0.012609600895204753   -0.006972301515727041   -0.00020055705644319915
-0.016427808144595536   -0.0006803990763817969   -0.0002575980251467129
-0.012655882045600047   -0.0006882951960623812   -0.00016130056547503975
-0.012626528681122762   -0.0007408980127171897   -0.00016307536547836076
-0.012609600895204753   -0.006972301515727041   -0.00020055705644319915
-0.016427808144595536   -0.0006803990763817969   -0.0002575980251467129
-0.012626528681122762   -0.0007408980127171897   -0.00016307536547836076
-0.016402302125605225   -0.007029476425583946   -0.0003000471645547142
-0.012609600895204753   -0.006972301515727041   -0.00020055705644319915
-0.012655882045600047   -0.0006882951960623812   -0.00016130056547503975
-0.016433265749711334   -0.006979269050412743   -0.0002919891271953627
-0.012642160618970524   -0.006916741554832702   -0.00018471084800910343
-0.012655882045600047   -0.0006882951960623812   -0.00016130056547503975
-0.016427808144595536   -0.0006803990763817969   -0.0002575980251467129
-0.016433265749711334   -0.006979269050412743   -0.0002919891271953627
-0.016446145124590122   -0.00062468046447894   -0.00026171083208447875
-0.012642160618970524   -0.006916741554832702   -0.00018471084800910343
-0.016459190086472432   -0.006926120121152155   -0.0002844271513389081
-0.016446145124590122   -0.00062468046447894   -0.00026171083208447875
-0.016433265749711334   -0.006979269050412743   -0.0002919891271953627
-0.012642160618970524   -0.006916741554832702   -0.00018471084800910343
-0.016446145124590122   -0.00062468046447894   -0.00026171083208447875
-0.012678353382790273   -0.0006311733449006237   -0.00016029349054424018
-0.012655882045600047   -0.0006882951960623812   -0.00016130056547503975
-0.012642160618970524   -0.006916741554832702   -0.00018471084800910343
-0.016446145124590122   -0.00062468046447894   -0.00026171083208447875
-0.012655882045600047   -0.0006882951960623812   -0.00016130056547503975
-0.016433265749711334   -0.006979269050412743   -0.0002919891271953627
              </DataArray>   
          </PointData>  
       </Piece>  
   </UnstructuredGrid> 
</VTKFile> 
