<?xml version="1.0"?> 
<VTKFile type="UnstructuredGrid"> 
   <UnstructuredGrid> 
      <Piece NumberOfPoints="6000"  NumberOfCells="1500">  
          <Points>  
             <DataArray type="Float64" NumberOfComponents="3" format="ascii">   
-500.0   0.0   0.0
-450.0   0.0   0.0
-500.0   30.0   0.0
-500.0   0.0   16.666666666666668
-450.0   0.0   0.0
-450.0   30.0   0.0
-500.0   30.0   0.0
-450.0   30.0   16.666666666666668
-500.0   0.0   16.666666666666668
-500.0   30.0   16.666666666666668
-450.0   30.0   16.666666666666668
-500.0   30.0   0.0
-500.0   0.0   16.666666666666668
-450.0   30.0   16.666666666666668
-450.0   0.0   16.666666666666668
-450.0   0.0   0.0
-500.0   0.0   16.666666666666668
-450.0   30.0   16.666666666666668
-450.0   0.0   0.0
-500.0   30.0   0.0
-500.0   0.0   16.666666666666668
-450.0   0.0   16.666666666666668
-500.0   30.0   16.666666666666668
-500.0   0.0   33.333333333333336
-450.0   0.0   16.666666666666668
-450.0   30.0   16.666666666666668
-500.0   30.0   16.666666666666668
-450.0   30.0   33.333333333333336
-500.0   0.0   33.333333333333336
-500.0   30.0   33.333333333333336
-450.0   30.0   33.333333333333336
-500.0   30.0   16.666666666666668
-500.0   0.0   33.333333333333336
-450.0   30.0   33.333333333333336
-450.0   0.0   33.333333333333336
-450.0   0.0   16.666666666666668
-500.0   0.0   33.333333333333336
-450.0   30.0   33.333333333333336
-450.0   0.0   16.666666666666668
-500.0   30.0   16.666666666666668
-500.0   0.0   33.333333333333336
-450.0   0.0   33.333333333333336
-500.0   30.0   33.333333333333336
-500.0   0.0   50.0
-450.0   0.0   33.333333333333336
-450.0   30.0   33.333333333333336
-500.0   30.0   33.333333333333336
-450.0   30.0   50.0
-500.0   0.0   50.0
-500.0   30.0   50.0
-450.0   30.0   50.0
-500.0   30.0   33.333333333333336
-500.0   0.0   50.0
-450.0   30.0   50.0
-450.0   0.0   50.0
-450.0   0.0   33.333333333333336
-500.0   0.0   50.0
-450.0   30.0   50.0
-450.0   0.0   33.333333333333336
-500.0   30.0   33.333333333333336
-500.0   30.0   0.0
-450.0   30.0   0.0
-500.0   60.0   0.0
-500.0   30.0   16.666666666666668
-450.0   30.0   0.0
-450.0   60.0   0.0
-500.0   60.0   0.0
-450.0   60.0   16.666666666666668
-500.0   30.0   16.666666666666668
-500.0   60.0   16.666666666666668
-450.0   60.0   16.666666666666668
-500.0   60.0   0.0
-500.0   30.0   16.666666666666668
-450.0   60.0   16.666666666666668
-450.0   30.0   16.666666666666668
-450.0   30.0   0.0
-500.0   30.0   16.666666666666668
-450.0   60.0   16.666666666666668
-450.0   30.0   0.0
-500.0   60.0   0.0
-500.0   30.0   16.666666666666668
-450.0   30.0   16.666666666666668
-500.0   60.0   16.666666666666668
-500.0   30.0   33.333333333333336
-450.0   30.0   16.666666666666668
-450.0   60.0   16.666666666666668
-500.0   60.0   16.666666666666668
-450.0   60.0   33.333333333333336
-500.0   30.0   33.333333333333336
-500.0   60.0   33.333333333333336
-450.0   60.0   33.333333333333336
-500.0   60.0   16.666666666666668
-500.0   30.0   33.333333333333336
-450.0   60.0   33.333333333333336
-450.0   30.0   33.333333333333336
-450.0   30.0   16.666666666666668
-500.0   30.0   33.333333333333336
-450.0   60.0   33.333333333333336
-450.0   30.0   16.666666666666668
-500.0   60.0   16.666666666666668
-500.0   30.0   33.333333333333336
-450.0   30.0   33.333333333333336
-500.0   60.0   33.333333333333336
-500.0   30.0   50.0
-450.0   30.0   33.333333333333336
-450.0   60.0   33.333333333333336
-500.0   60.0   33.333333333333336
-450.0   60.0   50.0
-500.0   30.0   50.0
-500.0   60.0   50.0
-450.0   60.0   50.0
-500.0   60.0   33.333333333333336
-500.0   30.0   50.0
-450.0   60.0   50.0
-450.0   30.0   50.0
-450.0   30.0   33.333333333333336
-500.0   30.0   50.0
-450.0   60.0   50.0
-450.0   30.0   33.333333333333336
-500.0   60.0   33.333333333333336
-500.0   60.0   0.0
-450.0   60.0   0.0
-500.0   90.0   0.0
-500.0   60.0   16.666666666666668
-450.0   60.0   0.0
-450.0   90.0   0.0
-500.0   90.0   0.0
-450.0   90.0   16.666666666666668
-500.0   60.0   16.666666666666668
-500.0   90.0   16.666666666666668
-450.0   90.0   16.666666666666668
-500.0   90.0   0.0
-500.0   60.0   16.666666666666668
-450.0   90.0   16.666666666666668
-450.0   60.0   16.666666666666668
-450.0   60.0   0.0
-500.0   60.0   16.666666666666668
-450.0   90.0   16.666666666666668
-450.0   60.0   0.0
-500.0   90.0   0.0
-500.0   60.0   16.666666666666668
-450.0   60.0   16.666666666666668
-500.0   90.0   16.666666666666668
-500.0   60.0   33.333333333333336
-450.0   60.0   16.666666666666668
-450.0   90.0   16.666666666666668
-500.0   90.0   16.666666666666668
-450.0   90.0   33.333333333333336
-500.0   60.0   33.333333333333336
-500.0   90.0   33.333333333333336
-450.0   90.0   33.333333333333336
-500.0   90.0   16.666666666666668
-500.0   60.0   33.333333333333336
-450.0   90.0   33.333333333333336
-450.0   60.0   33.333333333333336
-450.0   60.0   16.666666666666668
-500.0   60.0   33.333333333333336
-450.0   90.0   33.333333333333336
-450.0   60.0   16.666666666666668
-500.0   90.0   16.666666666666668
-500.0   60.0   33.333333333333336
-450.0   60.0   33.333333333333336
-500.0   90.0   33.333333333333336
-500.0   60.0   50.0
-450.0   60.0   33.333333333333336
-450.0   90.0   33.333333333333336
-500.0   90.0   33.333333333333336
-450.0   90.0   50.0
-500.0   60.0   50.0
-500.0   90.0   50.0
-450.0   90.0   50.0
-500.0   90.0   33.333333333333336
-500.0   60.0   50.0
-450.0   90.0   50.0
-450.0   60.0   50.0
-450.0   60.0   33.333333333333336
-500.0   60.0   50.0
-450.0   90.0   50.0
-450.0   60.0   33.333333333333336
-500.0   90.0   33.333333333333336
-500.0   90.0   0.0
-450.0   90.0   0.0
-500.0   120.0   0.0
-500.0   90.0   16.666666666666668
-450.0   90.0   0.0
-450.0   120.0   0.0
-500.0   120.0   0.0
-450.0   120.0   16.666666666666668
-500.0   90.0   16.666666666666668
-500.0   120.0   16.666666666666668
-450.0   120.0   16.666666666666668
-500.0   120.0   0.0
-500.0   90.0   16.666666666666668
-450.0   120.0   16.666666666666668
-450.0   90.0   16.666666666666668
-450.0   90.0   0.0
-500.0   90.0   16.666666666666668
-450.0   120.0   16.666666666666668
-450.0   90.0   0.0
-500.0   120.0   0.0
-500.0   90.0   16.666666666666668
-450.0   90.0   16.666666666666668
-500.0   120.0   16.666666666666668
-500.0   90.0   33.333333333333336
-450.0   90.0   16.666666666666668
-450.0   120.0   16.666666666666668
-500.0   120.0   16.666666666666668
-450.0   120.0   33.333333333333336
-500.0   90.0   33.333333333333336
-500.0   120.0   33.333333333333336
-450.0   120.0   33.333333333333336
-500.0   120.0   16.666666666666668
-500.0   90.0   33.333333333333336
-450.0   120.0   33.333333333333336
-450.0   90.0   33.333333333333336
-450.0   90.0   16.666666666666668
-500.0   90.0   33.333333333333336
-450.0   120.0   33.333333333333336
-450.0   90.0   16.666666666666668
-500.0   120.0   16.666666666666668
-500.0   90.0   33.333333333333336
-450.0   90.0   33.333333333333336
-500.0   120.0   33.333333333333336
-500.0   90.0   50.0
-450.0   90.0   33.333333333333336
-450.0   120.0   33.333333333333336
-500.0   120.0   33.333333333333336
-450.0   120.0   50.0
-500.0   90.0   50.0
-500.0   120.0   50.0
-450.0   120.0   50.0
-500.0   120.0   33.333333333333336
-500.0   90.0   50.0
-450.0   120.0   50.0
-450.0   90.0   50.0
-450.0   90.0   33.333333333333336
-500.0   90.0   50.0
-450.0   120.0   50.0
-450.0   90.0   33.333333333333336
-500.0   120.0   33.333333333333336
-500.0   120.0   0.0
-450.0   120.0   0.0
-500.0   150.0   0.0
-500.0   120.0   16.666666666666668
-450.0   120.0   0.0
-450.0   150.0   0.0
-500.0   150.0   0.0
-450.0   150.0   16.666666666666668
-500.0   120.0   16.666666666666668
-500.0   150.0   16.666666666666668
-450.0   150.0   16.666666666666668
-500.0   150.0   0.0
-500.0   120.0   16.666666666666668
-450.0   150.0   16.666666666666668
-450.0   120.0   16.666666666666668
-450.0   120.0   0.0
-500.0   120.0   16.666666666666668
-450.0   150.0   16.666666666666668
-450.0   120.0   0.0
-500.0   150.0   0.0
-500.0   120.0   16.666666666666668
-450.0   120.0   16.666666666666668
-500.0   150.0   16.666666666666668
-500.0   120.0   33.333333333333336
-450.0   120.0   16.666666666666668
-450.0   150.0   16.666666666666668
-500.0   150.0   16.666666666666668
-450.0   150.0   33.333333333333336
-500.0   120.0   33.333333333333336
-500.0   150.0   33.333333333333336
-450.0   150.0   33.333333333333336
-500.0   150.0   16.666666666666668
-500.0   120.0   33.333333333333336
-450.0   150.0   33.333333333333336
-450.0   120.0   33.333333333333336
-450.0   120.0   16.666666666666668
-500.0   120.0   33.333333333333336
-450.0   150.0   33.333333333333336
-450.0   120.0   16.666666666666668
-500.0   150.0   16.666666666666668
-500.0   120.0   33.333333333333336
-450.0   120.0   33.333333333333336
-500.0   150.0   33.333333333333336
-500.0   120.0   50.0
-450.0   120.0   33.333333333333336
-450.0   150.0   33.333333333333336
-500.0   150.0   33.333333333333336
-450.0   150.0   50.0
-500.0   120.0   50.0
-500.0   150.0   50.0
-450.0   150.0   50.0
-500.0   150.0   33.333333333333336
-500.0   120.0   50.0
-450.0   150.0   50.0
-450.0   120.0   50.0
-450.0   120.0   33.333333333333336
-500.0   120.0   50.0
-450.0   150.0   50.0
-450.0   120.0   33.333333333333336
-500.0   150.0   33.333333333333336
-450.0   0.0   0.0
-400.0   0.0   0.0
-450.0   30.0   0.0
-450.0   0.0   16.666666666666668
-400.0   0.0   0.0
-400.0   30.0   0.0
-450.0   30.0   0.0
-400.0   30.0   16.666666666666668
-450.0   0.0   16.666666666666668
-450.0   30.0   16.666666666666668
-400.0   30.0   16.666666666666668
-450.0   30.0   0.0
-450.0   0.0   16.666666666666668
-400.0   30.0   16.666666666666668
-400.0   0.0   16.666666666666668
-400.0   0.0   0.0
-450.0   0.0   16.666666666666668
-400.0   30.0   16.666666666666668
-400.0   0.0   0.0
-450.0   30.0   0.0
-450.0   0.0   16.666666666666668
-400.0   0.0   16.666666666666668
-450.0   30.0   16.666666666666668
-450.0   0.0   33.333333333333336
-400.0   0.0   16.666666666666668
-400.0   30.0   16.666666666666668
-450.0   30.0   16.666666666666668
-400.0   30.0   33.333333333333336
-450.0   0.0   33.333333333333336
-450.0   30.0   33.333333333333336
-400.0   30.0   33.333333333333336
-450.0   30.0   16.666666666666668
-450.0   0.0   33.333333333333336
-400.0   30.0   33.333333333333336
-400.0   0.0   33.333333333333336
-400.0   0.0   16.666666666666668
-450.0   0.0   33.333333333333336
-400.0   30.0   33.333333333333336
-400.0   0.0   16.666666666666668
-450.0   30.0   16.666666666666668
-450.0   0.0   33.333333333333336
-400.0   0.0   33.333333333333336
-450.0   30.0   33.333333333333336
-450.0   0.0   50.0
-400.0   0.0   33.333333333333336
-400.0   30.0   33.333333333333336
-450.0   30.0   33.333333333333336
-400.0   30.0   50.0
-450.0   0.0   50.0
-450.0   30.0   50.0
-400.0   30.0   50.0
-450.0   30.0   33.333333333333336
-450.0   0.0   50.0
-400.0   30.0   50.0
-400.0   0.0   50.0
-400.0   0.0   33.333333333333336
-450.0   0.0   50.0
-400.0   30.0   50.0
-400.0   0.0   33.333333333333336
-450.0   30.0   33.333333333333336
-450.0   30.0   0.0
-400.0   30.0   0.0
-450.0   60.0   0.0
-450.0   30.0   16.666666666666668
-400.0   30.0   0.0
-400.0   60.0   0.0
-450.0   60.0   0.0
-400.0   60.0   16.666666666666668
-450.0   30.0   16.666666666666668
-450.0   60.0   16.666666666666668
-400.0   60.0   16.666666666666668
-450.0   60.0   0.0
-450.0   30.0   16.666666666666668
-400.0   60.0   16.666666666666668
-400.0   30.0   16.666666666666668
-400.0   30.0   0.0
-450.0   30.0   16.666666666666668
-400.0   60.0   16.666666666666668
-400.0   30.0   0.0
-450.0   60.0   0.0
-450.0   30.0   16.666666666666668
-400.0   30.0   16.666666666666668
-450.0   60.0   16.666666666666668
-450.0   30.0   33.333333333333336
-400.0   30.0   16.666666666666668
-400.0   60.0   16.666666666666668
-450.0   60.0   16.666666666666668
-400.0   60.0   33.333333333333336
-450.0   30.0   33.333333333333336
-450.0   60.0   33.333333333333336
-400.0   60.0   33.333333333333336
-450.0   60.0   16.666666666666668
-450.0   30.0   33.333333333333336
-400.0   60.0   33.333333333333336
-400.0   30.0   33.333333333333336
-400.0   30.0   16.666666666666668
-450.0   30.0   33.333333333333336
-400.0   60.0   33.333333333333336
-400.0   30.0   16.666666666666668
-450.0   60.0   16.666666666666668
-450.0   30.0   33.333333333333336
-400.0   30.0   33.333333333333336
-450.0   60.0   33.333333333333336
-450.0   30.0   50.0
-400.0   30.0   33.333333333333336
-400.0   60.0   33.333333333333336
-450.0   60.0   33.333333333333336
-400.0   60.0   50.0
-450.0   30.0   50.0
-450.0   60.0   50.0
-400.0   60.0   50.0
-450.0   60.0   33.333333333333336
-450.0   30.0   50.0
-400.0   60.0   50.0
-400.0   30.0   50.0
-400.0   30.0   33.333333333333336
-450.0   30.0   50.0
-400.0   60.0   50.0
-400.0   30.0   33.333333333333336
-450.0   60.0   33.333333333333336
-450.0   60.0   0.0
-400.0   60.0   0.0
-450.0   90.0   0.0
-450.0   60.0   16.666666666666668
-400.0   60.0   0.0
-400.0   90.0   0.0
-450.0   90.0   0.0
-400.0   90.0   16.666666666666668
-450.0   60.0   16.666666666666668
-450.0   90.0   16.666666666666668
-400.0   90.0   16.666666666666668
-450.0   90.0   0.0
-450.0   60.0   16.666666666666668
-400.0   90.0   16.666666666666668
-400.0   60.0   16.666666666666668
-400.0   60.0   0.0
-450.0   60.0   16.666666666666668
-400.0   90.0   16.666666666666668
-400.0   60.0   0.0
-450.0   90.0   0.0
-450.0   60.0   16.666666666666668
-400.0   60.0   16.666666666666668
-450.0   90.0   16.666666666666668
-450.0   60.0   33.333333333333336
-400.0   60.0   16.666666666666668
-400.0   90.0   16.666666666666668
-450.0   90.0   16.666666666666668
-400.0   90.0   33.333333333333336
-450.0   60.0   33.333333333333336
-450.0   90.0   33.333333333333336
-400.0   90.0   33.333333333333336
-450.0   90.0   16.666666666666668
-450.0   60.0   33.333333333333336
-400.0   90.0   33.333333333333336
-400.0   60.0   33.333333333333336
-400.0   60.0   16.666666666666668
-450.0   60.0   33.333333333333336
-400.0   90.0   33.333333333333336
-400.0   60.0   16.666666666666668
-450.0   90.0   16.666666666666668
-450.0   60.0   33.333333333333336
-400.0   60.0   33.333333333333336
-450.0   90.0   33.333333333333336
-450.0   60.0   50.0
-400.0   60.0   33.333333333333336
-400.0   90.0   33.333333333333336
-450.0   90.0   33.333333333333336
-400.0   90.0   50.0
-450.0   60.0   50.0
-450.0   90.0   50.0
-400.0   90.0   50.0
-450.0   90.0   33.333333333333336
-450.0   60.0   50.0
-400.0   90.0   50.0
-400.0   60.0   50.0
-400.0   60.0   33.333333333333336
-450.0   60.0   50.0
-400.0   90.0   50.0
-400.0   60.0   33.333333333333336
-450.0   90.0   33.333333333333336
-450.0   90.0   0.0
-400.0   90.0   0.0
-450.0   120.0   0.0
-450.0   90.0   16.666666666666668
-400.0   90.0   0.0
-400.0   120.0   0.0
-450.0   120.0   0.0
-400.0   120.0   16.666666666666668
-450.0   90.0   16.666666666666668
-450.0   120.0   16.666666666666668
-400.0   120.0   16.666666666666668
-450.0   120.0   0.0
-450.0   90.0   16.666666666666668
-400.0   120.0   16.666666666666668
-400.0   90.0   16.666666666666668
-400.0   90.0   0.0
-450.0   90.0   16.666666666666668
-400.0   120.0   16.666666666666668
-400.0   90.0   0.0
-450.0   120.0   0.0
-450.0   90.0   16.666666666666668
-400.0   90.0   16.666666666666668
-450.0   120.0   16.666666666666668
-450.0   90.0   33.333333333333336
-400.0   90.0   16.666666666666668
-400.0   120.0   16.666666666666668
-450.0   120.0   16.666666666666668
-400.0   120.0   33.333333333333336
-450.0   90.0   33.333333333333336
-450.0   120.0   33.333333333333336
-400.0   120.0   33.333333333333336
-450.0   120.0   16.666666666666668
-450.0   90.0   33.333333333333336
-400.0   120.0   33.333333333333336
-400.0   90.0   33.333333333333336
-400.0   90.0   16.666666666666668
-450.0   90.0   33.333333333333336
-400.0   120.0   33.333333333333336
-400.0   90.0   16.666666666666668
-450.0   120.0   16.666666666666668
-450.0   90.0   33.333333333333336
-400.0   90.0   33.333333333333336
-450.0   120.0   33.333333333333336
-450.0   90.0   50.0
-400.0   90.0   33.333333333333336
-400.0   120.0   33.333333333333336
-450.0   120.0   33.333333333333336
-400.0   120.0   50.0
-450.0   90.0   50.0
-450.0   120.0   50.0
-400.0   120.0   50.0
-450.0   120.0   33.333333333333336
-450.0   90.0   50.0
-400.0   120.0   50.0
-400.0   90.0   50.0
-400.0   90.0   33.333333333333336
-450.0   90.0   50.0
-400.0   120.0   50.0
-400.0   90.0   33.333333333333336
-450.0   120.0   33.333333333333336
-450.0   120.0   0.0
-400.0   120.0   0.0
-450.0   150.0   0.0
-450.0   120.0   16.666666666666668
-400.0   120.0   0.0
-400.0   150.0   0.0
-450.0   150.0   0.0
-400.0   150.0   16.666666666666668
-450.0   120.0   16.666666666666668
-450.0   150.0   16.666666666666668
-400.0   150.0   16.666666666666668
-450.0   150.0   0.0
-450.0   120.0   16.666666666666668
-400.0   150.0   16.666666666666668
-400.0   120.0   16.666666666666668
-400.0   120.0   0.0
-450.0   120.0   16.666666666666668
-400.0   150.0   16.666666666666668
-400.0   120.0   0.0
-450.0   150.0   0.0
-450.0   120.0   16.666666666666668
-400.0   120.0   16.666666666666668
-450.0   150.0   16.666666666666668
-450.0   120.0   33.333333333333336
-400.0   120.0   16.666666666666668
-400.0   150.0   16.666666666666668
-450.0   150.0   16.666666666666668
-400.0   150.0   33.333333333333336
-450.0   120.0   33.333333333333336
-450.0   150.0   33.333333333333336
-400.0   150.0   33.333333333333336
-450.0   150.0   16.666666666666668
-450.0   120.0   33.333333333333336
-400.0   150.0   33.333333333333336
-400.0   120.0   33.333333333333336
-400.0   120.0   16.666666666666668
-450.0   120.0   33.333333333333336
-400.0   150.0   33.333333333333336
-400.0   120.0   16.666666666666668
-450.0   150.0   16.666666666666668
-450.0   120.0   33.333333333333336
-400.0   120.0   33.333333333333336
-450.0   150.0   33.333333333333336
-450.0   120.0   50.0
-400.0   120.0   33.333333333333336
-400.0   150.0   33.333333333333336
-450.0   150.0   33.333333333333336
-400.0   150.0   50.0
-450.0   120.0   50.0
-450.0   150.0   50.0
-400.0   150.0   50.0
-450.0   150.0   33.333333333333336
-450.0   120.0   50.0
-400.0   150.0   50.0
-400.0   120.0   50.0
-400.0   120.0   33.333333333333336
-450.0   120.0   50.0
-400.0   150.0   50.0
-400.0   120.0   33.333333333333336
-450.0   150.0   33.333333333333336
-400.0   0.0   0.0
-350.0   0.0   0.0
-400.0   30.0   0.0
-400.0   0.0   16.666666666666668
-350.0   0.0   0.0
-350.0   30.0   0.0
-400.0   30.0   0.0
-350.0   30.0   16.666666666666668
-400.0   0.0   16.666666666666668
-400.0   30.0   16.666666666666668
-350.0   30.0   16.666666666666668
-400.0   30.0   0.0
-400.0   0.0   16.666666666666668
-350.0   30.0   16.666666666666668
-350.0   0.0   16.666666666666668
-350.0   0.0   0.0
-400.0   0.0   16.666666666666668
-350.0   30.0   16.666666666666668
-350.0   0.0   0.0
-400.0   30.0   0.0
-400.0   0.0   16.666666666666668
-350.0   0.0   16.666666666666668
-400.0   30.0   16.666666666666668
-400.0   0.0   33.333333333333336
-350.0   0.0   16.666666666666668
-350.0   30.0   16.666666666666668
-400.0   30.0   16.666666666666668
-350.0   30.0   33.333333333333336
-400.0   0.0   33.333333333333336
-400.0   30.0   33.333333333333336
-350.0   30.0   33.333333333333336
-400.0   30.0   16.666666666666668
-400.0   0.0   33.333333333333336
-350.0   30.0   33.333333333333336
-350.0   0.0   33.333333333333336
-350.0   0.0   16.666666666666668
-400.0   0.0   33.333333333333336
-350.0   30.0   33.333333333333336
-350.0   0.0   16.666666666666668
-400.0   30.0   16.666666666666668
-400.0   0.0   33.333333333333336
-350.0   0.0   33.333333333333336
-400.0   30.0   33.333333333333336
-400.0   0.0   50.0
-350.0   0.0   33.333333333333336
-350.0   30.0   33.333333333333336
-400.0   30.0   33.333333333333336
-350.0   30.0   50.0
-400.0   0.0   50.0
-400.0   30.0   50.0
-350.0   30.0   50.0
-400.0   30.0   33.333333333333336
-400.0   0.0   50.0
-350.0   30.0   50.0
-350.0   0.0   50.0
-350.0   0.0   33.333333333333336
-400.0   0.0   50.0
-350.0   30.0   50.0
-350.0   0.0   33.333333333333336
-400.0   30.0   33.333333333333336
-400.0   30.0   0.0
-350.0   30.0   0.0
-400.0   60.0   0.0
-400.0   30.0   16.666666666666668
-350.0   30.0   0.0
-350.0   60.0   0.0
-400.0   60.0   0.0
-350.0   60.0   16.666666666666668
-400.0   30.0   16.666666666666668
-400.0   60.0   16.666666666666668
-350.0   60.0   16.666666666666668
-400.0   60.0   0.0
-400.0   30.0   16.666666666666668
-350.0   60.0   16.666666666666668
-350.0   30.0   16.666666666666668
-350.0   30.0   0.0
-400.0   30.0   16.666666666666668
-350.0   60.0   16.666666666666668
-350.0   30.0   0.0
-400.0   60.0   0.0
-400.0   30.0   16.666666666666668
-350.0   30.0   16.666666666666668
-400.0   60.0   16.666666666666668
-400.0   30.0   33.333333333333336
-350.0   30.0   16.666666666666668
-350.0   60.0   16.666666666666668
-400.0   60.0   16.666666666666668
-350.0   60.0   33.333333333333336
-400.0   30.0   33.333333333333336
-400.0   60.0   33.333333333333336
-350.0   60.0   33.333333333333336
-400.0   60.0   16.666666666666668
-400.0   30.0   33.333333333333336
-350.0   60.0   33.333333333333336
-350.0   30.0   33.333333333333336
-350.0   30.0   16.666666666666668
-400.0   30.0   33.333333333333336
-350.0   60.0   33.333333333333336
-350.0   30.0   16.666666666666668
-400.0   60.0   16.666666666666668
-400.0   30.0   33.333333333333336
-350.0   30.0   33.333333333333336
-400.0   60.0   33.333333333333336
-400.0   30.0   50.0
-350.0   30.0   33.333333333333336
-350.0   60.0   33.333333333333336
-400.0   60.0   33.333333333333336
-350.0   60.0   50.0
-400.0   30.0   50.0
-400.0   60.0   50.0
-350.0   60.0   50.0
-400.0   60.0   33.333333333333336
-400.0   30.0   50.0
-350.0   60.0   50.0
-350.0   30.0   50.0
-350.0   30.0   33.333333333333336
-400.0   30.0   50.0
-350.0   60.0   50.0
-350.0   30.0   33.333333333333336
-400.0   60.0   33.333333333333336
-400.0   60.0   0.0
-350.0   60.0   0.0
-400.0   90.0   0.0
-400.0   60.0   16.666666666666668
-350.0   60.0   0.0
-350.0   90.0   0.0
-400.0   90.0   0.0
-350.0   90.0   16.666666666666668
-400.0   60.0   16.666666666666668
-400.0   90.0   16.666666666666668
-350.0   90.0   16.666666666666668
-400.0   90.0   0.0
-400.0   60.0   16.666666666666668
-350.0   90.0   16.666666666666668
-350.0   60.0   16.666666666666668
-350.0   60.0   0.0
-400.0   60.0   16.666666666666668
-350.0   90.0   16.666666666666668
-350.0   60.0   0.0
-400.0   90.0   0.0
-400.0   60.0   16.666666666666668
-350.0   60.0   16.666666666666668
-400.0   90.0   16.666666666666668
-400.0   60.0   33.333333333333336
-350.0   60.0   16.666666666666668
-350.0   90.0   16.666666666666668
-400.0   90.0   16.666666666666668
-350.0   90.0   33.333333333333336
-400.0   60.0   33.333333333333336
-400.0   90.0   33.333333333333336
-350.0   90.0   33.333333333333336
-400.0   90.0   16.666666666666668
-400.0   60.0   33.333333333333336
-350.0   90.0   33.333333333333336
-350.0   60.0   33.333333333333336
-350.0   60.0   16.666666666666668
-400.0   60.0   33.333333333333336
-350.0   90.0   33.333333333333336
-350.0   60.0   16.666666666666668
-400.0   90.0   16.666666666666668
-400.0   60.0   33.333333333333336
-350.0   60.0   33.333333333333336
-400.0   90.0   33.333333333333336
-400.0   60.0   50.0
-350.0   60.0   33.333333333333336
-350.0   90.0   33.333333333333336
-400.0   90.0   33.333333333333336
-350.0   90.0   50.0
-400.0   60.0   50.0
-400.0   90.0   50.0
-350.0   90.0   50.0
-400.0   90.0   33.333333333333336
-400.0   60.0   50.0
-350.0   90.0   50.0
-350.0   60.0   50.0
-350.0   60.0   33.333333333333336
-400.0   60.0   50.0
-350.0   90.0   50.0
-350.0   60.0   33.333333333333336
-400.0   90.0   33.333333333333336
-400.0   90.0   0.0
-350.0   90.0   0.0
-400.0   120.0   0.0
-400.0   90.0   16.666666666666668
-350.0   90.0   0.0
-350.0   120.0   0.0
-400.0   120.0   0.0
-350.0   120.0   16.666666666666668
-400.0   90.0   16.666666666666668
-400.0   120.0   16.666666666666668
-350.0   120.0   16.666666666666668
-400.0   120.0   0.0
-400.0   90.0   16.666666666666668
-350.0   120.0   16.666666666666668
-350.0   90.0   16.666666666666668
-350.0   90.0   0.0
-400.0   90.0   16.666666666666668
-350.0   120.0   16.666666666666668
-350.0   90.0   0.0
-400.0   120.0   0.0
-400.0   90.0   16.666666666666668
-350.0   90.0   16.666666666666668
-400.0   120.0   16.666666666666668
-400.0   90.0   33.333333333333336
-350.0   90.0   16.666666666666668
-350.0   120.0   16.666666666666668
-400.0   120.0   16.666666666666668
-350.0   120.0   33.333333333333336
-400.0   90.0   33.333333333333336
-400.0   120.0   33.333333333333336
-350.0   120.0   33.333333333333336
-400.0   120.0   16.666666666666668
-400.0   90.0   33.333333333333336
-350.0   120.0   33.333333333333336
-350.0   90.0   33.333333333333336
-350.0   90.0   16.666666666666668
-400.0   90.0   33.333333333333336
-350.0   120.0   33.333333333333336
-350.0   90.0   16.666666666666668
-400.0   120.0   16.666666666666668
-400.0   90.0   33.333333333333336
-350.0   90.0   33.333333333333336
-400.0   120.0   33.333333333333336
-400.0   90.0   50.0
-350.0   90.0   33.333333333333336
-350.0   120.0   33.333333333333336
-400.0   120.0   33.333333333333336
-350.0   120.0   50.0
-400.0   90.0   50.0
-400.0   120.0   50.0
-350.0   120.0   50.0
-400.0   120.0   33.333333333333336
-400.0   90.0   50.0
-350.0   120.0   50.0
-350.0   90.0   50.0
-350.0   90.0   33.333333333333336
-400.0   90.0   50.0
-350.0   120.0   50.0
-350.0   90.0   33.333333333333336
-400.0   120.0   33.333333333333336
-400.0   120.0   0.0
-350.0   120.0   0.0
-400.0   150.0   0.0
-400.0   120.0   16.666666666666668
-350.0   120.0   0.0
-350.0   150.0   0.0
-400.0   150.0   0.0
-350.0   150.0   16.666666666666668
-400.0   120.0   16.666666666666668
-400.0   150.0   16.666666666666668
-350.0   150.0   16.666666666666668
-400.0   150.0   0.0
-400.0   120.0   16.666666666666668
-350.0   150.0   16.666666666666668
-350.0   120.0   16.666666666666668
-350.0   120.0   0.0
-400.0   120.0   16.666666666666668
-350.0   150.0   16.666666666666668
-350.0   120.0   0.0
-400.0   150.0   0.0
-400.0   120.0   16.666666666666668
-350.0   120.0   16.666666666666668
-400.0   150.0   16.666666666666668
-400.0   120.0   33.333333333333336
-350.0   120.0   16.666666666666668
-350.0   150.0   16.666666666666668
-400.0   150.0   16.666666666666668
-350.0   150.0   33.333333333333336
-400.0   120.0   33.333333333333336
-400.0   150.0   33.333333333333336
-350.0   150.0   33.333333333333336
-400.0   150.0   16.666666666666668
-400.0   120.0   33.333333333333336
-350.0   150.0   33.333333333333336
-350.0   120.0   33.333333333333336
-350.0   120.0   16.666666666666668
-400.0   120.0   33.333333333333336
-350.0   150.0   33.333333333333336
-350.0   120.0   16.666666666666668
-400.0   150.0   16.666666666666668
-400.0   120.0   33.333333333333336
-350.0   120.0   33.333333333333336
-400.0   150.0   33.333333333333336
-400.0   120.0   50.0
-350.0   120.0   33.333333333333336
-350.0   150.0   33.333333333333336
-400.0   150.0   33.333333333333336
-350.0   150.0   50.0
-400.0   120.0   50.0
-400.0   150.0   50.0
-350.0   150.0   50.0
-400.0   150.0   33.333333333333336
-400.0   120.0   50.0
-350.0   150.0   50.0
-350.0   120.0   50.0
-350.0   120.0   33.333333333333336
-400.0   120.0   50.0
-350.0   150.0   50.0
-350.0   120.0   33.333333333333336
-400.0   150.0   33.333333333333336
-350.0   0.0   0.0
-300.0   0.0   0.0
-350.0   30.0   0.0
-350.0   0.0   16.666666666666668
-300.0   0.0   0.0
-300.0   30.0   0.0
-350.0   30.0   0.0
-300.0   30.0   16.666666666666668
-350.0   0.0   16.666666666666668
-350.0   30.0   16.666666666666668
-300.0   30.0   16.666666666666668
-350.0   30.0   0.0
-350.0   0.0   16.666666666666668
-300.0   30.0   16.666666666666668
-300.0   0.0   16.666666666666668
-300.0   0.0   0.0
-350.0   0.0   16.666666666666668
-300.0   30.0   16.666666666666668
-300.0   0.0   0.0
-350.0   30.0   0.0
-350.0   0.0   16.666666666666668
-300.0   0.0   16.666666666666668
-350.0   30.0   16.666666666666668
-350.0   0.0   33.333333333333336
-300.0   0.0   16.666666666666668
-300.0   30.0   16.666666666666668
-350.0   30.0   16.666666666666668
-300.0   30.0   33.333333333333336
-350.0   0.0   33.333333333333336
-350.0   30.0   33.333333333333336
-300.0   30.0   33.333333333333336
-350.0   30.0   16.666666666666668
-350.0   0.0   33.333333333333336
-300.0   30.0   33.333333333333336
-300.0   0.0   33.333333333333336
-300.0   0.0   16.666666666666668
-350.0   0.0   33.333333333333336
-300.0   30.0   33.333333333333336
-300.0   0.0   16.666666666666668
-350.0   30.0   16.666666666666668
-350.0   0.0   33.333333333333336
-300.0   0.0   33.333333333333336
-350.0   30.0   33.333333333333336
-350.0   0.0   50.0
-300.0   0.0   33.333333333333336
-300.0   30.0   33.333333333333336
-350.0   30.0   33.333333333333336
-300.0   30.0   50.0
-350.0   0.0   50.0
-350.0   30.0   50.0
-300.0   30.0   50.0
-350.0   30.0   33.333333333333336
-350.0   0.0   50.0
-300.0   30.0   50.0
-300.0   0.0   50.0
-300.0   0.0   33.333333333333336
-350.0   0.0   50.0
-300.0   30.0   50.0
-300.0   0.0   33.333333333333336
-350.0   30.0   33.333333333333336
-350.0   30.0   0.0
-300.0   30.0   0.0
-350.0   60.0   0.0
-350.0   30.0   16.666666666666668
-300.0   30.0   0.0
-300.0   60.0   0.0
-350.0   60.0   0.0
-300.0   60.0   16.666666666666668
-350.0   30.0   16.666666666666668
-350.0   60.0   16.666666666666668
-300.0   60.0   16.666666666666668
-350.0   60.0   0.0
-350.0   30.0   16.666666666666668
-300.0   60.0   16.666666666666668
-300.0   30.0   16.666666666666668
-300.0   30.0   0.0
-350.0   30.0   16.666666666666668
-300.0   60.0   16.666666666666668
-300.0   30.0   0.0
-350.0   60.0   0.0
-350.0   30.0   16.666666666666668
-300.0   30.0   16.666666666666668
-350.0   60.0   16.666666666666668
-350.0   30.0   33.333333333333336
-300.0   30.0   16.666666666666668
-300.0   60.0   16.666666666666668
-350.0   60.0   16.666666666666668
-300.0   60.0   33.333333333333336
-350.0   30.0   33.333333333333336
-350.0   60.0   33.333333333333336
-300.0   60.0   33.333333333333336
-350.0   60.0   16.666666666666668
-350.0   30.0   33.333333333333336
-300.0   60.0   33.333333333333336
-300.0   30.0   33.333333333333336
-300.0   30.0   16.666666666666668
-350.0   30.0   33.333333333333336
-300.0   60.0   33.333333333333336
-300.0   30.0   16.666666666666668
-350.0   60.0   16.666666666666668
-350.0   30.0   33.333333333333336
-300.0   30.0   33.333333333333336
-350.0   60.0   33.333333333333336
-350.0   30.0   50.0
-300.0   30.0   33.333333333333336
-300.0   60.0   33.333333333333336
-350.0   60.0   33.333333333333336
-300.0   60.0   50.0
-350.0   30.0   50.0
-350.0   60.0   50.0
-300.0   60.0   50.0
-350.0   60.0   33.333333333333336
-350.0   30.0   50.0
-300.0   60.0   50.0
-300.0   30.0   50.0
-300.0   30.0   33.333333333333336
-350.0   30.0   50.0
-300.0   60.0   50.0
-300.0   30.0   33.333333333333336
-350.0   60.0   33.333333333333336
-350.0   60.0   0.0
-300.0   60.0   0.0
-350.0   90.0   0.0
-350.0   60.0   16.666666666666668
-300.0   60.0   0.0
-300.0   90.0   0.0
-350.0   90.0   0.0
-300.0   90.0   16.666666666666668
-350.0   60.0   16.666666666666668
-350.0   90.0   16.666666666666668
-300.0   90.0   16.666666666666668
-350.0   90.0   0.0
-350.0   60.0   16.666666666666668
-300.0   90.0   16.666666666666668
-300.0   60.0   16.666666666666668
-300.0   60.0   0.0
-350.0   60.0   16.666666666666668
-300.0   90.0   16.666666666666668
-300.0   60.0   0.0
-350.0   90.0   0.0
-350.0   60.0   16.666666666666668
-300.0   60.0   16.666666666666668
-350.0   90.0   16.666666666666668
-350.0   60.0   33.333333333333336
-300.0   60.0   16.666666666666668
-300.0   90.0   16.666666666666668
-350.0   90.0   16.666666666666668
-300.0   90.0   33.333333333333336
-350.0   60.0   33.333333333333336
-350.0   90.0   33.333333333333336
-300.0   90.0   33.333333333333336
-350.0   90.0   16.666666666666668
-350.0   60.0   33.333333333333336
-300.0   90.0   33.333333333333336
-300.0   60.0   33.333333333333336
-300.0   60.0   16.666666666666668
-350.0   60.0   33.333333333333336
-300.0   90.0   33.333333333333336
-300.0   60.0   16.666666666666668
-350.0   90.0   16.666666666666668
-350.0   60.0   33.333333333333336
-300.0   60.0   33.333333333333336
-350.0   90.0   33.333333333333336
-350.0   60.0   50.0
-300.0   60.0   33.333333333333336
-300.0   90.0   33.333333333333336
-350.0   90.0   33.333333333333336
-300.0   90.0   50.0
-350.0   60.0   50.0
-350.0   90.0   50.0
-300.0   90.0   50.0
-350.0   90.0   33.333333333333336
-350.0   60.0   50.0
-300.0   90.0   50.0
-300.0   60.0   50.0
-300.0   60.0   33.333333333333336
-350.0   60.0   50.0
-300.0   90.0   50.0
-300.0   60.0   33.333333333333336
-350.0   90.0   33.333333333333336
-350.0   90.0   0.0
-300.0   90.0   0.0
-350.0   120.0   0.0
-350.0   90.0   16.666666666666668
-300.0   90.0   0.0
-300.0   120.0   0.0
-350.0   120.0   0.0
-300.0   120.0   16.666666666666668
-350.0   90.0   16.666666666666668
-350.0   120.0   16.666666666666668
-300.0   120.0   16.666666666666668
-350.0   120.0   0.0
-350.0   90.0   16.666666666666668
-300.0   120.0   16.666666666666668
-300.0   90.0   16.666666666666668
-300.0   90.0   0.0
-350.0   90.0   16.666666666666668
-300.0   120.0   16.666666666666668
-300.0   90.0   0.0
-350.0   120.0   0.0
-350.0   90.0   16.666666666666668
-300.0   90.0   16.666666666666668
-350.0   120.0   16.666666666666668
-350.0   90.0   33.333333333333336
-300.0   90.0   16.666666666666668
-300.0   120.0   16.666666666666668
-350.0   120.0   16.666666666666668
-300.0   120.0   33.333333333333336
-350.0   90.0   33.333333333333336
-350.0   120.0   33.333333333333336
-300.0   120.0   33.333333333333336
-350.0   120.0   16.666666666666668
-350.0   90.0   33.333333333333336
-300.0   120.0   33.333333333333336
-300.0   90.0   33.333333333333336
-300.0   90.0   16.666666666666668
-350.0   90.0   33.333333333333336
-300.0   120.0   33.333333333333336
-300.0   90.0   16.666666666666668
-350.0   120.0   16.666666666666668
-350.0   90.0   33.333333333333336
-300.0   90.0   33.333333333333336
-350.0   120.0   33.333333333333336
-350.0   90.0   50.0
-300.0   90.0   33.333333333333336
-300.0   120.0   33.333333333333336
-350.0   120.0   33.333333333333336
-300.0   120.0   50.0
-350.0   90.0   50.0
-350.0   120.0   50.0
-300.0   120.0   50.0
-350.0   120.0   33.333333333333336
-350.0   90.0   50.0
-300.0   120.0   50.0
-300.0   90.0   50.0
-300.0   90.0   33.333333333333336
-350.0   90.0   50.0
-300.0   120.0   50.0
-300.0   90.0   33.333333333333336
-350.0   120.0   33.333333333333336
-350.0   120.0   0.0
-300.0   120.0   0.0
-350.0   150.0   0.0
-350.0   120.0   16.666666666666668
-300.0   120.0   0.0
-300.0   150.0   0.0
-350.0   150.0   0.0
-300.0   150.0   16.666666666666668
-350.0   120.0   16.666666666666668
-350.0   150.0   16.666666666666668
-300.0   150.0   16.666666666666668
-350.0   150.0   0.0
-350.0   120.0   16.666666666666668
-300.0   150.0   16.666666666666668
-300.0   120.0   16.666666666666668
-300.0   120.0   0.0
-350.0   120.0   16.666666666666668
-300.0   150.0   16.666666666666668
-300.0   120.0   0.0
-350.0   150.0   0.0
-350.0   120.0   16.666666666666668
-300.0   120.0   16.666666666666668
-350.0   150.0   16.666666666666668
-350.0   120.0   33.333333333333336
-300.0   120.0   16.666666666666668
-300.0   150.0   16.666666666666668
-350.0   150.0   16.666666666666668
-300.0   150.0   33.333333333333336
-350.0   120.0   33.333333333333336
-350.0   150.0   33.333333333333336
-300.0   150.0   33.333333333333336
-350.0   150.0   16.666666666666668
-350.0   120.0   33.333333333333336
-300.0   150.0   33.333333333333336
-300.0   120.0   33.333333333333336
-300.0   120.0   16.666666666666668
-350.0   120.0   33.333333333333336
-300.0   150.0   33.333333333333336
-300.0   120.0   16.666666666666668
-350.0   150.0   16.666666666666668
-350.0   120.0   33.333333333333336
-300.0   120.0   33.333333333333336
-350.0   150.0   33.333333333333336
-350.0   120.0   50.0
-300.0   120.0   33.333333333333336
-300.0   150.0   33.333333333333336
-350.0   150.0   33.333333333333336
-300.0   150.0   50.0
-350.0   120.0   50.0
-350.0   150.0   50.0
-300.0   150.0   50.0
-350.0   150.0   33.333333333333336
-350.0   120.0   50.0
-300.0   150.0   50.0
-300.0   120.0   50.0
-300.0   120.0   33.333333333333336
-350.0   120.0   50.0
-300.0   150.0   50.0
-300.0   120.0   33.333333333333336
-350.0   150.0   33.333333333333336
-300.0   0.0   0.0
-250.0   0.0   0.0
-300.0   30.0   0.0
-300.0   0.0   16.666666666666668
-250.0   0.0   0.0
-250.0   30.0   0.0
-300.0   30.0   0.0
-250.0   30.0   16.666666666666668
-300.0   0.0   16.666666666666668
-300.0   30.0   16.666666666666668
-250.0   30.0   16.666666666666668
-300.0   30.0   0.0
-300.0   0.0   16.666666666666668
-250.0   30.0   16.666666666666668
-250.0   0.0   16.666666666666668
-250.0   0.0   0.0
-300.0   0.0   16.666666666666668
-250.0   30.0   16.666666666666668
-250.0   0.0   0.0
-300.0   30.0   0.0
-300.0   0.0   16.666666666666668
-250.0   0.0   16.666666666666668
-300.0   30.0   16.666666666666668
-300.0   0.0   33.333333333333336
-250.0   0.0   16.666666666666668
-250.0   30.0   16.666666666666668
-300.0   30.0   16.666666666666668
-250.0   30.0   33.333333333333336
-300.0   0.0   33.333333333333336
-300.0   30.0   33.333333333333336
-250.0   30.0   33.333333333333336
-300.0   30.0   16.666666666666668
-300.0   0.0   33.333333333333336
-250.0   30.0   33.333333333333336
-250.0   0.0   33.333333333333336
-250.0   0.0   16.666666666666668
-300.0   0.0   33.333333333333336
-250.0   30.0   33.333333333333336
-250.0   0.0   16.666666666666668
-300.0   30.0   16.666666666666668
-300.0   0.0   33.333333333333336
-250.0   0.0   33.333333333333336
-300.0   30.0   33.333333333333336
-300.0   0.0   50.0
-250.0   0.0   33.333333333333336
-250.0   30.0   33.333333333333336
-300.0   30.0   33.333333333333336
-250.0   30.0   50.0
-300.0   0.0   50.0
-300.0   30.0   50.0
-250.0   30.0   50.0
-300.0   30.0   33.333333333333336
-300.0   0.0   50.0
-250.0   30.0   50.0
-250.0   0.0   50.0
-250.0   0.0   33.333333333333336
-300.0   0.0   50.0
-250.0   30.0   50.0
-250.0   0.0   33.333333333333336
-300.0   30.0   33.333333333333336
-300.0   30.0   0.0
-250.0   30.0   0.0
-300.0   60.0   0.0
-300.0   30.0   16.666666666666668
-250.0   30.0   0.0
-250.0   60.0   0.0
-300.0   60.0   0.0
-250.0   60.0   16.666666666666668
-300.0   30.0   16.666666666666668
-300.0   60.0   16.666666666666668
-250.0   60.0   16.666666666666668
-300.0   60.0   0.0
-300.0   30.0   16.666666666666668
-250.0   60.0   16.666666666666668
-250.0   30.0   16.666666666666668
-250.0   30.0   0.0
-300.0   30.0   16.666666666666668
-250.0   60.0   16.666666666666668
-250.0   30.0   0.0
-300.0   60.0   0.0
-300.0   30.0   16.666666666666668
-250.0   30.0   16.666666666666668
-300.0   60.0   16.666666666666668
-300.0   30.0   33.333333333333336
-250.0   30.0   16.666666666666668
-250.0   60.0   16.666666666666668
-300.0   60.0   16.666666666666668
-250.0   60.0   33.333333333333336
-300.0   30.0   33.333333333333336
-300.0   60.0   33.333333333333336
-250.0   60.0   33.333333333333336
-300.0   60.0   16.666666666666668
-300.0   30.0   33.333333333333336
-250.0   60.0   33.333333333333336
-250.0   30.0   33.333333333333336
-250.0   30.0   16.666666666666668
-300.0   30.0   33.333333333333336
-250.0   60.0   33.333333333333336
-250.0   30.0   16.666666666666668
-300.0   60.0   16.666666666666668
-300.0   30.0   33.333333333333336
-250.0   30.0   33.333333333333336
-300.0   60.0   33.333333333333336
-300.0   30.0   50.0
-250.0   30.0   33.333333333333336
-250.0   60.0   33.333333333333336
-300.0   60.0   33.333333333333336
-250.0   60.0   50.0
-300.0   30.0   50.0
-300.0   60.0   50.0
-250.0   60.0   50.0
-300.0   60.0   33.333333333333336
-300.0   30.0   50.0
-250.0   60.0   50.0
-250.0   30.0   50.0
-250.0   30.0   33.333333333333336
-300.0   30.0   50.0
-250.0   60.0   50.0
-250.0   30.0   33.333333333333336
-300.0   60.0   33.333333333333336
-300.0   60.0   0.0
-250.0   60.0   0.0
-300.0   90.0   0.0
-300.0   60.0   16.666666666666668
-250.0   60.0   0.0
-250.0   90.0   0.0
-300.0   90.0   0.0
-250.0   90.0   16.666666666666668
-300.0   60.0   16.666666666666668
-300.0   90.0   16.666666666666668
-250.0   90.0   16.666666666666668
-300.0   90.0   0.0
-300.0   60.0   16.666666666666668
-250.0   90.0   16.666666666666668
-250.0   60.0   16.666666666666668
-250.0   60.0   0.0
-300.0   60.0   16.666666666666668
-250.0   90.0   16.666666666666668
-250.0   60.0   0.0
-300.0   90.0   0.0
-300.0   60.0   16.666666666666668
-250.0   60.0   16.666666666666668
-300.0   90.0   16.666666666666668
-300.0   60.0   33.333333333333336
-250.0   60.0   16.666666666666668
-250.0   90.0   16.666666666666668
-300.0   90.0   16.666666666666668
-250.0   90.0   33.333333333333336
-300.0   60.0   33.333333333333336
-300.0   90.0   33.333333333333336
-250.0   90.0   33.333333333333336
-300.0   90.0   16.666666666666668
-300.0   60.0   33.333333333333336
-250.0   90.0   33.333333333333336
-250.0   60.0   33.333333333333336
-250.0   60.0   16.666666666666668
-300.0   60.0   33.333333333333336
-250.0   90.0   33.333333333333336
-250.0   60.0   16.666666666666668
-300.0   90.0   16.666666666666668
-300.0   60.0   33.333333333333336
-250.0   60.0   33.333333333333336
-300.0   90.0   33.333333333333336
-300.0   60.0   50.0
-250.0   60.0   33.333333333333336
-250.0   90.0   33.333333333333336
-300.0   90.0   33.333333333333336
-250.0   90.0   50.0
-300.0   60.0   50.0
-300.0   90.0   50.0
-250.0   90.0   50.0
-300.0   90.0   33.333333333333336
-300.0   60.0   50.0
-250.0   90.0   50.0
-250.0   60.0   50.0
-250.0   60.0   33.333333333333336
-300.0   60.0   50.0
-250.0   90.0   50.0
-250.0   60.0   33.333333333333336
-300.0   90.0   33.333333333333336
-300.0   90.0   0.0
-250.0   90.0   0.0
-300.0   120.0   0.0
-300.0   90.0   16.666666666666668
-250.0   90.0   0.0
-250.0   120.0   0.0
-300.0   120.0   0.0
-250.0   120.0   16.666666666666668
-300.0   90.0   16.666666666666668
-300.0   120.0   16.666666666666668
-250.0   120.0   16.666666666666668
-300.0   120.0   0.0
-300.0   90.0   16.666666666666668
-250.0   120.0   16.666666666666668
-250.0   90.0   16.666666666666668
-250.0   90.0   0.0
-300.0   90.0   16.666666666666668
-250.0   120.0   16.666666666666668
-250.0   90.0   0.0
-300.0   120.0   0.0
-300.0   90.0   16.666666666666668
-250.0   90.0   16.666666666666668
-300.0   120.0   16.666666666666668
-300.0   90.0   33.333333333333336
-250.0   90.0   16.666666666666668
-250.0   120.0   16.666666666666668
-300.0   120.0   16.666666666666668
-250.0   120.0   33.333333333333336
-300.0   90.0   33.333333333333336
-300.0   120.0   33.333333333333336
-250.0   120.0   33.333333333333336
-300.0   120.0   16.666666666666668
-300.0   90.0   33.333333333333336
-250.0   120.0   33.333333333333336
-250.0   90.0   33.333333333333336
-250.0   90.0   16.666666666666668
-300.0   90.0   33.333333333333336
-250.0   120.0   33.333333333333336
-250.0   90.0   16.666666666666668
-300.0   120.0   16.666666666666668
-300.0   90.0   33.333333333333336
-250.0   90.0   33.333333333333336
-300.0   120.0   33.333333333333336
-300.0   90.0   50.0
-250.0   90.0   33.333333333333336
-250.0   120.0   33.333333333333336
-300.0   120.0   33.333333333333336
-250.0   120.0   50.0
-300.0   90.0   50.0
-300.0   120.0   50.0
-250.0   120.0   50.0
-300.0   120.0   33.333333333333336
-300.0   90.0   50.0
-250.0   120.0   50.0
-250.0   90.0   50.0
-250.0   90.0   33.333333333333336
-300.0   90.0   50.0
-250.0   120.0   50.0
-250.0   90.0   33.333333333333336
-300.0   120.0   33.333333333333336
-300.0   120.0   0.0
-250.0   120.0   0.0
-300.0   150.0   0.0
-300.0   120.0   16.666666666666668
-250.0   120.0   0.0
-250.0   150.0   0.0
-300.0   150.0   0.0
-250.0   150.0   16.666666666666668
-300.0   120.0   16.666666666666668
-300.0   150.0   16.666666666666668
-250.0   150.0   16.666666666666668
-300.0   150.0   0.0
-300.0   120.0   16.666666666666668
-250.0   150.0   16.666666666666668
-250.0   120.0   16.666666666666668
-250.0   120.0   0.0
-300.0   120.0   16.666666666666668
-250.0   150.0   16.666666666666668
-250.0   120.0   0.0
-300.0   150.0   0.0
-300.0   120.0   16.666666666666668
-250.0   120.0   16.666666666666668
-300.0   150.0   16.666666666666668
-300.0   120.0   33.333333333333336
-250.0   120.0   16.666666666666668
-250.0   150.0   16.666666666666668
-300.0   150.0   16.666666666666668
-250.0   150.0   33.333333333333336
-300.0   120.0   33.333333333333336
-300.0   150.0   33.333333333333336
-250.0   150.0   33.333333333333336
-300.0   150.0   16.666666666666668
-300.0   120.0   33.333333333333336
-250.0   150.0   33.333333333333336
-250.0   120.0   33.333333333333336
-250.0   120.0   16.666666666666668
-300.0   120.0   33.333333333333336
-250.0   150.0   33.333333333333336
-250.0   120.0   16.666666666666668
-300.0   150.0   16.666666666666668
-300.0   120.0   33.333333333333336
-250.0   120.0   33.333333333333336
-300.0   150.0   33.333333333333336
-300.0   120.0   50.0
-250.0   120.0   33.333333333333336
-250.0   150.0   33.333333333333336
-300.0   150.0   33.333333333333336
-250.0   150.0   50.0
-300.0   120.0   50.0
-300.0   150.0   50.0
-250.0   150.0   50.0
-300.0   150.0   33.333333333333336
-300.0   120.0   50.0
-250.0   150.0   50.0
-250.0   120.0   50.0
-250.0   120.0   33.333333333333336
-300.0   120.0   50.0
-250.0   150.0   50.0
-250.0   120.0   33.333333333333336
-300.0   150.0   33.333333333333336
-250.0   0.0   0.0
-200.0   0.0   0.0
-250.0   30.0   0.0
-250.0   0.0   16.666666666666668
-200.0   0.0   0.0
-200.0   30.0   0.0
-250.0   30.0   0.0
-200.0   30.0   16.666666666666668
-250.0   0.0   16.666666666666668
-250.0   30.0   16.666666666666668
-200.0   30.0   16.666666666666668
-250.0   30.0   0.0
-250.0   0.0   16.666666666666668
-200.0   30.0   16.666666666666668
-200.0   0.0   16.666666666666668
-200.0   0.0   0.0
-250.0   0.0   16.666666666666668
-200.0   30.0   16.666666666666668
-200.0   0.0   0.0
-250.0   30.0   0.0
-250.0   0.0   16.666666666666668
-200.0   0.0   16.666666666666668
-250.0   30.0   16.666666666666668
-250.0   0.0   33.333333333333336
-200.0   0.0   16.666666666666668
-200.0   30.0   16.666666666666668
-250.0   30.0   16.666666666666668
-200.0   30.0   33.333333333333336
-250.0   0.0   33.333333333333336
-250.0   30.0   33.333333333333336
-200.0   30.0   33.333333333333336
-250.0   30.0   16.666666666666668
-250.0   0.0   33.333333333333336
-200.0   30.0   33.333333333333336
-200.0   0.0   33.333333333333336
-200.0   0.0   16.666666666666668
-250.0   0.0   33.333333333333336
-200.0   30.0   33.333333333333336
-200.0   0.0   16.666666666666668
-250.0   30.0   16.666666666666668
-250.0   0.0   33.333333333333336
-200.0   0.0   33.333333333333336
-250.0   30.0   33.333333333333336
-250.0   0.0   50.0
-200.0   0.0   33.333333333333336
-200.0   30.0   33.333333333333336
-250.0   30.0   33.333333333333336
-200.0   30.0   50.0
-250.0   0.0   50.0
-250.0   30.0   50.0
-200.0   30.0   50.0
-250.0   30.0   33.333333333333336
-250.0   0.0   50.0
-200.0   30.0   50.0
-200.0   0.0   50.0
-200.0   0.0   33.333333333333336
-250.0   0.0   50.0
-200.0   30.0   50.0
-200.0   0.0   33.333333333333336
-250.0   30.0   33.333333333333336
-250.0   30.0   0.0
-200.0   30.0   0.0
-250.0   60.0   0.0
-250.0   30.0   16.666666666666668
-200.0   30.0   0.0
-200.0   60.0   0.0
-250.0   60.0   0.0
-200.0   60.0   16.666666666666668
-250.0   30.0   16.666666666666668
-250.0   60.0   16.666666666666668
-200.0   60.0   16.666666666666668
-250.0   60.0   0.0
-250.0   30.0   16.666666666666668
-200.0   60.0   16.666666666666668
-200.0   30.0   16.666666666666668
-200.0   30.0   0.0
-250.0   30.0   16.666666666666668
-200.0   60.0   16.666666666666668
-200.0   30.0   0.0
-250.0   60.0   0.0
-250.0   30.0   16.666666666666668
-200.0   30.0   16.666666666666668
-250.0   60.0   16.666666666666668
-250.0   30.0   33.333333333333336
-200.0   30.0   16.666666666666668
-200.0   60.0   16.666666666666668
-250.0   60.0   16.666666666666668
-200.0   60.0   33.333333333333336
-250.0   30.0   33.333333333333336
-250.0   60.0   33.333333333333336
-200.0   60.0   33.333333333333336
-250.0   60.0   16.666666666666668
-250.0   30.0   33.333333333333336
-200.0   60.0   33.333333333333336
-200.0   30.0   33.333333333333336
-200.0   30.0   16.666666666666668
-250.0   30.0   33.333333333333336
-200.0   60.0   33.333333333333336
-200.0   30.0   16.666666666666668
-250.0   60.0   16.666666666666668
-250.0   30.0   33.333333333333336
-200.0   30.0   33.333333333333336
-250.0   60.0   33.333333333333336
-250.0   30.0   50.0
-200.0   30.0   33.333333333333336
-200.0   60.0   33.333333333333336
-250.0   60.0   33.333333333333336
-200.0   60.0   50.0
-250.0   30.0   50.0
-250.0   60.0   50.0
-200.0   60.0   50.0
-250.0   60.0   33.333333333333336
-250.0   30.0   50.0
-200.0   60.0   50.0
-200.0   30.0   50.0
-200.0   30.0   33.333333333333336
-250.0   30.0   50.0
-200.0   60.0   50.0
-200.0   30.0   33.333333333333336
-250.0   60.0   33.333333333333336
-250.0   60.0   0.0
-200.0   60.0   0.0
-250.0   90.0   0.0
-250.0   60.0   16.666666666666668
-200.0   60.0   0.0
-200.0   90.0   0.0
-250.0   90.0   0.0
-200.0   90.0   16.666666666666668
-250.0   60.0   16.666666666666668
-250.0   90.0   16.666666666666668
-200.0   90.0   16.666666666666668
-250.0   90.0   0.0
-250.0   60.0   16.666666666666668
-200.0   90.0   16.666666666666668
-200.0   60.0   16.666666666666668
-200.0   60.0   0.0
-250.0   60.0   16.666666666666668
-200.0   90.0   16.666666666666668
-200.0   60.0   0.0
-250.0   90.0   0.0
-250.0   60.0   16.666666666666668
-200.0   60.0   16.666666666666668
-250.0   90.0   16.666666666666668
-250.0   60.0   33.333333333333336
-200.0   60.0   16.666666666666668
-200.0   90.0   16.666666666666668
-250.0   90.0   16.666666666666668
-200.0   90.0   33.333333333333336
-250.0   60.0   33.333333333333336
-250.0   90.0   33.333333333333336
-200.0   90.0   33.333333333333336
-250.0   90.0   16.666666666666668
-250.0   60.0   33.333333333333336
-200.0   90.0   33.333333333333336
-200.0   60.0   33.333333333333336
-200.0   60.0   16.666666666666668
-250.0   60.0   33.333333333333336
-200.0   90.0   33.333333333333336
-200.0   60.0   16.666666666666668
-250.0   90.0   16.666666666666668
-250.0   60.0   33.333333333333336
-200.0   60.0   33.333333333333336
-250.0   90.0   33.333333333333336
-250.0   60.0   50.0
-200.0   60.0   33.333333333333336
-200.0   90.0   33.333333333333336
-250.0   90.0   33.333333333333336
-200.0   90.0   50.0
-250.0   60.0   50.0
-250.0   90.0   50.0
-200.0   90.0   50.0
-250.0   90.0   33.333333333333336
-250.0   60.0   50.0
-200.0   90.0   50.0
-200.0   60.0   50.0
-200.0   60.0   33.333333333333336
-250.0   60.0   50.0
-200.0   90.0   50.0
-200.0   60.0   33.333333333333336
-250.0   90.0   33.333333333333336
-250.0   90.0   0.0
-200.0   90.0   0.0
-250.0   120.0   0.0
-250.0   90.0   16.666666666666668
-200.0   90.0   0.0
-200.0   120.0   0.0
-250.0   120.0   0.0
-200.0   120.0   16.666666666666668
-250.0   90.0   16.666666666666668
-250.0   120.0   16.666666666666668
-200.0   120.0   16.666666666666668
-250.0   120.0   0.0
-250.0   90.0   16.666666666666668
-200.0   120.0   16.666666666666668
-200.0   90.0   16.666666666666668
-200.0   90.0   0.0
-250.0   90.0   16.666666666666668
-200.0   120.0   16.666666666666668
-200.0   90.0   0.0
-250.0   120.0   0.0
-250.0   90.0   16.666666666666668
-200.0   90.0   16.666666666666668
-250.0   120.0   16.666666666666668
-250.0   90.0   33.333333333333336
-200.0   90.0   16.666666666666668
-200.0   120.0   16.666666666666668
-250.0   120.0   16.666666666666668
-200.0   120.0   33.333333333333336
-250.0   90.0   33.333333333333336
-250.0   120.0   33.333333333333336
-200.0   120.0   33.333333333333336
-250.0   120.0   16.666666666666668
-250.0   90.0   33.333333333333336
-200.0   120.0   33.333333333333336
-200.0   90.0   33.333333333333336
-200.0   90.0   16.666666666666668
-250.0   90.0   33.333333333333336
-200.0   120.0   33.333333333333336
-200.0   90.0   16.666666666666668
-250.0   120.0   16.666666666666668
-250.0   90.0   33.333333333333336
-200.0   90.0   33.333333333333336
-250.0   120.0   33.333333333333336
-250.0   90.0   50.0
-200.0   90.0   33.333333333333336
-200.0   120.0   33.333333333333336
-250.0   120.0   33.333333333333336
-200.0   120.0   50.0
-250.0   90.0   50.0
-250.0   120.0   50.0
-200.0   120.0   50.0
-250.0   120.0   33.333333333333336
-250.0   90.0   50.0
-200.0   120.0   50.0
-200.0   90.0   50.0
-200.0   90.0   33.333333333333336
-250.0   90.0   50.0
-200.0   120.0   50.0
-200.0   90.0   33.333333333333336
-250.0   120.0   33.333333333333336
-250.0   120.0   0.0
-200.0   120.0   0.0
-250.0   150.0   0.0
-250.0   120.0   16.666666666666668
-200.0   120.0   0.0
-200.0   150.0   0.0
-250.0   150.0   0.0
-200.0   150.0   16.666666666666668
-250.0   120.0   16.666666666666668
-250.0   150.0   16.666666666666668
-200.0   150.0   16.666666666666668
-250.0   150.0   0.0
-250.0   120.0   16.666666666666668
-200.0   150.0   16.666666666666668
-200.0   120.0   16.666666666666668
-200.0   120.0   0.0
-250.0   120.0   16.666666666666668
-200.0   150.0   16.666666666666668
-200.0   120.0   0.0
-250.0   150.0   0.0
-250.0   120.0   16.666666666666668
-200.0   120.0   16.666666666666668
-250.0   150.0   16.666666666666668
-250.0   120.0   33.333333333333336
-200.0   120.0   16.666666666666668
-200.0   150.0   16.666666666666668
-250.0   150.0   16.666666666666668
-200.0   150.0   33.333333333333336
-250.0   120.0   33.333333333333336
-250.0   150.0   33.333333333333336
-200.0   150.0   33.333333333333336
-250.0   150.0   16.666666666666668
-250.0   120.0   33.333333333333336
-200.0   150.0   33.333333333333336
-200.0   120.0   33.333333333333336
-200.0   120.0   16.666666666666668
-250.0   120.0   33.333333333333336
-200.0   150.0   33.333333333333336
-200.0   120.0   16.666666666666668
-250.0   150.0   16.666666666666668
-250.0   120.0   33.333333333333336
-200.0   120.0   33.333333333333336
-250.0   150.0   33.333333333333336
-250.0   120.0   50.0
-200.0   120.0   33.333333333333336
-200.0   150.0   33.333333333333336
-250.0   150.0   33.333333333333336
-200.0   150.0   50.0
-250.0   120.0   50.0
-250.0   150.0   50.0
-200.0   150.0   50.0
-250.0   150.0   33.333333333333336
-250.0   120.0   50.0
-200.0   150.0   50.0
-200.0   120.0   50.0
-200.0   120.0   33.333333333333336
-250.0   120.0   50.0
-200.0   150.0   50.0
-200.0   120.0   33.333333333333336
-250.0   150.0   33.333333333333336
-200.0   0.0   0.0
-150.0   0.0   0.0
-200.0   30.0   0.0
-200.0   0.0   16.666666666666668
-150.0   0.0   0.0
-150.0   30.0   0.0
-200.0   30.0   0.0
-150.0   30.0   16.666666666666668
-200.0   0.0   16.666666666666668
-200.0   30.0   16.666666666666668
-150.0   30.0   16.666666666666668
-200.0   30.0   0.0
-200.0   0.0   16.666666666666668
-150.0   30.0   16.666666666666668
-150.0   0.0   16.666666666666668
-150.0   0.0   0.0
-200.0   0.0   16.666666666666668
-150.0   30.0   16.666666666666668
-150.0   0.0   0.0
-200.0   30.0   0.0
-200.0   0.0   16.666666666666668
-150.0   0.0   16.666666666666668
-200.0   30.0   16.666666666666668
-200.0   0.0   33.333333333333336
-150.0   0.0   16.666666666666668
-150.0   30.0   16.666666666666668
-200.0   30.0   16.666666666666668
-150.0   30.0   33.333333333333336
-200.0   0.0   33.333333333333336
-200.0   30.0   33.333333333333336
-150.0   30.0   33.333333333333336
-200.0   30.0   16.666666666666668
-200.0   0.0   33.333333333333336
-150.0   30.0   33.333333333333336
-150.0   0.0   33.333333333333336
-150.0   0.0   16.666666666666668
-200.0   0.0   33.333333333333336
-150.0   30.0   33.333333333333336
-150.0   0.0   16.666666666666668
-200.0   30.0   16.666666666666668
-200.0   0.0   33.333333333333336
-150.0   0.0   33.333333333333336
-200.0   30.0   33.333333333333336
-200.0   0.0   50.0
-150.0   0.0   33.333333333333336
-150.0   30.0   33.333333333333336
-200.0   30.0   33.333333333333336
-150.0   30.0   50.0
-200.0   0.0   50.0
-200.0   30.0   50.0
-150.0   30.0   50.0
-200.0   30.0   33.333333333333336
-200.0   0.0   50.0
-150.0   30.0   50.0
-150.0   0.0   50.0
-150.0   0.0   33.333333333333336
-200.0   0.0   50.0
-150.0   30.0   50.0
-150.0   0.0   33.333333333333336
-200.0   30.0   33.333333333333336
-200.0   30.0   0.0
-150.0   30.0   0.0
-200.0   60.0   0.0
-200.0   30.0   16.666666666666668
-150.0   30.0   0.0
-150.0   60.0   0.0
-200.0   60.0   0.0
-150.0   60.0   16.666666666666668
-200.0   30.0   16.666666666666668
-200.0   60.0   16.666666666666668
-150.0   60.0   16.666666666666668
-200.0   60.0   0.0
-200.0   30.0   16.666666666666668
-150.0   60.0   16.666666666666668
-150.0   30.0   16.666666666666668
-150.0   30.0   0.0
-200.0   30.0   16.666666666666668
-150.0   60.0   16.666666666666668
-150.0   30.0   0.0
-200.0   60.0   0.0
-200.0   30.0   16.666666666666668
-150.0   30.0   16.666666666666668
-200.0   60.0   16.666666666666668
-200.0   30.0   33.333333333333336
-150.0   30.0   16.666666666666668
-150.0   60.0   16.666666666666668
-200.0   60.0   16.666666666666668
-150.0   60.0   33.333333333333336
-200.0   30.0   33.333333333333336
-200.0   60.0   33.333333333333336
-150.0   60.0   33.333333333333336
-200.0   60.0   16.666666666666668
-200.0   30.0   33.333333333333336
-150.0   60.0   33.333333333333336
-150.0   30.0   33.333333333333336
-150.0   30.0   16.666666666666668
-200.0   30.0   33.333333333333336
-150.0   60.0   33.333333333333336
-150.0   30.0   16.666666666666668
-200.0   60.0   16.666666666666668
-200.0   30.0   33.333333333333336
-150.0   30.0   33.333333333333336
-200.0   60.0   33.333333333333336
-200.0   30.0   50.0
-150.0   30.0   33.333333333333336
-150.0   60.0   33.333333333333336
-200.0   60.0   33.333333333333336
-150.0   60.0   50.0
-200.0   30.0   50.0
-200.0   60.0   50.0
-150.0   60.0   50.0
-200.0   60.0   33.333333333333336
-200.0   30.0   50.0
-150.0   60.0   50.0
-150.0   30.0   50.0
-150.0   30.0   33.333333333333336
-200.0   30.0   50.0
-150.0   60.0   50.0
-150.0   30.0   33.333333333333336
-200.0   60.0   33.333333333333336
-200.0   60.0   0.0
-150.0   60.0   0.0
-200.0   90.0   0.0
-200.0   60.0   16.666666666666668
-150.0   60.0   0.0
-150.0   90.0   0.0
-200.0   90.0   0.0
-150.0   90.0   16.666666666666668
-200.0   60.0   16.666666666666668
-200.0   90.0   16.666666666666668
-150.0   90.0   16.666666666666668
-200.0   90.0   0.0
-200.0   60.0   16.666666666666668
-150.0   90.0   16.666666666666668
-150.0   60.0   16.666666666666668
-150.0   60.0   0.0
-200.0   60.0   16.666666666666668
-150.0   90.0   16.666666666666668
-150.0   60.0   0.0
-200.0   90.0   0.0
-200.0   60.0   16.666666666666668
-150.0   60.0   16.666666666666668
-200.0   90.0   16.666666666666668
-200.0   60.0   33.333333333333336
-150.0   60.0   16.666666666666668
-150.0   90.0   16.666666666666668
-200.0   90.0   16.666666666666668
-150.0   90.0   33.333333333333336
-200.0   60.0   33.333333333333336
-200.0   90.0   33.333333333333336
-150.0   90.0   33.333333333333336
-200.0   90.0   16.666666666666668
-200.0   60.0   33.333333333333336
-150.0   90.0   33.333333333333336
-150.0   60.0   33.333333333333336
-150.0   60.0   16.666666666666668
-200.0   60.0   33.333333333333336
-150.0   90.0   33.333333333333336
-150.0   60.0   16.666666666666668
-200.0   90.0   16.666666666666668
-200.0   60.0   33.333333333333336
-150.0   60.0   33.333333333333336
-200.0   90.0   33.333333333333336
-200.0   60.0   50.0
-150.0   60.0   33.333333333333336
-150.0   90.0   33.333333333333336
-200.0   90.0   33.333333333333336
-150.0   90.0   50.0
-200.0   60.0   50.0
-200.0   90.0   50.0
-150.0   90.0   50.0
-200.0   90.0   33.333333333333336
-200.0   60.0   50.0
-150.0   90.0   50.0
-150.0   60.0   50.0
-150.0   60.0   33.333333333333336
-200.0   60.0   50.0
-150.0   90.0   50.0
-150.0   60.0   33.333333333333336
-200.0   90.0   33.333333333333336
-200.0   90.0   0.0
-150.0   90.0   0.0
-200.0   120.0   0.0
-200.0   90.0   16.666666666666668
-150.0   90.0   0.0
-150.0   120.0   0.0
-200.0   120.0   0.0
-150.0   120.0   16.666666666666668
-200.0   90.0   16.666666666666668
-200.0   120.0   16.666666666666668
-150.0   120.0   16.666666666666668
-200.0   120.0   0.0
-200.0   90.0   16.666666666666668
-150.0   120.0   16.666666666666668
-150.0   90.0   16.666666666666668
-150.0   90.0   0.0
-200.0   90.0   16.666666666666668
-150.0   120.0   16.666666666666668
-150.0   90.0   0.0
-200.0   120.0   0.0
-200.0   90.0   16.666666666666668
-150.0   90.0   16.666666666666668
-200.0   120.0   16.666666666666668
-200.0   90.0   33.333333333333336
-150.0   90.0   16.666666666666668
-150.0   120.0   16.666666666666668
-200.0   120.0   16.666666666666668
-150.0   120.0   33.333333333333336
-200.0   90.0   33.333333333333336
-200.0   120.0   33.333333333333336
-150.0   120.0   33.333333333333336
-200.0   120.0   16.666666666666668
-200.0   90.0   33.333333333333336
-150.0   120.0   33.333333333333336
-150.0   90.0   33.333333333333336
-150.0   90.0   16.666666666666668
-200.0   90.0   33.333333333333336
-150.0   120.0   33.333333333333336
-150.0   90.0   16.666666666666668
-200.0   120.0   16.666666666666668
-200.0   90.0   33.333333333333336
-150.0   90.0   33.333333333333336
-200.0   120.0   33.333333333333336
-200.0   90.0   50.0
-150.0   90.0   33.333333333333336
-150.0   120.0   33.333333333333336
-200.0   120.0   33.333333333333336
-150.0   120.0   50.0
-200.0   90.0   50.0
-200.0   120.0   50.0
-150.0   120.0   50.0
-200.0   120.0   33.333333333333336
-200.0   90.0   50.0
-150.0   120.0   50.0
-150.0   90.0   50.0
-150.0   90.0   33.333333333333336
-200.0   90.0   50.0
-150.0   120.0   50.0
-150.0   90.0   33.333333333333336
-200.0   120.0   33.333333333333336
-200.0   120.0   0.0
-150.0   120.0   0.0
-200.0   150.0   0.0
-200.0   120.0   16.666666666666668
-150.0   120.0   0.0
-150.0   150.0   0.0
-200.0   150.0   0.0
-150.0   150.0   16.666666666666668
-200.0   120.0   16.666666666666668
-200.0   150.0   16.666666666666668
-150.0   150.0   16.666666666666668
-200.0   150.0   0.0
-200.0   120.0   16.666666666666668
-150.0   150.0   16.666666666666668
-150.0   120.0   16.666666666666668
-150.0   120.0   0.0
-200.0   120.0   16.666666666666668
-150.0   150.0   16.666666666666668
-150.0   120.0   0.0
-200.0   150.0   0.0
-200.0   120.0   16.666666666666668
-150.0   120.0   16.666666666666668
-200.0   150.0   16.666666666666668
-200.0   120.0   33.333333333333336
-150.0   120.0   16.666666666666668
-150.0   150.0   16.666666666666668
-200.0   150.0   16.666666666666668
-150.0   150.0   33.333333333333336
-200.0   120.0   33.333333333333336
-200.0   150.0   33.333333333333336
-150.0   150.0   33.333333333333336
-200.0   150.0   16.666666666666668
-200.0   120.0   33.333333333333336
-150.0   150.0   33.333333333333336
-150.0   120.0   33.333333333333336
-150.0   120.0   16.666666666666668
-200.0   120.0   33.333333333333336
-150.0   150.0   33.333333333333336
-150.0   120.0   16.666666666666668
-200.0   150.0   16.666666666666668
-200.0   120.0   33.333333333333336
-150.0   120.0   33.333333333333336
-200.0   150.0   33.333333333333336
-200.0   120.0   50.0
-150.0   120.0   33.333333333333336
-150.0   150.0   33.333333333333336
-200.0   150.0   33.333333333333336
-150.0   150.0   50.0
-200.0   120.0   50.0
-200.0   150.0   50.0
-150.0   150.0   50.0
-200.0   150.0   33.333333333333336
-200.0   120.0   50.0
-150.0   150.0   50.0
-150.0   120.0   50.0
-150.0   120.0   33.333333333333336
-200.0   120.0   50.0
-150.0   150.0   50.0
-150.0   120.0   33.333333333333336
-200.0   150.0   33.333333333333336
-150.0   0.0   0.0
-100.0   0.0   0.0
-150.0   30.0   0.0
-150.0   0.0   16.666666666666668
-100.0   0.0   0.0
-100.0   30.0   0.0
-150.0   30.0   0.0
-100.0   30.0   16.666666666666668
-150.0   0.0   16.666666666666668
-150.0   30.0   16.666666666666668
-100.0   30.0   16.666666666666668
-150.0   30.0   0.0
-150.0   0.0   16.666666666666668
-100.0   30.0   16.666666666666668
-100.0   0.0   16.666666666666668
-100.0   0.0   0.0
-150.0   0.0   16.666666666666668
-100.0   30.0   16.666666666666668
-100.0   0.0   0.0
-150.0   30.0   0.0
-150.0   0.0   16.666666666666668
-100.0   0.0   16.666666666666668
-150.0   30.0   16.666666666666668
-150.0   0.0   33.333333333333336
-100.0   0.0   16.666666666666668
-100.0   30.0   16.666666666666668
-150.0   30.0   16.666666666666668
-100.0   30.0   33.333333333333336
-150.0   0.0   33.333333333333336
-150.0   30.0   33.333333333333336
-100.0   30.0   33.333333333333336
-150.0   30.0   16.666666666666668
-150.0   0.0   33.333333333333336
-100.0   30.0   33.333333333333336
-100.0   0.0   33.333333333333336
-100.0   0.0   16.666666666666668
-150.0   0.0   33.333333333333336
-100.0   30.0   33.333333333333336
-100.0   0.0   16.666666666666668
-150.0   30.0   16.666666666666668
-150.0   0.0   33.333333333333336
-100.0   0.0   33.333333333333336
-150.0   30.0   33.333333333333336
-150.0   0.0   50.0
-100.0   0.0   33.333333333333336
-100.0   30.0   33.333333333333336
-150.0   30.0   33.333333333333336
-100.0   30.0   50.0
-150.0   0.0   50.0
-150.0   30.0   50.0
-100.0   30.0   50.0
-150.0   30.0   33.333333333333336
-150.0   0.0   50.0
-100.0   30.0   50.0
-100.0   0.0   50.0
-100.0   0.0   33.333333333333336
-150.0   0.0   50.0
-100.0   30.0   50.0
-100.0   0.0   33.333333333333336
-150.0   30.0   33.333333333333336
-150.0   30.0   0.0
-100.0   30.0   0.0
-150.0   60.0   0.0
-150.0   30.0   16.666666666666668
-100.0   30.0   0.0
-100.0   60.0   0.0
-150.0   60.0   0.0
-100.0   60.0   16.666666666666668
-150.0   30.0   16.666666666666668
-150.0   60.0   16.666666666666668
-100.0   60.0   16.666666666666668
-150.0   60.0   0.0
-150.0   30.0   16.666666666666668
-100.0   60.0   16.666666666666668
-100.0   30.0   16.666666666666668
-100.0   30.0   0.0
-150.0   30.0   16.666666666666668
-100.0   60.0   16.666666666666668
-100.0   30.0   0.0
-150.0   60.0   0.0
-150.0   30.0   16.666666666666668
-100.0   30.0   16.666666666666668
-150.0   60.0   16.666666666666668
-150.0   30.0   33.333333333333336
-100.0   30.0   16.666666666666668
-100.0   60.0   16.666666666666668
-150.0   60.0   16.666666666666668
-100.0   60.0   33.333333333333336
-150.0   30.0   33.333333333333336
-150.0   60.0   33.333333333333336
-100.0   60.0   33.333333333333336
-150.0   60.0   16.666666666666668
-150.0   30.0   33.333333333333336
-100.0   60.0   33.333333333333336
-100.0   30.0   33.333333333333336
-100.0   30.0   16.666666666666668
-150.0   30.0   33.333333333333336
-100.0   60.0   33.333333333333336
-100.0   30.0   16.666666666666668
-150.0   60.0   16.666666666666668
-150.0   30.0   33.333333333333336
-100.0   30.0   33.333333333333336
-150.0   60.0   33.333333333333336
-150.0   30.0   50.0
-100.0   30.0   33.333333333333336
-100.0   60.0   33.333333333333336
-150.0   60.0   33.333333333333336
-100.0   60.0   50.0
-150.0   30.0   50.0
-150.0   60.0   50.0
-100.0   60.0   50.0
-150.0   60.0   33.333333333333336
-150.0   30.0   50.0
-100.0   60.0   50.0
-100.0   30.0   50.0
-100.0   30.0   33.333333333333336
-150.0   30.0   50.0
-100.0   60.0   50.0
-100.0   30.0   33.333333333333336
-150.0   60.0   33.333333333333336
-150.0   60.0   0.0
-100.0   60.0   0.0
-150.0   90.0   0.0
-150.0   60.0   16.666666666666668
-100.0   60.0   0.0
-100.0   90.0   0.0
-150.0   90.0   0.0
-100.0   90.0   16.666666666666668
-150.0   60.0   16.666666666666668
-150.0   90.0   16.666666666666668
-100.0   90.0   16.666666666666668
-150.0   90.0   0.0
-150.0   60.0   16.666666666666668
-100.0   90.0   16.666666666666668
-100.0   60.0   16.666666666666668
-100.0   60.0   0.0
-150.0   60.0   16.666666666666668
-100.0   90.0   16.666666666666668
-100.0   60.0   0.0
-150.0   90.0   0.0
-150.0   60.0   16.666666666666668
-100.0   60.0   16.666666666666668
-150.0   90.0   16.666666666666668
-150.0   60.0   33.333333333333336
-100.0   60.0   16.666666666666668
-100.0   90.0   16.666666666666668
-150.0   90.0   16.666666666666668
-100.0   90.0   33.333333333333336
-150.0   60.0   33.333333333333336
-150.0   90.0   33.333333333333336
-100.0   90.0   33.333333333333336
-150.0   90.0   16.666666666666668
-150.0   60.0   33.333333333333336
-100.0   90.0   33.333333333333336
-100.0   60.0   33.333333333333336
-100.0   60.0   16.666666666666668
-150.0   60.0   33.333333333333336
-100.0   90.0   33.333333333333336
-100.0   60.0   16.666666666666668
-150.0   90.0   16.666666666666668
-150.0   60.0   33.333333333333336
-100.0   60.0   33.333333333333336
-150.0   90.0   33.333333333333336
-150.0   60.0   50.0
-100.0   60.0   33.333333333333336
-100.0   90.0   33.333333333333336
-150.0   90.0   33.333333333333336
-100.0   90.0   50.0
-150.0   60.0   50.0
-150.0   90.0   50.0
-100.0   90.0   50.0
-150.0   90.0   33.333333333333336
-150.0   60.0   50.0
-100.0   90.0   50.0
-100.0   60.0   50.0
-100.0   60.0   33.333333333333336
-150.0   60.0   50.0
-100.0   90.0   50.0
-100.0   60.0   33.333333333333336
-150.0   90.0   33.333333333333336
-150.0   90.0   0.0
-100.0   90.0   0.0
-150.0   120.0   0.0
-150.0   90.0   16.666666666666668
-100.0   90.0   0.0
-100.0   120.0   0.0
-150.0   120.0   0.0
-100.0   120.0   16.666666666666668
-150.0   90.0   16.666666666666668
-150.0   120.0   16.666666666666668
-100.0   120.0   16.666666666666668
-150.0   120.0   0.0
-150.0   90.0   16.666666666666668
-100.0   120.0   16.666666666666668
-100.0   90.0   16.666666666666668
-100.0   90.0   0.0
-150.0   90.0   16.666666666666668
-100.0   120.0   16.666666666666668
-100.0   90.0   0.0
-150.0   120.0   0.0
-150.0   90.0   16.666666666666668
-100.0   90.0   16.666666666666668
-150.0   120.0   16.666666666666668
-150.0   90.0   33.333333333333336
-100.0   90.0   16.666666666666668
-100.0   120.0   16.666666666666668
-150.0   120.0   16.666666666666668
-100.0   120.0   33.333333333333336
-150.0   90.0   33.333333333333336
-150.0   120.0   33.333333333333336
-100.0   120.0   33.333333333333336
-150.0   120.0   16.666666666666668
-150.0   90.0   33.333333333333336
-100.0   120.0   33.333333333333336
-100.0   90.0   33.333333333333336
-100.0   90.0   16.666666666666668
-150.0   90.0   33.333333333333336
-100.0   120.0   33.333333333333336
-100.0   90.0   16.666666666666668
-150.0   120.0   16.666666666666668
-150.0   90.0   33.333333333333336
-100.0   90.0   33.333333333333336
-150.0   120.0   33.333333333333336
-150.0   90.0   50.0
-100.0   90.0   33.333333333333336
-100.0   120.0   33.333333333333336
-150.0   120.0   33.333333333333336
-100.0   120.0   50.0
-150.0   90.0   50.0
-150.0   120.0   50.0
-100.0   120.0   50.0
-150.0   120.0   33.333333333333336
-150.0   90.0   50.0
-100.0   120.0   50.0
-100.0   90.0   50.0
-100.0   90.0   33.333333333333336
-150.0   90.0   50.0
-100.0   120.0   50.0
-100.0   90.0   33.333333333333336
-150.0   120.0   33.333333333333336
-150.0   120.0   0.0
-100.0   120.0   0.0
-150.0   150.0   0.0
-150.0   120.0   16.666666666666668
-100.0   120.0   0.0
-100.0   150.0   0.0
-150.0   150.0   0.0
-100.0   150.0   16.666666666666668
-150.0   120.0   16.666666666666668
-150.0   150.0   16.666666666666668
-100.0   150.0   16.666666666666668
-150.0   150.0   0.0
-150.0   120.0   16.666666666666668
-100.0   150.0   16.666666666666668
-100.0   120.0   16.666666666666668
-100.0   120.0   0.0
-150.0   120.0   16.666666666666668
-100.0   150.0   16.666666666666668
-100.0   120.0   0.0
-150.0   150.0   0.0
-150.0   120.0   16.666666666666668
-100.0   120.0   16.666666666666668
-150.0   150.0   16.666666666666668
-150.0   120.0   33.333333333333336
-100.0   120.0   16.666666666666668
-100.0   150.0   16.666666666666668
-150.0   150.0   16.666666666666668
-100.0   150.0   33.333333333333336
-150.0   120.0   33.333333333333336
-150.0   150.0   33.333333333333336
-100.0   150.0   33.333333333333336
-150.0   150.0   16.666666666666668
-150.0   120.0   33.333333333333336
-100.0   150.0   33.333333333333336
-100.0   120.0   33.333333333333336
-100.0   120.0   16.666666666666668
-150.0   120.0   33.333333333333336
-100.0   150.0   33.333333333333336
-100.0   120.0   16.666666666666668
-150.0   150.0   16.666666666666668
-150.0   120.0   33.333333333333336
-100.0   120.0   33.333333333333336
-150.0   150.0   33.333333333333336
-150.0   120.0   50.0
-100.0   120.0   33.333333333333336
-100.0   150.0   33.333333333333336
-150.0   150.0   33.333333333333336
-100.0   150.0   50.0
-150.0   120.0   50.0
-150.0   150.0   50.0
-100.0   150.0   50.0
-150.0   150.0   33.333333333333336
-150.0   120.0   50.0
-100.0   150.0   50.0
-100.0   120.0   50.0
-100.0   120.0   33.333333333333336
-150.0   120.0   50.0
-100.0   150.0   50.0
-100.0   120.0   33.333333333333336
-150.0   150.0   33.333333333333336
-100.0   0.0   0.0
-50.0   0.0   0.0
-100.0   30.0   0.0
-100.0   0.0   16.666666666666668
-50.0   0.0   0.0
-50.0   30.0   0.0
-100.0   30.0   0.0
-50.0   30.0   16.666666666666668
-100.0   0.0   16.666666666666668
-100.0   30.0   16.666666666666668
-50.0   30.0   16.666666666666668
-100.0   30.0   0.0
-100.0   0.0   16.666666666666668
-50.0   30.0   16.666666666666668
-50.0   0.0   16.666666666666668
-50.0   0.0   0.0
-100.0   0.0   16.666666666666668
-50.0   30.0   16.666666666666668
-50.0   0.0   0.0
-100.0   30.0   0.0
-100.0   0.0   16.666666666666668
-50.0   0.0   16.666666666666668
-100.0   30.0   16.666666666666668
-100.0   0.0   33.333333333333336
-50.0   0.0   16.666666666666668
-50.0   30.0   16.666666666666668
-100.0   30.0   16.666666666666668
-50.0   30.0   33.333333333333336
-100.0   0.0   33.333333333333336
-100.0   30.0   33.333333333333336
-50.0   30.0   33.333333333333336
-100.0   30.0   16.666666666666668
-100.0   0.0   33.333333333333336
-50.0   30.0   33.333333333333336
-50.0   0.0   33.333333333333336
-50.0   0.0   16.666666666666668
-100.0   0.0   33.333333333333336
-50.0   30.0   33.333333333333336
-50.0   0.0   16.666666666666668
-100.0   30.0   16.666666666666668
-100.0   0.0   33.333333333333336
-50.0   0.0   33.333333333333336
-100.0   30.0   33.333333333333336
-100.0   0.0   50.0
-50.0   0.0   33.333333333333336
-50.0   30.0   33.333333333333336
-100.0   30.0   33.333333333333336
-50.0   30.0   50.0
-100.0   0.0   50.0
-100.0   30.0   50.0
-50.0   30.0   50.0
-100.0   30.0   33.333333333333336
-100.0   0.0   50.0
-50.0   30.0   50.0
-50.0   0.0   50.0
-50.0   0.0   33.333333333333336
-100.0   0.0   50.0
-50.0   30.0   50.0
-50.0   0.0   33.333333333333336
-100.0   30.0   33.333333333333336
-100.0   30.0   0.0
-50.0   30.0   0.0
-100.0   60.0   0.0
-100.0   30.0   16.666666666666668
-50.0   30.0   0.0
-50.0   60.0   0.0
-100.0   60.0   0.0
-50.0   60.0   16.666666666666668
-100.0   30.0   16.666666666666668
-100.0   60.0   16.666666666666668
-50.0   60.0   16.666666666666668
-100.0   60.0   0.0
-100.0   30.0   16.666666666666668
-50.0   60.0   16.666666666666668
-50.0   30.0   16.666666666666668
-50.0   30.0   0.0
-100.0   30.0   16.666666666666668
-50.0   60.0   16.666666666666668
-50.0   30.0   0.0
-100.0   60.0   0.0
-100.0   30.0   16.666666666666668
-50.0   30.0   16.666666666666668
-100.0   60.0   16.666666666666668
-100.0   30.0   33.333333333333336
-50.0   30.0   16.666666666666668
-50.0   60.0   16.666666666666668
-100.0   60.0   16.666666666666668
-50.0   60.0   33.333333333333336
-100.0   30.0   33.333333333333336
-100.0   60.0   33.333333333333336
-50.0   60.0   33.333333333333336
-100.0   60.0   16.666666666666668
-100.0   30.0   33.333333333333336
-50.0   60.0   33.333333333333336
-50.0   30.0   33.333333333333336
-50.0   30.0   16.666666666666668
-100.0   30.0   33.333333333333336
-50.0   60.0   33.333333333333336
-50.0   30.0   16.666666666666668
-100.0   60.0   16.666666666666668
-100.0   30.0   33.333333333333336
-50.0   30.0   33.333333333333336
-100.0   60.0   33.333333333333336
-100.0   30.0   50.0
-50.0   30.0   33.333333333333336
-50.0   60.0   33.333333333333336
-100.0   60.0   33.333333333333336
-50.0   60.0   50.0
-100.0   30.0   50.0
-100.0   60.0   50.0
-50.0   60.0   50.0
-100.0   60.0   33.333333333333336
-100.0   30.0   50.0
-50.0   60.0   50.0
-50.0   30.0   50.0
-50.0   30.0   33.333333333333336
-100.0   30.0   50.0
-50.0   60.0   50.0
-50.0   30.0   33.333333333333336
-100.0   60.0   33.333333333333336
-100.0   60.0   0.0
-50.0   60.0   0.0
-100.0   90.0   0.0
-100.0   60.0   16.666666666666668
-50.0   60.0   0.0
-50.0   90.0   0.0
-100.0   90.0   0.0
-50.0   90.0   16.666666666666668
-100.0   60.0   16.666666666666668
-100.0   90.0   16.666666666666668
-50.0   90.0   16.666666666666668
-100.0   90.0   0.0
-100.0   60.0   16.666666666666668
-50.0   90.0   16.666666666666668
-50.0   60.0   16.666666666666668
-50.0   60.0   0.0
-100.0   60.0   16.666666666666668
-50.0   90.0   16.666666666666668
-50.0   60.0   0.0
-100.0   90.0   0.0
-100.0   60.0   16.666666666666668
-50.0   60.0   16.666666666666668
-100.0   90.0   16.666666666666668
-100.0   60.0   33.333333333333336
-50.0   60.0   16.666666666666668
-50.0   90.0   16.666666666666668
-100.0   90.0   16.666666666666668
-50.0   90.0   33.333333333333336
-100.0   60.0   33.333333333333336
-100.0   90.0   33.333333333333336
-50.0   90.0   33.333333333333336
-100.0   90.0   16.666666666666668
-100.0   60.0   33.333333333333336
-50.0   90.0   33.333333333333336
-50.0   60.0   33.333333333333336
-50.0   60.0   16.666666666666668
-100.0   60.0   33.333333333333336
-50.0   90.0   33.333333333333336
-50.0   60.0   16.666666666666668
-100.0   90.0   16.666666666666668
-100.0   60.0   33.333333333333336
-50.0   60.0   33.333333333333336
-100.0   90.0   33.333333333333336
-100.0   60.0   50.0
-50.0   60.0   33.333333333333336
-50.0   90.0   33.333333333333336
-100.0   90.0   33.333333333333336
-50.0   90.0   50.0
-100.0   60.0   50.0
-100.0   90.0   50.0
-50.0   90.0   50.0
-100.0   90.0   33.333333333333336
-100.0   60.0   50.0
-50.0   90.0   50.0
-50.0   60.0   50.0
-50.0   60.0   33.333333333333336
-100.0   60.0   50.0
-50.0   90.0   50.0
-50.0   60.0   33.333333333333336
-100.0   90.0   33.333333333333336
-100.0   90.0   0.0
-50.0   90.0   0.0
-100.0   120.0   0.0
-100.0   90.0   16.666666666666668
-50.0   90.0   0.0
-50.0   120.0   0.0
-100.0   120.0   0.0
-50.0   120.0   16.666666666666668
-100.0   90.0   16.666666666666668
-100.0   120.0   16.666666666666668
-50.0   120.0   16.666666666666668
-100.0   120.0   0.0
-100.0   90.0   16.666666666666668
-50.0   120.0   16.666666666666668
-50.0   90.0   16.666666666666668
-50.0   90.0   0.0
-100.0   90.0   16.666666666666668
-50.0   120.0   16.666666666666668
-50.0   90.0   0.0
-100.0   120.0   0.0
-100.0   90.0   16.666666666666668
-50.0   90.0   16.666666666666668
-100.0   120.0   16.666666666666668
-100.0   90.0   33.333333333333336
-50.0   90.0   16.666666666666668
-50.0   120.0   16.666666666666668
-100.0   120.0   16.666666666666668
-50.0   120.0   33.333333333333336
-100.0   90.0   33.333333333333336
-100.0   120.0   33.333333333333336
-50.0   120.0   33.333333333333336
-100.0   120.0   16.666666666666668
-100.0   90.0   33.333333333333336
-50.0   120.0   33.333333333333336
-50.0   90.0   33.333333333333336
-50.0   90.0   16.666666666666668
-100.0   90.0   33.333333333333336
-50.0   120.0   33.333333333333336
-50.0   90.0   16.666666666666668
-100.0   120.0   16.666666666666668
-100.0   90.0   33.333333333333336
-50.0   90.0   33.333333333333336
-100.0   120.0   33.333333333333336
-100.0   90.0   50.0
-50.0   90.0   33.333333333333336
-50.0   120.0   33.333333333333336
-100.0   120.0   33.333333333333336
-50.0   120.0   50.0
-100.0   90.0   50.0
-100.0   120.0   50.0
-50.0   120.0   50.0
-100.0   120.0   33.333333333333336
-100.0   90.0   50.0
-50.0   120.0   50.0
-50.0   90.0   50.0
-50.0   90.0   33.333333333333336
-100.0   90.0   50.0
-50.0   120.0   50.0
-50.0   90.0   33.333333333333336
-100.0   120.0   33.333333333333336
-100.0   120.0   0.0
-50.0   120.0   0.0
-100.0   150.0   0.0
-100.0   120.0   16.666666666666668
-50.0   120.0   0.0
-50.0   150.0   0.0
-100.0   150.0   0.0
-50.0   150.0   16.666666666666668
-100.0   120.0   16.666666666666668
-100.0   150.0   16.666666666666668
-50.0   150.0   16.666666666666668
-100.0   150.0   0.0
-100.0   120.0   16.666666666666668
-50.0   150.0   16.666666666666668
-50.0   120.0   16.666666666666668
-50.0   120.0   0.0
-100.0   120.0   16.666666666666668
-50.0   150.0   16.666666666666668
-50.0   120.0   0.0
-100.0   150.0   0.0
-100.0   120.0   16.666666666666668
-50.0   120.0   16.666666666666668
-100.0   150.0   16.666666666666668
-100.0   120.0   33.333333333333336
-50.0   120.0   16.666666666666668
-50.0   150.0   16.666666666666668
-100.0   150.0   16.666666666666668
-50.0   150.0   33.333333333333336
-100.0   120.0   33.333333333333336
-100.0   150.0   33.333333333333336
-50.0   150.0   33.333333333333336
-100.0   150.0   16.666666666666668
-100.0   120.0   33.333333333333336
-50.0   150.0   33.333333333333336
-50.0   120.0   33.333333333333336
-50.0   120.0   16.666666666666668
-100.0   120.0   33.333333333333336
-50.0   150.0   33.333333333333336
-50.0   120.0   16.666666666666668
-100.0   150.0   16.666666666666668
-100.0   120.0   33.333333333333336
-50.0   120.0   33.333333333333336
-100.0   150.0   33.333333333333336
-100.0   120.0   50.0
-50.0   120.0   33.333333333333336
-50.0   150.0   33.333333333333336
-100.0   150.0   33.333333333333336
-50.0   150.0   50.0
-100.0   120.0   50.0
-100.0   150.0   50.0
-50.0   150.0   50.0
-100.0   150.0   33.333333333333336
-100.0   120.0   50.0
-50.0   150.0   50.0
-50.0   120.0   50.0
-50.0   120.0   33.333333333333336
-100.0   120.0   50.0
-50.0   150.0   50.0
-50.0   120.0   33.333333333333336
-100.0   150.0   33.333333333333336
-50.0   0.0   0.0
0.0   0.0   0.0
-50.0   30.0   0.0
-50.0   0.0   16.666666666666668
0.0   0.0   0.0
0.0   30.0   0.0
-50.0   30.0   0.0
0.0   30.0   16.666666666666668
-50.0   0.0   16.666666666666668
-50.0   30.0   16.666666666666668
0.0   30.0   16.666666666666668
-50.0   30.0   0.0
-50.0   0.0   16.666666666666668
0.0   30.0   16.666666666666668
0.0   0.0   16.666666666666668
0.0   0.0   0.0
-50.0   0.0   16.666666666666668
0.0   30.0   16.666666666666668
0.0   0.0   0.0
-50.0   30.0   0.0
-50.0   0.0   16.666666666666668
0.0   0.0   16.666666666666668
-50.0   30.0   16.666666666666668
-50.0   0.0   33.333333333333336
0.0   0.0   16.666666666666668
0.0   30.0   16.666666666666668
-50.0   30.0   16.666666666666668
0.0   30.0   33.333333333333336
-50.0   0.0   33.333333333333336
-50.0   30.0   33.333333333333336
0.0   30.0   33.333333333333336
-50.0   30.0   16.666666666666668
-50.0   0.0   33.333333333333336
0.0   30.0   33.333333333333336
0.0   0.0   33.333333333333336
0.0   0.0   16.666666666666668
-50.0   0.0   33.333333333333336
0.0   30.0   33.333333333333336
0.0   0.0   16.666666666666668
-50.0   30.0   16.666666666666668
-50.0   0.0   33.333333333333336
0.0   0.0   33.333333333333336
-50.0   30.0   33.333333333333336
-50.0   0.0   50.0
0.0   0.0   33.333333333333336
0.0   30.0   33.333333333333336
-50.0   30.0   33.333333333333336
0.0   30.0   50.0
-50.0   0.0   50.0
-50.0   30.0   50.0
0.0   30.0   50.0
-50.0   30.0   33.333333333333336
-50.0   0.0   50.0
0.0   30.0   50.0
0.0   0.0   50.0
0.0   0.0   33.333333333333336
-50.0   0.0   50.0
0.0   30.0   50.0
0.0   0.0   33.333333333333336
-50.0   30.0   33.333333333333336
-50.0   30.0   0.0
0.0   30.0   0.0
-50.0   60.0   0.0
-50.0   30.0   16.666666666666668
0.0   30.0   0.0
0.0   60.0   0.0
-50.0   60.0   0.0
0.0   60.0   16.666666666666668
-50.0   30.0   16.666666666666668
-50.0   60.0   16.666666666666668
0.0   60.0   16.666666666666668
-50.0   60.0   0.0
-50.0   30.0   16.666666666666668
0.0   60.0   16.666666666666668
0.0   30.0   16.666666666666668
0.0   30.0   0.0
-50.0   30.0   16.666666666666668
0.0   60.0   16.666666666666668
0.0   30.0   0.0
-50.0   60.0   0.0
-50.0   30.0   16.666666666666668
0.0   30.0   16.666666666666668
-50.0   60.0   16.666666666666668
-50.0   30.0   33.333333333333336
0.0   30.0   16.666666666666668
0.0   60.0   16.666666666666668
-50.0   60.0   16.666666666666668
0.0   60.0   33.333333333333336
-50.0   30.0   33.333333333333336
-50.0   60.0   33.333333333333336
0.0   60.0   33.333333333333336
-50.0   60.0   16.666666666666668
-50.0   30.0   33.333333333333336
0.0   60.0   33.333333333333336
0.0   30.0   33.333333333333336
0.0   30.0   16.666666666666668
-50.0   30.0   33.333333333333336
0.0   60.0   33.333333333333336
0.0   30.0   16.666666666666668
-50.0   60.0   16.666666666666668
-50.0   30.0   33.333333333333336
0.0   30.0   33.333333333333336
-50.0   60.0   33.333333333333336
-50.0   30.0   50.0
0.0   30.0   33.333333333333336
0.0   60.0   33.333333333333336
-50.0   60.0   33.333333333333336
0.0   60.0   50.0
-50.0   30.0   50.0
-50.0   60.0   50.0
0.0   60.0   50.0
-50.0   60.0   33.333333333333336
-50.0   30.0   50.0
0.0   60.0   50.0
0.0   30.0   50.0
0.0   30.0   33.333333333333336
-50.0   30.0   50.0
0.0   60.0   50.0
0.0   30.0   33.333333333333336
-50.0   60.0   33.333333333333336
-50.0   60.0   0.0
0.0   60.0   0.0
-50.0   90.0   0.0
-50.0   60.0   16.666666666666668
0.0   60.0   0.0
0.0   90.0   0.0
-50.0   90.0   0.0
0.0   90.0   16.666666666666668
-50.0   60.0   16.666666666666668
-50.0   90.0   16.666666666666668
0.0   90.0   16.666666666666668
-50.0   90.0   0.0
-50.0   60.0   16.666666666666668
0.0   90.0   16.666666666666668
0.0   60.0   16.666666666666668
0.0   60.0   0.0
-50.0   60.0   16.666666666666668
0.0   90.0   16.666666666666668
0.0   60.0   0.0
-50.0   90.0   0.0
-50.0   60.0   16.666666666666668
0.0   60.0   16.666666666666668
-50.0   90.0   16.666666666666668
-50.0   60.0   33.333333333333336
0.0   60.0   16.666666666666668
0.0   90.0   16.666666666666668
-50.0   90.0   16.666666666666668
0.0   90.0   33.333333333333336
-50.0   60.0   33.333333333333336
-50.0   90.0   33.333333333333336
0.0   90.0   33.333333333333336
-50.0   90.0   16.666666666666668
-50.0   60.0   33.333333333333336
0.0   90.0   33.333333333333336
0.0   60.0   33.333333333333336
0.0   60.0   16.666666666666668
-50.0   60.0   33.333333333333336
0.0   90.0   33.333333333333336
0.0   60.0   16.666666666666668
-50.0   90.0   16.666666666666668
-50.0   60.0   33.333333333333336
0.0   60.0   33.333333333333336
-50.0   90.0   33.333333333333336
-50.0   60.0   50.0
0.0   60.0   33.333333333333336
0.0   90.0   33.333333333333336
-50.0   90.0   33.333333333333336
0.0   90.0   50.0
-50.0   60.0   50.0
-50.0   90.0   50.0
0.0   90.0   50.0
-50.0   90.0   33.333333333333336
-50.0   60.0   50.0
0.0   90.0   50.0
0.0   60.0   50.0
0.0   60.0   33.333333333333336
-50.0   60.0   50.0
0.0   90.0   50.0
0.0   60.0   33.333333333333336
-50.0   90.0   33.333333333333336
-50.0   90.0   0.0
0.0   90.0   0.0
-50.0   120.0   0.0
-50.0   90.0   16.666666666666668
0.0   90.0   0.0
0.0   120.0   0.0
-50.0   120.0   0.0
0.0   120.0   16.666666666666668
-50.0   90.0   16.666666666666668
-50.0   120.0   16.666666666666668
0.0   120.0   16.666666666666668
-50.0   120.0   0.0
-50.0   90.0   16.666666666666668
0.0   120.0   16.666666666666668
0.0   90.0   16.666666666666668
0.0   90.0   0.0
-50.0   90.0   16.666666666666668
0.0   120.0   16.666666666666668
0.0   90.0   0.0
-50.0   120.0   0.0
-50.0   90.0   16.666666666666668
0.0   90.0   16.666666666666668
-50.0   120.0   16.666666666666668
-50.0   90.0   33.333333333333336
0.0   90.0   16.666666666666668
0.0   120.0   16.666666666666668
-50.0   120.0   16.666666666666668
0.0   120.0   33.333333333333336
-50.0   90.0   33.333333333333336
-50.0   120.0   33.333333333333336
0.0   120.0   33.333333333333336
-50.0   120.0   16.666666666666668
-50.0   90.0   33.333333333333336
0.0   120.0   33.333333333333336
0.0   90.0   33.333333333333336
0.0   90.0   16.666666666666668
-50.0   90.0   33.333333333333336
0.0   120.0   33.333333333333336
0.0   90.0   16.666666666666668
-50.0   120.0   16.666666666666668
-50.0   90.0   33.333333333333336
0.0   90.0   33.333333333333336
-50.0   120.0   33.333333333333336
-50.0   90.0   50.0
0.0   90.0   33.333333333333336
0.0   120.0   33.333333333333336
-50.0   120.0   33.333333333333336
0.0   120.0   50.0
-50.0   90.0   50.0
-50.0   120.0   50.0
0.0   120.0   50.0
-50.0   120.0   33.333333333333336
-50.0   90.0   50.0
0.0   120.0   50.0
0.0   90.0   50.0
0.0   90.0   33.333333333333336
-50.0   90.0   50.0
0.0   120.0   50.0
0.0   90.0   33.333333333333336
-50.0   120.0   33.333333333333336
-50.0   120.0   0.0
0.0   120.0   0.0
-50.0   150.0   0.0
-50.0   120.0   16.666666666666668
0.0   120.0   0.0
0.0   150.0   0.0
-50.0   150.0   0.0
0.0   150.0   16.666666666666668
-50.0   120.0   16.666666666666668
-50.0   150.0   16.666666666666668
0.0   150.0   16.666666666666668
-50.0   150.0   0.0
-50.0   120.0   16.666666666666668
0.0   150.0   16.666666666666668
0.0   120.0   16.666666666666668
0.0   120.0   0.0
-50.0   120.0   16.666666666666668
0.0   150.0   16.666666666666668
0.0   120.0   0.0
-50.0   150.0   0.0
-50.0   120.0   16.666666666666668
0.0   120.0   16.666666666666668
-50.0   150.0   16.666666666666668
-50.0   120.0   33.333333333333336
0.0   120.0   16.666666666666668
0.0   150.0   16.666666666666668
-50.0   150.0   16.666666666666668
0.0   150.0   33.333333333333336
-50.0   120.0   33.333333333333336
-50.0   150.0   33.333333333333336
0.0   150.0   33.333333333333336
-50.0   150.0   16.666666666666668
-50.0   120.0   33.333333333333336
0.0   150.0   33.333333333333336
0.0   120.0   33.333333333333336
0.0   120.0   16.666666666666668
-50.0   120.0   33.333333333333336
0.0   150.0   33.333333333333336
0.0   120.0   16.666666666666668
-50.0   150.0   16.666666666666668
-50.0   120.0   33.333333333333336
0.0   120.0   33.333333333333336
-50.0   150.0   33.333333333333336
-50.0   120.0   50.0
0.0   120.0   33.333333333333336
0.0   150.0   33.333333333333336
-50.0   150.0   33.333333333333336
0.0   150.0   50.0
-50.0   120.0   50.0
-50.0   150.0   50.0
0.0   150.0   50.0
-50.0   150.0   33.333333333333336
-50.0   120.0   50.0
0.0   150.0   50.0
0.0   120.0   50.0
0.0   120.0   33.333333333333336
-50.0   120.0   50.0
0.0   150.0   50.0
0.0   120.0   33.333333333333336
-50.0   150.0   33.333333333333336
0.0   0.0   0.0
50.0   0.0   0.0
0.0   30.0   0.0
0.0   0.0   16.666666666666668
50.0   0.0   0.0
50.0   30.0   0.0
0.0   30.0   0.0
50.0   30.0   16.666666666666668
0.0   0.0   16.666666666666668
0.0   30.0   16.666666666666668
50.0   30.0   16.666666666666668
0.0   30.0   0.0
0.0   0.0   16.666666666666668
50.0   30.0   16.666666666666668
50.0   0.0   16.666666666666668
50.0   0.0   0.0
0.0   0.0   16.666666666666668
50.0   30.0   16.666666666666668
50.0   0.0   0.0
0.0   30.0   0.0
0.0   0.0   16.666666666666668
50.0   0.0   16.666666666666668
0.0   30.0   16.666666666666668
0.0   0.0   33.333333333333336
50.0   0.0   16.666666666666668
50.0   30.0   16.666666666666668
0.0   30.0   16.666666666666668
50.0   30.0   33.333333333333336
0.0   0.0   33.333333333333336
0.0   30.0   33.333333333333336
50.0   30.0   33.333333333333336
0.0   30.0   16.666666666666668
0.0   0.0   33.333333333333336
50.0   30.0   33.333333333333336
50.0   0.0   33.333333333333336
50.0   0.0   16.666666666666668
0.0   0.0   33.333333333333336
50.0   30.0   33.333333333333336
50.0   0.0   16.666666666666668
0.0   30.0   16.666666666666668
0.0   0.0   33.333333333333336
50.0   0.0   33.333333333333336
0.0   30.0   33.333333333333336
0.0   0.0   50.0
50.0   0.0   33.333333333333336
50.0   30.0   33.333333333333336
0.0   30.0   33.333333333333336
50.0   30.0   50.0
0.0   0.0   50.0
0.0   30.0   50.0
50.0   30.0   50.0
0.0   30.0   33.333333333333336
0.0   0.0   50.0
50.0   30.0   50.0
50.0   0.0   50.0
50.0   0.0   33.333333333333336
0.0   0.0   50.0
50.0   30.0   50.0
50.0   0.0   33.333333333333336
0.0   30.0   33.333333333333336
0.0   30.0   0.0
50.0   30.0   0.0
0.0   60.0   0.0
0.0   30.0   16.666666666666668
50.0   30.0   0.0
50.0   60.0   0.0
0.0   60.0   0.0
50.0   60.0   16.666666666666668
0.0   30.0   16.666666666666668
0.0   60.0   16.666666666666668
50.0   60.0   16.666666666666668
0.0   60.0   0.0
0.0   30.0   16.666666666666668
50.0   60.0   16.666666666666668
50.0   30.0   16.666666666666668
50.0   30.0   0.0
0.0   30.0   16.666666666666668
50.0   60.0   16.666666666666668
50.0   30.0   0.0
0.0   60.0   0.0
0.0   30.0   16.666666666666668
50.0   30.0   16.666666666666668
0.0   60.0   16.666666666666668
0.0   30.0   33.333333333333336
50.0   30.0   16.666666666666668
50.0   60.0   16.666666666666668
0.0   60.0   16.666666666666668
50.0   60.0   33.333333333333336
0.0   30.0   33.333333333333336
0.0   60.0   33.333333333333336
50.0   60.0   33.333333333333336
0.0   60.0   16.666666666666668
0.0   30.0   33.333333333333336
50.0   60.0   33.333333333333336
50.0   30.0   33.333333333333336
50.0   30.0   16.666666666666668
0.0   30.0   33.333333333333336
50.0   60.0   33.333333333333336
50.0   30.0   16.666666666666668
0.0   60.0   16.666666666666668
0.0   30.0   33.333333333333336
50.0   30.0   33.333333333333336
0.0   60.0   33.333333333333336
0.0   30.0   50.0
50.0   30.0   33.333333333333336
50.0   60.0   33.333333333333336
0.0   60.0   33.333333333333336
50.0   60.0   50.0
0.0   30.0   50.0
0.0   60.0   50.0
50.0   60.0   50.0
0.0   60.0   33.333333333333336
0.0   30.0   50.0
50.0   60.0   50.0
50.0   30.0   50.0
50.0   30.0   33.333333333333336
0.0   30.0   50.0
50.0   60.0   50.0
50.0   30.0   33.333333333333336
0.0   60.0   33.333333333333336
0.0   60.0   0.0
50.0   60.0   0.0
0.0   90.0   0.0
0.0   60.0   16.666666666666668
50.0   60.0   0.0
50.0   90.0   0.0
0.0   90.0   0.0
50.0   90.0   16.666666666666668
0.0   60.0   16.666666666666668
0.0   90.0   16.666666666666668
50.0   90.0   16.666666666666668
0.0   90.0   0.0
0.0   60.0   16.666666666666668
50.0   90.0   16.666666666666668
50.0   60.0   16.666666666666668
50.0   60.0   0.0
0.0   60.0   16.666666666666668
50.0   90.0   16.666666666666668
50.0   60.0   0.0
0.0   90.0   0.0
0.0   60.0   16.666666666666668
50.0   60.0   16.666666666666668
0.0   90.0   16.666666666666668
0.0   60.0   33.333333333333336
50.0   60.0   16.666666666666668
50.0   90.0   16.666666666666668
0.0   90.0   16.666666666666668
50.0   90.0   33.333333333333336
0.0   60.0   33.333333333333336
0.0   90.0   33.333333333333336
50.0   90.0   33.333333333333336
0.0   90.0   16.666666666666668
0.0   60.0   33.333333333333336
50.0   90.0   33.333333333333336
50.0   60.0   33.333333333333336
50.0   60.0   16.666666666666668
0.0   60.0   33.333333333333336
50.0   90.0   33.333333333333336
50.0   60.0   16.666666666666668
0.0   90.0   16.666666666666668
0.0   60.0   33.333333333333336
50.0   60.0   33.333333333333336
0.0   90.0   33.333333333333336
0.0   60.0   50.0
50.0   60.0   33.333333333333336
50.0   90.0   33.333333333333336
0.0   90.0   33.333333333333336
50.0   90.0   50.0
0.0   60.0   50.0
0.0   90.0   50.0
50.0   90.0   50.0
0.0   90.0   33.333333333333336
0.0   60.0   50.0
50.0   90.0   50.0
50.0   60.0   50.0
50.0   60.0   33.333333333333336
0.0   60.0   50.0
50.0   90.0   50.0
50.0   60.0   33.333333333333336
0.0   90.0   33.333333333333336
0.0   90.0   0.0
50.0   90.0   0.0
0.0   120.0   0.0
0.0   90.0   16.666666666666668
50.0   90.0   0.0
50.0   120.0   0.0
0.0   120.0   0.0
50.0   120.0   16.666666666666668
0.0   90.0   16.666666666666668
0.0   120.0   16.666666666666668
50.0   120.0   16.666666666666668
0.0   120.0   0.0
0.0   90.0   16.666666666666668
50.0   120.0   16.666666666666668
50.0   90.0   16.666666666666668
50.0   90.0   0.0
0.0   90.0   16.666666666666668
50.0   120.0   16.666666666666668
50.0   90.0   0.0
0.0   120.0   0.0
0.0   90.0   16.666666666666668
50.0   90.0   16.666666666666668
0.0   120.0   16.666666666666668
0.0   90.0   33.333333333333336
50.0   90.0   16.666666666666668
50.0   120.0   16.666666666666668
0.0   120.0   16.666666666666668
50.0   120.0   33.333333333333336
0.0   90.0   33.333333333333336
0.0   120.0   33.333333333333336
50.0   120.0   33.333333333333336
0.0   120.0   16.666666666666668
0.0   90.0   33.333333333333336
50.0   120.0   33.333333333333336
50.0   90.0   33.333333333333336
50.0   90.0   16.666666666666668
0.0   90.0   33.333333333333336
50.0   120.0   33.333333333333336
50.0   90.0   16.666666666666668
0.0   120.0   16.666666666666668
0.0   90.0   33.333333333333336
50.0   90.0   33.333333333333336
0.0   120.0   33.333333333333336
0.0   90.0   50.0
50.0   90.0   33.333333333333336
50.0   120.0   33.333333333333336
0.0   120.0   33.333333333333336
50.0   120.0   50.0
0.0   90.0   50.0
0.0   120.0   50.0
50.0   120.0   50.0
0.0   120.0   33.333333333333336
0.0   90.0   50.0
50.0   120.0   50.0
50.0   90.0   50.0
50.0   90.0   33.333333333333336
0.0   90.0   50.0
50.0   120.0   50.0
50.0   90.0   33.333333333333336
0.0   120.0   33.333333333333336
0.0   120.0   0.0
50.0   120.0   0.0
0.0   150.0   0.0
0.0   120.0   16.666666666666668
50.0   120.0   0.0
50.0   150.0   0.0
0.0   150.0   0.0
50.0   150.0   16.666666666666668
0.0   120.0   16.666666666666668
0.0   150.0   16.666666666666668
50.0   150.0   16.666666666666668
0.0   150.0   0.0
0.0   120.0   16.666666666666668
50.0   150.0   16.666666666666668
50.0   120.0   16.666666666666668
50.0   120.0   0.0
0.0   120.0   16.666666666666668
50.0   150.0   16.666666666666668
50.0   120.0   0.0
0.0   150.0   0.0
0.0   120.0   16.666666666666668
50.0   120.0   16.666666666666668
0.0   150.0   16.666666666666668
0.0   120.0   33.333333333333336
50.0   120.0   16.666666666666668
50.0   150.0   16.666666666666668
0.0   150.0   16.666666666666668
50.0   150.0   33.333333333333336
0.0   120.0   33.333333333333336
0.0   150.0   33.333333333333336
50.0   150.0   33.333333333333336
0.0   150.0   16.666666666666668
0.0   120.0   33.333333333333336
50.0   150.0   33.333333333333336
50.0   120.0   33.333333333333336
50.0   120.0   16.666666666666668
0.0   120.0   33.333333333333336
50.0   150.0   33.333333333333336
50.0   120.0   16.666666666666668
0.0   150.0   16.666666666666668
0.0   120.0   33.333333333333336
50.0   120.0   33.333333333333336
0.0   150.0   33.333333333333336
0.0   120.0   50.0
50.0   120.0   33.333333333333336
50.0   150.0   33.333333333333336
0.0   150.0   33.333333333333336
50.0   150.0   50.0
0.0   120.0   50.0
0.0   150.0   50.0
50.0   150.0   50.0
0.0   150.0   33.333333333333336
0.0   120.0   50.0
50.0   150.0   50.0
50.0   120.0   50.0
50.0   120.0   33.333333333333336
0.0   120.0   50.0
50.0   150.0   50.0
50.0   120.0   33.333333333333336
0.0   150.0   33.333333333333336
50.0   0.0   0.0
100.0   0.0   0.0
50.0   30.0   0.0
50.0   0.0   16.666666666666668
100.0   0.0   0.0
100.0   30.0   0.0
50.0   30.0   0.0
100.0   30.0   16.666666666666668
50.0   0.0   16.666666666666668
50.0   30.0   16.666666666666668
100.0   30.0   16.666666666666668
50.0   30.0   0.0
50.0   0.0   16.666666666666668
100.0   30.0   16.666666666666668
100.0   0.0   16.666666666666668
100.0   0.0   0.0
50.0   0.0   16.666666666666668
100.0   30.0   16.666666666666668
100.0   0.0   0.0
50.0   30.0   0.0
50.0   0.0   16.666666666666668
100.0   0.0   16.666666666666668
50.0   30.0   16.666666666666668
50.0   0.0   33.333333333333336
100.0   0.0   16.666666666666668
100.0   30.0   16.666666666666668
50.0   30.0   16.666666666666668
100.0   30.0   33.333333333333336
50.0   0.0   33.333333333333336
50.0   30.0   33.333333333333336
100.0   30.0   33.333333333333336
50.0   30.0   16.666666666666668
50.0   0.0   33.333333333333336
100.0   30.0   33.333333333333336
100.0   0.0   33.333333333333336
100.0   0.0   16.666666666666668
50.0   0.0   33.333333333333336
100.0   30.0   33.333333333333336
100.0   0.0   16.666666666666668
50.0   30.0   16.666666666666668
50.0   0.0   33.333333333333336
100.0   0.0   33.333333333333336
50.0   30.0   33.333333333333336
50.0   0.0   50.0
100.0   0.0   33.333333333333336
100.0   30.0   33.333333333333336
50.0   30.0   33.333333333333336
100.0   30.0   50.0
50.0   0.0   50.0
50.0   30.0   50.0
100.0   30.0   50.0
50.0   30.0   33.333333333333336
50.0   0.0   50.0
100.0   30.0   50.0
100.0   0.0   50.0
100.0   0.0   33.333333333333336
50.0   0.0   50.0
100.0   30.0   50.0
100.0   0.0   33.333333333333336
50.0   30.0   33.333333333333336
50.0   30.0   0.0
100.0   30.0   0.0
50.0   60.0   0.0
50.0   30.0   16.666666666666668
100.0   30.0   0.0
100.0   60.0   0.0
50.0   60.0   0.0
100.0   60.0   16.666666666666668
50.0   30.0   16.666666666666668
50.0   60.0   16.666666666666668
100.0   60.0   16.666666666666668
50.0   60.0   0.0
50.0   30.0   16.666666666666668
100.0   60.0   16.666666666666668
100.0   30.0   16.666666666666668
100.0   30.0   0.0
50.0   30.0   16.666666666666668
100.0   60.0   16.666666666666668
100.0   30.0   0.0
50.0   60.0   0.0
50.0   30.0   16.666666666666668
100.0   30.0   16.666666666666668
50.0   60.0   16.666666666666668
50.0   30.0   33.333333333333336
100.0   30.0   16.666666666666668
100.0   60.0   16.666666666666668
50.0   60.0   16.666666666666668
100.0   60.0   33.333333333333336
50.0   30.0   33.333333333333336
50.0   60.0   33.333333333333336
100.0   60.0   33.333333333333336
50.0   60.0   16.666666666666668
50.0   30.0   33.333333333333336
100.0   60.0   33.333333333333336
100.0   30.0   33.333333333333336
100.0   30.0   16.666666666666668
50.0   30.0   33.333333333333336
100.0   60.0   33.333333333333336
100.0   30.0   16.666666666666668
50.0   60.0   16.666666666666668
50.0   30.0   33.333333333333336
100.0   30.0   33.333333333333336
50.0   60.0   33.333333333333336
50.0   30.0   50.0
100.0   30.0   33.333333333333336
100.0   60.0   33.333333333333336
50.0   60.0   33.333333333333336
100.0   60.0   50.0
50.0   30.0   50.0
50.0   60.0   50.0
100.0   60.0   50.0
50.0   60.0   33.333333333333336
50.0   30.0   50.0
100.0   60.0   50.0
100.0   30.0   50.0
100.0   30.0   33.333333333333336
50.0   30.0   50.0
100.0   60.0   50.0
100.0   30.0   33.333333333333336
50.0   60.0   33.333333333333336
50.0   60.0   0.0
100.0   60.0   0.0
50.0   90.0   0.0
50.0   60.0   16.666666666666668
100.0   60.0   0.0
100.0   90.0   0.0
50.0   90.0   0.0
100.0   90.0   16.666666666666668
50.0   60.0   16.666666666666668
50.0   90.0   16.666666666666668
100.0   90.0   16.666666666666668
50.0   90.0   0.0
50.0   60.0   16.666666666666668
100.0   90.0   16.666666666666668
100.0   60.0   16.666666666666668
100.0   60.0   0.0
50.0   60.0   16.666666666666668
100.0   90.0   16.666666666666668
100.0   60.0   0.0
50.0   90.0   0.0
50.0   60.0   16.666666666666668
100.0   60.0   16.666666666666668
50.0   90.0   16.666666666666668
50.0   60.0   33.333333333333336
100.0   60.0   16.666666666666668
100.0   90.0   16.666666666666668
50.0   90.0   16.666666666666668
100.0   90.0   33.333333333333336
50.0   60.0   33.333333333333336
50.0   90.0   33.333333333333336
100.0   90.0   33.333333333333336
50.0   90.0   16.666666666666668
50.0   60.0   33.333333333333336
100.0   90.0   33.333333333333336
100.0   60.0   33.333333333333336
100.0   60.0   16.666666666666668
50.0   60.0   33.333333333333336
100.0   90.0   33.333333333333336
100.0   60.0   16.666666666666668
50.0   90.0   16.666666666666668
50.0   60.0   33.333333333333336
100.0   60.0   33.333333333333336
50.0   90.0   33.333333333333336
50.0   60.0   50.0
100.0   60.0   33.333333333333336
100.0   90.0   33.333333333333336
50.0   90.0   33.333333333333336
100.0   90.0   50.0
50.0   60.0   50.0
50.0   90.0   50.0
100.0   90.0   50.0
50.0   90.0   33.333333333333336
50.0   60.0   50.0
100.0   90.0   50.0
100.0   60.0   50.0
100.0   60.0   33.333333333333336
50.0   60.0   50.0
100.0   90.0   50.0
100.0   60.0   33.333333333333336
50.0   90.0   33.333333333333336
50.0   90.0   0.0
100.0   90.0   0.0
50.0   120.0   0.0
50.0   90.0   16.666666666666668
100.0   90.0   0.0
100.0   120.0   0.0
50.0   120.0   0.0
100.0   120.0   16.666666666666668
50.0   90.0   16.666666666666668
50.0   120.0   16.666666666666668
100.0   120.0   16.666666666666668
50.0   120.0   0.0
50.0   90.0   16.666666666666668
100.0   120.0   16.666666666666668
100.0   90.0   16.666666666666668
100.0   90.0   0.0
50.0   90.0   16.666666666666668
100.0   120.0   16.666666666666668
100.0   90.0   0.0
50.0   120.0   0.0
50.0   90.0   16.666666666666668
100.0   90.0   16.666666666666668
50.0   120.0   16.666666666666668
50.0   90.0   33.333333333333336
100.0   90.0   16.666666666666668
100.0   120.0   16.666666666666668
50.0   120.0   16.666666666666668
100.0   120.0   33.333333333333336
50.0   90.0   33.333333333333336
50.0   120.0   33.333333333333336
100.0   120.0   33.333333333333336
50.0   120.0   16.666666666666668
50.0   90.0   33.333333333333336
100.0   120.0   33.333333333333336
100.0   90.0   33.333333333333336
100.0   90.0   16.666666666666668
50.0   90.0   33.333333333333336
100.0   120.0   33.333333333333336
100.0   90.0   16.666666666666668
50.0   120.0   16.666666666666668
50.0   90.0   33.333333333333336
100.0   90.0   33.333333333333336
50.0   120.0   33.333333333333336
50.0   90.0   50.0
100.0   90.0   33.333333333333336
100.0   120.0   33.333333333333336
50.0   120.0   33.333333333333336
100.0   120.0   50.0
50.0   90.0   50.0
50.0   120.0   50.0
100.0   120.0   50.0
50.0   120.0   33.333333333333336
50.0   90.0   50.0
100.0   120.0   50.0
100.0   90.0   50.0
100.0   90.0   33.333333333333336
50.0   90.0   50.0
100.0   120.0   50.0
100.0   90.0   33.333333333333336
50.0   120.0   33.333333333333336
50.0   120.0   0.0
100.0   120.0   0.0
50.0   150.0   0.0
50.0   120.0   16.666666666666668
100.0   120.0   0.0
100.0   150.0   0.0
50.0   150.0   0.0
100.0   150.0   16.666666666666668
50.0   120.0   16.666666666666668
50.0   150.0   16.666666666666668
100.0   150.0   16.666666666666668
50.0   150.0   0.0
50.0   120.0   16.666666666666668
100.0   150.0   16.666666666666668
100.0   120.0   16.666666666666668
100.0   120.0   0.0
50.0   120.0   16.666666666666668
100.0   150.0   16.666666666666668
100.0   120.0   0.0
50.0   150.0   0.0
50.0   120.0   16.666666666666668
100.0   120.0   16.666666666666668
50.0   150.0   16.666666666666668
50.0   120.0   33.333333333333336
100.0   120.0   16.666666666666668
100.0   150.0   16.666666666666668
50.0   150.0   16.666666666666668
100.0   150.0   33.333333333333336
50.0   120.0   33.333333333333336
50.0   150.0   33.333333333333336
100.0   150.0   33.333333333333336
50.0   150.0   16.666666666666668
50.0   120.0   33.333333333333336
100.0   150.0   33.333333333333336
100.0   120.0   33.333333333333336
100.0   120.0   16.666666666666668
50.0   120.0   33.333333333333336
100.0   150.0   33.333333333333336
100.0   120.0   16.666666666666668
50.0   150.0   16.666666666666668
50.0   120.0   33.333333333333336
100.0   120.0   33.333333333333336
50.0   150.0   33.333333333333336
50.0   120.0   50.0
100.0   120.0   33.333333333333336
100.0   150.0   33.333333333333336
50.0   150.0   33.333333333333336
100.0   150.0   50.0
50.0   120.0   50.0
50.0   150.0   50.0
100.0   150.0   50.0
50.0   150.0   33.333333333333336
50.0   120.0   50.0
100.0   150.0   50.0
100.0   120.0   50.0
100.0   120.0   33.333333333333336
50.0   120.0   50.0
100.0   150.0   50.0
100.0   120.0   33.333333333333336
50.0   150.0   33.333333333333336
100.0   0.0   0.0
150.0   0.0   0.0
100.0   30.0   0.0
100.0   0.0   16.666666666666668
150.0   0.0   0.0
150.0   30.0   0.0
100.0   30.0   0.0
150.0   30.0   16.666666666666668
100.0   0.0   16.666666666666668
100.0   30.0   16.666666666666668
150.0   30.0   16.666666666666668
100.0   30.0   0.0
100.0   0.0   16.666666666666668
150.0   30.0   16.666666666666668
150.0   0.0   16.666666666666668
150.0   0.0   0.0
100.0   0.0   16.666666666666668
150.0   30.0   16.666666666666668
150.0   0.0   0.0
100.0   30.0   0.0
100.0   0.0   16.666666666666668
150.0   0.0   16.666666666666668
100.0   30.0   16.666666666666668
100.0   0.0   33.333333333333336
150.0   0.0   16.666666666666668
150.0   30.0   16.666666666666668
100.0   30.0   16.666666666666668
150.0   30.0   33.333333333333336
100.0   0.0   33.333333333333336
100.0   30.0   33.333333333333336
150.0   30.0   33.333333333333336
100.0   30.0   16.666666666666668
100.0   0.0   33.333333333333336
150.0   30.0   33.333333333333336
150.0   0.0   33.333333333333336
150.0   0.0   16.666666666666668
100.0   0.0   33.333333333333336
150.0   30.0   33.333333333333336
150.0   0.0   16.666666666666668
100.0   30.0   16.666666666666668
100.0   0.0   33.333333333333336
150.0   0.0   33.333333333333336
100.0   30.0   33.333333333333336
100.0   0.0   50.0
150.0   0.0   33.333333333333336
150.0   30.0   33.333333333333336
100.0   30.0   33.333333333333336
150.0   30.0   50.0
100.0   0.0   50.0
100.0   30.0   50.0
150.0   30.0   50.0
100.0   30.0   33.333333333333336
100.0   0.0   50.0
150.0   30.0   50.0
150.0   0.0   50.0
150.0   0.0   33.333333333333336
100.0   0.0   50.0
150.0   30.0   50.0
150.0   0.0   33.333333333333336
100.0   30.0   33.333333333333336
100.0   30.0   0.0
150.0   30.0   0.0
100.0   60.0   0.0
100.0   30.0   16.666666666666668
150.0   30.0   0.0
150.0   60.0   0.0
100.0   60.0   0.0
150.0   60.0   16.666666666666668
100.0   30.0   16.666666666666668
100.0   60.0   16.666666666666668
150.0   60.0   16.666666666666668
100.0   60.0   0.0
100.0   30.0   16.666666666666668
150.0   60.0   16.666666666666668
150.0   30.0   16.666666666666668
150.0   30.0   0.0
100.0   30.0   16.666666666666668
150.0   60.0   16.666666666666668
150.0   30.0   0.0
100.0   60.0   0.0
100.0   30.0   16.666666666666668
150.0   30.0   16.666666666666668
100.0   60.0   16.666666666666668
100.0   30.0   33.333333333333336
150.0   30.0   16.666666666666668
150.0   60.0   16.666666666666668
100.0   60.0   16.666666666666668
150.0   60.0   33.333333333333336
100.0   30.0   33.333333333333336
100.0   60.0   33.333333333333336
150.0   60.0   33.333333333333336
100.0   60.0   16.666666666666668
100.0   30.0   33.333333333333336
150.0   60.0   33.333333333333336
150.0   30.0   33.333333333333336
150.0   30.0   16.666666666666668
100.0   30.0   33.333333333333336
150.0   60.0   33.333333333333336
150.0   30.0   16.666666666666668
100.0   60.0   16.666666666666668
100.0   30.0   33.333333333333336
150.0   30.0   33.333333333333336
100.0   60.0   33.333333333333336
100.0   30.0   50.0
150.0   30.0   33.333333333333336
150.0   60.0   33.333333333333336
100.0   60.0   33.333333333333336
150.0   60.0   50.0
100.0   30.0   50.0
100.0   60.0   50.0
150.0   60.0   50.0
100.0   60.0   33.333333333333336
100.0   30.0   50.0
150.0   60.0   50.0
150.0   30.0   50.0
150.0   30.0   33.333333333333336
100.0   30.0   50.0
150.0   60.0   50.0
150.0   30.0   33.333333333333336
100.0   60.0   33.333333333333336
100.0   60.0   0.0
150.0   60.0   0.0
100.0   90.0   0.0
100.0   60.0   16.666666666666668
150.0   60.0   0.0
150.0   90.0   0.0
100.0   90.0   0.0
150.0   90.0   16.666666666666668
100.0   60.0   16.666666666666668
100.0   90.0   16.666666666666668
150.0   90.0   16.666666666666668
100.0   90.0   0.0
100.0   60.0   16.666666666666668
150.0   90.0   16.666666666666668
150.0   60.0   16.666666666666668
150.0   60.0   0.0
100.0   60.0   16.666666666666668
150.0   90.0   16.666666666666668
150.0   60.0   0.0
100.0   90.0   0.0
100.0   60.0   16.666666666666668
150.0   60.0   16.666666666666668
100.0   90.0   16.666666666666668
100.0   60.0   33.333333333333336
150.0   60.0   16.666666666666668
150.0   90.0   16.666666666666668
100.0   90.0   16.666666666666668
150.0   90.0   33.333333333333336
100.0   60.0   33.333333333333336
100.0   90.0   33.333333333333336
150.0   90.0   33.333333333333336
100.0   90.0   16.666666666666668
100.0   60.0   33.333333333333336
150.0   90.0   33.333333333333336
150.0   60.0   33.333333333333336
150.0   60.0   16.666666666666668
100.0   60.0   33.333333333333336
150.0   90.0   33.333333333333336
150.0   60.0   16.666666666666668
100.0   90.0   16.666666666666668
100.0   60.0   33.333333333333336
150.0   60.0   33.333333333333336
100.0   90.0   33.333333333333336
100.0   60.0   50.0
150.0   60.0   33.333333333333336
150.0   90.0   33.333333333333336
100.0   90.0   33.333333333333336
150.0   90.0   50.0
100.0   60.0   50.0
100.0   90.0   50.0
150.0   90.0   50.0
100.0   90.0   33.333333333333336
100.0   60.0   50.0
150.0   90.0   50.0
150.0   60.0   50.0
150.0   60.0   33.333333333333336
100.0   60.0   50.0
150.0   90.0   50.0
150.0   60.0   33.333333333333336
100.0   90.0   33.333333333333336
100.0   90.0   0.0
150.0   90.0   0.0
100.0   120.0   0.0
100.0   90.0   16.666666666666668
150.0   90.0   0.0
150.0   120.0   0.0
100.0   120.0   0.0
150.0   120.0   16.666666666666668
100.0   90.0   16.666666666666668
100.0   120.0   16.666666666666668
150.0   120.0   16.666666666666668
100.0   120.0   0.0
100.0   90.0   16.666666666666668
150.0   120.0   16.666666666666668
150.0   90.0   16.666666666666668
150.0   90.0   0.0
100.0   90.0   16.666666666666668
150.0   120.0   16.666666666666668
150.0   90.0   0.0
100.0   120.0   0.0
100.0   90.0   16.666666666666668
150.0   90.0   16.666666666666668
100.0   120.0   16.666666666666668
100.0   90.0   33.333333333333336
150.0   90.0   16.666666666666668
150.0   120.0   16.666666666666668
100.0   120.0   16.666666666666668
150.0   120.0   33.333333333333336
100.0   90.0   33.333333333333336
100.0   120.0   33.333333333333336
150.0   120.0   33.333333333333336
100.0   120.0   16.666666666666668
100.0   90.0   33.333333333333336
150.0   120.0   33.333333333333336
150.0   90.0   33.333333333333336
150.0   90.0   16.666666666666668
100.0   90.0   33.333333333333336
150.0   120.0   33.333333333333336
150.0   90.0   16.666666666666668
100.0   120.0   16.666666666666668
100.0   90.0   33.333333333333336
150.0   90.0   33.333333333333336
100.0   120.0   33.333333333333336
100.0   90.0   50.0
150.0   90.0   33.333333333333336
150.0   120.0   33.333333333333336
100.0   120.0   33.333333333333336
150.0   120.0   50.0
100.0   90.0   50.0
100.0   120.0   50.0
150.0   120.0   50.0
100.0   120.0   33.333333333333336
100.0   90.0   50.0
150.0   120.0   50.0
150.0   90.0   50.0
150.0   90.0   33.333333333333336
100.0   90.0   50.0
150.0   120.0   50.0
150.0   90.0   33.333333333333336
100.0   120.0   33.333333333333336
100.0   120.0   0.0
150.0   120.0   0.0
100.0   150.0   0.0
100.0   120.0   16.666666666666668
150.0   120.0   0.0
150.0   150.0   0.0
100.0   150.0   0.0
150.0   150.0   16.666666666666668
100.0   120.0   16.666666666666668
100.0   150.0   16.666666666666668
150.0   150.0   16.666666666666668
100.0   150.0   0.0
100.0   120.0   16.666666666666668
150.0   150.0   16.666666666666668
150.0   120.0   16.666666666666668
150.0   120.0   0.0
100.0   120.0   16.666666666666668
150.0   150.0   16.666666666666668
150.0   120.0   0.0
100.0   150.0   0.0
100.0   120.0   16.666666666666668
150.0   120.0   16.666666666666668
100.0   150.0   16.666666666666668
100.0   120.0   33.333333333333336
150.0   120.0   16.666666666666668
150.0   150.0   16.666666666666668
100.0   150.0   16.666666666666668
150.0   150.0   33.333333333333336
100.0   120.0   33.333333333333336
100.0   150.0   33.333333333333336
150.0   150.0   33.333333333333336
100.0   150.0   16.666666666666668
100.0   120.0   33.333333333333336
150.0   150.0   33.333333333333336
150.0   120.0   33.333333333333336
150.0   120.0   16.666666666666668
100.0   120.0   33.333333333333336
150.0   150.0   33.333333333333336
150.0   120.0   16.666666666666668
100.0   150.0   16.666666666666668
100.0   120.0   33.333333333333336
150.0   120.0   33.333333333333336
100.0   150.0   33.333333333333336
100.0   120.0   50.0
150.0   120.0   33.333333333333336
150.0   150.0   33.333333333333336
100.0   150.0   33.333333333333336
150.0   150.0   50.0
100.0   120.0   50.0
100.0   150.0   50.0
150.0   150.0   50.0
100.0   150.0   33.333333333333336
100.0   120.0   50.0
150.0   150.0   50.0
150.0   120.0   50.0
150.0   120.0   33.333333333333336
100.0   120.0   50.0
150.0   150.0   50.0
150.0   120.0   33.333333333333336
100.0   150.0   33.333333333333336
150.0   0.0   0.0
200.0   0.0   0.0
150.0   30.0   0.0
150.0   0.0   16.666666666666668
200.0   0.0   0.0
200.0   30.0   0.0
150.0   30.0   0.0
200.0   30.0   16.666666666666668
150.0   0.0   16.666666666666668
150.0   30.0   16.666666666666668
200.0   30.0   16.666666666666668
150.0   30.0   0.0
150.0   0.0   16.666666666666668
200.0   30.0   16.666666666666668
200.0   0.0   16.666666666666668
200.0   0.0   0.0
150.0   0.0   16.666666666666668
200.0   30.0   16.666666666666668
200.0   0.0   0.0
150.0   30.0   0.0
150.0   0.0   16.666666666666668
200.0   0.0   16.666666666666668
150.0   30.0   16.666666666666668
150.0   0.0   33.333333333333336
200.0   0.0   16.666666666666668
200.0   30.0   16.666666666666668
150.0   30.0   16.666666666666668
200.0   30.0   33.333333333333336
150.0   0.0   33.333333333333336
150.0   30.0   33.333333333333336
200.0   30.0   33.333333333333336
150.0   30.0   16.666666666666668
150.0   0.0   33.333333333333336
200.0   30.0   33.333333333333336
200.0   0.0   33.333333333333336
200.0   0.0   16.666666666666668
150.0   0.0   33.333333333333336
200.0   30.0   33.333333333333336
200.0   0.0   16.666666666666668
150.0   30.0   16.666666666666668
150.0   0.0   33.333333333333336
200.0   0.0   33.333333333333336
150.0   30.0   33.333333333333336
150.0   0.0   50.0
200.0   0.0   33.333333333333336
200.0   30.0   33.333333333333336
150.0   30.0   33.333333333333336
200.0   30.0   50.0
150.0   0.0   50.0
150.0   30.0   50.0
200.0   30.0   50.0
150.0   30.0   33.333333333333336
150.0   0.0   50.0
200.0   30.0   50.0
200.0   0.0   50.0
200.0   0.0   33.333333333333336
150.0   0.0   50.0
200.0   30.0   50.0
200.0   0.0   33.333333333333336
150.0   30.0   33.333333333333336
150.0   30.0   0.0
200.0   30.0   0.0
150.0   60.0   0.0
150.0   30.0   16.666666666666668
200.0   30.0   0.0
200.0   60.0   0.0
150.0   60.0   0.0
200.0   60.0   16.666666666666668
150.0   30.0   16.666666666666668
150.0   60.0   16.666666666666668
200.0   60.0   16.666666666666668
150.0   60.0   0.0
150.0   30.0   16.666666666666668
200.0   60.0   16.666666666666668
200.0   30.0   16.666666666666668
200.0   30.0   0.0
150.0   30.0   16.666666666666668
200.0   60.0   16.666666666666668
200.0   30.0   0.0
150.0   60.0   0.0
150.0   30.0   16.666666666666668
200.0   30.0   16.666666666666668
150.0   60.0   16.666666666666668
150.0   30.0   33.333333333333336
200.0   30.0   16.666666666666668
200.0   60.0   16.666666666666668
150.0   60.0   16.666666666666668
200.0   60.0   33.333333333333336
150.0   30.0   33.333333333333336
150.0   60.0   33.333333333333336
200.0   60.0   33.333333333333336
150.0   60.0   16.666666666666668
150.0   30.0   33.333333333333336
200.0   60.0   33.333333333333336
200.0   30.0   33.333333333333336
200.0   30.0   16.666666666666668
150.0   30.0   33.333333333333336
200.0   60.0   33.333333333333336
200.0   30.0   16.666666666666668
150.0   60.0   16.666666666666668
150.0   30.0   33.333333333333336
200.0   30.0   33.333333333333336
150.0   60.0   33.333333333333336
150.0   30.0   50.0
200.0   30.0   33.333333333333336
200.0   60.0   33.333333333333336
150.0   60.0   33.333333333333336
200.0   60.0   50.0
150.0   30.0   50.0
150.0   60.0   50.0
200.0   60.0   50.0
150.0   60.0   33.333333333333336
150.0   30.0   50.0
200.0   60.0   50.0
200.0   30.0   50.0
200.0   30.0   33.333333333333336
150.0   30.0   50.0
200.0   60.0   50.0
200.0   30.0   33.333333333333336
150.0   60.0   33.333333333333336
150.0   60.0   0.0
200.0   60.0   0.0
150.0   90.0   0.0
150.0   60.0   16.666666666666668
200.0   60.0   0.0
200.0   90.0   0.0
150.0   90.0   0.0
200.0   90.0   16.666666666666668
150.0   60.0   16.666666666666668
150.0   90.0   16.666666666666668
200.0   90.0   16.666666666666668
150.0   90.0   0.0
150.0   60.0   16.666666666666668
200.0   90.0   16.666666666666668
200.0   60.0   16.666666666666668
200.0   60.0   0.0
150.0   60.0   16.666666666666668
200.0   90.0   16.666666666666668
200.0   60.0   0.0
150.0   90.0   0.0
150.0   60.0   16.666666666666668
200.0   60.0   16.666666666666668
150.0   90.0   16.666666666666668
150.0   60.0   33.333333333333336
200.0   60.0   16.666666666666668
200.0   90.0   16.666666666666668
150.0   90.0   16.666666666666668
200.0   90.0   33.333333333333336
150.0   60.0   33.333333333333336
150.0   90.0   33.333333333333336
200.0   90.0   33.333333333333336
150.0   90.0   16.666666666666668
150.0   60.0   33.333333333333336
200.0   90.0   33.333333333333336
200.0   60.0   33.333333333333336
200.0   60.0   16.666666666666668
150.0   60.0   33.333333333333336
200.0   90.0   33.333333333333336
200.0   60.0   16.666666666666668
150.0   90.0   16.666666666666668
150.0   60.0   33.333333333333336
200.0   60.0   33.333333333333336
150.0   90.0   33.333333333333336
150.0   60.0   50.0
200.0   60.0   33.333333333333336
200.0   90.0   33.333333333333336
150.0   90.0   33.333333333333336
200.0   90.0   50.0
150.0   60.0   50.0
150.0   90.0   50.0
200.0   90.0   50.0
150.0   90.0   33.333333333333336
150.0   60.0   50.0
200.0   90.0   50.0
200.0   60.0   50.0
200.0   60.0   33.333333333333336
150.0   60.0   50.0
200.0   90.0   50.0
200.0   60.0   33.333333333333336
150.0   90.0   33.333333333333336
150.0   90.0   0.0
200.0   90.0   0.0
150.0   120.0   0.0
150.0   90.0   16.666666666666668
200.0   90.0   0.0
200.0   120.0   0.0
150.0   120.0   0.0
200.0   120.0   16.666666666666668
150.0   90.0   16.666666666666668
150.0   120.0   16.666666666666668
200.0   120.0   16.666666666666668
150.0   120.0   0.0
150.0   90.0   16.666666666666668
200.0   120.0   16.666666666666668
200.0   90.0   16.666666666666668
200.0   90.0   0.0
150.0   90.0   16.666666666666668
200.0   120.0   16.666666666666668
200.0   90.0   0.0
150.0   120.0   0.0
150.0   90.0   16.666666666666668
200.0   90.0   16.666666666666668
150.0   120.0   16.666666666666668
150.0   90.0   33.333333333333336
200.0   90.0   16.666666666666668
200.0   120.0   16.666666666666668
150.0   120.0   16.666666666666668
200.0   120.0   33.333333333333336
150.0   90.0   33.333333333333336
150.0   120.0   33.333333333333336
200.0   120.0   33.333333333333336
150.0   120.0   16.666666666666668
150.0   90.0   33.333333333333336
200.0   120.0   33.333333333333336
200.0   90.0   33.333333333333336
200.0   90.0   16.666666666666668
150.0   90.0   33.333333333333336
200.0   120.0   33.333333333333336
200.0   90.0   16.666666666666668
150.0   120.0   16.666666666666668
150.0   90.0   33.333333333333336
200.0   90.0   33.333333333333336
150.0   120.0   33.333333333333336
150.0   90.0   50.0
200.0   90.0   33.333333333333336
200.0   120.0   33.333333333333336
150.0   120.0   33.333333333333336
200.0   120.0   50.0
150.0   90.0   50.0
150.0   120.0   50.0
200.0   120.0   50.0
150.0   120.0   33.333333333333336
150.0   90.0   50.0
200.0   120.0   50.0
200.0   90.0   50.0
200.0   90.0   33.333333333333336
150.0   90.0   50.0
200.0   120.0   50.0
200.0   90.0   33.333333333333336
150.0   120.0   33.333333333333336
150.0   120.0   0.0
200.0   120.0   0.0
150.0   150.0   0.0
150.0   120.0   16.666666666666668
200.0   120.0   0.0
200.0   150.0   0.0
150.0   150.0   0.0
200.0   150.0   16.666666666666668
150.0   120.0   16.666666666666668
150.0   150.0   16.666666666666668
200.0   150.0   16.666666666666668
150.0   150.0   0.0
150.0   120.0   16.666666666666668
200.0   150.0   16.666666666666668
200.0   120.0   16.666666666666668
200.0   120.0   0.0
150.0   120.0   16.666666666666668
200.0   150.0   16.666666666666668
200.0   120.0   0.0
150.0   150.0   0.0
150.0   120.0   16.666666666666668
200.0   120.0   16.666666666666668
150.0   150.0   16.666666666666668
150.0   120.0   33.333333333333336
200.0   120.0   16.666666666666668
200.0   150.0   16.666666666666668
150.0   150.0   16.666666666666668
200.0   150.0   33.333333333333336
150.0   120.0   33.333333333333336
150.0   150.0   33.333333333333336
200.0   150.0   33.333333333333336
150.0   150.0   16.666666666666668
150.0   120.0   33.333333333333336
200.0   150.0   33.333333333333336
200.0   120.0   33.333333333333336
200.0   120.0   16.666666666666668
150.0   120.0   33.333333333333336
200.0   150.0   33.333333333333336
200.0   120.0   16.666666666666668
150.0   150.0   16.666666666666668
150.0   120.0   33.333333333333336
200.0   120.0   33.333333333333336
150.0   150.0   33.333333333333336
150.0   120.0   50.0
200.0   120.0   33.333333333333336
200.0   150.0   33.333333333333336
150.0   150.0   33.333333333333336
200.0   150.0   50.0
150.0   120.0   50.0
150.0   150.0   50.0
200.0   150.0   50.0
150.0   150.0   33.333333333333336
150.0   120.0   50.0
200.0   150.0   50.0
200.0   120.0   50.0
200.0   120.0   33.333333333333336
150.0   120.0   50.0
200.0   150.0   50.0
200.0   120.0   33.333333333333336
150.0   150.0   33.333333333333336
200.0   0.0   0.0
250.0   0.0   0.0
200.0   30.0   0.0
200.0   0.0   16.666666666666668
250.0   0.0   0.0
250.0   30.0   0.0
200.0   30.0   0.0
250.0   30.0   16.666666666666668
200.0   0.0   16.666666666666668
200.0   30.0   16.666666666666668
250.0   30.0   16.666666666666668
200.0   30.0   0.0
200.0   0.0   16.666666666666668
250.0   30.0   16.666666666666668
250.0   0.0   16.666666666666668
250.0   0.0   0.0
200.0   0.0   16.666666666666668
250.0   30.0   16.666666666666668
250.0   0.0   0.0
200.0   30.0   0.0
200.0   0.0   16.666666666666668
250.0   0.0   16.666666666666668
200.0   30.0   16.666666666666668
200.0   0.0   33.333333333333336
250.0   0.0   16.666666666666668
250.0   30.0   16.666666666666668
200.0   30.0   16.666666666666668
250.0   30.0   33.333333333333336
200.0   0.0   33.333333333333336
200.0   30.0   33.333333333333336
250.0   30.0   33.333333333333336
200.0   30.0   16.666666666666668
200.0   0.0   33.333333333333336
250.0   30.0   33.333333333333336
250.0   0.0   33.333333333333336
250.0   0.0   16.666666666666668
200.0   0.0   33.333333333333336
250.0   30.0   33.333333333333336
250.0   0.0   16.666666666666668
200.0   30.0   16.666666666666668
200.0   0.0   33.333333333333336
250.0   0.0   33.333333333333336
200.0   30.0   33.333333333333336
200.0   0.0   50.0
250.0   0.0   33.333333333333336
250.0   30.0   33.333333333333336
200.0   30.0   33.333333333333336
250.0   30.0   50.0
200.0   0.0   50.0
200.0   30.0   50.0
250.0   30.0   50.0
200.0   30.0   33.333333333333336
200.0   0.0   50.0
250.0   30.0   50.0
250.0   0.0   50.0
250.0   0.0   33.333333333333336
200.0   0.0   50.0
250.0   30.0   50.0
250.0   0.0   33.333333333333336
200.0   30.0   33.333333333333336
200.0   30.0   0.0
250.0   30.0   0.0
200.0   60.0   0.0
200.0   30.0   16.666666666666668
250.0   30.0   0.0
250.0   60.0   0.0
200.0   60.0   0.0
250.0   60.0   16.666666666666668
200.0   30.0   16.666666666666668
200.0   60.0   16.666666666666668
250.0   60.0   16.666666666666668
200.0   60.0   0.0
200.0   30.0   16.666666666666668
250.0   60.0   16.666666666666668
250.0   30.0   16.666666666666668
250.0   30.0   0.0
200.0   30.0   16.666666666666668
250.0   60.0   16.666666666666668
250.0   30.0   0.0
200.0   60.0   0.0
200.0   30.0   16.666666666666668
250.0   30.0   16.666666666666668
200.0   60.0   16.666666666666668
200.0   30.0   33.333333333333336
250.0   30.0   16.666666666666668
250.0   60.0   16.666666666666668
200.0   60.0   16.666666666666668
250.0   60.0   33.333333333333336
200.0   30.0   33.333333333333336
200.0   60.0   33.333333333333336
250.0   60.0   33.333333333333336
200.0   60.0   16.666666666666668
200.0   30.0   33.333333333333336
250.0   60.0   33.333333333333336
250.0   30.0   33.333333333333336
250.0   30.0   16.666666666666668
200.0   30.0   33.333333333333336
250.0   60.0   33.333333333333336
250.0   30.0   16.666666666666668
200.0   60.0   16.666666666666668
200.0   30.0   33.333333333333336
250.0   30.0   33.333333333333336
200.0   60.0   33.333333333333336
200.0   30.0   50.0
250.0   30.0   33.333333333333336
250.0   60.0   33.333333333333336
200.0   60.0   33.333333333333336
250.0   60.0   50.0
200.0   30.0   50.0
200.0   60.0   50.0
250.0   60.0   50.0
200.0   60.0   33.333333333333336
200.0   30.0   50.0
250.0   60.0   50.0
250.0   30.0   50.0
250.0   30.0   33.333333333333336
200.0   30.0   50.0
250.0   60.0   50.0
250.0   30.0   33.333333333333336
200.0   60.0   33.333333333333336
200.0   60.0   0.0
250.0   60.0   0.0
200.0   90.0   0.0
200.0   60.0   16.666666666666668
250.0   60.0   0.0
250.0   90.0   0.0
200.0   90.0   0.0
250.0   90.0   16.666666666666668
200.0   60.0   16.666666666666668
200.0   90.0   16.666666666666668
250.0   90.0   16.666666666666668
200.0   90.0   0.0
200.0   60.0   16.666666666666668
250.0   90.0   16.666666666666668
250.0   60.0   16.666666666666668
250.0   60.0   0.0
200.0   60.0   16.666666666666668
250.0   90.0   16.666666666666668
250.0   60.0   0.0
200.0   90.0   0.0
200.0   60.0   16.666666666666668
250.0   60.0   16.666666666666668
200.0   90.0   16.666666666666668
200.0   60.0   33.333333333333336
250.0   60.0   16.666666666666668
250.0   90.0   16.666666666666668
200.0   90.0   16.666666666666668
250.0   90.0   33.333333333333336
200.0   60.0   33.333333333333336
200.0   90.0   33.333333333333336
250.0   90.0   33.333333333333336
200.0   90.0   16.666666666666668
200.0   60.0   33.333333333333336
250.0   90.0   33.333333333333336
250.0   60.0   33.333333333333336
250.0   60.0   16.666666666666668
200.0   60.0   33.333333333333336
250.0   90.0   33.333333333333336
250.0   60.0   16.666666666666668
200.0   90.0   16.666666666666668
200.0   60.0   33.333333333333336
250.0   60.0   33.333333333333336
200.0   90.0   33.333333333333336
200.0   60.0   50.0
250.0   60.0   33.333333333333336
250.0   90.0   33.333333333333336
200.0   90.0   33.333333333333336
250.0   90.0   50.0
200.0   60.0   50.0
200.0   90.0   50.0
250.0   90.0   50.0
200.0   90.0   33.333333333333336
200.0   60.0   50.0
250.0   90.0   50.0
250.0   60.0   50.0
250.0   60.0   33.333333333333336
200.0   60.0   50.0
250.0   90.0   50.0
250.0   60.0   33.333333333333336
200.0   90.0   33.333333333333336
200.0   90.0   0.0
250.0   90.0   0.0
200.0   120.0   0.0
200.0   90.0   16.666666666666668
250.0   90.0   0.0
250.0   120.0   0.0
200.0   120.0   0.0
250.0   120.0   16.666666666666668
200.0   90.0   16.666666666666668
200.0   120.0   16.666666666666668
250.0   120.0   16.666666666666668
200.0   120.0   0.0
200.0   90.0   16.666666666666668
250.0   120.0   16.666666666666668
250.0   90.0   16.666666666666668
250.0   90.0   0.0
200.0   90.0   16.666666666666668
250.0   120.0   16.666666666666668
250.0   90.0   0.0
200.0   120.0   0.0
200.0   90.0   16.666666666666668
250.0   90.0   16.666666666666668
200.0   120.0   16.666666666666668
200.0   90.0   33.333333333333336
250.0   90.0   16.666666666666668
250.0   120.0   16.666666666666668
200.0   120.0   16.666666666666668
250.0   120.0   33.333333333333336
200.0   90.0   33.333333333333336
200.0   120.0   33.333333333333336
250.0   120.0   33.333333333333336
200.0   120.0   16.666666666666668
200.0   90.0   33.333333333333336
250.0   120.0   33.333333333333336
250.0   90.0   33.333333333333336
250.0   90.0   16.666666666666668
200.0   90.0   33.333333333333336
250.0   120.0   33.333333333333336
250.0   90.0   16.666666666666668
200.0   120.0   16.666666666666668
200.0   90.0   33.333333333333336
250.0   90.0   33.333333333333336
200.0   120.0   33.333333333333336
200.0   90.0   50.0
250.0   90.0   33.333333333333336
250.0   120.0   33.333333333333336
200.0   120.0   33.333333333333336
250.0   120.0   50.0
200.0   90.0   50.0
200.0   120.0   50.0
250.0   120.0   50.0
200.0   120.0   33.333333333333336
200.0   90.0   50.0
250.0   120.0   50.0
250.0   90.0   50.0
250.0   90.0   33.333333333333336
200.0   90.0   50.0
250.0   120.0   50.0
250.0   90.0   33.333333333333336
200.0   120.0   33.333333333333336
200.0   120.0   0.0
250.0   120.0   0.0
200.0   150.0   0.0
200.0   120.0   16.666666666666668
250.0   120.0   0.0
250.0   150.0   0.0
200.0   150.0   0.0
250.0   150.0   16.666666666666668
200.0   120.0   16.666666666666668
200.0   150.0   16.666666666666668
250.0   150.0   16.666666666666668
200.0   150.0   0.0
200.0   120.0   16.666666666666668
250.0   150.0   16.666666666666668
250.0   120.0   16.666666666666668
250.0   120.0   0.0
200.0   120.0   16.666666666666668
250.0   150.0   16.666666666666668
250.0   120.0   0.0
200.0   150.0   0.0
200.0   120.0   16.666666666666668
250.0   120.0   16.666666666666668
200.0   150.0   16.666666666666668
200.0   120.0   33.333333333333336
250.0   120.0   16.666666666666668
250.0   150.0   16.666666666666668
200.0   150.0   16.666666666666668
250.0   150.0   33.333333333333336
200.0   120.0   33.333333333333336
200.0   150.0   33.333333333333336
250.0   150.0   33.333333333333336
200.0   150.0   16.666666666666668
200.0   120.0   33.333333333333336
250.0   150.0   33.333333333333336
250.0   120.0   33.333333333333336
250.0   120.0   16.666666666666668
200.0   120.0   33.333333333333336
250.0   150.0   33.333333333333336
250.0   120.0   16.666666666666668
200.0   150.0   16.666666666666668
200.0   120.0   33.333333333333336
250.0   120.0   33.333333333333336
200.0   150.0   33.333333333333336
200.0   120.0   50.0
250.0   120.0   33.333333333333336
250.0   150.0   33.333333333333336
200.0   150.0   33.333333333333336
250.0   150.0   50.0
200.0   120.0   50.0
200.0   150.0   50.0
250.0   150.0   50.0
200.0   150.0   33.333333333333336
200.0   120.0   50.0
250.0   150.0   50.0
250.0   120.0   50.0
250.0   120.0   33.333333333333336
200.0   120.0   50.0
250.0   150.0   50.0
250.0   120.0   33.333333333333336
200.0   150.0   33.333333333333336
250.0   0.0   0.0
300.0   0.0   0.0
250.0   30.0   0.0
250.0   0.0   16.666666666666668
300.0   0.0   0.0
300.0   30.0   0.0
250.0   30.0   0.0
300.0   30.0   16.666666666666668
250.0   0.0   16.666666666666668
250.0   30.0   16.666666666666668
300.0   30.0   16.666666666666668
250.0   30.0   0.0
250.0   0.0   16.666666666666668
300.0   30.0   16.666666666666668
300.0   0.0   16.666666666666668
300.0   0.0   0.0
250.0   0.0   16.666666666666668
300.0   30.0   16.666666666666668
300.0   0.0   0.0
250.0   30.0   0.0
250.0   0.0   16.666666666666668
300.0   0.0   16.666666666666668
250.0   30.0   16.666666666666668
250.0   0.0   33.333333333333336
300.0   0.0   16.666666666666668
300.0   30.0   16.666666666666668
250.0   30.0   16.666666666666668
300.0   30.0   33.333333333333336
250.0   0.0   33.333333333333336
250.0   30.0   33.333333333333336
300.0   30.0   33.333333333333336
250.0   30.0   16.666666666666668
250.0   0.0   33.333333333333336
300.0   30.0   33.333333333333336
300.0   0.0   33.333333333333336
300.0   0.0   16.666666666666668
250.0   0.0   33.333333333333336
300.0   30.0   33.333333333333336
300.0   0.0   16.666666666666668
250.0   30.0   16.666666666666668
250.0   0.0   33.333333333333336
300.0   0.0   33.333333333333336
250.0   30.0   33.333333333333336
250.0   0.0   50.0
300.0   0.0   33.333333333333336
300.0   30.0   33.333333333333336
250.0   30.0   33.333333333333336
300.0   30.0   50.0
250.0   0.0   50.0
250.0   30.0   50.0
300.0   30.0   50.0
250.0   30.0   33.333333333333336
250.0   0.0   50.0
300.0   30.0   50.0
300.0   0.0   50.0
300.0   0.0   33.333333333333336
250.0   0.0   50.0
300.0   30.0   50.0
300.0   0.0   33.333333333333336
250.0   30.0   33.333333333333336
250.0   30.0   0.0
300.0   30.0   0.0
250.0   60.0   0.0
250.0   30.0   16.666666666666668
300.0   30.0   0.0
300.0   60.0   0.0
250.0   60.0   0.0
300.0   60.0   16.666666666666668
250.0   30.0   16.666666666666668
250.0   60.0   16.666666666666668
300.0   60.0   16.666666666666668
250.0   60.0   0.0
250.0   30.0   16.666666666666668
300.0   60.0   16.666666666666668
300.0   30.0   16.666666666666668
300.0   30.0   0.0
250.0   30.0   16.666666666666668
300.0   60.0   16.666666666666668
300.0   30.0   0.0
250.0   60.0   0.0
250.0   30.0   16.666666666666668
300.0   30.0   16.666666666666668
250.0   60.0   16.666666666666668
250.0   30.0   33.333333333333336
300.0   30.0   16.666666666666668
300.0   60.0   16.666666666666668
250.0   60.0   16.666666666666668
300.0   60.0   33.333333333333336
250.0   30.0   33.333333333333336
250.0   60.0   33.333333333333336
300.0   60.0   33.333333333333336
250.0   60.0   16.666666666666668
250.0   30.0   33.333333333333336
300.0   60.0   33.333333333333336
300.0   30.0   33.333333333333336
300.0   30.0   16.666666666666668
250.0   30.0   33.333333333333336
300.0   60.0   33.333333333333336
300.0   30.0   16.666666666666668
250.0   60.0   16.666666666666668
250.0   30.0   33.333333333333336
300.0   30.0   33.333333333333336
250.0   60.0   33.333333333333336
250.0   30.0   50.0
300.0   30.0   33.333333333333336
300.0   60.0   33.333333333333336
250.0   60.0   33.333333333333336
300.0   60.0   50.0
250.0   30.0   50.0
250.0   60.0   50.0
300.0   60.0   50.0
250.0   60.0   33.333333333333336
250.0   30.0   50.0
300.0   60.0   50.0
300.0   30.0   50.0
300.0   30.0   33.333333333333336
250.0   30.0   50.0
300.0   60.0   50.0
300.0   30.0   33.333333333333336
250.0   60.0   33.333333333333336
250.0   60.0   0.0
300.0   60.0   0.0
250.0   90.0   0.0
250.0   60.0   16.666666666666668
300.0   60.0   0.0
300.0   90.0   0.0
250.0   90.0   0.0
300.0   90.0   16.666666666666668
250.0   60.0   16.666666666666668
250.0   90.0   16.666666666666668
300.0   90.0   16.666666666666668
250.0   90.0   0.0
250.0   60.0   16.666666666666668
300.0   90.0   16.666666666666668
300.0   60.0   16.666666666666668
300.0   60.0   0.0
250.0   60.0   16.666666666666668
300.0   90.0   16.666666666666668
300.0   60.0   0.0
250.0   90.0   0.0
250.0   60.0   16.666666666666668
300.0   60.0   16.666666666666668
250.0   90.0   16.666666666666668
250.0   60.0   33.333333333333336
300.0   60.0   16.666666666666668
300.0   90.0   16.666666666666668
250.0   90.0   16.666666666666668
300.0   90.0   33.333333333333336
250.0   60.0   33.333333333333336
250.0   90.0   33.333333333333336
300.0   90.0   33.333333333333336
250.0   90.0   16.666666666666668
250.0   60.0   33.333333333333336
300.0   90.0   33.333333333333336
300.0   60.0   33.333333333333336
300.0   60.0   16.666666666666668
250.0   60.0   33.333333333333336
300.0   90.0   33.333333333333336
300.0   60.0   16.666666666666668
250.0   90.0   16.666666666666668
250.0   60.0   33.333333333333336
300.0   60.0   33.333333333333336
250.0   90.0   33.333333333333336
250.0   60.0   50.0
300.0   60.0   33.333333333333336
300.0   90.0   33.333333333333336
250.0   90.0   33.333333333333336
300.0   90.0   50.0
250.0   60.0   50.0
250.0   90.0   50.0
300.0   90.0   50.0
250.0   90.0   33.333333333333336
250.0   60.0   50.0
300.0   90.0   50.0
300.0   60.0   50.0
300.0   60.0   33.333333333333336
250.0   60.0   50.0
300.0   90.0   50.0
300.0   60.0   33.333333333333336
250.0   90.0   33.333333333333336
250.0   90.0   0.0
300.0   90.0   0.0
250.0   120.0   0.0
250.0   90.0   16.666666666666668
300.0   90.0   0.0
300.0   120.0   0.0
250.0   120.0   0.0
300.0   120.0   16.666666666666668
250.0   90.0   16.666666666666668
250.0   120.0   16.666666666666668
300.0   120.0   16.666666666666668
250.0   120.0   0.0
250.0   90.0   16.666666666666668
300.0   120.0   16.666666666666668
300.0   90.0   16.666666666666668
300.0   90.0   0.0
250.0   90.0   16.666666666666668
300.0   120.0   16.666666666666668
300.0   90.0   0.0
250.0   120.0   0.0
250.0   90.0   16.666666666666668
300.0   90.0   16.666666666666668
250.0   120.0   16.666666666666668
250.0   90.0   33.333333333333336
300.0   90.0   16.666666666666668
300.0   120.0   16.666666666666668
250.0   120.0   16.666666666666668
300.0   120.0   33.333333333333336
250.0   90.0   33.333333333333336
250.0   120.0   33.333333333333336
300.0   120.0   33.333333333333336
250.0   120.0   16.666666666666668
250.0   90.0   33.333333333333336
300.0   120.0   33.333333333333336
300.0   90.0   33.333333333333336
300.0   90.0   16.666666666666668
250.0   90.0   33.333333333333336
300.0   120.0   33.333333333333336
300.0   90.0   16.666666666666668
250.0   120.0   16.666666666666668
250.0   90.0   33.333333333333336
300.0   90.0   33.333333333333336
250.0   120.0   33.333333333333336
250.0   90.0   50.0
300.0   90.0   33.333333333333336
300.0   120.0   33.333333333333336
250.0   120.0   33.333333333333336
300.0   120.0   50.0
250.0   90.0   50.0
250.0   120.0   50.0
300.0   120.0   50.0
250.0   120.0   33.333333333333336
250.0   90.0   50.0
300.0   120.0   50.0
300.0   90.0   50.0
300.0   90.0   33.333333333333336
250.0   90.0   50.0
300.0   120.0   50.0
300.0   90.0   33.333333333333336
250.0   120.0   33.333333333333336
250.0   120.0   0.0
300.0   120.0   0.0
250.0   150.0   0.0
250.0   120.0   16.666666666666668
300.0   120.0   0.0
300.0   150.0   0.0
250.0   150.0   0.0
300.0   150.0   16.666666666666668
250.0   120.0   16.666666666666668
250.0   150.0   16.666666666666668
300.0   150.0   16.666666666666668
250.0   150.0   0.0
250.0   120.0   16.666666666666668
300.0   150.0   16.666666666666668
300.0   120.0   16.666666666666668
300.0   120.0   0.0
250.0   120.0   16.666666666666668
300.0   150.0   16.666666666666668
300.0   120.0   0.0
250.0   150.0   0.0
250.0   120.0   16.666666666666668
300.0   120.0   16.666666666666668
250.0   150.0   16.666666666666668
250.0   120.0   33.333333333333336
300.0   120.0   16.666666666666668
300.0   150.0   16.666666666666668
250.0   150.0   16.666666666666668
300.0   150.0   33.333333333333336
250.0   120.0   33.333333333333336
250.0   150.0   33.333333333333336
300.0   150.0   33.333333333333336
250.0   150.0   16.666666666666668
250.0   120.0   33.333333333333336
300.0   150.0   33.333333333333336
300.0   120.0   33.333333333333336
300.0   120.0   16.666666666666668
250.0   120.0   33.333333333333336
300.0   150.0   33.333333333333336
300.0   120.0   16.666666666666668
250.0   150.0   16.666666666666668
250.0   120.0   33.333333333333336
300.0   120.0   33.333333333333336
250.0   150.0   33.333333333333336
250.0   120.0   50.0
300.0   120.0   33.333333333333336
300.0   150.0   33.333333333333336
250.0   150.0   33.333333333333336
300.0   150.0   50.0
250.0   120.0   50.0
250.0   150.0   50.0
300.0   150.0   50.0
250.0   150.0   33.333333333333336
250.0   120.0   50.0
300.0   150.0   50.0
300.0   120.0   50.0
300.0   120.0   33.333333333333336
250.0   120.0   50.0
300.0   150.0   50.0
300.0   120.0   33.333333333333336
250.0   150.0   33.333333333333336
300.0   0.0   0.0
350.0   0.0   0.0
300.0   30.0   0.0
300.0   0.0   16.666666666666668
350.0   0.0   0.0
350.0   30.0   0.0
300.0   30.0   0.0
350.0   30.0   16.666666666666668
300.0   0.0   16.666666666666668
300.0   30.0   16.666666666666668
350.0   30.0   16.666666666666668
300.0   30.0   0.0
300.0   0.0   16.666666666666668
350.0   30.0   16.666666666666668
350.0   0.0   16.666666666666668
350.0   0.0   0.0
300.0   0.0   16.666666666666668
350.0   30.0   16.666666666666668
350.0   0.0   0.0
300.0   30.0   0.0
300.0   0.0   16.666666666666668
350.0   0.0   16.666666666666668
300.0   30.0   16.666666666666668
300.0   0.0   33.333333333333336
350.0   0.0   16.666666666666668
350.0   30.0   16.666666666666668
300.0   30.0   16.666666666666668
350.0   30.0   33.333333333333336
300.0   0.0   33.333333333333336
300.0   30.0   33.333333333333336
350.0   30.0   33.333333333333336
300.0   30.0   16.666666666666668
300.0   0.0   33.333333333333336
350.0   30.0   33.333333333333336
350.0   0.0   33.333333333333336
350.0   0.0   16.666666666666668
300.0   0.0   33.333333333333336
350.0   30.0   33.333333333333336
350.0   0.0   16.666666666666668
300.0   30.0   16.666666666666668
300.0   0.0   33.333333333333336
350.0   0.0   33.333333333333336
300.0   30.0   33.333333333333336
300.0   0.0   50.0
350.0   0.0   33.333333333333336
350.0   30.0   33.333333333333336
300.0   30.0   33.333333333333336
350.0   30.0   50.0
300.0   0.0   50.0
300.0   30.0   50.0
350.0   30.0   50.0
300.0   30.0   33.333333333333336
300.0   0.0   50.0
350.0   30.0   50.0
350.0   0.0   50.0
350.0   0.0   33.333333333333336
300.0   0.0   50.0
350.0   30.0   50.0
350.0   0.0   33.333333333333336
300.0   30.0   33.333333333333336
300.0   30.0   0.0
350.0   30.0   0.0
300.0   60.0   0.0
300.0   30.0   16.666666666666668
350.0   30.0   0.0
350.0   60.0   0.0
300.0   60.0   0.0
350.0   60.0   16.666666666666668
300.0   30.0   16.666666666666668
300.0   60.0   16.666666666666668
350.0   60.0   16.666666666666668
300.0   60.0   0.0
300.0   30.0   16.666666666666668
350.0   60.0   16.666666666666668
350.0   30.0   16.666666666666668
350.0   30.0   0.0
300.0   30.0   16.666666666666668
350.0   60.0   16.666666666666668
350.0   30.0   0.0
300.0   60.0   0.0
300.0   30.0   16.666666666666668
350.0   30.0   16.666666666666668
300.0   60.0   16.666666666666668
300.0   30.0   33.333333333333336
350.0   30.0   16.666666666666668
350.0   60.0   16.666666666666668
300.0   60.0   16.666666666666668
350.0   60.0   33.333333333333336
300.0   30.0   33.333333333333336
300.0   60.0   33.333333333333336
350.0   60.0   33.333333333333336
300.0   60.0   16.666666666666668
300.0   30.0   33.333333333333336
350.0   60.0   33.333333333333336
350.0   30.0   33.333333333333336
350.0   30.0   16.666666666666668
300.0   30.0   33.333333333333336
350.0   60.0   33.333333333333336
350.0   30.0   16.666666666666668
300.0   60.0   16.666666666666668
300.0   30.0   33.333333333333336
350.0   30.0   33.333333333333336
300.0   60.0   33.333333333333336
300.0   30.0   50.0
350.0   30.0   33.333333333333336
350.0   60.0   33.333333333333336
300.0   60.0   33.333333333333336
350.0   60.0   50.0
300.0   30.0   50.0
300.0   60.0   50.0
350.0   60.0   50.0
300.0   60.0   33.333333333333336
300.0   30.0   50.0
350.0   60.0   50.0
350.0   30.0   50.0
350.0   30.0   33.333333333333336
300.0   30.0   50.0
350.0   60.0   50.0
350.0   30.0   33.333333333333336
300.0   60.0   33.333333333333336
300.0   60.0   0.0
350.0   60.0   0.0
300.0   90.0   0.0
300.0   60.0   16.666666666666668
350.0   60.0   0.0
350.0   90.0   0.0
300.0   90.0   0.0
350.0   90.0   16.666666666666668
300.0   60.0   16.666666666666668
300.0   90.0   16.666666666666668
350.0   90.0   16.666666666666668
300.0   90.0   0.0
300.0   60.0   16.666666666666668
350.0   90.0   16.666666666666668
350.0   60.0   16.666666666666668
350.0   60.0   0.0
300.0   60.0   16.666666666666668
350.0   90.0   16.666666666666668
350.0   60.0   0.0
300.0   90.0   0.0
300.0   60.0   16.666666666666668
350.0   60.0   16.666666666666668
300.0   90.0   16.666666666666668
300.0   60.0   33.333333333333336
350.0   60.0   16.666666666666668
350.0   90.0   16.666666666666668
300.0   90.0   16.666666666666668
350.0   90.0   33.333333333333336
300.0   60.0   33.333333333333336
300.0   90.0   33.333333333333336
350.0   90.0   33.333333333333336
300.0   90.0   16.666666666666668
300.0   60.0   33.333333333333336
350.0   90.0   33.333333333333336
350.0   60.0   33.333333333333336
350.0   60.0   16.666666666666668
300.0   60.0   33.333333333333336
350.0   90.0   33.333333333333336
350.0   60.0   16.666666666666668
300.0   90.0   16.666666666666668
300.0   60.0   33.333333333333336
350.0   60.0   33.333333333333336
300.0   90.0   33.333333333333336
300.0   60.0   50.0
350.0   60.0   33.333333333333336
350.0   90.0   33.333333333333336
300.0   90.0   33.333333333333336
350.0   90.0   50.0
300.0   60.0   50.0
300.0   90.0   50.0
350.0   90.0   50.0
300.0   90.0   33.333333333333336
300.0   60.0   50.0
350.0   90.0   50.0
350.0   60.0   50.0
350.0   60.0   33.333333333333336
300.0   60.0   50.0
350.0   90.0   50.0
350.0   60.0   33.333333333333336
300.0   90.0   33.333333333333336
300.0   90.0   0.0
350.0   90.0   0.0
300.0   120.0   0.0
300.0   90.0   16.666666666666668
350.0   90.0   0.0
350.0   120.0   0.0
300.0   120.0   0.0
350.0   120.0   16.666666666666668
300.0   90.0   16.666666666666668
300.0   120.0   16.666666666666668
350.0   120.0   16.666666666666668
300.0   120.0   0.0
300.0   90.0   16.666666666666668
350.0   120.0   16.666666666666668
350.0   90.0   16.666666666666668
350.0   90.0   0.0
300.0   90.0   16.666666666666668
350.0   120.0   16.666666666666668
350.0   90.0   0.0
300.0   120.0   0.0
300.0   90.0   16.666666666666668
350.0   90.0   16.666666666666668
300.0   120.0   16.666666666666668
300.0   90.0   33.333333333333336
350.0   90.0   16.666666666666668
350.0   120.0   16.666666666666668
300.0   120.0   16.666666666666668
350.0   120.0   33.333333333333336
300.0   90.0   33.333333333333336
300.0   120.0   33.333333333333336
350.0   120.0   33.333333333333336
300.0   120.0   16.666666666666668
300.0   90.0   33.333333333333336
350.0   120.0   33.333333333333336
350.0   90.0   33.333333333333336
350.0   90.0   16.666666666666668
300.0   90.0   33.333333333333336
350.0   120.0   33.333333333333336
350.0   90.0   16.666666666666668
300.0   120.0   16.666666666666668
300.0   90.0   33.333333333333336
350.0   90.0   33.333333333333336
300.0   120.0   33.333333333333336
300.0   90.0   50.0
350.0   90.0   33.333333333333336
350.0   120.0   33.333333333333336
300.0   120.0   33.333333333333336
350.0   120.0   50.0
300.0   90.0   50.0
300.0   120.0   50.0
350.0   120.0   50.0
300.0   120.0   33.333333333333336
300.0   90.0   50.0
350.0   120.0   50.0
350.0   90.0   50.0
350.0   90.0   33.333333333333336
300.0   90.0   50.0
350.0   120.0   50.0
350.0   90.0   33.333333333333336
300.0   120.0   33.333333333333336
300.0   120.0   0.0
350.0   120.0   0.0
300.0   150.0   0.0
300.0   120.0   16.666666666666668
350.0   120.0   0.0
350.0   150.0   0.0
300.0   150.0   0.0
350.0   150.0   16.666666666666668
300.0   120.0   16.666666666666668
300.0   150.0   16.666666666666668
350.0   150.0   16.666666666666668
300.0   150.0   0.0
300.0   120.0   16.666666666666668
350.0   150.0   16.666666666666668
350.0   120.0   16.666666666666668
350.0   120.0   0.0
300.0   120.0   16.666666666666668
350.0   150.0   16.666666666666668
350.0   120.0   0.0
300.0   150.0   0.0
300.0   120.0   16.666666666666668
350.0   120.0   16.666666666666668
300.0   150.0   16.666666666666668
300.0   120.0   33.333333333333336
350.0   120.0   16.666666666666668
350.0   150.0   16.666666666666668
300.0   150.0   16.666666666666668
350.0   150.0   33.333333333333336
300.0   120.0   33.333333333333336
300.0   150.0   33.333333333333336
350.0   150.0   33.333333333333336
300.0   150.0   16.666666666666668
300.0   120.0   33.333333333333336
350.0   150.0   33.333333333333336
350.0   120.0   33.333333333333336
350.0   120.0   16.666666666666668
300.0   120.0   33.333333333333336
350.0   150.0   33.333333333333336
350.0   120.0   16.666666666666668
300.0   150.0   16.666666666666668
300.0   120.0   33.333333333333336
350.0   120.0   33.333333333333336
300.0   150.0   33.333333333333336
300.0   120.0   50.0
350.0   120.0   33.333333333333336
350.0   150.0   33.333333333333336
300.0   150.0   33.333333333333336
350.0   150.0   50.0
300.0   120.0   50.0
300.0   150.0   50.0
350.0   150.0   50.0
300.0   150.0   33.333333333333336
300.0   120.0   50.0
350.0   150.0   50.0
350.0   120.0   50.0
350.0   120.0   33.333333333333336
300.0   120.0   50.0
350.0   150.0   50.0
350.0   120.0   33.333333333333336
300.0   150.0   33.333333333333336
350.0   0.0   0.0
400.0   0.0   0.0
350.0   30.0   0.0
350.0   0.0   16.666666666666668
400.0   0.0   0.0
400.0   30.0   0.0
350.0   30.0   0.0
400.0   30.0   16.666666666666668
350.0   0.0   16.666666666666668
350.0   30.0   16.666666666666668
400.0   30.0   16.666666666666668
350.0   30.0   0.0
350.0   0.0   16.666666666666668
400.0   30.0   16.666666666666668
400.0   0.0   16.666666666666668
400.0   0.0   0.0
350.0   0.0   16.666666666666668
400.0   30.0   16.666666666666668
400.0   0.0   0.0
350.0   30.0   0.0
350.0   0.0   16.666666666666668
400.0   0.0   16.666666666666668
350.0   30.0   16.666666666666668
350.0   0.0   33.333333333333336
400.0   0.0   16.666666666666668
400.0   30.0   16.666666666666668
350.0   30.0   16.666666666666668
400.0   30.0   33.333333333333336
350.0   0.0   33.333333333333336
350.0   30.0   33.333333333333336
400.0   30.0   33.333333333333336
350.0   30.0   16.666666666666668
350.0   0.0   33.333333333333336
400.0   30.0   33.333333333333336
400.0   0.0   33.333333333333336
400.0   0.0   16.666666666666668
350.0   0.0   33.333333333333336
400.0   30.0   33.333333333333336
400.0   0.0   16.666666666666668
350.0   30.0   16.666666666666668
350.0   0.0   33.333333333333336
400.0   0.0   33.333333333333336
350.0   30.0   33.333333333333336
350.0   0.0   50.0
400.0   0.0   33.333333333333336
400.0   30.0   33.333333333333336
350.0   30.0   33.333333333333336
400.0   30.0   50.0
350.0   0.0   50.0
350.0   30.0   50.0
400.0   30.0   50.0
350.0   30.0   33.333333333333336
350.0   0.0   50.0
400.0   30.0   50.0
400.0   0.0   50.0
400.0   0.0   33.333333333333336
350.0   0.0   50.0
400.0   30.0   50.0
400.0   0.0   33.333333333333336
350.0   30.0   33.333333333333336
350.0   30.0   0.0
400.0   30.0   0.0
350.0   60.0   0.0
350.0   30.0   16.666666666666668
400.0   30.0   0.0
400.0   60.0   0.0
350.0   60.0   0.0
400.0   60.0   16.666666666666668
350.0   30.0   16.666666666666668
350.0   60.0   16.666666666666668
400.0   60.0   16.666666666666668
350.0   60.0   0.0
350.0   30.0   16.666666666666668
400.0   60.0   16.666666666666668
400.0   30.0   16.666666666666668
400.0   30.0   0.0
350.0   30.0   16.666666666666668
400.0   60.0   16.666666666666668
400.0   30.0   0.0
350.0   60.0   0.0
350.0   30.0   16.666666666666668
400.0   30.0   16.666666666666668
350.0   60.0   16.666666666666668
350.0   30.0   33.333333333333336
400.0   30.0   16.666666666666668
400.0   60.0   16.666666666666668
350.0   60.0   16.666666666666668
400.0   60.0   33.333333333333336
350.0   30.0   33.333333333333336
350.0   60.0   33.333333333333336
400.0   60.0   33.333333333333336
350.0   60.0   16.666666666666668
350.0   30.0   33.333333333333336
400.0   60.0   33.333333333333336
400.0   30.0   33.333333333333336
400.0   30.0   16.666666666666668
350.0   30.0   33.333333333333336
400.0   60.0   33.333333333333336
400.0   30.0   16.666666666666668
350.0   60.0   16.666666666666668
350.0   30.0   33.333333333333336
400.0   30.0   33.333333333333336
350.0   60.0   33.333333333333336
350.0   30.0   50.0
400.0   30.0   33.333333333333336
400.0   60.0   33.333333333333336
350.0   60.0   33.333333333333336
400.0   60.0   50.0
350.0   30.0   50.0
350.0   60.0   50.0
400.0   60.0   50.0
350.0   60.0   33.333333333333336
350.0   30.0   50.0
400.0   60.0   50.0
400.0   30.0   50.0
400.0   30.0   33.333333333333336
350.0   30.0   50.0
400.0   60.0   50.0
400.0   30.0   33.333333333333336
350.0   60.0   33.333333333333336
350.0   60.0   0.0
400.0   60.0   0.0
350.0   90.0   0.0
350.0   60.0   16.666666666666668
400.0   60.0   0.0
400.0   90.0   0.0
350.0   90.0   0.0
400.0   90.0   16.666666666666668
350.0   60.0   16.666666666666668
350.0   90.0   16.666666666666668
400.0   90.0   16.666666666666668
350.0   90.0   0.0
350.0   60.0   16.666666666666668
400.0   90.0   16.666666666666668
400.0   60.0   16.666666666666668
400.0   60.0   0.0
350.0   60.0   16.666666666666668
400.0   90.0   16.666666666666668
400.0   60.0   0.0
350.0   90.0   0.0
350.0   60.0   16.666666666666668
400.0   60.0   16.666666666666668
350.0   90.0   16.666666666666668
350.0   60.0   33.333333333333336
400.0   60.0   16.666666666666668
400.0   90.0   16.666666666666668
350.0   90.0   16.666666666666668
400.0   90.0   33.333333333333336
350.0   60.0   33.333333333333336
350.0   90.0   33.333333333333336
400.0   90.0   33.333333333333336
350.0   90.0   16.666666666666668
350.0   60.0   33.333333333333336
400.0   90.0   33.333333333333336
400.0   60.0   33.333333333333336
400.0   60.0   16.666666666666668
350.0   60.0   33.333333333333336
400.0   90.0   33.333333333333336
400.0   60.0   16.666666666666668
350.0   90.0   16.666666666666668
350.0   60.0   33.333333333333336
400.0   60.0   33.333333333333336
350.0   90.0   33.333333333333336
350.0   60.0   50.0
400.0   60.0   33.333333333333336
400.0   90.0   33.333333333333336
350.0   90.0   33.333333333333336
400.0   90.0   50.0
350.0   60.0   50.0
350.0   90.0   50.0
400.0   90.0   50.0
350.0   90.0   33.333333333333336
350.0   60.0   50.0
400.0   90.0   50.0
400.0   60.0   50.0
400.0   60.0   33.333333333333336
350.0   60.0   50.0
400.0   90.0   50.0
400.0   60.0   33.333333333333336
350.0   90.0   33.333333333333336
350.0   90.0   0.0
400.0   90.0   0.0
350.0   120.0   0.0
350.0   90.0   16.666666666666668
400.0   90.0   0.0
400.0   120.0   0.0
350.0   120.0   0.0
400.0   120.0   16.666666666666668
350.0   90.0   16.666666666666668
350.0   120.0   16.666666666666668
400.0   120.0   16.666666666666668
350.0   120.0   0.0
350.0   90.0   16.666666666666668
400.0   120.0   16.666666666666668
400.0   90.0   16.666666666666668
400.0   90.0   0.0
350.0   90.0   16.666666666666668
400.0   120.0   16.666666666666668
400.0   90.0   0.0
350.0   120.0   0.0
350.0   90.0   16.666666666666668
400.0   90.0   16.666666666666668
350.0   120.0   16.666666666666668
350.0   90.0   33.333333333333336
400.0   90.0   16.666666666666668
400.0   120.0   16.666666666666668
350.0   120.0   16.666666666666668
400.0   120.0   33.333333333333336
350.0   90.0   33.333333333333336
350.0   120.0   33.333333333333336
400.0   120.0   33.333333333333336
350.0   120.0   16.666666666666668
350.0   90.0   33.333333333333336
400.0   120.0   33.333333333333336
400.0   90.0   33.333333333333336
400.0   90.0   16.666666666666668
350.0   90.0   33.333333333333336
400.0   120.0   33.333333333333336
400.0   90.0   16.666666666666668
350.0   120.0   16.666666666666668
350.0   90.0   33.333333333333336
400.0   90.0   33.333333333333336
350.0   120.0   33.333333333333336
350.0   90.0   50.0
400.0   90.0   33.333333333333336
400.0   120.0   33.333333333333336
350.0   120.0   33.333333333333336
400.0   120.0   50.0
350.0   90.0   50.0
350.0   120.0   50.0
400.0   120.0   50.0
350.0   120.0   33.333333333333336
350.0   90.0   50.0
400.0   120.0   50.0
400.0   90.0   50.0
400.0   90.0   33.333333333333336
350.0   90.0   50.0
400.0   120.0   50.0
400.0   90.0   33.333333333333336
350.0   120.0   33.333333333333336
350.0   120.0   0.0
400.0   120.0   0.0
350.0   150.0   0.0
350.0   120.0   16.666666666666668
400.0   120.0   0.0
400.0   150.0   0.0
350.0   150.0   0.0
400.0   150.0   16.666666666666668
350.0   120.0   16.666666666666668
350.0   150.0   16.666666666666668
400.0   150.0   16.666666666666668
350.0   150.0   0.0
350.0   120.0   16.666666666666668
400.0   150.0   16.666666666666668
400.0   120.0   16.666666666666668
400.0   120.0   0.0
350.0   120.0   16.666666666666668
400.0   150.0   16.666666666666668
400.0   120.0   0.0
350.0   150.0   0.0
350.0   120.0   16.666666666666668
400.0   120.0   16.666666666666668
350.0   150.0   16.666666666666668
350.0   120.0   33.333333333333336
400.0   120.0   16.666666666666668
400.0   150.0   16.666666666666668
350.0   150.0   16.666666666666668
400.0   150.0   33.333333333333336
350.0   120.0   33.333333333333336
350.0   150.0   33.333333333333336
400.0   150.0   33.333333333333336
350.0   150.0   16.666666666666668
350.0   120.0   33.333333333333336
400.0   150.0   33.333333333333336
400.0   120.0   33.333333333333336
400.0   120.0   16.666666666666668
350.0   120.0   33.333333333333336
400.0   150.0   33.333333333333336
400.0   120.0   16.666666666666668
350.0   150.0   16.666666666666668
350.0   120.0   33.333333333333336
400.0   120.0   33.333333333333336
350.0   150.0   33.333333333333336
350.0   120.0   50.0
400.0   120.0   33.333333333333336
400.0   150.0   33.333333333333336
350.0   150.0   33.333333333333336
400.0   150.0   50.0
350.0   120.0   50.0
350.0   150.0   50.0
400.0   150.0   50.0
350.0   150.0   33.333333333333336
350.0   120.0   50.0
400.0   150.0   50.0
400.0   120.0   50.0
400.0   120.0   33.333333333333336
350.0   120.0   50.0
400.0   150.0   50.0
400.0   120.0   33.333333333333336
350.0   150.0   33.333333333333336
400.0   0.0   0.0
450.0   0.0   0.0
400.0   30.0   0.0
400.0   0.0   16.666666666666668
450.0   0.0   0.0
450.0   30.0   0.0
400.0   30.0   0.0
450.0   30.0   16.666666666666668
400.0   0.0   16.666666666666668
400.0   30.0   16.666666666666668
450.0   30.0   16.666666666666668
400.0   30.0   0.0
400.0   0.0   16.666666666666668
450.0   30.0   16.666666666666668
450.0   0.0   16.666666666666668
450.0   0.0   0.0
400.0   0.0   16.666666666666668
450.0   30.0   16.666666666666668
450.0   0.0   0.0
400.0   30.0   0.0
400.0   0.0   16.666666666666668
450.0   0.0   16.666666666666668
400.0   30.0   16.666666666666668
400.0   0.0   33.333333333333336
450.0   0.0   16.666666666666668
450.0   30.0   16.666666666666668
400.0   30.0   16.666666666666668
450.0   30.0   33.333333333333336
400.0   0.0   33.333333333333336
400.0   30.0   33.333333333333336
450.0   30.0   33.333333333333336
400.0   30.0   16.666666666666668
400.0   0.0   33.333333333333336
450.0   30.0   33.333333333333336
450.0   0.0   33.333333333333336
450.0   0.0   16.666666666666668
400.0   0.0   33.333333333333336
450.0   30.0   33.333333333333336
450.0   0.0   16.666666666666668
400.0   30.0   16.666666666666668
400.0   0.0   33.333333333333336
450.0   0.0   33.333333333333336
400.0   30.0   33.333333333333336
400.0   0.0   50.0
450.0   0.0   33.333333333333336
450.0   30.0   33.333333333333336
400.0   30.0   33.333333333333336
450.0   30.0   50.0
400.0   0.0   50.0
400.0   30.0   50.0
450.0   30.0   50.0
400.0   30.0   33.333333333333336
400.0   0.0   50.0
450.0   30.0   50.0
450.0   0.0   50.0
450.0   0.0   33.333333333333336
400.0   0.0   50.0
450.0   30.0   50.0
450.0   0.0   33.333333333333336
400.0   30.0   33.333333333333336
400.0   30.0   0.0
450.0   30.0   0.0
400.0   60.0   0.0
400.0   30.0   16.666666666666668
450.0   30.0   0.0
450.0   60.0   0.0
400.0   60.0   0.0
450.0   60.0   16.666666666666668
400.0   30.0   16.666666666666668
400.0   60.0   16.666666666666668
450.0   60.0   16.666666666666668
400.0   60.0   0.0
400.0   30.0   16.666666666666668
450.0   60.0   16.666666666666668
450.0   30.0   16.666666666666668
450.0   30.0   0.0
400.0   30.0   16.666666666666668
450.0   60.0   16.666666666666668
450.0   30.0   0.0
400.0   60.0   0.0
400.0   30.0   16.666666666666668
450.0   30.0   16.666666666666668
400.0   60.0   16.666666666666668
400.0   30.0   33.333333333333336
450.0   30.0   16.666666666666668
450.0   60.0   16.666666666666668
400.0   60.0   16.666666666666668
450.0   60.0   33.333333333333336
400.0   30.0   33.333333333333336
400.0   60.0   33.333333333333336
450.0   60.0   33.333333333333336
400.0   60.0   16.666666666666668
400.0   30.0   33.333333333333336
450.0   60.0   33.333333333333336
450.0   30.0   33.333333333333336
450.0   30.0   16.666666666666668
400.0   30.0   33.333333333333336
450.0   60.0   33.333333333333336
450.0   30.0   16.666666666666668
400.0   60.0   16.666666666666668
400.0   30.0   33.333333333333336
450.0   30.0   33.333333333333336
400.0   60.0   33.333333333333336
400.0   30.0   50.0
450.0   30.0   33.333333333333336
450.0   60.0   33.333333333333336
400.0   60.0   33.333333333333336
450.0   60.0   50.0
400.0   30.0   50.0
400.0   60.0   50.0
450.0   60.0   50.0
400.0   60.0   33.333333333333336
400.0   30.0   50.0
450.0   60.0   50.0
450.0   30.0   50.0
450.0   30.0   33.333333333333336
400.0   30.0   50.0
450.0   60.0   50.0
450.0   30.0   33.333333333333336
400.0   60.0   33.333333333333336
400.0   60.0   0.0
450.0   60.0   0.0
400.0   90.0   0.0
400.0   60.0   16.666666666666668
450.0   60.0   0.0
450.0   90.0   0.0
400.0   90.0   0.0
450.0   90.0   16.666666666666668
400.0   60.0   16.666666666666668
400.0   90.0   16.666666666666668
450.0   90.0   16.666666666666668
400.0   90.0   0.0
400.0   60.0   16.666666666666668
450.0   90.0   16.666666666666668
450.0   60.0   16.666666666666668
450.0   60.0   0.0
400.0   60.0   16.666666666666668
450.0   90.0   16.666666666666668
450.0   60.0   0.0
400.0   90.0   0.0
400.0   60.0   16.666666666666668
450.0   60.0   16.666666666666668
400.0   90.0   16.666666666666668
400.0   60.0   33.333333333333336
450.0   60.0   16.666666666666668
450.0   90.0   16.666666666666668
400.0   90.0   16.666666666666668
450.0   90.0   33.333333333333336
400.0   60.0   33.333333333333336
400.0   90.0   33.333333333333336
450.0   90.0   33.333333333333336
400.0   90.0   16.666666666666668
400.0   60.0   33.333333333333336
450.0   90.0   33.333333333333336
450.0   60.0   33.333333333333336
450.0   60.0   16.666666666666668
400.0   60.0   33.333333333333336
450.0   90.0   33.333333333333336
450.0   60.0   16.666666666666668
400.0   90.0   16.666666666666668
400.0   60.0   33.333333333333336
450.0   60.0   33.333333333333336
400.0   90.0   33.333333333333336
400.0   60.0   50.0
450.0   60.0   33.333333333333336
450.0   90.0   33.333333333333336
400.0   90.0   33.333333333333336
450.0   90.0   50.0
400.0   60.0   50.0
400.0   90.0   50.0
450.0   90.0   50.0
400.0   90.0   33.333333333333336
400.0   60.0   50.0
450.0   90.0   50.0
450.0   60.0   50.0
450.0   60.0   33.333333333333336
400.0   60.0   50.0
450.0   90.0   50.0
450.0   60.0   33.333333333333336
400.0   90.0   33.333333333333336
400.0   90.0   0.0
450.0   90.0   0.0
400.0   120.0   0.0
400.0   90.0   16.666666666666668
450.0   90.0   0.0
450.0   120.0   0.0
400.0   120.0   0.0
450.0   120.0   16.666666666666668
400.0   90.0   16.666666666666668
400.0   120.0   16.666666666666668
450.0   120.0   16.666666666666668
400.0   120.0   0.0
400.0   90.0   16.666666666666668
450.0   120.0   16.666666666666668
450.0   90.0   16.666666666666668
450.0   90.0   0.0
400.0   90.0   16.666666666666668
450.0   120.0   16.666666666666668
450.0   90.0   0.0
400.0   120.0   0.0
400.0   90.0   16.666666666666668
450.0   90.0   16.666666666666668
400.0   120.0   16.666666666666668
400.0   90.0   33.333333333333336
450.0   90.0   16.666666666666668
450.0   120.0   16.666666666666668
400.0   120.0   16.666666666666668
450.0   120.0   33.333333333333336
400.0   90.0   33.333333333333336
400.0   120.0   33.333333333333336
450.0   120.0   33.333333333333336
400.0   120.0   16.666666666666668
400.0   90.0   33.333333333333336
450.0   120.0   33.333333333333336
450.0   90.0   33.333333333333336
450.0   90.0   16.666666666666668
400.0   90.0   33.333333333333336
450.0   120.0   33.333333333333336
450.0   90.0   16.666666666666668
400.0   120.0   16.666666666666668
400.0   90.0   33.333333333333336
450.0   90.0   33.333333333333336
400.0   120.0   33.333333333333336
400.0   90.0   50.0
450.0   90.0   33.333333333333336
450.0   120.0   33.333333333333336
400.0   120.0   33.333333333333336
450.0   120.0   50.0
400.0   90.0   50.0
400.0   120.0   50.0
450.0   120.0   50.0
400.0   120.0   33.333333333333336
400.0   90.0   50.0
450.0   120.0   50.0
450.0   90.0   50.0
450.0   90.0   33.333333333333336
400.0   90.0   50.0
450.0   120.0   50.0
450.0   90.0   33.333333333333336
400.0   120.0   33.333333333333336
400.0   120.0   0.0
450.0   120.0   0.0
400.0   150.0   0.0
400.0   120.0   16.666666666666668
450.0   120.0   0.0
450.0   150.0   0.0
400.0   150.0   0.0
450.0   150.0   16.666666666666668
400.0   120.0   16.666666666666668
400.0   150.0   16.666666666666668
450.0   150.0   16.666666666666668
400.0   150.0   0.0
400.0   120.0   16.666666666666668
450.0   150.0   16.666666666666668
450.0   120.0   16.666666666666668
450.0   120.0   0.0
400.0   120.0   16.666666666666668
450.0   150.0   16.666666666666668
450.0   120.0   0.0
400.0   150.0   0.0
400.0   120.0   16.666666666666668
450.0   120.0   16.666666666666668
400.0   150.0   16.666666666666668
400.0   120.0   33.333333333333336
450.0   120.0   16.666666666666668
450.0   150.0   16.666666666666668
400.0   150.0   16.666666666666668
450.0   150.0   33.333333333333336
400.0   120.0   33.333333333333336
400.0   150.0   33.333333333333336
450.0   150.0   33.333333333333336
400.0   150.0   16.666666666666668
400.0   120.0   33.333333333333336
450.0   150.0   33.333333333333336
450.0   120.0   33.333333333333336
450.0   120.0   16.666666666666668
400.0   120.0   33.333333333333336
450.0   150.0   33.333333333333336
450.0   120.0   16.666666666666668
400.0   150.0   16.666666666666668
400.0   120.0   33.333333333333336
450.0   120.0   33.333333333333336
400.0   150.0   33.333333333333336
400.0   120.0   50.0
450.0   120.0   33.333333333333336
450.0   150.0   33.333333333333336
400.0   150.0   33.333333333333336
450.0   150.0   50.0
400.0   120.0   50.0
400.0   150.0   50.0
450.0   150.0   50.0
400.0   150.0   33.333333333333336
400.0   120.0   50.0
450.0   150.0   50.0
450.0   120.0   50.0
450.0   120.0   33.333333333333336
400.0   120.0   50.0
450.0   150.0   50.0
450.0   120.0   33.333333333333336
400.0   150.0   33.333333333333336
450.0   0.0   0.0
500.0   0.0   0.0
450.0   30.0   0.0
450.0   0.0   16.666666666666668
500.0   0.0   0.0
500.0   30.0   0.0
450.0   30.0   0.0
500.0   30.0   16.666666666666668
450.0   0.0   16.666666666666668
450.0   30.0   16.666666666666668
500.0   30.0   16.666666666666668
450.0   30.0   0.0
450.0   0.0   16.666666666666668
500.0   30.0   16.666666666666668
500.0   0.0   16.666666666666668
500.0   0.0   0.0
450.0   0.0   16.666666666666668
500.0   30.0   16.666666666666668
500.0   0.0   0.0
450.0   30.0   0.0
450.0   0.0   16.666666666666668
500.0   0.0   16.666666666666668
450.0   30.0   16.666666666666668
450.0   0.0   33.333333333333336
500.0   0.0   16.666666666666668
500.0   30.0   16.666666666666668
450.0   30.0   16.666666666666668
500.0   30.0   33.333333333333336
450.0   0.0   33.333333333333336
450.0   30.0   33.333333333333336
500.0   30.0   33.333333333333336
450.0   30.0   16.666666666666668
450.0   0.0   33.333333333333336
500.0   30.0   33.333333333333336
500.0   0.0   33.333333333333336
500.0   0.0   16.666666666666668
450.0   0.0   33.333333333333336
500.0   30.0   33.333333333333336
500.0   0.0   16.666666666666668
450.0   30.0   16.666666666666668
450.0   0.0   33.333333333333336
500.0   0.0   33.333333333333336
450.0   30.0   33.333333333333336
450.0   0.0   50.0
500.0   0.0   33.333333333333336
500.0   30.0   33.333333333333336
450.0   30.0   33.333333333333336
500.0   30.0   50.0
450.0   0.0   50.0
450.0   30.0   50.0
500.0   30.0   50.0
450.0   30.0   33.333333333333336
450.0   0.0   50.0
500.0   30.0   50.0
500.0   0.0   50.0
500.0   0.0   33.333333333333336
450.0   0.0   50.0
500.0   30.0   50.0
500.0   0.0   33.333333333333336
450.0   30.0   33.333333333333336
450.0   30.0   0.0
500.0   30.0   0.0
450.0   60.0   0.0
450.0   30.0   16.666666666666668
500.0   30.0   0.0
500.0   60.0   0.0
450.0   60.0   0.0
500.0   60.0   16.666666666666668
450.0   30.0   16.666666666666668
450.0   60.0   16.666666666666668
500.0   60.0   16.666666666666668
450.0   60.0   0.0
450.0   30.0   16.666666666666668
500.0   60.0   16.666666666666668
500.0   30.0   16.666666666666668
500.0   30.0   0.0
450.0   30.0   16.666666666666668
500.0   60.0   16.666666666666668
500.0   30.0   0.0
450.0   60.0   0.0
450.0   30.0   16.666666666666668
500.0   30.0   16.666666666666668
450.0   60.0   16.666666666666668
450.0   30.0   33.333333333333336
500.0   30.0   16.666666666666668
500.0   60.0   16.666666666666668
450.0   60.0   16.666666666666668
500.0   60.0   33.333333333333336
450.0   30.0   33.333333333333336
450.0   60.0   33.333333333333336
500.0   60.0   33.333333333333336
450.0   60.0   16.666666666666668
450.0   30.0   33.333333333333336
500.0   60.0   33.333333333333336
500.0   30.0   33.333333333333336
500.0   30.0   16.666666666666668
450.0   30.0   33.333333333333336
500.0   60.0   33.333333333333336
500.0   30.0   16.666666666666668
450.0   60.0   16.666666666666668
450.0   30.0   33.333333333333336
500.0   30.0   33.333333333333336
450.0   60.0   33.333333333333336
450.0   30.0   50.0
500.0   30.0   33.333333333333336
500.0   60.0   33.333333333333336
450.0   60.0   33.333333333333336
500.0   60.0   50.0
450.0   30.0   50.0
450.0   60.0   50.0
500.0   60.0   50.0
450.0   60.0   33.333333333333336
450.0   30.0   50.0
500.0   60.0   50.0
500.0   30.0   50.0
500.0   30.0   33.333333333333336
450.0   30.0   50.0
500.0   60.0   50.0
500.0   30.0   33.333333333333336
450.0   60.0   33.333333333333336
450.0   60.0   0.0
500.0   60.0   0.0
450.0   90.0   0.0
450.0   60.0   16.666666666666668
500.0   60.0   0.0
500.0   90.0   0.0
450.0   90.0   0.0
500.0   90.0   16.666666666666668
450.0   60.0   16.666666666666668
450.0   90.0   16.666666666666668
500.0   90.0   16.666666666666668
450.0   90.0   0.0
450.0   60.0   16.666666666666668
500.0   90.0   16.666666666666668
500.0   60.0   16.666666666666668
500.0   60.0   0.0
450.0   60.0   16.666666666666668
500.0   90.0   16.666666666666668
500.0   60.0   0.0
450.0   90.0   0.0
450.0   60.0   16.666666666666668
500.0   60.0   16.666666666666668
450.0   90.0   16.666666666666668
450.0   60.0   33.333333333333336
500.0   60.0   16.666666666666668
500.0   90.0   16.666666666666668
450.0   90.0   16.666666666666668
500.0   90.0   33.333333333333336
450.0   60.0   33.333333333333336
450.0   90.0   33.333333333333336
500.0   90.0   33.333333333333336
450.0   90.0   16.666666666666668
450.0   60.0   33.333333333333336
500.0   90.0   33.333333333333336
500.0   60.0   33.333333333333336
500.0   60.0   16.666666666666668
450.0   60.0   33.333333333333336
500.0   90.0   33.333333333333336
500.0   60.0   16.666666666666668
450.0   90.0   16.666666666666668
450.0   60.0   33.333333333333336
500.0   60.0   33.333333333333336
450.0   90.0   33.333333333333336
450.0   60.0   50.0
500.0   60.0   33.333333333333336
500.0   90.0   33.333333333333336
450.0   90.0   33.333333333333336
500.0   90.0   50.0
450.0   60.0   50.0
450.0   90.0   50.0
500.0   90.0   50.0
450.0   90.0   33.333333333333336
450.0   60.0   50.0
500.0   90.0   50.0
500.0   60.0   50.0
500.0   60.0   33.333333333333336
450.0   60.0   50.0
500.0   90.0   50.0
500.0   60.0   33.333333333333336
450.0   90.0   33.333333333333336
450.0   90.0   0.0
500.0   90.0   0.0
450.0   120.0   0.0
450.0   90.0   16.666666666666668
500.0   90.0   0.0
500.0   120.0   0.0
450.0   120.0   0.0
500.0   120.0   16.666666666666668
450.0   90.0   16.666666666666668
450.0   120.0   16.666666666666668
500.0   120.0   16.666666666666668
450.0   120.0   0.0
450.0   90.0   16.666666666666668
500.0   120.0   16.666666666666668
500.0   90.0   16.666666666666668
500.0   90.0   0.0
450.0   90.0   16.666666666666668
500.0   120.0   16.666666666666668
500.0   90.0   0.0
450.0   120.0   0.0
450.0   90.0   16.666666666666668
500.0   90.0   16.666666666666668
450.0   120.0   16.666666666666668
450.0   90.0   33.333333333333336
500.0   90.0   16.666666666666668
500.0   120.0   16.666666666666668
450.0   120.0   16.666666666666668
500.0   120.0   33.333333333333336
450.0   90.0   33.333333333333336
450.0   120.0   33.333333333333336
500.0   120.0   33.333333333333336
450.0   120.0   16.666666666666668
450.0   90.0   33.333333333333336
500.0   120.0   33.333333333333336
500.0   90.0   33.333333333333336
500.0   90.0   16.666666666666668
450.0   90.0   33.333333333333336
500.0   120.0   33.333333333333336
500.0   90.0   16.666666666666668
450.0   120.0   16.666666666666668
450.0   90.0   33.333333333333336
500.0   90.0   33.333333333333336
450.0   120.0   33.333333333333336
450.0   90.0   50.0
500.0   90.0   33.333333333333336
500.0   120.0   33.333333333333336
450.0   120.0   33.333333333333336
500.0   120.0   50.0
450.0   90.0   50.0
450.0   120.0   50.0
500.0   120.0   50.0
450.0   120.0   33.333333333333336
450.0   90.0   50.0
500.0   120.0   50.0
500.0   90.0   50.0
500.0   90.0   33.333333333333336
450.0   90.0   50.0
500.0   120.0   50.0
500.0   90.0   33.333333333333336
450.0   120.0   33.333333333333336
450.0   120.0   0.0
500.0   120.0   0.0
450.0   150.0   0.0
450.0   120.0   16.666666666666668
500.0   120.0   0.0
500.0   150.0   0.0
450.0   150.0   0.0
500.0   150.0   16.666666666666668
450.0   120.0   16.666666666666668
450.0   150.0   16.666666666666668
500.0   150.0   16.666666666666668
450.0   150.0   0.0
450.0   120.0   16.666666666666668
500.0   150.0   16.666666666666668
500.0   120.0   16.666666666666668
500.0   120.0   0.0
450.0   120.0   16.666666666666668
500.0   150.0   16.666666666666668
500.0   120.0   0.0
450.0   150.0   0.0
450.0   120.0   16.666666666666668
500.0   120.0   16.666666666666668
450.0   150.0   16.666666666666668
450.0   120.0   33.333333333333336
500.0   120.0   16.666666666666668
500.0   150.0   16.666666666666668
450.0   150.0   16.666666666666668
500.0   150.0   33.333333333333336
450.0   120.0   33.333333333333336
450.0   150.0   33.333333333333336
500.0   150.0   33.333333333333336
450.0   150.0   16.666666666666668
450.0   120.0   33.333333333333336
500.0   150.0   33.333333333333336
500.0   120.0   33.333333333333336
500.0   120.0   16.666666666666668
450.0   120.0   33.333333333333336
500.0   150.0   33.333333333333336
500.0   120.0   16.666666666666668
450.0   150.0   16.666666666666668
450.0   120.0   33.333333333333336
500.0   120.0   33.333333333333336
450.0   150.0   33.333333333333336
450.0   120.0   50.0
500.0   120.0   33.333333333333336
500.0   150.0   33.333333333333336
450.0   150.0   33.333333333333336
500.0   150.0   50.0
450.0   120.0   50.0
450.0   150.0   50.0
500.0   150.0   50.0
450.0   150.0   33.333333333333336
450.0   120.0   50.0
500.0   150.0   50.0
500.0   120.0   50.0
500.0   120.0   33.333333333333336
450.0   120.0   50.0
500.0   150.0   50.0
500.0   120.0   33.333333333333336
450.0   150.0   33.333333333333336
             </DataArray>   
          </Points>  
          <Cells>  
             <DataArray type="Int32" Name="connectivity" format="ascii">   
0   1   2   3
4   5   6   7
8   9   10   11
12   13   14   15
16   17   18   19
20   21   22   23
24   25   26   27
28   29   30   31
32   33   34   35
36   37   38   39
40   41   42   43
44   45   46   47
48   49   50   51
52   53   54   55
56   57   58   59
60   61   62   63
64   65   66   67
68   69   70   71
72   73   74   75
76   77   78   79
80   81   82   83
84   85   86   87
88   89   90   91
92   93   94   95
96   97   98   99
100   101   102   103
104   105   106   107
108   109   110   111
112   113   114   115
116   117   118   119
120   121   122   123
124   125   126   127
128   129   130   131
132   133   134   135
136   137   138   139
140   141   142   143
144   145   146   147
148   149   150   151
152   153   154   155
156   157   158   159
160   161   162   163
164   165   166   167
168   169   170   171
172   173   174   175
176   177   178   179
180   181   182   183
184   185   186   187
188   189   190   191
192   193   194   195
196   197   198   199
200   201   202   203
204   205   206   207
208   209   210   211
212   213   214   215
216   217   218   219
220   221   222   223
224   225   226   227
228   229   230   231
232   233   234   235
236   237   238   239
240   241   242   243
244   245   246   247
248   249   250   251
252   253   254   255
256   257   258   259
260   261   262   263
264   265   266   267
268   269   270   271
272   273   274   275
276   277   278   279
280   281   282   283
284   285   286   287
288   289   290   291
292   293   294   295
296   297   298   299
300   301   302   303
304   305   306   307
308   309   310   311
312   313   314   315
316   317   318   319
320   321   322   323
324   325   326   327
328   329   330   331
332   333   334   335
336   337   338   339
340   341   342   343
344   345   346   347
348   349   350   351
352   353   354   355
356   357   358   359
360   361   362   363
364   365   366   367
368   369   370   371
372   373   374   375
376   377   378   379
380   381   382   383
384   385   386   387
388   389   390   391
392   393   394   395
396   397   398   399
400   401   402   403
404   405   406   407
408   409   410   411
412   413   414   415
416   417   418   419
420   421   422   423
424   425   426   427
428   429   430   431
432   433   434   435
436   437   438   439
440   441   442   443
444   445   446   447
448   449   450   451
452   453   454   455
456   457   458   459
460   461   462   463
464   465   466   467
468   469   470   471
472   473   474   475
476   477   478   479
480   481   482   483
484   485   486   487
488   489   490   491
492   493   494   495
496   497   498   499
500   501   502   503
504   505   506   507
508   509   510   511
512   513   514   515
516   517   518   519
520   521   522   523
524   525   526   527
528   529   530   531
532   533   534   535
536   537   538   539
540   541   542   543
544   545   546   547
548   549   550   551
552   553   554   555
556   557   558   559
560   561   562   563
564   565   566   567
568   569   570   571
572   573   574   575
576   577   578   579
580   581   582   583
584   585   586   587
588   589   590   591
592   593   594   595
596   597   598   599
600   601   602   603
604   605   606   607
608   609   610   611
612   613   614   615
616   617   618   619
620   621   622   623
624   625   626   627
628   629   630   631
632   633   634   635
636   637   638   639
640   641   642   643
644   645   646   647
648   649   650   651
652   653   654   655
656   657   658   659
660   661   662   663
664   665   666   667
668   669   670   671
672   673   674   675
676   677   678   679
680   681   682   683
684   685   686   687
688   689   690   691
692   693   694   695
696   697   698   699
700   701   702   703
704   705   706   707
708   709   710   711
712   713   714   715
716   717   718   719
720   721   722   723
724   725   726   727
728   729   730   731
732   733   734   735
736   737   738   739
740   741   742   743
744   745   746   747
748   749   750   751
752   753   754   755
756   757   758   759
760   761   762   763
764   765   766   767
768   769   770   771
772   773   774   775
776   777   778   779
780   781   782   783
784   785   786   787
788   789   790   791
792   793   794   795
796   797   798   799
800   801   802   803
804   805   806   807
808   809   810   811
812   813   814   815
816   817   818   819
820   821   822   823
824   825   826   827
828   829   830   831
832   833   834   835
836   837   838   839
840   841   842   843
844   845   846   847
848   849   850   851
852   853   854   855
856   857   858   859
860   861   862   863
864   865   866   867
868   869   870   871
872   873   874   875
876   877   878   879
880   881   882   883
884   885   886   887
888   889   890   891
892   893   894   895
896   897   898   899
900   901   902   903
904   905   906   907
908   909   910   911
912   913   914   915
916   917   918   919
920   921   922   923
924   925   926   927
928   929   930   931
932   933   934   935
936   937   938   939
940   941   942   943
944   945   946   947
948   949   950   951
952   953   954   955
956   957   958   959
960   961   962   963
964   965   966   967
968   969   970   971
972   973   974   975
976   977   978   979
980   981   982   983
984   985   986   987
988   989   990   991
992   993   994   995
996   997   998   999
1000   1001   1002   1003
1004   1005   1006   1007
1008   1009   1010   1011
1012   1013   1014   1015
1016   1017   1018   1019
1020   1021   1022   1023
1024   1025   1026   1027
1028   1029   1030   1031
1032   1033   1034   1035
1036   1037   1038   1039
1040   1041   1042   1043
1044   1045   1046   1047
1048   1049   1050   1051
1052   1053   1054   1055
1056   1057   1058   1059
1060   1061   1062   1063
1064   1065   1066   1067
1068   1069   1070   1071
1072   1073   1074   1075
1076   1077   1078   1079
1080   1081   1082   1083
1084   1085   1086   1087
1088   1089   1090   1091
1092   1093   1094   1095
1096   1097   1098   1099
1100   1101   1102   1103
1104   1105   1106   1107
1108   1109   1110   1111
1112   1113   1114   1115
1116   1117   1118   1119
1120   1121   1122   1123
1124   1125   1126   1127
1128   1129   1130   1131
1132   1133   1134   1135
1136   1137   1138   1139
1140   1141   1142   1143
1144   1145   1146   1147
1148   1149   1150   1151
1152   1153   1154   1155
1156   1157   1158   1159
1160   1161   1162   1163
1164   1165   1166   1167
1168   1169   1170   1171
1172   1173   1174   1175
1176   1177   1178   1179
1180   1181   1182   1183
1184   1185   1186   1187
1188   1189   1190   1191
1192   1193   1194   1195
1196   1197   1198   1199
1200   1201   1202   1203
1204   1205   1206   1207
1208   1209   1210   1211
1212   1213   1214   1215
1216   1217   1218   1219
1220   1221   1222   1223
1224   1225   1226   1227
1228   1229   1230   1231
1232   1233   1234   1235
1236   1237   1238   1239
1240   1241   1242   1243
1244   1245   1246   1247
1248   1249   1250   1251
1252   1253   1254   1255
1256   1257   1258   1259
1260   1261   1262   1263
1264   1265   1266   1267
1268   1269   1270   1271
1272   1273   1274   1275
1276   1277   1278   1279
1280   1281   1282   1283
1284   1285   1286   1287
1288   1289   1290   1291
1292   1293   1294   1295
1296   1297   1298   1299
1300   1301   1302   1303
1304   1305   1306   1307
1308   1309   1310   1311
1312   1313   1314   1315
1316   1317   1318   1319
1320   1321   1322   1323
1324   1325   1326   1327
1328   1329   1330   1331
1332   1333   1334   1335
1336   1337   1338   1339
1340   1341   1342   1343
1344   1345   1346   1347
1348   1349   1350   1351
1352   1353   1354   1355
1356   1357   1358   1359
1360   1361   1362   1363
1364   1365   1366   1367
1368   1369   1370   1371
1372   1373   1374   1375
1376   1377   1378   1379
1380   1381   1382   1383
1384   1385   1386   1387
1388   1389   1390   1391
1392   1393   1394   1395
1396   1397   1398   1399
1400   1401   1402   1403
1404   1405   1406   1407
1408   1409   1410   1411
1412   1413   1414   1415
1416   1417   1418   1419
1420   1421   1422   1423
1424   1425   1426   1427
1428   1429   1430   1431
1432   1433   1434   1435
1436   1437   1438   1439
1440   1441   1442   1443
1444   1445   1446   1447
1448   1449   1450   1451
1452   1453   1454   1455
1456   1457   1458   1459
1460   1461   1462   1463
1464   1465   1466   1467
1468   1469   1470   1471
1472   1473   1474   1475
1476   1477   1478   1479
1480   1481   1482   1483
1484   1485   1486   1487
1488   1489   1490   1491
1492   1493   1494   1495
1496   1497   1498   1499
1500   1501   1502   1503
1504   1505   1506   1507
1508   1509   1510   1511
1512   1513   1514   1515
1516   1517   1518   1519
1520   1521   1522   1523
1524   1525   1526   1527
1528   1529   1530   1531
1532   1533   1534   1535
1536   1537   1538   1539
1540   1541   1542   1543
1544   1545   1546   1547
1548   1549   1550   1551
1552   1553   1554   1555
1556   1557   1558   1559
1560   1561   1562   1563
1564   1565   1566   1567
1568   1569   1570   1571
1572   1573   1574   1575
1576   1577   1578   1579
1580   1581   1582   1583
1584   1585   1586   1587
1588   1589   1590   1591
1592   1593   1594   1595
1596   1597   1598   1599
1600   1601   1602   1603
1604   1605   1606   1607
1608   1609   1610   1611
1612   1613   1614   1615
1616   1617   1618   1619
1620   1621   1622   1623
1624   1625   1626   1627
1628   1629   1630   1631
1632   1633   1634   1635
1636   1637   1638   1639
1640   1641   1642   1643
1644   1645   1646   1647
1648   1649   1650   1651
1652   1653   1654   1655
1656   1657   1658   1659
1660   1661   1662   1663
1664   1665   1666   1667
1668   1669   1670   1671
1672   1673   1674   1675
1676   1677   1678   1679
1680   1681   1682   1683
1684   1685   1686   1687
1688   1689   1690   1691
1692   1693   1694   1695
1696   1697   1698   1699
1700   1701   1702   1703
1704   1705   1706   1707
1708   1709   1710   1711
1712   1713   1714   1715
1716   1717   1718   1719
1720   1721   1722   1723
1724   1725   1726   1727
1728   1729   1730   1731
1732   1733   1734   1735
1736   1737   1738   1739
1740   1741   1742   1743
1744   1745   1746   1747
1748   1749   1750   1751
1752   1753   1754   1755
1756   1757   1758   1759
1760   1761   1762   1763
1764   1765   1766   1767
1768   1769   1770   1771
1772   1773   1774   1775
1776   1777   1778   1779
1780   1781   1782   1783
1784   1785   1786   1787
1788   1789   1790   1791
1792   1793   1794   1795
1796   1797   1798   1799
1800   1801   1802   1803
1804   1805   1806   1807
1808   1809   1810   1811
1812   1813   1814   1815
1816   1817   1818   1819
1820   1821   1822   1823
1824   1825   1826   1827
1828   1829   1830   1831
1832   1833   1834   1835
1836   1837   1838   1839
1840   1841   1842   1843
1844   1845   1846   1847
1848   1849   1850   1851
1852   1853   1854   1855
1856   1857   1858   1859
1860   1861   1862   1863
1864   1865   1866   1867
1868   1869   1870   1871
1872   1873   1874   1875
1876   1877   1878   1879
1880   1881   1882   1883
1884   1885   1886   1887
1888   1889   1890   1891
1892   1893   1894   1895
1896   1897   1898   1899
1900   1901   1902   1903
1904   1905   1906   1907
1908   1909   1910   1911
1912   1913   1914   1915
1916   1917   1918   1919
1920   1921   1922   1923
1924   1925   1926   1927
1928   1929   1930   1931
1932   1933   1934   1935
1936   1937   1938   1939
1940   1941   1942   1943
1944   1945   1946   1947
1948   1949   1950   1951
1952   1953   1954   1955
1956   1957   1958   1959
1960   1961   1962   1963
1964   1965   1966   1967
1968   1969   1970   1971
1972   1973   1974   1975
1976   1977   1978   1979
1980   1981   1982   1983
1984   1985   1986   1987
1988   1989   1990   1991
1992   1993   1994   1995
1996   1997   1998   1999
2000   2001   2002   2003
2004   2005   2006   2007
2008   2009   2010   2011
2012   2013   2014   2015
2016   2017   2018   2019
2020   2021   2022   2023
2024   2025   2026   2027
2028   2029   2030   2031
2032   2033   2034   2035
2036   2037   2038   2039
2040   2041   2042   2043
2044   2045   2046   2047
2048   2049   2050   2051
2052   2053   2054   2055
2056   2057   2058   2059
2060   2061   2062   2063
2064   2065   2066   2067
2068   2069   2070   2071
2072   2073   2074   2075
2076   2077   2078   2079
2080   2081   2082   2083
2084   2085   2086   2087
2088   2089   2090   2091
2092   2093   2094   2095
2096   2097   2098   2099
2100   2101   2102   2103
2104   2105   2106   2107
2108   2109   2110   2111
2112   2113   2114   2115
2116   2117   2118   2119
2120   2121   2122   2123
2124   2125   2126   2127
2128   2129   2130   2131
2132   2133   2134   2135
2136   2137   2138   2139
2140   2141   2142   2143
2144   2145   2146   2147
2148   2149   2150   2151
2152   2153   2154   2155
2156   2157   2158   2159
2160   2161   2162   2163
2164   2165   2166   2167
2168   2169   2170   2171
2172   2173   2174   2175
2176   2177   2178   2179
2180   2181   2182   2183
2184   2185   2186   2187
2188   2189   2190   2191
2192   2193   2194   2195
2196   2197   2198   2199
2200   2201   2202   2203
2204   2205   2206   2207
2208   2209   2210   2211
2212   2213   2214   2215
2216   2217   2218   2219
2220   2221   2222   2223
2224   2225   2226   2227
2228   2229   2230   2231
2232   2233   2234   2235
2236   2237   2238   2239
2240   2241   2242   2243
2244   2245   2246   2247
2248   2249   2250   2251
2252   2253   2254   2255
2256   2257   2258   2259
2260   2261   2262   2263
2264   2265   2266   2267
2268   2269   2270   2271
2272   2273   2274   2275
2276   2277   2278   2279
2280   2281   2282   2283
2284   2285   2286   2287
2288   2289   2290   2291
2292   2293   2294   2295
2296   2297   2298   2299
2300   2301   2302   2303
2304   2305   2306   2307
2308   2309   2310   2311
2312   2313   2314   2315
2316   2317   2318   2319
2320   2321   2322   2323
2324   2325   2326   2327
2328   2329   2330   2331
2332   2333   2334   2335
2336   2337   2338   2339
2340   2341   2342   2343
2344   2345   2346   2347
2348   2349   2350   2351
2352   2353   2354   2355
2356   2357   2358   2359
2360   2361   2362   2363
2364   2365   2366   2367
2368   2369   2370   2371
2372   2373   2374   2375
2376   2377   2378   2379
2380   2381   2382   2383
2384   2385   2386   2387
2388   2389   2390   2391
2392   2393   2394   2395
2396   2397   2398   2399
2400   2401   2402   2403
2404   2405   2406   2407
2408   2409   2410   2411
2412   2413   2414   2415
2416   2417   2418   2419
2420   2421   2422   2423
2424   2425   2426   2427
2428   2429   2430   2431
2432   2433   2434   2435
2436   2437   2438   2439
2440   2441   2442   2443
2444   2445   2446   2447
2448   2449   2450   2451
2452   2453   2454   2455
2456   2457   2458   2459
2460   2461   2462   2463
2464   2465   2466   2467
2468   2469   2470   2471
2472   2473   2474   2475
2476   2477   2478   2479
2480   2481   2482   2483
2484   2485   2486   2487
2488   2489   2490   2491
2492   2493   2494   2495
2496   2497   2498   2499
2500   2501   2502   2503
2504   2505   2506   2507
2508   2509   2510   2511
2512   2513   2514   2515
2516   2517   2518   2519
2520   2521   2522   2523
2524   2525   2526   2527
2528   2529   2530   2531
2532   2533   2534   2535
2536   2537   2538   2539
2540   2541   2542   2543
2544   2545   2546   2547
2548   2549   2550   2551
2552   2553   2554   2555
2556   2557   2558   2559
2560   2561   2562   2563
2564   2565   2566   2567
2568   2569   2570   2571
2572   2573   2574   2575
2576   2577   2578   2579
2580   2581   2582   2583
2584   2585   2586   2587
2588   2589   2590   2591
2592   2593   2594   2595
2596   2597   2598   2599
2600   2601   2602   2603
2604   2605   2606   2607
2608   2609   2610   2611
2612   2613   2614   2615
2616   2617   2618   2619
2620   2621   2622   2623
2624   2625   2626   2627
2628   2629   2630   2631
2632   2633   2634   2635
2636   2637   2638   2639
2640   2641   2642   2643
2644   2645   2646   2647
2648   2649   2650   2651
2652   2653   2654   2655
2656   2657   2658   2659
2660   2661   2662   2663
2664   2665   2666   2667
2668   2669   2670   2671
2672   2673   2674   2675
2676   2677   2678   2679
2680   2681   2682   2683
2684   2685   2686   2687
2688   2689   2690   2691
2692   2693   2694   2695
2696   2697   2698   2699
2700   2701   2702   2703
2704   2705   2706   2707
2708   2709   2710   2711
2712   2713   2714   2715
2716   2717   2718   2719
2720   2721   2722   2723
2724   2725   2726   2727
2728   2729   2730   2731
2732   2733   2734   2735
2736   2737   2738   2739
2740   2741   2742   2743
2744   2745   2746   2747
2748   2749   2750   2751
2752   2753   2754   2755
2756   2757   2758   2759
2760   2761   2762   2763
2764   2765   2766   2767
2768   2769   2770   2771
2772   2773   2774   2775
2776   2777   2778   2779
2780   2781   2782   2783
2784   2785   2786   2787
2788   2789   2790   2791
2792   2793   2794   2795
2796   2797   2798   2799
2800   2801   2802   2803
2804   2805   2806   2807
2808   2809   2810   2811
2812   2813   2814   2815
2816   2817   2818   2819
2820   2821   2822   2823
2824   2825   2826   2827
2828   2829   2830   2831
2832   2833   2834   2835
2836   2837   2838   2839
2840   2841   2842   2843
2844   2845   2846   2847
2848   2849   2850   2851
2852   2853   2854   2855
2856   2857   2858   2859
2860   2861   2862   2863
2864   2865   2866   2867
2868   2869   2870   2871
2872   2873   2874   2875
2876   2877   2878   2879
2880   2881   2882   2883
2884   2885   2886   2887
2888   2889   2890   2891
2892   2893   2894   2895
2896   2897   2898   2899
2900   2901   2902   2903
2904   2905   2906   2907
2908   2909   2910   2911
2912   2913   2914   2915
2916   2917   2918   2919
2920   2921   2922   2923
2924   2925   2926   2927
2928   2929   2930   2931
2932   2933   2934   2935
2936   2937   2938   2939
2940   2941   2942   2943
2944   2945   2946   2947
2948   2949   2950   2951
2952   2953   2954   2955
2956   2957   2958   2959
2960   2961   2962   2963
2964   2965   2966   2967
2968   2969   2970   2971
2972   2973   2974   2975
2976   2977   2978   2979
2980   2981   2982   2983
2984   2985   2986   2987
2988   2989   2990   2991
2992   2993   2994   2995
2996   2997   2998   2999
3000   3001   3002   3003
3004   3005   3006   3007
3008   3009   3010   3011
3012   3013   3014   3015
3016   3017   3018   3019
3020   3021   3022   3023
3024   3025   3026   3027
3028   3029   3030   3031
3032   3033   3034   3035
3036   3037   3038   3039
3040   3041   3042   3043
3044   3045   3046   3047
3048   3049   3050   3051
3052   3053   3054   3055
3056   3057   3058   3059
3060   3061   3062   3063
3064   3065   3066   3067
3068   3069   3070   3071
3072   3073   3074   3075
3076   3077   3078   3079
3080   3081   3082   3083
3084   3085   3086   3087
3088   3089   3090   3091
3092   3093   3094   3095
3096   3097   3098   3099
3100   3101   3102   3103
3104   3105   3106   3107
3108   3109   3110   3111
3112   3113   3114   3115
3116   3117   3118   3119
3120   3121   3122   3123
3124   3125   3126   3127
3128   3129   3130   3131
3132   3133   3134   3135
3136   3137   3138   3139
3140   3141   3142   3143
3144   3145   3146   3147
3148   3149   3150   3151
3152   3153   3154   3155
3156   3157   3158   3159
3160   3161   3162   3163
3164   3165   3166   3167
3168   3169   3170   3171
3172   3173   3174   3175
3176   3177   3178   3179
3180   3181   3182   3183
3184   3185   3186   3187
3188   3189   3190   3191
3192   3193   3194   3195
3196   3197   3198   3199
3200   3201   3202   3203
3204   3205   3206   3207
3208   3209   3210   3211
3212   3213   3214   3215
3216   3217   3218   3219
3220   3221   3222   3223
3224   3225   3226   3227
3228   3229   3230   3231
3232   3233   3234   3235
3236   3237   3238   3239
3240   3241   3242   3243
3244   3245   3246   3247
3248   3249   3250   3251
3252   3253   3254   3255
3256   3257   3258   3259
3260   3261   3262   3263
3264   3265   3266   3267
3268   3269   3270   3271
3272   3273   3274   3275
3276   3277   3278   3279
3280   3281   3282   3283
3284   3285   3286   3287
3288   3289   3290   3291
3292   3293   3294   3295
3296   3297   3298   3299
3300   3301   3302   3303
3304   3305   3306   3307
3308   3309   3310   3311
3312   3313   3314   3315
3316   3317   3318   3319
3320   3321   3322   3323
3324   3325   3326   3327
3328   3329   3330   3331
3332   3333   3334   3335
3336   3337   3338   3339
3340   3341   3342   3343
3344   3345   3346   3347
3348   3349   3350   3351
3352   3353   3354   3355
3356   3357   3358   3359
3360   3361   3362   3363
3364   3365   3366   3367
3368   3369   3370   3371
3372   3373   3374   3375
3376   3377   3378   3379
3380   3381   3382   3383
3384   3385   3386   3387
3388   3389   3390   3391
3392   3393   3394   3395
3396   3397   3398   3399
3400   3401   3402   3403
3404   3405   3406   3407
3408   3409   3410   3411
3412   3413   3414   3415
3416   3417   3418   3419
3420   3421   3422   3423
3424   3425   3426   3427
3428   3429   3430   3431
3432   3433   3434   3435
3436   3437   3438   3439
3440   3441   3442   3443
3444   3445   3446   3447
3448   3449   3450   3451
3452   3453   3454   3455
3456   3457   3458   3459
3460   3461   3462   3463
3464   3465   3466   3467
3468   3469   3470   3471
3472   3473   3474   3475
3476   3477   3478   3479
3480   3481   3482   3483
3484   3485   3486   3487
3488   3489   3490   3491
3492   3493   3494   3495
3496   3497   3498   3499
3500   3501   3502   3503
3504   3505   3506   3507
3508   3509   3510   3511
3512   3513   3514   3515
3516   3517   3518   3519
3520   3521   3522   3523
3524   3525   3526   3527
3528   3529   3530   3531
3532   3533   3534   3535
3536   3537   3538   3539
3540   3541   3542   3543
3544   3545   3546   3547
3548   3549   3550   3551
3552   3553   3554   3555
3556   3557   3558   3559
3560   3561   3562   3563
3564   3565   3566   3567
3568   3569   3570   3571
3572   3573   3574   3575
3576   3577   3578   3579
3580   3581   3582   3583
3584   3585   3586   3587
3588   3589   3590   3591
3592   3593   3594   3595
3596   3597   3598   3599
3600   3601   3602   3603
3604   3605   3606   3607
3608   3609   3610   3611
3612   3613   3614   3615
3616   3617   3618   3619
3620   3621   3622   3623
3624   3625   3626   3627
3628   3629   3630   3631
3632   3633   3634   3635
3636   3637   3638   3639
3640   3641   3642   3643
3644   3645   3646   3647
3648   3649   3650   3651
3652   3653   3654   3655
3656   3657   3658   3659
3660   3661   3662   3663
3664   3665   3666   3667
3668   3669   3670   3671
3672   3673   3674   3675
3676   3677   3678   3679
3680   3681   3682   3683
3684   3685   3686   3687
3688   3689   3690   3691
3692   3693   3694   3695
3696   3697   3698   3699
3700   3701   3702   3703
3704   3705   3706   3707
3708   3709   3710   3711
3712   3713   3714   3715
3716   3717   3718   3719
3720   3721   3722   3723
3724   3725   3726   3727
3728   3729   3730   3731
3732   3733   3734   3735
3736   3737   3738   3739
3740   3741   3742   3743
3744   3745   3746   3747
3748   3749   3750   3751
3752   3753   3754   3755
3756   3757   3758   3759
3760   3761   3762   3763
3764   3765   3766   3767
3768   3769   3770   3771
3772   3773   3774   3775
3776   3777   3778   3779
3780   3781   3782   3783
3784   3785   3786   3787
3788   3789   3790   3791
3792   3793   3794   3795
3796   3797   3798   3799
3800   3801   3802   3803
3804   3805   3806   3807
3808   3809   3810   3811
3812   3813   3814   3815
3816   3817   3818   3819
3820   3821   3822   3823
3824   3825   3826   3827
3828   3829   3830   3831
3832   3833   3834   3835
3836   3837   3838   3839
3840   3841   3842   3843
3844   3845   3846   3847
3848   3849   3850   3851
3852   3853   3854   3855
3856   3857   3858   3859
3860   3861   3862   3863
3864   3865   3866   3867
3868   3869   3870   3871
3872   3873   3874   3875
3876   3877   3878   3879
3880   3881   3882   3883
3884   3885   3886   3887
3888   3889   3890   3891
3892   3893   3894   3895
3896   3897   3898   3899
3900   3901   3902   3903
3904   3905   3906   3907
3908   3909   3910   3911
3912   3913   3914   3915
3916   3917   3918   3919
3920   3921   3922   3923
3924   3925   3926   3927
3928   3929   3930   3931
3932   3933   3934   3935
3936   3937   3938   3939
3940   3941   3942   3943
3944   3945   3946   3947
3948   3949   3950   3951
3952   3953   3954   3955
3956   3957   3958   3959
3960   3961   3962   3963
3964   3965   3966   3967
3968   3969   3970   3971
3972   3973   3974   3975
3976   3977   3978   3979
3980   3981   3982   3983
3984   3985   3986   3987
3988   3989   3990   3991
3992   3993   3994   3995
3996   3997   3998   3999
4000   4001   4002   4003
4004   4005   4006   4007
4008   4009   4010   4011
4012   4013   4014   4015
4016   4017   4018   4019
4020   4021   4022   4023
4024   4025   4026   4027
4028   4029   4030   4031
4032   4033   4034   4035
4036   4037   4038   4039
4040   4041   4042   4043
4044   4045   4046   4047
4048   4049   4050   4051
4052   4053   4054   4055
4056   4057   4058   4059
4060   4061   4062   4063
4064   4065   4066   4067
4068   4069   4070   4071
4072   4073   4074   4075
4076   4077   4078   4079
4080   4081   4082   4083
4084   4085   4086   4087
4088   4089   4090   4091
4092   4093   4094   4095
4096   4097   4098   4099
4100   4101   4102   4103
4104   4105   4106   4107
4108   4109   4110   4111
4112   4113   4114   4115
4116   4117   4118   4119
4120   4121   4122   4123
4124   4125   4126   4127
4128   4129   4130   4131
4132   4133   4134   4135
4136   4137   4138   4139
4140   4141   4142   4143
4144   4145   4146   4147
4148   4149   4150   4151
4152   4153   4154   4155
4156   4157   4158   4159
4160   4161   4162   4163
4164   4165   4166   4167
4168   4169   4170   4171
4172   4173   4174   4175
4176   4177   4178   4179
4180   4181   4182   4183
4184   4185   4186   4187
4188   4189   4190   4191
4192   4193   4194   4195
4196   4197   4198   4199
4200   4201   4202   4203
4204   4205   4206   4207
4208   4209   4210   4211
4212   4213   4214   4215
4216   4217   4218   4219
4220   4221   4222   4223
4224   4225   4226   4227
4228   4229   4230   4231
4232   4233   4234   4235
4236   4237   4238   4239
4240   4241   4242   4243
4244   4245   4246   4247
4248   4249   4250   4251
4252   4253   4254   4255
4256   4257   4258   4259
4260   4261   4262   4263
4264   4265   4266   4267
4268   4269   4270   4271
4272   4273   4274   4275
4276   4277   4278   4279
4280   4281   4282   4283
4284   4285   4286   4287
4288   4289   4290   4291
4292   4293   4294   4295
4296   4297   4298   4299
4300   4301   4302   4303
4304   4305   4306   4307
4308   4309   4310   4311
4312   4313   4314   4315
4316   4317   4318   4319
4320   4321   4322   4323
4324   4325   4326   4327
4328   4329   4330   4331
4332   4333   4334   4335
4336   4337   4338   4339
4340   4341   4342   4343
4344   4345   4346   4347
4348   4349   4350   4351
4352   4353   4354   4355
4356   4357   4358   4359
4360   4361   4362   4363
4364   4365   4366   4367
4368   4369   4370   4371
4372   4373   4374   4375
4376   4377   4378   4379
4380   4381   4382   4383
4384   4385   4386   4387
4388   4389   4390   4391
4392   4393   4394   4395
4396   4397   4398   4399
4400   4401   4402   4403
4404   4405   4406   4407
4408   4409   4410   4411
4412   4413   4414   4415
4416   4417   4418   4419
4420   4421   4422   4423
4424   4425   4426   4427
4428   4429   4430   4431
4432   4433   4434   4435
4436   4437   4438   4439
4440   4441   4442   4443
4444   4445   4446   4447
4448   4449   4450   4451
4452   4453   4454   4455
4456   4457   4458   4459
4460   4461   4462   4463
4464   4465   4466   4467
4468   4469   4470   4471
4472   4473   4474   4475
4476   4477   4478   4479
4480   4481   4482   4483
4484   4485   4486   4487
4488   4489   4490   4491
4492   4493   4494   4495
4496   4497   4498   4499
4500   4501   4502   4503
4504   4505   4506   4507
4508   4509   4510   4511
4512   4513   4514   4515
4516   4517   4518   4519
4520   4521   4522   4523
4524   4525   4526   4527
4528   4529   4530   4531
4532   4533   4534   4535
4536   4537   4538   4539
4540   4541   4542   4543
4544   4545   4546   4547
4548   4549   4550   4551
4552   4553   4554   4555
4556   4557   4558   4559
4560   4561   4562   4563
4564   4565   4566   4567
4568   4569   4570   4571
4572   4573   4574   4575
4576   4577   4578   4579
4580   4581   4582   4583
4584   4585   4586   4587
4588   4589   4590   4591
4592   4593   4594   4595
4596   4597   4598   4599
4600   4601   4602   4603
4604   4605   4606   4607
4608   4609   4610   4611
4612   4613   4614   4615
4616   4617   4618   4619
4620   4621   4622   4623
4624   4625   4626   4627
4628   4629   4630   4631
4632   4633   4634   4635
4636   4637   4638   4639
4640   4641   4642   4643
4644   4645   4646   4647
4648   4649   4650   4651
4652   4653   4654   4655
4656   4657   4658   4659
4660   4661   4662   4663
4664   4665   4666   4667
4668   4669   4670   4671
4672   4673   4674   4675
4676   4677   4678   4679
4680   4681   4682   4683
4684   4685   4686   4687
4688   4689   4690   4691
4692   4693   4694   4695
4696   4697   4698   4699
4700   4701   4702   4703
4704   4705   4706   4707
4708   4709   4710   4711
4712   4713   4714   4715
4716   4717   4718   4719
4720   4721   4722   4723
4724   4725   4726   4727
4728   4729   4730   4731
4732   4733   4734   4735
4736   4737   4738   4739
4740   4741   4742   4743
4744   4745   4746   4747
4748   4749   4750   4751
4752   4753   4754   4755
4756   4757   4758   4759
4760   4761   4762   4763
4764   4765   4766   4767
4768   4769   4770   4771
4772   4773   4774   4775
4776   4777   4778   4779
4780   4781   4782   4783
4784   4785   4786   4787
4788   4789   4790   4791
4792   4793   4794   4795
4796   4797   4798   4799
4800   4801   4802   4803
4804   4805   4806   4807
4808   4809   4810   4811
4812   4813   4814   4815
4816   4817   4818   4819
4820   4821   4822   4823
4824   4825   4826   4827
4828   4829   4830   4831
4832   4833   4834   4835
4836   4837   4838   4839
4840   4841   4842   4843
4844   4845   4846   4847
4848   4849   4850   4851
4852   4853   4854   4855
4856   4857   4858   4859
4860   4861   4862   4863
4864   4865   4866   4867
4868   4869   4870   4871
4872   4873   4874   4875
4876   4877   4878   4879
4880   4881   4882   4883
4884   4885   4886   4887
4888   4889   4890   4891
4892   4893   4894   4895
4896   4897   4898   4899
4900   4901   4902   4903
4904   4905   4906   4907
4908   4909   4910   4911
4912   4913   4914   4915
4916   4917   4918   4919
4920   4921   4922   4923
4924   4925   4926   4927
4928   4929   4930   4931
4932   4933   4934   4935
4936   4937   4938   4939
4940   4941   4942   4943
4944   4945   4946   4947
4948   4949   4950   4951
4952   4953   4954   4955
4956   4957   4958   4959
4960   4961   4962   4963
4964   4965   4966   4967
4968   4969   4970   4971
4972   4973   4974   4975
4976   4977   4978   4979
4980   4981   4982   4983
4984   4985   4986   4987
4988   4989   4990   4991
4992   4993   4994   4995
4996   4997   4998   4999
5000   5001   5002   5003
5004   5005   5006   5007
5008   5009   5010   5011
5012   5013   5014   5015
5016   5017   5018   5019
5020   5021   5022   5023
5024   5025   5026   5027
5028   5029   5030   5031
5032   5033   5034   5035
5036   5037   5038   5039
5040   5041   5042   5043
5044   5045   5046   5047
5048   5049   5050   5051
5052   5053   5054   5055
5056   5057   5058   5059
5060   5061   5062   5063
5064   5065   5066   5067
5068   5069   5070   5071
5072   5073   5074   5075
5076   5077   5078   5079
5080   5081   5082   5083
5084   5085   5086   5087
5088   5089   5090   5091
5092   5093   5094   5095
5096   5097   5098   5099
5100   5101   5102   5103
5104   5105   5106   5107
5108   5109   5110   5111
5112   5113   5114   5115
5116   5117   5118   5119
5120   5121   5122   5123
5124   5125   5126   5127
5128   5129   5130   5131
5132   5133   5134   5135
5136   5137   5138   5139
5140   5141   5142   5143
5144   5145   5146   5147
5148   5149   5150   5151
5152   5153   5154   5155
5156   5157   5158   5159
5160   5161   5162   5163
5164   5165   5166   5167
5168   5169   5170   5171
5172   5173   5174   5175
5176   5177   5178   5179
5180   5181   5182   5183
5184   5185   5186   5187
5188   5189   5190   5191
5192   5193   5194   5195
5196   5197   5198   5199
5200   5201   5202   5203
5204   5205   5206   5207
5208   5209   5210   5211
5212   5213   5214   5215
5216   5217   5218   5219
5220   5221   5222   5223
5224   5225   5226   5227
5228   5229   5230   5231
5232   5233   5234   5235
5236   5237   5238   5239
5240   5241   5242   5243
5244   5245   5246   5247
5248   5249   5250   5251
5252   5253   5254   5255
5256   5257   5258   5259
5260   5261   5262   5263
5264   5265   5266   5267
5268   5269   5270   5271
5272   5273   5274   5275
5276   5277   5278   5279
5280   5281   5282   5283
5284   5285   5286   5287
5288   5289   5290   5291
5292   5293   5294   5295
5296   5297   5298   5299
5300   5301   5302   5303
5304   5305   5306   5307
5308   5309   5310   5311
5312   5313   5314   5315
5316   5317   5318   5319
5320   5321   5322   5323
5324   5325   5326   5327
5328   5329   5330   5331
5332   5333   5334   5335
5336   5337   5338   5339
5340   5341   5342   5343
5344   5345   5346   5347
5348   5349   5350   5351
5352   5353   5354   5355
5356   5357   5358   5359
5360   5361   5362   5363
5364   5365   5366   5367
5368   5369   5370   5371
5372   5373   5374   5375
5376   5377   5378   5379
5380   5381   5382   5383
5384   5385   5386   5387
5388   5389   5390   5391
5392   5393   5394   5395
5396   5397   5398   5399
5400   5401   5402   5403
5404   5405   5406   5407
5408   5409   5410   5411
5412   5413   5414   5415
5416   5417   5418   5419
5420   5421   5422   5423
5424   5425   5426   5427
5428   5429   5430   5431
5432   5433   5434   5435
5436   5437   5438   5439
5440   5441   5442   5443
5444   5445   5446   5447
5448   5449   5450   5451
5452   5453   5454   5455
5456   5457   5458   5459
5460   5461   5462   5463
5464   5465   5466   5467
5468   5469   5470   5471
5472   5473   5474   5475
5476   5477   5478   5479
5480   5481   5482   5483
5484   5485   5486   5487
5488   5489   5490   5491
5492   5493   5494   5495
5496   5497   5498   5499
5500   5501   5502   5503
5504   5505   5506   5507
5508   5509   5510   5511
5512   5513   5514   5515
5516   5517   5518   5519
5520   5521   5522   5523
5524   5525   5526   5527
5528   5529   5530   5531
5532   5533   5534   5535
5536   5537   5538   5539
5540   5541   5542   5543
5544   5545   5546   5547
5548   5549   5550   5551
5552   5553   5554   5555
5556   5557   5558   5559
5560   5561   5562   5563
5564   5565   5566   5567
5568   5569   5570   5571
5572   5573   5574   5575
5576   5577   5578   5579
5580   5581   5582   5583
5584   5585   5586   5587
5588   5589   5590   5591
5592   5593   5594   5595
5596   5597   5598   5599
5600   5601   5602   5603
5604   5605   5606   5607
5608   5609   5610   5611
5612   5613   5614   5615
5616   5617   5618   5619
5620   5621   5622   5623
5624   5625   5626   5627
5628   5629   5630   5631
5632   5633   5634   5635
5636   5637   5638   5639
5640   5641   5642   5643
5644   5645   5646   5647
5648   5649   5650   5651
5652   5653   5654   5655
5656   5657   5658   5659
5660   5661   5662   5663
5664   5665   5666   5667
5668   5669   5670   5671
5672   5673   5674   5675
5676   5677   5678   5679
5680   5681   5682   5683
5684   5685   5686   5687
5688   5689   5690   5691
5692   5693   5694   5695
5696   5697   5698   5699
5700   5701   5702   5703
5704   5705   5706   5707
5708   5709   5710   5711
5712   5713   5714   5715
5716   5717   5718   5719
5720   5721   5722   5723
5724   5725   5726   5727
5728   5729   5730   5731
5732   5733   5734   5735
5736   5737   5738   5739
5740   5741   5742   5743
5744   5745   5746   5747
5748   5749   5750   5751
5752   5753   5754   5755
5756   5757   5758   5759
5760   5761   5762   5763
5764   5765   5766   5767
5768   5769   5770   5771
5772   5773   5774   5775
5776   5777   5778   5779
5780   5781   5782   5783
5784   5785   5786   5787
5788   5789   5790   5791
5792   5793   5794   5795
5796   5797   5798   5799
5800   5801   5802   5803
5804   5805   5806   5807
5808   5809   5810   5811
5812   5813   5814   5815
5816   5817   5818   5819
5820   5821   5822   5823
5824   5825   5826   5827
5828   5829   5830   5831
5832   5833   5834   5835
5836   5837   5838   5839
5840   5841   5842   5843
5844   5845   5846   5847
5848   5849   5850   5851
5852   5853   5854   5855
5856   5857   5858   5859
5860   5861   5862   5863
5864   5865   5866   5867
5868   5869   5870   5871
5872   5873   5874   5875
5876   5877   5878   5879
5880   5881   5882   5883
5884   5885   5886   5887
5888   5889   5890   5891
5892   5893   5894   5895
5896   5897   5898   5899
5900   5901   5902   5903
5904   5905   5906   5907
5908   5909   5910   5911
5912   5913   5914   5915
5916   5917   5918   5919
5920   5921   5922   5923
5924   5925   5926   5927
5928   5929   5930   5931
5932   5933   5934   5935
5936   5937   5938   5939
5940   5941   5942   5943
5944   5945   5946   5947
5948   5949   5950   5951
5952   5953   5954   5955
5956   5957   5958   5959
5960   5961   5962   5963
5964   5965   5966   5967
5968   5969   5970   5971
5972   5973   5974   5975
5976   5977   5978   5979
5980   5981   5982   5983
5984   5985   5986   5987
5988   5989   5990   5991
5992   5993   5994   5995
5996   5997   5998   5999
              </DataArray>   
              <DataArray type="Int32" Name="offsets" format="ascii">   
4
8
12
16
20
24
28
32
36
40
44
48
52
56
60
64
68
72
76
80
84
88
92
96
100
104
108
112
116
120
124
128
132
136
140
144
148
152
156
160
164
168
172
176
180
184
188
192
196
200
204
208
212
216
220
224
228
232
236
240
244
248
252
256
260
264
268
272
276
280
284
288
292
296
300
304
308
312
316
320
324
328
332
336
340
344
348
352
356
360
364
368
372
376
380
384
388
392
396
400
404
408
412
416
420
424
428
432
436
440
444
448
452
456
460
464
468
472
476
480
484
488
492
496
500
504
508
512
516
520
524
528
532
536
540
544
548
552
556
560
564
568
572
576
580
584
588
592
596
600
604
608
612
616
620
624
628
632
636
640
644
648
652
656
660
664
668
672
676
680
684
688
692
696
700
704
708
712
716
720
724
728
732
736
740
744
748
752
756
760
764
768
772
776
780
784
788
792
796
800
804
808
812
816
820
824
828
832
836
840
844
848
852
856
860
864
868
872
876
880
884
888
892
896
900
904
908
912
916
920
924
928
932
936
940
944
948
952
956
960
964
968
972
976
980
984
988
992
996
1000
1004
1008
1012
1016
1020
1024
1028
1032
1036
1040
1044
1048
1052
1056
1060
1064
1068
1072
1076
1080
1084
1088
1092
1096
1100
1104
1108
1112
1116
1120
1124
1128
1132
1136
1140
1144
1148
1152
1156
1160
1164
1168
1172
1176
1180
1184
1188
1192
1196
1200
1204
1208
1212
1216
1220
1224
1228
1232
1236
1240
1244
1248
1252
1256
1260
1264
1268
1272
1276
1280
1284
1288
1292
1296
1300
1304
1308
1312
1316
1320
1324
1328
1332
1336
1340
1344
1348
1352
1356
1360
1364
1368
1372
1376
1380
1384
1388
1392
1396
1400
1404
1408
1412
1416
1420
1424
1428
1432
1436
1440
1444
1448
1452
1456
1460
1464
1468
1472
1476
1480
1484
1488
1492
1496
1500
1504
1508
1512
1516
1520
1524
1528
1532
1536
1540
1544
1548
1552
1556
1560
1564
1568
1572
1576
1580
1584
1588
1592
1596
1600
1604
1608
1612
1616
1620
1624
1628
1632
1636
1640
1644
1648
1652
1656
1660
1664
1668
1672
1676
1680
1684
1688
1692
1696
1700
1704
1708
1712
1716
1720
1724
1728
1732
1736
1740
1744
1748
1752
1756
1760
1764
1768
1772
1776
1780
1784
1788
1792
1796
1800
1804
1808
1812
1816
1820
1824
1828
1832
1836
1840
1844
1848
1852
1856
1860
1864
1868
1872
1876
1880
1884
1888
1892
1896
1900
1904
1908
1912
1916
1920
1924
1928
1932
1936
1940
1944
1948
1952
1956
1960
1964
1968
1972
1976
1980
1984
1988
1992
1996
2000
2004
2008
2012
2016
2020
2024
2028
2032
2036
2040
2044
2048
2052
2056
2060
2064
2068
2072
2076
2080
2084
2088
2092
2096
2100
2104
2108
2112
2116
2120
2124
2128
2132
2136
2140
2144
2148
2152
2156
2160
2164
2168
2172
2176
2180
2184
2188
2192
2196
2200
2204
2208
2212
2216
2220
2224
2228
2232
2236
2240
2244
2248
2252
2256
2260
2264
2268
2272
2276
2280
2284
2288
2292
2296
2300
2304
2308
2312
2316
2320
2324
2328
2332
2336
2340
2344
2348
2352
2356
2360
2364
2368
2372
2376
2380
2384
2388
2392
2396
2400
2404
2408
2412
2416
2420
2424
2428
2432
2436
2440
2444
2448
2452
2456
2460
2464
2468
2472
2476
2480
2484
2488
2492
2496
2500
2504
2508
2512
2516
2520
2524
2528
2532
2536
2540
2544
2548
2552
2556
2560
2564
2568
2572
2576
2580
2584
2588
2592
2596
2600
2604
2608
2612
2616
2620
2624
2628
2632
2636
2640
2644
2648
2652
2656
2660
2664
2668
2672
2676
2680
2684
2688
2692
2696
2700
2704
2708
2712
2716
2720
2724
2728
2732
2736
2740
2744
2748
2752
2756
2760
2764
2768
2772
2776
2780
2784
2788
2792
2796
2800
2804
2808
2812
2816
2820
2824
2828
2832
2836
2840
2844
2848
2852
2856
2860
2864
2868
2872
2876
2880
2884
2888
2892
2896
2900
2904
2908
2912
2916
2920
2924
2928
2932
2936
2940
2944
2948
2952
2956
2960
2964
2968
2972
2976
2980
2984
2988
2992
2996
3000
3004
3008
3012
3016
3020
3024
3028
3032
3036
3040
3044
3048
3052
3056
3060
3064
3068
3072
3076
3080
3084
3088
3092
3096
3100
3104
3108
3112
3116
3120
3124
3128
3132
3136
3140
3144
3148
3152
3156
3160
3164
3168
3172
3176
3180
3184
3188
3192
3196
3200
3204
3208
3212
3216
3220
3224
3228
3232
3236
3240
3244
3248
3252
3256
3260
3264
3268
3272
3276
3280
3284
3288
3292
3296
3300
3304
3308
3312
3316
3320
3324
3328
3332
3336
3340
3344
3348
3352
3356
3360
3364
3368
3372
3376
3380
3384
3388
3392
3396
3400
3404
3408
3412
3416
3420
3424
3428
3432
3436
3440
3444
3448
3452
3456
3460
3464
3468
3472
3476
3480
3484
3488
3492
3496
3500
3504
3508
3512
3516
3520
3524
3528
3532
3536
3540
3544
3548
3552
3556
3560
3564
3568
3572
3576
3580
3584
3588
3592
3596
3600
3604
3608
3612
3616
3620
3624
3628
3632
3636
3640
3644
3648
3652
3656
3660
3664
3668
3672
3676
3680
3684
3688
3692
3696
3700
3704
3708
3712
3716
3720
3724
3728
3732
3736
3740
3744
3748
3752
3756
3760
3764
3768
3772
3776
3780
3784
3788
3792
3796
3800
3804
3808
3812
3816
3820
3824
3828
3832
3836
3840
3844
3848
3852
3856
3860
3864
3868
3872
3876
3880
3884
3888
3892
3896
3900
3904
3908
3912
3916
3920
3924
3928
3932
3936
3940
3944
3948
3952
3956
3960
3964
3968
3972
3976
3980
3984
3988
3992
3996
4000
4004
4008
4012
4016
4020
4024
4028
4032
4036
4040
4044
4048
4052
4056
4060
4064
4068
4072
4076
4080
4084
4088
4092
4096
4100
4104
4108
4112
4116
4120
4124
4128
4132
4136
4140
4144
4148
4152
4156
4160
4164
4168
4172
4176
4180
4184
4188
4192
4196
4200
4204
4208
4212
4216
4220
4224
4228
4232
4236
4240
4244
4248
4252
4256
4260
4264
4268
4272
4276
4280
4284
4288
4292
4296
4300
4304
4308
4312
4316
4320
4324
4328
4332
4336
4340
4344
4348
4352
4356
4360
4364
4368
4372
4376
4380
4384
4388
4392
4396
4400
4404
4408
4412
4416
4420
4424
4428
4432
4436
4440
4444
4448
4452
4456
4460
4464
4468
4472
4476
4480
4484
4488
4492
4496
4500
4504
4508
4512
4516
4520
4524
4528
4532
4536
4540
4544
4548
4552
4556
4560
4564
4568
4572
4576
4580
4584
4588
4592
4596
4600
4604
4608
4612
4616
4620
4624
4628
4632
4636
4640
4644
4648
4652
4656
4660
4664
4668
4672
4676
4680
4684
4688
4692
4696
4700
4704
4708
4712
4716
4720
4724
4728
4732
4736
4740
4744
4748
4752
4756
4760
4764
4768
4772
4776
4780
4784
4788
4792
4796
4800
4804
4808
4812
4816
4820
4824
4828
4832
4836
4840
4844
4848
4852
4856
4860
4864
4868
4872
4876
4880
4884
4888
4892
4896
4900
4904
4908
4912
4916
4920
4924
4928
4932
4936
4940
4944
4948
4952
4956
4960
4964
4968
4972
4976
4980
4984
4988
4992
4996
5000
5004
5008
5012
5016
5020
5024
5028
5032
5036
5040
5044
5048
5052
5056
5060
5064
5068
5072
5076
5080
5084
5088
5092
5096
5100
5104
5108
5112
5116
5120
5124
5128
5132
5136
5140
5144
5148
5152
5156
5160
5164
5168
5172
5176
5180
5184
5188
5192
5196
5200
5204
5208
5212
5216
5220
5224
5228
5232
5236
5240
5244
5248
5252
5256
5260
5264
5268
5272
5276
5280
5284
5288
5292
5296
5300
5304
5308
5312
5316
5320
5324
5328
5332
5336
5340
5344
5348
5352
5356
5360
5364
5368
5372
5376
5380
5384
5388
5392
5396
5400
5404
5408
5412
5416
5420
5424
5428
5432
5436
5440
5444
5448
5452
5456
5460
5464
5468
5472
5476
5480
5484
5488
5492
5496
5500
5504
5508
5512
5516
5520
5524
5528
5532
5536
5540
5544
5548
5552
5556
5560
5564
5568
5572
5576
5580
5584
5588
5592
5596
5600
5604
5608
5612
5616
5620
5624
5628
5632
5636
5640
5644
5648
5652
5656
5660
5664
5668
5672
5676
5680
5684
5688
5692
5696
5700
5704
5708
5712
5716
5720
5724
5728
5732
5736
5740
5744
5748
5752
5756
5760
5764
5768
5772
5776
5780
5784
5788
5792
5796
5800
5804
5808
5812
5816
5820
5824
5828
5832
5836
5840
5844
5848
5852
5856
5860
5864
5868
5872
5876
5880
5884
5888
5892
5896
5900
5904
5908
5912
5916
5920
5924
5928
5932
5936
5940
5944
5948
5952
5956
5960
5964
5968
5972
5976
5980
5984
5988
5992
5996
6000
              </DataArray>   
              <DataArray type="UInt8" Name="types" format="ascii">   
10
10
10
10
10
10
10
10
10
10
10
10
10
10
10
10
10
10
10
10
10
10
10
10
10
10
10
10
10
10
10
10
10
10
10
10
10
10
10
10
10
10
10
10
10
10
10
10
10
10
10
10
10
10
10
10
10
10
10
10
10
10
10
10
10
10
10
10
10
10
10
10
10
10
10
10
10
10
10
10
10
10
10
10
10
10
10
10
10
10
10
10
10
10
10
10
10
10
10
10
10
10
10
10
10
10
10
10
10
10
10
10
10
10
10
10
10
10
10
10
10
10
10
10
10
10
10
10
10
10
10
10
10
10
10
10
10
10
10
10
10
10
10
10
10
10
10
10
10
10
10
10
10
10
10
10
10
10
10
10
10
10
10
10
10
10
10
10
10
10
10
10
10
10
10
10
10
10
10
10
10
10
10
10
10
10
10
10
10
10
10
10
10
10
10
10
10
10
10
10
10
10
10
10
10
10
10
10
10
10
10
10
10
10
10
10
10
10
10
10
10
10
10
10
10
10
10
10
10
10
10
10
10
10
10
10
10
10
10
10
10
10
10
10
10
10
10
10
10
10
10
10
10
10
10
10
10
10
10
10
10
10
10
10
10
10
10
10
10
10
10
10
10
10
10
10
10
10
10
10
10
10
10
10
10
10
10
10
10
10
10
10
10
10
10
10
10
10
10
10
10
10
10
10
10
10
10
10
10
10
10
10
10
10
10
10
10
10
10
10
10
10
10
10
10
10
10
10
10
10
10
10
10
10
10
10
10
10
10
10
10
10
10
10
10
10
10
10
10
10
10
10
10
10
10
10
10
10
10
10
10
10
10
10
10
10
10
10
10
10
10
10
10
10
10
10
10
10
10
10
10
10
10
10
10
10
10
10
10
10
10
10
10
10
10
10
10
10
10
10
10
10
10
10
10
10
10
10
10
10
10
10
10
10
10
10
10
10
10
10
10
10
10
10
10
10
10
10
10
10
10
10
10
10
10
10
10
10
10
10
10
10
10
10
10
10
10
10
10
10
10
10
10
10
10
10
10
10
10
10
10
10
10
10
10
10
10
10
10
10
10
10
10
10
10
10
10
10
10
10
10
10
10
10
10
10
10
10
10
10
10
10
10
10
10
10
10
10
10
10
10
10
10
10
10
10
10
10
10
10
10
10
10
10
10
10
10
10
10
10
10
10
10
10
10
10
10
10
10
10
10
10
10
10
10
10
10
10
10
10
10
10
10
10
10
10
10
10
10
10
10
10
10
10
10
10
10
10
10
10
10
10
10
10
10
10
10
10
10
10
10
10
10
10
10
10
10
10
10
10
10
10
10
10
10
10
10
10
10
10
10
10
10
10
10
10
10
10
10
10
10
10
10
10
10
10
10
10
10
10
10
10
10
10
10
10
10
10
10
10
10
10
10
10
10
10
10
10
10
10
10
10
10
10
10
10
10
10
10
10
10
10
10
10
10
10
10
10
10
10
10
10
10
10
10
10
10
10
10
10
10
10
10
10
10
10
10
10
10
10
10
10
10
10
10
10
10
10
10
10
10
10
10
10
10
10
10
10
10
10
10
10
10
10
10
10
10
10
10
10
10
10
10
10
10
10
10
10
10
10
10
10
10
10
10
10
10
10
10
10
10
10
10
10
10
10
10
10
10
10
10
10
10
10
10
10
10
10
10
10
10
10
10
10
10
10
10
10
10
10
10
10
10
10
10
10
10
10
10
10
10
10
10
10
10
10
10
10
10
10
10
10
10
10
10
10
10
10
10
10
10
10
10
10
10
10
10
10
10
10
10
10
10
10
10
10
10
10
10
10
10
10
10
10
10
10
10
10
10
10
10
10
10
10
10
10
10
10
10
10
10
10
10
10
10
10
10
10
10
10
10
10
10
10
10
10
10
10
10
10
10
10
10
10
10
10
10
10
10
10
10
10
10
10
10
10
10
10
10
10
10
10
10
10
10
10
10
10
10
10
10
10
10
10
10
10
10
10
10
10
10
10
10
10
10
10
10
10
10
10
10
10
10
10
10
10
10
10
10
10
10
10
10
10
10
10
10
10
10
10
10
10
10
10
10
10
10
10
10
10
10
10
10
10
10
10
10
10
10
10
10
10
10
10
10
10
10
10
10
10
10
10
10
10
10
10
10
10
10
10
10
10
10
10
10
10
10
10
10
10
10
10
10
10
10
10
10
10
10
10
10
10
10
10
10
10
10
10
10
10
10
10
10
10
10
10
10
10
10
10
10
10
10
10
10
10
10
10
10
10
10
10
10
10
10
10
10
10
10
10
10
10
10
10
10
10
10
10
10
10
10
10
10
10
10
10
10
10
10
10
10
10
10
10
10
10
10
10
10
10
10
10
10
10
10
10
10
10
10
10
10
10
10
10
10
10
10
10
10
10
10
10
10
10
10
10
10
10
10
10
10
10
10
10
10
10
10
10
10
10
10
10
10
10
10
10
10
10
10
10
10
10
10
10
10
10
10
10
10
10
10
10
10
10
10
10
10
10
10
10
10
10
10
10
10
10
10
10
10
10
10
10
10
10
10
10
10
10
10
10
10
10
10
10
10
10
10
10
10
10
10
10
10
10
10
10
10
10
10
10
10
10
10
10
10
10
10
10
10
10
10
10
10
10
10
10
10
10
10
10
10
10
10
10
10
10
10
10
10
10
10
10
10
10
10
10
10
10
10
10
10
10
10
10
10
10
10
10
10
10
10
10
10
10
10
10
10
10
10
10
10
10
10
10
10
10
10
10
10
10
10
10
10
10
10
10
10
10
10
10
10
10
10
10
10
10
10
10
10
10
10
10
10
10
10
10
10
10
10
10
10
10
10
10
10
10
10
10
10
10
10
10
10
10
10
10
10
10
10
10
10
10
10
10
10
10
10
10
10
10
10
10
10
10
10
10
10
10
10
10
10
10
10
10
10
10
10
10
10
10
10
10
10
10
10
10
10
10
10
10
10
10
10
10
10
10
10
10
10
10
10
10
10
10
10
10
10
10
10
10
10
10
10
10
10
10
10
10
10
10
10
10
10
10
10
10
10
10
10
10
10
10
10
10
10
10
10
10
10
10
10
10
10
10
10
10
10
10
10
10
10
10
10
10
10
10
10
10
10
10
10
10
10
10
10
10
10
10
10
10
10
10
10
10
10
10
10
10
10
10
10
10
10
10
10
10
10
10
10
10
10
10
10
10
10
10
10
10
10
10
10
10
10
10
10
10
10
10
10
10
10
10
10
10
10
10
10
10
10
10
10
10
10
10
10
10
10
10
10
10
10
10
10
10
10
10
10
10
10
10
10
10
10
10
10
10
10
10
10
10
10
10
10
10
10
10
10
10
10
10
10
10
10
10
10
10
10
10
10
10
10
10
10
10
10
10
10
10
10
10
              </DataArray>   
          </Cells>  
          <PointData>  
             <DataArray type="Float64" NumberOfComponents="3" Name="Strains" format="ascii">   
-0.00010063189759967434   0.0   -6.60279900268542e-05
-0.00010063189759967434   0.0   -6.60279900268542e-05
-0.00010063189759967434   0.0   -6.60279900268542e-05
-0.00010063189759967434   0.0   -6.60279900268542e-05
-6.403569818432429e-05   1.1150327294092138e-05   1.6558720418510396e-06
-6.403569818432429e-05   1.1150327294092138e-05   1.6558720418510396e-06
-6.403569818432429e-05   1.1150327294092138e-05   1.6558720418510396e-06
-6.403569818432429e-05   1.1150327294092138e-05   1.6558720418510396e-06
-6.277061967548773e-05   0.0   -6.231517048247303e-05
-6.277061967548773e-05   0.0   -6.231517048247303e-05
-6.277061967548773e-05   0.0   -6.231517048247303e-05
-6.277061967548773e-05   0.0   -6.231517048247303e-05
-0.00010531770089546239   1.3379890609270545e-05   5.686971852560314e-07
-0.00010531770089546239   1.3379890609270545e-05   5.686971852560314e-07
-0.00010531770089546239   1.3379890609270545e-05   5.686971852560314e-07
-0.00010531770089546239   1.3379890609270545e-05   5.686971852560314e-07
-8.170125863758088e-05   3.0940162869842882e-06   -3.2620515317841366e-05
-8.170125863758088e-05   3.0940162869842882e-06   -3.2620515317841366e-05
-8.170125863758088e-05   3.0940162869842882e-06   -3.2620515317841366e-05
-8.170125863758088e-05   3.0940162869842882e-06   -3.2620515317841366e-05
-0.00010531770089546258   0.0   -7.034310484803538e-05
-0.00010531770089546258   0.0   -7.034310484803538e-05
-0.00010531770089546258   0.0   -7.034310484803538e-05
-0.00010531770089546258   0.0   -7.034310484803538e-05
-6.277061967548773e-05   1.3379890609270558e-05   8.596631550818353e-06
-6.277061967548773e-05   1.3379890609270558e-05   8.596631550818353e-06
-6.277061967548773e-05   1.3379890609270558e-05   8.596631550818353e-06
-6.277061967548773e-05   1.3379890609270558e-05   8.596631550818353e-06
-6.294909331254676e-05   0.0   -6.384081701997938e-05
-6.294909331254676e-05   0.0   -6.384081701997938e-05
-6.294909331254676e-05   0.0   -6.384081701997938e-05
-6.294909331254676e-05   0.0   -6.384081701997938e-05
-0.00010860916001977583   1.4334244199164012e-05   3.6587476392375994e-06
-0.00010860916001977583   1.4334244199164012e-05   3.6587476392375994e-06
-0.00010860916001977583   1.4334244199164012e-05   3.6587476392375994e-06
-0.00010860916001977583   1.4334244199164012e-05   3.6587476392375994e-06
-8.413339710400452e-05   5.418573190046657e-06   -3.178478794824412e-05
-8.413339710400452e-05   5.418573190046657e-06   -3.178478794824412e-05
-8.413339710400452e-05   5.418573190046657e-06   -3.178478794824412e-05
-8.413339710400452e-05   5.418573190046657e-06   -3.178478794824412e-05
-0.00010860916001977601   0.0   -7.244136353947781e-05
-0.00010860916001977601   0.0   -7.244136353947781e-05
-0.00010860916001977601   0.0   -7.244136353947781e-05
-0.00010860916001977601   0.0   -7.244136353947781e-05
-6.294909331254676e-05   1.4334244199164039e-05   1.225929415873603e-05
-6.294909331254676e-05   1.4334244199164039e-05   1.225929415873603e-05
-6.294909331254676e-05   1.4334244199164039e-05   1.225929415873603e-05
-6.294909331254676e-05   1.4334244199164039e-05   1.225929415873603e-05
-6.291763973707799e-05   0.0   -6.423261878088611e-05
-6.291763973707799e-05   0.0   -6.423261878088611e-05
-6.291763973707799e-05   0.0   -6.423261878088611e-05
-6.291763973707799e-05   0.0   -6.423261878088611e-05
-0.00011569843139316574   1.6328730152992453e-05   1.3938129220798274e-05
-0.00011569843139316574   1.6328730152992453e-05   1.3938129220798274e-05
-0.00011569843139316574   1.6328730152992453e-05   1.3938129220798274e-05
-0.00011569843139316574   1.6328730152992453e-05   1.3938129220798274e-05
-8.576339987842685e-05   6.840620632159735e-06   -3.0260724257933525e-05
-8.576339987842685e-05   6.840620632159735e-06   -3.0260724257933525e-05
-8.576339987842685e-05   6.840620632159735e-06   -3.0260724257933525e-05
-8.576339987842685e-05   6.840620632159735e-06   -3.0260724257933525e-05
-6.40356981843244e-05   0.0   -5.93377936503989e-05
-6.40356981843244e-05   0.0   -5.93377936503989e-05
-6.40356981843244e-05   0.0   -5.93377936503989e-05
-6.40356981843244e-05   0.0   -5.93377936503989e-05
-2.9160527126990642e-05   4.089934337523306e-06   1.2414520476712991e-06
-2.9160527126990642e-05   4.089934337523306e-06   1.2414520476712991e-06
-2.9160527126990642e-05   4.089934337523306e-06   1.2414520476712991e-06
-2.9160527126990642e-05   4.089934337523306e-06   1.2414520476712991e-06
-2.8047595072739966e-05   0.0   -5.882193404067095e-05
-2.8047595072739966e-05   0.0   -5.882193404067095e-05
-2.8047595072739966e-05   0.0   -5.882193404067095e-05
-2.8047595072739966e-05   0.0   -5.882193404067095e-05
-6.277061967548773e-05   5.822060736336804e-06   -4.443462811226759e-06
-6.277061967548773e-05   5.822060736336804e-06   -4.443462811226759e-06
-6.277061967548773e-05   5.822060736336804e-06   -4.443462811226759e-06
-6.277061967548773e-05   5.822060736336804e-06   -4.443462811226759e-06
-4.60416466285321e-05   4.298830081066212e-07   -2.9089777919214494e-05
-4.60416466285321e-05   4.298830081066212e-07   -2.9089777919214494e-05
-4.60416466285321e-05   4.298830081066212e-07   -2.9089777919214494e-05
-4.60416466285321e-05   4.298830081066212e-07   -2.9089777919214494e-05
-6.277061967548768e-05   0.0   -6.231517048247298e-05
-6.277061967548768e-05   0.0   -6.231517048247298e-05
-6.277061967548768e-05   0.0   -6.231517048247298e-05
-6.277061967548768e-05   0.0   -6.231517048247298e-05
-2.8047595072739966e-05   5.822060736336804e-06   -9.502263694246795e-07
-2.8047595072739966e-05   5.822060736336804e-06   -9.502263694246795e-07
-2.8047595072739966e-05   5.822060736336804e-06   -9.502263694246795e-07
-2.8047595072739966e-05   5.822060736336804e-06   -9.502263694246795e-07
-2.7423130635195703e-05   0.0   -5.956060774031584e-05
-2.7423130635195703e-05   0.0   -5.956060774031584e-05
-2.7423130635195703e-05   0.0   -5.956060774031584e-05
-2.7423130635195703e-05   0.0   -5.956060774031584e-05
-6.294909331254676e-05   7.1336821327725635e-06   -4.630879224394301e-06
-6.294909331254676e-05   7.1336821327725635e-06   -4.630879224394301e-06
-6.294909331254676e-05   7.1336821327725635e-06   -4.630879224394301e-06
-6.294909331254676e-05   7.1336821327725635e-06   -4.630879224394301e-06
-4.509687515534163e-05   2.2954689517976594e-06   -3.14816482444843e-05
-4.509687515534163e-05   2.2954689517976594e-06   -3.14816482444843e-05
-4.509687515534163e-05   2.2954689517976594e-06   -3.14816482444843e-05
-4.509687515534163e-05   2.2954689517976594e-06   -3.14816482444843e-05
-6.294909331254676e-05   0.0   -6.384081701997938e-05
-6.294909331254676e-05   0.0   -6.384081701997938e-05
-6.294909331254676e-05   0.0   -6.384081701997938e-05
-6.294909331254676e-05   0.0   -6.384081701997938e-05
-2.7423130635195703e-05   7.1336821327725635e-06   -3.5066994473075577e-07
-2.7423130635195703e-05   7.1336821327725635e-06   -3.5066994473075577e-07
-2.7423130635195703e-05   7.1336821327725635e-06   -3.5066994473075577e-07
-2.7423130635195703e-05   7.1336821327725635e-06   -3.5066994473075577e-07
-2.685474628139038e-05   0.0   -5.925230201395818e-05
-2.685474628139038e-05   0.0   -5.925230201395818e-05
-2.685474628139038e-05   0.0   -5.925230201395818e-05
-2.685474628139038e-05   0.0   -5.925230201395818e-05
-6.291763973707783e-05   8.300527944879774e-06   -4.1277963547400686e-06
-6.291763973707783e-05   8.300527944879774e-06   -4.1277963547400686e-06
-6.291763973707783e-05   8.300527944879774e-06   -4.1277963547400686e-06
-6.291763973707783e-05   8.300527944879774e-06   -4.1277963547400686e-06
-4.490191979696855e-05   3.823762505017623e-06   -3.146793699100513e-05
-4.490191979696855e-05   3.823762505017623e-06   -3.146793699100513e-05
-4.490191979696855e-05   3.823762505017623e-06   -3.146793699100513e-05
-4.490191979696855e-05   3.823762505017623e-06   -3.146793699100513e-05
-2.9160527126990693e-05   0.0   -5.6883833047884917e-05
-2.9160527126990693e-05   0.0   -5.6883833047884917e-05
-2.9160527126990693e-05   0.0   -5.6883833047884917e-05
-2.9160527126990693e-05   0.0   -5.6883833047884917e-05
3.7911967136145695e-06   -5.236549873282448e-07   -2.2784863059396993e-06
3.7911967136145695e-06   -5.236549873282448e-07   -2.2784863059396993e-06
3.7911967136145695e-06   -5.236549873282448e-07   -2.2784863059396993e-06
3.7911967136145695e-06   -5.236549873282448e-07   -2.2784863059396993e-06
4.500907538903734e-06   0.0   -5.8202718809772964e-05
4.500907538903734e-06   0.0   -5.8202718809772964e-05
4.500907538903734e-06   0.0   -5.8202718809772964e-05
4.500907538903734e-06   0.0   -5.8202718809772964e-05
-2.804759507273992e-05   1.032025384829641e-06   -4.574429687931422e-06
-2.804759507273992e-05   1.032025384829641e-06   -4.574429687931422e-06
-2.804759507273992e-05   1.032025384829641e-06   -4.574429687931422e-06
-2.804759507273992e-05   1.032025384829641e-06   -4.574429687931422e-06
-1.232980979404343e-05   -1.0990714682402114e-06   -2.9492080373916888e-05
-1.232980979404343e-05   -1.0990714682402114e-06   -2.9492080373916888e-05
-1.232980979404343e-05   -1.0990714682402114e-06   -2.9492080373916888e-05
-1.232980979404343e-05   -1.0990714682402114e-06   -2.9492080373916888e-05
-2.8047595072739966e-05   0.0   -5.882193404067095e-05
-2.8047595072739966e-05   0.0   -5.882193404067095e-05
-2.8047595072739966e-05   0.0   -5.882193404067095e-05
-2.8047595072739966e-05   0.0   -5.882193404067095e-05
4.500907538903741e-06   1.032025384829641e-06   -3.955214457033638e-06
4.500907538903741e-06   1.032025384829641e-06   -3.955214457033638e-06
4.500907538903741e-06   1.032025384829641e-06   -3.955214457033638e-06
4.500907538903741e-06   1.032025384829641e-06   -3.955214457033638e-06
5.060864738225903e-06   0.0   -5.8119562344586767e-05
5.060864738225903e-06   0.0   -5.8119562344586767e-05
5.060864738225903e-06   0.0   -5.8119562344586767e-05
5.060864738225903e-06   0.0   -5.8119562344586767e-05
-2.7423130635195608e-05   2.4017423262149624e-06   -5.420615451279809e-06
-2.7423130635195608e-05   2.4017423262149624e-06   -5.420615451279809e-06
-2.7423130635195608e-05   2.4017423262149624e-06   -5.420615451279809e-06
-2.7423130635195608e-05   2.4017423262149624e-06   -5.420615451279809e-06
-1.1493365167257008e-05   5.853097467367388e-07   -3.088036501682394e-05
-1.1493365167257008e-05   5.853097467367388e-07   -3.088036501682394e-05
-1.1493365167257008e-05   5.853097467367388e-07   -3.088036501682394e-05
-1.1493365167257008e-05   5.853097467367388e-07   -3.088036501682394e-05
-2.7423130635195703e-05   0.0   -5.956060774031584e-05
-2.7423130635195703e-05   0.0   -5.956060774031584e-05
-2.7423130635195703e-05   0.0   -5.956060774031584e-05
-2.7423130635195703e-05   0.0   -5.956060774031584e-05
5.060864738225911e-06   2.4017423262149624e-06   -3.979570055550853e-06
5.060864738225911e-06   2.4017423262149624e-06   -3.979570055550853e-06
5.060864738225911e-06   2.4017423262149624e-06   -3.979570055550853e-06
5.060864738225911e-06   2.4017423262149624e-06   -3.979570055550853e-06
5.814770956450546e-06   0.0   -5.685931613002603e-05
5.814770956450546e-06   0.0   -5.685931613002603e-05
5.814770956450546e-06   0.0   -5.685931613002603e-05
5.814770956450546e-06   0.0   -5.685931613002603e-05
-2.685474628139031e-05   3.988309806553488e-06   -4.803106617556629e-06
-2.685474628139031e-05   3.988309806553488e-06   -4.803106617556629e-06
-2.685474628139031e-05   3.988309806553488e-06   -4.803106617556629e-06
-2.685474628139031e-05   3.988309806553488e-06   -4.803106617556629e-06
-1.0804179839372554e-05   2.251076341908092e-06   -3.051171060879903e-05
-1.0804179839372554e-05   2.251076341908092e-06   -3.051171060879903e-05
-1.0804179839372554e-05   2.251076341908092e-06   -3.051171060879903e-05
-1.0804179839372554e-05   2.251076341908092e-06   -3.051171060879903e-05
3.791196713614576e-06   0.0   -5.719802604028186e-05
3.791196713614576e-06   0.0   -5.719802604028186e-05
3.791196713614576e-06   0.0   -5.719802604028186e-05
3.791196713614576e-06   0.0   -5.719802604028186e-05
3.9558561258953873e-05   -4.639807544520207e-06   -3.6963632476177217e-07
3.9558561258953873e-05   -4.639807544520207e-06   -3.6963632476177217e-07
3.9558561258953873e-05   -4.639807544520207e-06   -3.6963632476177217e-07
3.9558561258953873e-05   -4.639807544520207e-06   -3.6963632476177217e-07
3.96264777834507e-05   0.0   -6.03016444684875e-05
3.96264777834507e-05   0.0   -6.03016444684875e-05
3.96264777834507e-05   0.0   -6.03016444684875e-05
3.96264777834507e-05   0.0   -6.03016444684875e-05
4.500907538903749e-06   -3.498209431190556e-06   3.3989826447173337e-07
4.500907538903749e-06   -3.498209431190556e-06   3.3989826447173337e-07
4.500907538903749e-06   -3.498209431190556e-06   3.3989826447173337e-07
4.500907538903749e-06   -3.498209431190556e-06   3.3989826447173337e-07
2.1708837248532636e-05   -2.5863486901713738e-06   -2.8887101029521225e-05
2.1708837248532636e-05   -2.5863486901713738e-06   -2.8887101029521225e-05
2.1708837248532636e-05   -2.5863486901713738e-06   -2.8887101029521225e-05
2.1708837248532636e-05   -2.5863486901713738e-06   -2.8887101029521225e-05
4.500907538903749e-06   0.0   -5.820271880977317e-05
4.500907538903749e-06   0.0   -5.820271880977317e-05
4.500907538903749e-06   0.0   -5.820271880977317e-05
4.500907538903749e-06   0.0   -5.820271880977317e-05
3.96264777834507e-05   -3.498209431190556e-06   -1.7590273942426034e-06
3.96264777834507e-05   -3.498209431190556e-06   -1.7590273942426034e-06
3.96264777834507e-05   -3.498209431190556e-06   -1.7590273942426034e-06
3.96264777834507e-05   -3.498209431190556e-06   -1.7590273942426034e-06
3.945467328914561e-05   0.0   -5.9440542378522384e-05
3.945467328914561e-05   0.0   -5.9440542378522384e-05
3.945467328914561e-05   0.0   -5.9440542378522384e-05
3.945467328914561e-05   0.0   -5.9440542378522384e-05
5.060864738225911e-06   -2.2016333898925247e-06   -7.96548093054043e-07
5.060864738225911e-06   -2.2016333898925247e-06   -7.96548093054043e-07
5.060864738225911e-06   -2.2016333898925247e-06   -7.96548093054043e-07
5.060864738225911e-06   -2.2016333898925247e-06   -7.96548093054043e-07
2.197779041402468e-05   -1.031519640624344e-06   -2.969349246894621e-05
2.197779041402468e-05   -1.031519640624344e-06   -2.969349246894621e-05
2.197779041402468e-05   -1.031519640624344e-06   -2.969349246894621e-05
2.197779041402468e-05   -1.031519640624344e-06   -2.969349246894621e-05
5.060864738225907e-06   0.0   -5.8119562344586814e-05
5.060864738225907e-06   0.0   -5.8119562344586814e-05
5.060864738225907e-06   0.0   -5.8119562344586814e-05
5.060864738225907e-06   0.0   -5.8119562344586814e-05
3.945467328914561e-05   -2.2016333898925247e-06   -2.1175281269895626e-06
3.945467328914561e-05   -2.2016333898925247e-06   -2.1175281269895626e-06
3.945467328914561e-05   -2.2016333898925247e-06   -2.1175281269895626e-06
3.945467328914561e-05   -2.2016333898925247e-06   -2.1175281269895626e-06
4.0216783342153156e-05   0.0   -5.7134834526796956e-05
4.0216783342153156e-05   0.0   -5.7134834526796956e-05
4.0216783342153156e-05   0.0   -5.7134834526796956e-05
4.0216783342153156e-05   0.0   -5.7134834526796956e-05
5.814770956450556e-06   -4.5919732795137293e-07   4.773711794781946e-07
5.814770956450556e-06   -4.5919732795137293e-07   4.773711794781946e-07
5.814770956450556e-06   -4.5919732795137293e-07   4.773711794781946e-07
5.814770956450556e-06   -4.5919732795137293e-07   4.773711794781946e-07
2.2638824040189518e-05   8.206065148249313e-07   -2.8330599599085824e-05
2.2638824040189518e-05   8.206065148249313e-07   -2.8330599599085824e-05
2.2638824040189518e-05   8.206065148249313e-07   -2.8330599599085824e-05
2.2638824040189518e-05   8.206065148249313e-07   -2.8330599599085824e-05
3.9558561258953873e-05   0.0   -5.998191056699398e-05
3.9558561258953873e-05   0.0   -5.998191056699398e-05
3.9558561258953873e-05   0.0   -5.998191056699398e-05
3.9558561258953873e-05   0.0   -5.998191056699398e-05
8.929627765712836e-05   -1.1760259147572714e-05   1.5858127941420367e-05
8.929627765712836e-05   -1.1760259147572714e-05   1.5858127941420367e-05
8.929627765712836e-05   -1.1760259147572714e-05   1.5858127941420367e-05
8.929627765712836e-05   -1.1760259147572714e-05   1.5858127941420367e-05
8.386046499695072e-05   0.0   -6.630607853841583e-05
8.386046499695072e-05   0.0   -6.630607853841583e-05
8.386046499695072e-05   0.0   -6.630607853841583e-05
8.386046499695072e-05   0.0   -6.630607853841583e-05
3.96264777834507e-05   -1.0007390116547208e-05   1.3421667554012521e-05
3.96264777834507e-05   -1.0007390116547208e-05   1.3421667554012521e-05
3.96264777834507e-05   -1.0007390116547208e-05   1.3421667554012521e-05
3.96264777834507e-05   -1.0007390116547208e-05   1.3421667554012521e-05
6.17095131279523e-05   -5.270139976184874e-06   -2.6225741437707495e-05
6.17095131279523e-05   -5.270139976184874e-06   -2.6225741437707495e-05
6.17095131279523e-05   -5.270139976184874e-06   -2.6225741437707495e-05
6.17095131279523e-05   -5.270139976184874e-06   -2.6225741437707495e-05
3.9626477783450664e-05   0.0   -6.0301644468487444e-05
3.9626477783450664e-05   0.0   -6.0301644468487444e-05
3.9626477783450664e-05   0.0   -6.0301644468487444e-05
3.9626477783450664e-05   0.0   -6.0301644468487444e-05
8.386046499695044e-05   -1.0007390116547181e-05   7.4172334840841856e-06
8.386046499695044e-05   -1.0007390116547181e-05   7.4172334840841856e-06
8.386046499695044e-05   -1.0007390116547181e-05   7.4172334840841856e-06
8.386046499695044e-05   -1.0007390116547181e-05   7.4172334840841856e-06
8.135285038237003e-05   0.0   -6.492751596792915e-05
8.135285038237003e-05   0.0   -6.492751596792915e-05
8.135285038237003e-05   0.0   -6.492751596792915e-05
8.135285038237003e-05   0.0   -6.492751596792915e-05
3.945467328914561e-05   -9.144955982344616e-06   1.0389752776851662e-05
3.945467328914561e-05   -9.144955982344616e-06   1.0389752776851662e-05
3.945467328914561e-05   -9.144955982344616e-06   1.0389752776851662e-05
3.945467328914561e-05   -9.144955982344616e-06   1.0389752776851662e-05
6.0489664082910335e-05   -3.854892916201374e-06   -2.7842603052442146e-05
6.0489664082910335e-05   -3.854892916201374e-06   -2.7842603052442146e-05
6.0489664082910335e-05   -3.854892916201374e-06   -2.7842603052442146e-05
6.0489664082910335e-05   -3.854892916201374e-06   -2.7842603052442146e-05
3.945467328914561e-05   0.0   -5.9440542378522384e-05
3.945467328914561e-05   0.0   -5.9440542378522384e-05
3.945467328914561e-05   0.0   -5.9440542378522384e-05
3.945467328914561e-05   0.0   -5.9440542378522384e-05
8.135285038236976e-05   -9.144955982344575e-06   4.90277918744486e-06
8.135285038236976e-05   -9.144955982344575e-06   4.90277918744486e-06
8.135285038236976e-05   -9.144955982344575e-06   4.90277918744486e-06
8.135285038236976e-05   -9.144955982344575e-06   4.90277918744486e-06
7.762117838159111e-05   0.0   -6.140034601264895e-05
7.762117838159111e-05   0.0   -6.140034601264895e-05
7.762117838159111e-05   0.0   -6.140034601264895e-05
7.762117838159111e-05   0.0   -6.140034601264895e-05
4.0216783342153156e-05   -7.109185809753518e-06   5.205823872266526e-06
4.0216783342153156e-05   -7.109185809753518e-06   5.205823872266526e-06
4.0216783342153156e-05   -7.109185809753518e-06   5.205823872266526e-06
4.0216783342153156e-05   -7.109185809753518e-06   5.205823872266526e-06
5.8537925835368425e-05   -1.6331696951055722e-06   -2.8615023285214336e-05
5.8537925835368425e-05   -1.6331696951055722e-06   -2.8615023285214336e-05
5.8537925835368425e-05   -1.6331696951055722e-06   -2.8615023285214336e-05
5.8537925835368425e-05   -1.6331696951055722e-06   -2.8615023285214336e-05
-8.732498610903604e-05   1.1150327294092124e-05   -5.7285230754083164e-05
-8.732498610903604e-05   1.1150327294092124e-05   -5.7285230754083164e-05
-8.732498610903604e-05   1.1150327294092124e-05   -5.7285230754083164e-05
-8.732498610903604e-05   1.1150327294092124e-05   -5.7285230754083164e-05
-5.592981583851747e-05   1.0028055668602899e-05   -5.633309945179065e-06
-5.592981583851747e-05   1.0028055668602899e-05   -5.633309945179065e-06
-5.592981583851747e-05   1.0028055668602899e-05   -5.633309945179065e-06
-5.592981583851747e-05   1.0028055668602899e-05   -5.633309945179065e-06
-5.7338021571938435e-05   1.3379890609270531e-05   -4.810932599372771e-05
-5.7338021571938435e-05   1.3379890609270531e-05   -4.810932599372771e-05
-5.7338021571938435e-05   1.3379890609270531e-05   -4.810932599372771e-05
-5.7338021571938435e-05   1.3379890609270531e-05   -4.810932599372771e-05
-8.82723572068603e-05   1.2035256989492487e-05   4.2546802363423826e-06
-8.82723572068603e-05   1.2035256989492487e-05   4.2546802363423826e-06
-8.82723572068603e-05   1.2035256989492487e-05   4.2546802363423826e-06
-8.82723572068603e-05   1.2035256989492487e-05   4.2546802363423826e-06
-6.935606293817493e-05   1.164658263444292e-05   -2.7039272265103986e-05
-6.935606293817493e-05   1.164658263444292e-05   -2.7039272265103986e-05
-6.935606293817493e-05   1.164658263444292e-05   -2.7039272265103986e-05
-6.935606293817493e-05   1.164658263444292e-05   -2.7039272265103986e-05
-8.82723572068603e-05   1.3379890609270531e-05   -4.730254582186088e-05
-8.82723572068603e-05   1.3379890609270531e-05   -4.730254582186088e-05
-8.82723572068603e-05   1.3379890609270531e-05   -4.730254582186088e-05
-8.82723572068603e-05   1.3379890609270531e-05   -4.730254582186088e-05
-5.733802157193864e-05   1.2035256989492487e-05   3.44790006447557e-06
-5.733802157193864e-05   1.2035256989492487e-05   3.44790006447557e-06
-5.733802157193864e-05   1.2035256989492487e-05   3.44790006447557e-06
-5.733802157193864e-05   1.2035256989492487e-05   3.44790006447557e-06
-5.7634085268931724e-05   1.4334244199163998e-05   -4.325226655997919e-05
-5.7634085268931724e-05   1.4334244199163998e-05   -4.325226655997919e-05
-5.7634085268931724e-05   1.4334244199163998e-05   -4.325226655997919e-05
-5.7634085268931724e-05   1.4334244199163998e-05   -4.325226655997919e-05
-8.889537337015872e-05   1.2941135353879889e-05   9.68574558256937e-06
-8.889537337015872e-05   1.2941135353879889e-05   9.68574558256937e-06
-8.889537337015872e-05   1.2941135353879889e-05   9.68574558256937e-06
-8.889537337015872e-05   1.2941135353879889e-05   9.68574558256937e-06
-7.139672849426893e-05   1.2908709167932148e-05   -1.9459206832344754e-05
-7.139672849426893e-05   1.2908709167932148e-05   -1.9459206832344754e-05
-7.139672849426893e-05   1.2908709167932148e-05   -1.9459206832344754e-05
-7.139672849426893e-05   1.2908709167932148e-05   -1.9459206832344754e-05
-8.889537337015858e-05   1.4334244199163998e-05   -4.24164012528087e-05
-8.889537337015858e-05   1.4334244199163998e-05   -4.24164012528087e-05
-8.889537337015858e-05   1.4334244199163998e-05   -4.24164012528087e-05
-8.889537337015858e-05   1.4334244199163998e-05   -4.24164012528087e-05
-5.763408526893183e-05   1.2941135353879889e-05   8.849880275398888e-06
-5.763408526893183e-05   1.2941135353879889e-05   8.849880275398888e-06
-5.763408526893183e-05   1.2941135353879889e-05   8.849880275398888e-06
-5.763408526893183e-05   1.2941135353879889e-05   8.849880275398888e-06
-5.730784574370482e-05   1.6328730152992426e-05   -3.19559973806721e-05
-5.730784574370482e-05   1.6328730152992426e-05   -3.19559973806721e-05
-5.730784574370482e-05   1.6328730152992426e-05   -3.19559973806721e-05
-5.730784574370482e-05   1.6328730152992426e-05   -3.19559973806721e-05
-8.64329199321049e-05   1.3661093701862232e-05   1.8186374804005816e-05
-8.64329199321049e-05   1.3661093701862232e-05   1.8186374804005816e-05
-8.64329199321049e-05   1.3661093701862232e-05   1.8186374804005816e-05
-8.64329199321049e-05   1.3661093701862232e-05   1.8186374804005816e-05
-6.954124708250248e-05   1.4158594640554986e-05   -1.0264913841880432e-05
-6.954124708250248e-05   1.4158594640554986e-05   -1.0264913841880432e-05
-6.954124708250248e-05   1.4158594640554986e-05   -1.0264913841880432e-05
-6.954124708250248e-05   1.4158594640554986e-05   -1.0264913841880432e-05
-5.592981583851747e-05   4.089934337523293e-06   -6.082697432607036e-05
-5.592981583851747e-05   4.089934337523293e-06   -6.082697432607036e-05
-5.592981583851747e-05   4.089934337523293e-06   -6.082697432607036e-05
-5.592981583851747e-05   4.089934337523293e-06   -6.082697432607036e-05
-2.6500709736980104e-05   4.666184983907165e-06   -1.1432713769010986e-05
-2.6500709736980104e-05   4.666184983907165e-06   -1.1432713769010986e-05
-2.6500709736980104e-05   4.666184983907165e-06   -1.1432713769010986e-05
-2.6500709736980104e-05   4.666184983907165e-06   -1.1432713769010986e-05
-2.7134914587116495e-05   5.82206073633679e-06   -6.073548489428504e-05
-2.7134914587116495e-05   5.82206073633679e-06   -6.073548489428504e-05
-2.7134914587116495e-05   5.82206073633679e-06   -6.073548489428504e-05
-2.7134914587116495e-05   5.82206073633679e-06   -6.073548489428504e-05
-5.7338021571938435e-05   6.511953172149722e-06   -1.0810908714402757e-05
-5.7338021571938435e-05   6.511953172149722e-06   -1.0810908714402757e-05
-5.7338021571938435e-05   6.511953172149722e-06   -1.0810908714402757e-05
-5.7338021571938435e-05   6.511953172149722e-06   -1.0810908714402757e-05
-4.160843844011003e-05   5.2435532503426914e-06   -3.626584064769957e-05
-4.160843844011003e-05   5.2435532503426914e-06   -3.626584064769957e-05
-4.160843844011003e-05   5.2435532503426914e-06   -3.626584064769957e-05
-4.160843844011003e-05   5.2435532503426914e-06   -3.626584064769957e-05
-5.7338021571938394e-05   5.82206073633679e-06   -6.114942035577273e-05
-5.7338021571938394e-05   5.82206073633679e-06   -6.114942035577273e-05
-5.7338021571938394e-05   5.82206073633679e-06   -6.114942035577273e-05
-5.7338021571938394e-05   5.82206073633679e-06   -6.114942035577273e-05
-2.7134914587116542e-05   6.511953172149722e-06   -1.0396973252915041e-05
-2.7134914587116542e-05   6.511953172149722e-06   -1.0396973252915041e-05
-2.7134914587116542e-05   6.511953172149722e-06   -1.0396973252915041e-05
-2.7134914587116542e-05   6.511953172149722e-06   -1.0396973252915041e-05
-2.733531624852798e-05   7.13368213277255e-06   -5.959885241004422e-05
-2.733531624852798e-05   7.13368213277255e-06   -5.959885241004422e-05
-2.733531624852798e-05   7.13368213277255e-06   -5.959885241004422e-05
-2.733531624852798e-05   7.13368213277255e-06   -5.959885241004422e-05
-5.7634085268931724e-05   8.039661354547944e-06   -9.644491575769895e-06
-5.7634085268931724e-05   8.039661354547944e-06   -9.644491575769895e-06
-5.7634085268931724e-05   8.039661354547944e-06   -9.644491575769895e-06
-5.7634085268931724e-05   8.039661354547944e-06   -9.644491575769895e-06
-4.193519987293162e-05   6.654819619046252e-06   -3.497839552780231e-05
-4.193519987293162e-05   6.654819619046252e-06   -3.497839552780231e-05
-4.193519987293162e-05   6.654819619046252e-06   -3.497839552780231e-05
-4.193519987293162e-05   6.654819619046252e-06   -3.497839552780231e-05
-5.7634085268931724e-05   7.13368213277255e-06   -6.014243994310946e-05
-5.7634085268931724e-05   7.13368213277255e-06   -6.014243994310946e-05
-5.7634085268931724e-05   7.13368213277255e-06   -6.014243994310946e-05
-5.7634085268931724e-05   7.13368213277255e-06   -6.014243994310946e-05
-2.7335316248528075e-05   8.039661354547944e-06   -9.100904042704725e-06
-2.7335316248528075e-05   8.039661354547944e-06   -9.100904042704725e-06
-2.7335316248528075e-05   8.039661354547944e-06   -9.100904042704725e-06
-2.7335316248528075e-05   8.039661354547944e-06   -9.100904042704725e-06
-2.727018124915804e-05   8.300527944879774e-06   -5.898947838045779e-05
-2.727018124915804e-05   8.300527944879774e-06   -5.898947838045779e-05
-2.727018124915804e-05   8.300527944879774e-06   -5.898947838045779e-05
-2.727018124915804e-05   8.300527944879774e-06   -5.898947838045779e-05
-5.7307845743704764e-05   9.683332390793189e-06   -9.756386890427985e-06
-5.7307845743704764e-05   9.683332390793189e-06   -9.756386890427985e-06
-5.7307845743704764e-05   9.683332390793189e-06   -9.756386890427985e-06
-5.7307845743704764e-05   9.683332390793189e-06   -9.756386890427985e-06
-4.218366786987667e-05   7.932169148901745e-06   -3.3912652068340116e-05
-4.218366786987667e-05   7.932169148901745e-06   -3.3912652068340116e-05
-4.218366786987667e-05   7.932169148901745e-06   -3.3912652068340116e-05
-4.218366786987667e-05   7.932169148901745e-06   -3.3912652068340116e-05
-2.650070973698006e-05   -5.236549873282448e-07   -6.36869692994541e-05
-2.650070973698006e-05   -5.236549873282448e-07   -6.36869692994541e-05
-2.650070973698006e-05   -5.236549873282448e-07   -6.36869692994541e-05
-2.650070973698006e-05   -5.236549873282448e-07   -6.36869692994541e-05
2.55734915672457e-06   -1.387820693088404e-07   -1.5025947392468037e-05
2.55734915672457e-06   -1.387820693088404e-07   -1.5025947392468037e-05
2.55734915672457e-06   -1.387820693088404e-07   -1.5025947392468037e-05
2.55734915672457e-06   -1.387820693088404e-07   -1.5025947392468037e-05
2.436318835631721e-06   1.032025384829641e-06   -6.404183181571352e-05
2.436318835631721e-06   1.032025384829641e-06   -6.404183181571352e-05
2.436318835631721e-06   1.032025384829641e-06   -6.404183181571352e-05
2.436318835631721e-06   1.032025384829641e-06   -6.404183181571352e-05
-2.7134914587116495e-05   1.561786046626898e-06   -1.5074299174877958e-05
-2.7134914587116495e-05   1.561786046626898e-06   -1.5074299174877958e-05
-2.7134914587116495e-05   1.561786046626898e-06   -1.5074299174877958e-05
-2.7134914587116495e-05   1.561786046626898e-06   -1.5074299174877958e-05
-1.2233806065154946e-05   5.184959198700268e-07   -3.92835059687599e-05
-1.2233806065154946e-05   5.184959198700268e-07   -3.92835059687599e-05
-1.2233806065154946e-05   5.184959198700268e-07   -3.92835059687599e-05
-1.2233806065154946e-05   5.184959198700268e-07   -3.92835059687599e-05
-2.7134914587116495e-05   1.0320253848296275e-06   -6.435968821279178e-05
-2.7134914587116495e-05   1.0320253848296275e-06   -6.435968821279178e-05
-2.7134914587116495e-05   1.0320253848296275e-06   -6.435968821279178e-05
-2.7134914587116495e-05   1.0320253848296275e-06   -6.435968821279178e-05
2.436318835631721e-06   1.561786046626898e-06   -1.475644277779966e-05
2.436318835631721e-06   1.561786046626898e-06   -1.475644277779966e-05
2.436318835631721e-06   1.561786046626898e-06   -1.475644277779966e-05
2.436318835631721e-06   1.561786046626898e-06   -1.475644277779966e-05
2.2719870463936783e-06   2.4017423262149624e-06   -6.417584279454727e-05
2.2719870463936783e-06   2.4017423262149624e-06   -6.417584279454727e-05
2.2719870463936783e-06   2.4017423262149624e-06   -6.417584279454727e-05
2.2719870463936783e-06   2.4017423262149624e-06   -6.417584279454727e-05
-2.733531624852798e-05   3.223334196291632e-06   -1.5323292425057234e-05
-2.733531624852798e-05   3.223334196291632e-06   -1.5323292425057234e-05
-2.733531624852798e-05   3.223334196291632e-06   -1.5323292425057234e-05
-2.733531624852798e-05   3.223334196291632e-06   -1.5323292425057234e-05
-1.246371738947246e-05   1.9596817571457454e-06   -3.935109905999543e-05
-1.246371738947246e-05   1.9596817571457454e-06   -3.935109905999543e-05
-1.246371738947246e-05   1.9596817571457454e-06   -3.935109905999543e-05
-1.246371738947246e-05   1.9596817571457454e-06   -3.935109905999543e-05
-2.733531624852798e-05   2.4017423262149624e-06   -6.466879791659326e-05
-2.733531624852798e-05   2.4017423262149624e-06   -6.466879791659326e-05
-2.733531624852798e-05   2.4017423262149624e-06   -6.466879791659326e-05
-2.733531624852798e-05   2.4017423262149624e-06   -6.466879791659326e-05
2.2719870463936817e-06   3.223334196291686e-06   -1.4830337303011238e-05
2.2719870463936817e-06   3.223334196291686e-06   -1.4830337303011238e-05
2.2719870463936817e-06   3.223334196291686e-06   -1.4830337303011238e-05
2.2719870463936817e-06   3.223334196291686e-06   -1.4830337303011238e-05
1.942638342399216e-06   3.988309806553488e-06   -6.406536440568205e-05
1.942638342399216e-06   3.988309806553488e-06   -6.406536440568205e-05
1.942638342399216e-06   3.988309806553488e-06   -6.406536440568205e-05
1.942638342399216e-06   3.988309806553488e-06   -6.406536440568205e-05
-2.727018124915807e-05   4.954544814087176e-06   -1.595707275760686e-05
-2.727018124915807e-05   4.954544814087176e-06   -1.595707275760686e-05
-2.727018124915807e-05   4.954544814087176e-06   -1.595707275760686e-05
-2.727018124915807e-05   4.954544814087176e-06   -1.595707275760686e-05
-1.260357802085471e-05   3.4402180693389613e-06   -3.949281542459679e-05
-1.260357802085471e-05   3.4402180693389613e-06   -3.949281542459679e-05
-1.260357802085471e-05   3.4402180693389613e-06   -3.949281542459679e-05
-1.260357802085471e-05   3.4402180693389613e-06   -3.949281542459679e-05
2.55734915672457e-06   -4.63980754452018e-06   -5.876331104075242e-05
2.55734915672457e-06   -4.63980754452018e-06   -5.876331104075242e-05
2.55734915672457e-06   -4.63980754452018e-06   -5.876331104075242e-05
2.55734915672457e-06   -4.63980754452018e-06   -5.876331104075242e-05
3.2502174088876054e-05   -4.7702618901232724e-06   -8.93354209452845e-06
3.2502174088876054e-05   -4.7702618901232724e-06   -8.93354209452845e-06
3.2502174088876054e-05   -4.7702618901232724e-06   -8.93354209452845e-06
3.2502174088876054e-05   -4.7702618901232724e-06   -8.93354209452845e-06
3.2766813972554314e-05   -3.498209431190529e-06   -5.958293807847893e-05
3.2766813972554314e-05   -3.498209431190529e-06   -5.958293807847893e-05
3.2766813972554314e-05   -3.498209431190529e-06   -5.958293807847893e-05
3.2766813972554314e-05   -3.498209431190529e-06   -5.958293807847893e-05
2.436318835631721e-06   -3.2252410716421243e-06   -9.19589386600352e-06
2.436318835631721e-06   -3.2252410716421243e-06   -9.19589386600352e-06
2.436318835631721e-06   -3.2252410716421243e-06   -9.19589386600352e-06
2.436318835631721e-06   -3.2252410716421243e-06   -9.19589386600352e-06
1.7341184414243298e-05   -3.860650045971512e-06   -3.365609111242528e-05
1.7341184414243298e-05   -3.860650045971512e-06   -3.365609111242528e-05
1.7341184414243298e-05   -3.860650045971512e-06   -3.365609111242528e-05
1.7341184414243298e-05   -3.860650045971512e-06   -3.365609111242528e-05
2.436318835631717e-06   -3.498209431190529e-06   -5.974671909420806e-05
2.436318835631717e-06   -3.498209431190529e-06   -5.974671909420806e-05
2.436318835631717e-06   -3.498209431190529e-06   -5.974671909420806e-05
2.436318835631717e-06   -3.498209431190529e-06   -5.974671909420806e-05
3.276681397255437e-05   -3.2252410716421243e-06   -9.032112850274445e-06
3.276681397255437e-05   -3.2252410716421243e-06   -9.032112850274445e-06
3.276681397255437e-05   -3.2252410716421243e-06   -9.032112850274445e-06
3.276681397255437e-05   -3.2252410716421243e-06   -9.032112850274445e-06
3.260296748787075e-05   -2.201633389892511e-06   -6.069888834410932e-05
3.260296748787075e-05   -2.201633389892511e-06   -6.069888834410932e-05
3.260296748787075e-05   -2.201633389892511e-06   -6.069888834410932e-05
3.260296748787075e-05   -2.201633389892511e-06   -6.069888834410932e-05
2.2719870463936783e-06   -1.7117459099907808e-06   -1.0441186762921982e-05
2.2719870463936783e-06   -1.7117459099907808e-06   -1.0441186762921982e-05
2.2719870463936783e-06   -1.7117459099907808e-06   -1.0441186762921982e-05
2.2719870463936783e-06   -1.7117459099907808e-06   -1.0441186762921982e-05
1.7153762314937635e-05   -2.6270600998658396e-06   -3.4694957029903456e-05
1.7153762314937635e-05   -2.6270600998658396e-06   -3.4694957029903456e-05
1.7153762314937635e-05   -2.6270600998658396e-06   -3.4694957029903456e-05
1.7153762314937635e-05   -2.6270600998658396e-06   -3.4694957029903456e-05
2.2719870463936766e-06   -2.2016333898925247e-06   -6.0992820832050355e-05
2.2719870463936766e-06   -2.2016333898925247e-06   -6.0992820832050355e-05
2.2719870463936766e-06   -2.2016333898925247e-06   -6.0992820832050355e-05
2.2719870463936766e-06   -2.2016333898925247e-06   -6.0992820832050355e-05
3.2602967487870855e-05   -1.7117459099907808e-06   -1.0147254274980936e-05
3.2602967487870855e-05   -1.7117459099907808e-06   -1.0147254274980936e-05
3.2602967487870855e-05   -1.7117459099907808e-06   -1.0147254274980936e-05
3.2602967487870855e-05   -1.7117459099907808e-06   -1.0147254274980936e-05
3.1648101360513244e-05   -4.5919732795137293e-07   -6.080614418270904e-05
3.1648101360513244e-05   -4.5919732795137293e-07   -6.080614418270904e-05
3.1648101360513244e-05   -4.5919732795137293e-07   -6.080614418270904e-05
3.1648101360513244e-05   -4.5919732795137293e-07   -6.080614418270904e-05
1.942638342399216e-06   1.6034985516558825e-07   -1.1668767462389235e-05
1.942638342399216e-06   1.6034985516558825e-07   -1.1668767462389235e-05
1.942638342399216e-06   1.6034985516558825e-07   -1.1668767462389235e-05
1.942638342399216e-06   1.6034985516558825e-07   -1.1668767462389235e-05
1.6964146120844935e-05   -1.1862456994471144e-06   -3.5896656427031096e-05
1.6964146120844935e-05   -1.1862456994471144e-06   -3.5896656427031096e-05
1.6964146120844935e-05   -1.1862456994471144e-06   -3.5896656427031096e-05
1.6964146120844935e-05   -1.1862456994471144e-06   -3.5896656427031096e-05
3.2502174088876054e-05   -1.1760259147572714e-05   -3.5557663893388525e-05
3.2502174088876054e-05   -1.1760259147572714e-05   -3.5557663893388525e-05
3.2502174088876054e-05   -1.1760259147572714e-05   -3.5557663893388525e-05
3.2502174088876054e-05   -1.1760259147572714e-05   -3.5557663893388525e-05
6.205889136144607e-05   -8.867058020846179e-06   1.5439452236930696e-05
6.205889136144607e-05   -8.867058020846179e-06   1.5439452236930696e-05
6.205889136144607e-05   -8.867058020846179e-06   1.5439452236930696e-05
6.205889136144607e-05   -8.867058020846179e-06   1.5439452236930696e-05
6.44140838518923e-05   -1.0007390116547208e-05   -4.32247765772573e-05
6.44140838518923e-05   -1.0007390116547208e-05   -4.32247765772573e-05
6.44140838518923e-05   -1.0007390116547208e-05   -4.32247765772573e-05
6.44140838518923e-05   -1.0007390116547208e-05   -4.32247765772573e-05
3.276681397255442e-05   -8.044945861602711e-06   8.34320666867257e-06
3.276681397255442e-05   -8.044945861602711e-06   8.34320666867257e-06
3.276681397255442e-05   -8.044945861602711e-06   8.34320666867257e-06
3.276681397255442e-05   -8.044945861602711e-06   8.34320666867257e-06
4.5706264378046825e-05   -9.629016889902358e-06   -1.2272101390168363e-05
4.5706264378046825e-05   -9.629016889902358e-06   -1.2272101390168363e-05
4.5706264378046825e-05   -9.629016889902358e-06   -1.2272101390168363e-05
4.5706264378046825e-05   -9.629016889902358e-06   -1.2272101390168363e-05
3.2766813972554334e-05   -1.0007390116547195e-05   -4.440224313022384e-05
3.2766813972554334e-05   -1.0007390116547195e-05   -4.440224313022384e-05
3.2766813972554334e-05   -1.0007390116547195e-05   -4.440224313022384e-05
3.2766813972554334e-05   -1.0007390116547195e-05   -4.440224313022384e-05
6.44140838518923e-05   -8.044945861602711e-06   9.520673221639301e-06
6.44140838518923e-05   -8.044945861602711e-06   9.520673221639301e-06
6.44140838518923e-05   -8.044945861602711e-06   9.520673221639301e-06
6.44140838518923e-05   -8.044945861602711e-06   9.520673221639301e-06
6.416871754746967e-05   -9.144955982344602e-06   -4.7009002143372275e-05
6.416871754746967e-05   -9.144955982344602e-06   -4.7009002143372275e-05
6.416871754746967e-05   -9.144955982344602e-06   -4.7009002143372275e-05
6.416871754746967e-05   -9.144955982344602e-06   -4.7009002143372275e-05
3.2602967487870855e-05   -7.173947154184531e-06   4.417975992396285e-06
3.2602967487870855e-05   -7.173947154184531e-06   4.417975992396285e-06
3.2602967487870855e-05   -7.173947154184531e-06   4.417975992396285e-06
3.2602967487870855e-05   -7.173947154184531e-06   4.417975992396285e-06
4.7299860699874174e-05   -8.504291504464337e-06   -1.927863941744129e-05
4.7299860699874174e-05   -8.504291504464337e-06   -1.927863941744129e-05
4.7299860699874174e-05   -8.504291504464337e-06   -1.927863941744129e-05
4.7299860699874174e-05   -8.504291504464337e-06   -1.927863941744129e-05
3.26029674878708e-05   -9.144955982344589e-06   -4.819160744026826e-05
3.26029674878708e-05   -9.144955982344589e-06   -4.819160744026826e-05
3.26029674878708e-05   -9.144955982344589e-06   -4.819160744026826e-05
3.26029674878708e-05   -9.144955982344589e-06   -4.819160744026826e-05
6.416871754746967e-05   -7.173947154184531e-06   5.600581289292336e-06
6.416871754746967e-05   -7.173947154184531e-06   5.600581289292336e-06
6.416871754746967e-05   -7.173947154184531e-06   5.600581289292336e-06
6.416871754746967e-05   -7.173947154184531e-06   5.600581289292336e-06
6.377572157766649e-05   -7.109185809753518e-06   -5.471637462065877e-05
6.377572157766649e-05   -7.109185809753518e-06   -5.471637462065877e-05
6.377572157766649e-05   -7.109185809753518e-06   -5.471637462065877e-05
6.377572157766649e-05   -7.109185809753518e-06   -5.471637462065877e-05
3.1648101360513345e-05   -5.2995216889346235e-06   -2.2561393978949606e-06
3.1648101360513345e-05   -5.2995216889346235e-06   -2.2561393978949606e-06
3.1648101360513345e-05   -5.2995216889346235e-06   -2.2561393978949606e-06
3.1648101360513345e-05   -5.2995216889346235e-06   -2.2561393978949606e-06
4.594245350587551e-05   -7.32301291611563e-06   -2.4865964903856522e-05
4.594245350587551e-05   -7.32301291611563e-06   -2.4865964903856522e-05
4.594245350587551e-05   -7.32301291611563e-06   -2.4865964903856522e-05
4.594245350587551e-05   -7.32301291611563e-06   -2.4865964903856522e-05
-6.957255501999552e-05   1.0028055668602953e-05   -4.801378607484336e-05
-6.957255501999552e-05   1.0028055668602953e-05   -4.801378607484336e-05
-6.957255501999552e-05   1.0028055668602953e-05   -4.801378607484336e-05
-6.957255501999552e-05   1.0028055668602953e-05   -4.801378607484336e-05
-4.560868121606655e-05   7.663326988746394e-06   -9.49283360954234e-06
-4.560868121606655e-05   7.663326988746394e-06   -9.49283360954234e-06
-4.560868121606655e-05   7.663326988746394e-06   -9.49283360954234e-06
-4.560868121606655e-05   7.663326988746394e-06   -9.49283360954234e-06
-4.5829964119081457e-05   1.2035256989492487e-05   -3.986550920732977e-05
-4.5829964119081457e-05   1.2035256989492487e-05   -3.986550920732977e-05
-4.5829964119081457e-05   1.2035256989492487e-05   -3.986550920732977e-05
-4.5829964119081457e-05   1.2035256989492487e-05   -3.986550920732977e-05
-6.852066864654926e-05   9.269952634665497e-06   -3.884857153205949e-07
-6.852066864654926e-05   9.269952634665497e-06   -3.884857153205949e-07
-6.852066864654926e-05   9.269952634665497e-06   -3.884857153205949e-07
-6.852066864654926e-05   9.269952634665497e-06   -3.884857153205949e-07
-5.49562359850245e-05   1.0196821539436491e-05   -2.3551994827391383e-05
-5.49562359850245e-05   1.0196821539436491e-05   -2.3551994827391383e-05
-5.49562359850245e-05   1.0196821539436491e-05   -2.3551994827391383e-05
-5.49562359850245e-05   1.0196821539436491e-05   -2.3551994827391383e-05
-6.852066864654926e-05   1.2035256989492487e-05   -3.820632659443359e-05
-6.852066864654926e-05   1.2035256989492487e-05   -3.820632659443359e-05
-6.852066864654926e-05   1.2035256989492487e-05   -3.820632659443359e-05
-6.852066864654926e-05   1.2035256989492487e-05   -3.820632659443359e-05
-4.5829964119081457e-05   9.269952634665605e-06   -2.047668328216624e-06
-4.5829964119081457e-05   9.269952634665605e-06   -2.047668328216624e-06
-4.5829964119081457e-05   9.269952634665605e-06   -2.047668328216624e-06
-4.5829964119081457e-05   9.269952634665605e-06   -2.047668328216624e-06
-4.578438040646637e-05   1.2941135353879889e-05   -3.410509023492607e-05
-4.578438040646637e-05   1.2941135353879889e-05   -3.410509023492607e-05
-4.578438040646637e-05   1.2941135353879889e-05   -3.410509023492607e-05
-4.578438040646637e-05   1.2941135353879889e-05   -3.410509023492607e-05
-6.749492512308816e-05   9.975757859122963e-06   3.858377456297639e-06
-6.749492512308816e-05   9.975757859122963e-06   3.858377456297639e-06
-6.749492512308816e-05   9.975757859122963e-06   3.858377456297639e-06
-6.749492512308816e-05   9.975757859122963e-06   3.858377456297639e-06
-5.5432555549728115e-05   1.1128201535776897e-05   -1.6937038038627604e-05
-5.5432555549728115e-05   1.1128201535776897e-05   -1.6937038038627604e-05
-5.5432555549728115e-05   1.1128201535776897e-05   -1.6937038038627604e-05
-5.5432555549728115e-05   1.1128201535776897e-05   -1.6937038038627604e-05
-6.749492512308816e-05   1.2941135353879889e-05   -3.232586373807188e-05
-6.749492512308816e-05   1.2941135353879889e-05   -3.232586373807188e-05
-6.749492512308816e-05   1.2941135353879889e-05   -3.232586373807188e-05
-6.749492512308816e-05   1.2941135353879889e-05   -3.232586373807188e-05
-4.578438040646644e-05   9.975757859122963e-06   2.079150959443735e-06
-4.578438040646644e-05   9.975757859122963e-06   2.079150959443735e-06
-4.578438040646644e-05   9.975757859122963e-06   2.079150959443735e-06
-4.578438040646644e-05   9.975757859122963e-06   2.079150959443735e-06
-4.5831665550791496e-05   1.3661093701862232e-05   -2.6037955884340345e-05
-4.5831665550791496e-05   1.3661093701862232e-05   -2.6037955884340345e-05
-4.5831665550791496e-05   1.3661093701862232e-05   -2.6037955884340345e-05
-4.5831665550791496e-05   1.3661093701862232e-05   -2.6037955884340345e-05
-6.615489951096917e-05   1.067022751878523e-05   9.628620425801687e-06
-6.615489951096917e-05   1.067022751878523e-05   9.628620425801687e-06
-6.615489951096917e-05   1.067022751878523e-05   9.628620425801687e-06
-6.615489951096917e-05   1.067022751878523e-05   9.628620425801687e-06
-5.417103981892394e-05   1.1618105744825788e-05   -1.0913205996563972e-05
-5.417103981892394e-05   1.1618105744825788e-05   -1.0913205996563972e-05
-5.417103981892394e-05   1.1618105744825788e-05   -1.0913205996563972e-05
-5.417103981892394e-05   1.1618105744825788e-05   -1.0913205996563972e-05
-4.560868121606655e-05   4.666184983907165e-06   -5.557777749441958e-05
-4.560868121606655e-05   4.666184983907165e-06   -5.557777749441958e-05
-4.560868121606655e-05   4.666184983907165e-06   -5.557777749441958e-05
-4.560868121606655e-05   4.666184983907165e-06   -5.557777749441958e-05
-2.3210481427370235e-05   3.82084063313404e-06   -1.8754651123722875e-05
-2.3210481427370235e-05   3.82084063313404e-06   -1.8754651123722875e-05
-2.3210481427370235e-05   3.82084063313404e-06   -1.8754651123722875e-05
-2.3210481427370235e-05   3.82084063313404e-06   -1.8754651123722875e-05
-2.3493102534940933e-05   6.511953172149722e-06   -5.4790965521237976e-05
-2.3493102534940933e-05   6.511953172149722e-06   -5.4790965521237976e-05
-2.3493102534940933e-05   6.511953172149722e-06   -5.4790965521237976e-05
-2.3493102534940933e-05   6.511953172149722e-06   -5.4790965521237976e-05
-4.5829964119081375e-05   5.400873947099824e-06   -1.6896215345973877e-05
-4.5829964119081375e-05   5.400873947099824e-06   -1.6896215345973877e-05
-4.5829964119081375e-05   5.400873947099824e-06   -1.6896215345973877e-05
-4.5829964119081375e-05   5.400873947099824e-06   -1.6896215345973877e-05
-3.4239964661154446e-05   5.3810590158206e-06   -3.620099215041799e-05
-3.4239964661154446e-05   5.3810590158206e-06   -3.620099215041799e-05
-3.4239964661154446e-05   5.3810590158206e-06   -3.620099215041799e-05
-3.4239964661154446e-05   5.3810590158206e-06   -3.620099215041799e-05
-4.582996411908143e-05   6.511953172149722e-06   -5.412431798620791e-05
-4.582996411908143e-05   6.511953172149722e-06   -5.412431798620791e-05
-4.582996411908143e-05   6.511953172149722e-06   -5.412431798620791e-05
-4.582996411908143e-05   6.511953172149722e-06   -5.412431798620791e-05
-2.3493102534940974e-05   5.400873947099824e-06   -1.756286288100369e-05
-2.3493102534940974e-05   5.400873947099824e-06   -1.756286288100369e-05
-2.3493102534940974e-05   5.400873947099824e-06   -1.756286288100369e-05
-2.3493102534940974e-05   5.400873947099824e-06   -1.756286288100369e-05
-2.367662244132922e-05   8.039661354547944e-06   -5.33405557295948e-05
-2.367662244132922e-05   8.039661354547944e-06   -5.33405557295948e-05
-2.367662244132922e-05   8.039661354547944e-06   -5.33405557295948e-05
-2.367662244132922e-05   8.039661354547944e-06   -5.33405557295948e-05
-4.578438040646637e-05   6.8045052820479845e-06   -1.5753198810866502e-05
-4.578438040646637e-05   6.8045052820479845e-06   -1.5753198810866502e-05
-4.578438040646637e-05   6.8045052820479845e-06   -1.5753198810866502e-05
-4.578438040646637e-05   6.8045052820479845e-06   -1.5753198810866502e-05
-3.430399322511278e-05   6.680886768603057e-06   -3.481300633838822e-05
-3.430399322511278e-05   6.680886768603057e-06   -3.481300633838822e-05
-3.430399322511278e-05   6.680886768603057e-06   -3.481300633838822e-05
-3.430399322511278e-05   6.680886768603057e-06   -3.481300633838822e-05
-4.578438040646637e-05   8.03966135454789e-06   -5.259946208609488e-05
-4.578438040646637e-05   8.03966135454789e-06   -5.259946208609488e-05
-4.578438040646637e-05   8.03966135454789e-06   -5.259946208609488e-05
-4.578438040646637e-05   8.03966135454789e-06   -5.259946208609488e-05
-2.3676622441329302e-05   6.8045052820479845e-06   -1.6494292454366275e-05
-2.3676622441329302e-05   6.8045052820479845e-06   -1.6494292454366275e-05
-2.3676622441329302e-05   6.8045052820479845e-06   -1.6494292454366275e-05
-2.3676622441329302e-05   6.8045052820479845e-06   -1.6494292454366275e-05
-2.3913830702708423e-05   9.683332390793243e-06   -5.321162512418029e-05
-2.3913830702708423e-05   9.683332390793243e-06   -5.321162512418029e-05
-2.3913830702708423e-05   9.683332390793243e-06   -5.321162512418029e-05
-2.3913830702708423e-05   9.683332390793243e-06   -5.321162512418029e-05
-4.583166555079147e-05   8.29751669731958e-06   -1.5850410961291018e-05
-4.583166555079147e-05   8.29751669731958e-06   -1.5850410961291018e-05
-4.583166555079147e-05   8.29751669731958e-06   -1.5850410961291018e-05
-4.583166555079147e-05   8.29751669731958e-06   -1.5850410961291018e-05
-3.471119242834757e-05   7.968268990267034e-06   -3.418698420779885e-05
-3.471119242834757e-05   7.968268990267034e-06   -3.418698420779885e-05
-3.471119242834757e-05   7.968268990267034e-06   -3.418698420779885e-05
-3.471119242834757e-05   7.968268990267034e-06   -3.418698420779885e-05
-2.3210481427370195e-05   -1.387820693088404e-07   -5.990914147915218e-05
-2.3210481427370195e-05   -1.387820693088404e-07   -5.990914147915218e-05
-2.3210481427370195e-05   -1.387820693088404e-07   -5.990914147915218e-05
-2.3210481427370195e-05   -1.387820693088404e-07   -5.990914147915218e-05
-1.0636091957074316e-06   2.033572282837898e-07   -2.2792404181158643e-05
-1.0636091957074316e-06   2.033572282837898e-07   -2.2792404181158643e-05
-1.0636091957074316e-06   2.033572282837898e-07   -2.2792404181158643e-05
-1.0636091957074316e-06   2.033572282837898e-07   -2.2792404181158643e-05
-1.2904650669417353e-06   1.561786046626898e-06   -5.935021282803195e-05
-1.2904650669417353e-06   1.561786046626898e-06   -5.935021282803195e-05
-1.2904650669417353e-06   1.561786046626898e-06   -5.935021282803195e-05
-1.2904650669417353e-06   1.561786046626898e-06   -5.935021282803195e-05
-2.3493102534940933e-05   1.7585837385751969e-06   -2.2463895663202315e-05
-2.3493102534940933e-05   1.7585837385751969e-06   -2.2463895663202315e-05
-2.3493102534940933e-05   1.7585837385751969e-06   -2.2463895663202315e-05
-2.3493102534940933e-05   1.7585837385751969e-06   -2.2463895663202315e-05
-1.2195496597114949e-05   1.0245629478119241e-06   -4.085282641845431e-05
-1.2195496597114949e-05   1.0245629478119241e-06   -4.085282641845431e-05
-1.2195496597114949e-05   1.0245629478119241e-06   -4.085282641845431e-05
-1.2195496597114949e-05   1.0245629478119241e-06   -4.085282641845431e-05
-2.3493102534940933e-05   1.561786046626898e-06   -5.9468291443200974e-05
-2.3493102534940933e-05   1.561786046626898e-06   -5.9468291443200974e-05
-2.3493102534940933e-05   1.561786046626898e-06   -5.9468291443200974e-05
-2.3493102534940933e-05   1.561786046626898e-06   -5.9468291443200974e-05
-1.290465066941737e-06   1.7585837385751969e-06   -2.2345817048033238e-05
-1.290465066941737e-06   1.7585837385751969e-06   -2.2345817048033238e-05
-1.290465066941737e-06   1.7585837385751969e-06   -2.2345817048033238e-05
-1.290465066941737e-06   1.7585837385751969e-06   -2.2345817048033238e-05
-1.4546357141523543e-06   3.223334196291632e-06   -5.951144473554217e-05
-1.4546357141523543e-06   3.223334196291632e-06   -5.951144473554217e-05
-1.4546357141523543e-06   3.223334196291632e-06   -5.951144473554217e-05
-1.4546357141523543e-06   3.223334196291632e-06   -5.951144473554217e-05
-2.367662244132926e-05   3.309166490300338e-06   -2.2526299566652714e-05
-2.367662244132926e-05   3.309166490300338e-06   -2.2526299566652714e-05
-2.367662244132926e-05   3.309166490300338e-06   -2.2526299566652714e-05
-2.367662244132926e-05   3.309166490300338e-06   -2.2526299566652714e-05
-1.2488087807570972e-05   2.3960953862427366e-06   -4.0626014627148316e-05
-1.2488087807570972e-05   2.3960953862427366e-06   -4.0626014627148316e-05
-1.2488087807570972e-05   2.3960953862427366e-06   -4.0626014627148316e-05
-1.2488087807570972e-05   2.3960953862427366e-06   -4.0626014627148316e-05
-2.367662244132926e-05   3.223334196291686e-06   -5.956294411194743e-05
-2.367662244132926e-05   3.223334196291686e-06   -5.956294411194743e-05
-2.367662244132926e-05   3.223334196291686e-06   -5.956294411194743e-05
-2.367662244132926e-05   3.223334196291686e-06   -5.956294411194743e-05
-1.4546357141523568e-06   3.309166490300338e-06   -2.2474800190247263e-05
-1.4546357141523568e-06   3.309166490300338e-06   -2.2474800190247263e-05
-1.4546357141523568e-06   3.309166490300338e-06   -2.2474800190247263e-05
-1.4546357141523568e-06   3.309166490300338e-06   -2.2474800190247263e-05
-1.712174681954935e-06   4.954544814087176e-06   -6.027723770991801e-05
-1.712174681954935e-06   4.954544814087176e-06   -6.027723770991801e-05
-1.712174681954935e-06   4.954544814087176e-06   -6.027723770991801e-05
-1.712174681954935e-06   4.954544814087176e-06   -6.027723770991801e-05
-2.3913830702708403e-05   4.895804729068958e-06   -2.3239233624318173e-05
-2.3913830702708403e-05   4.895804729068958e-06   -2.3239233624318173e-05
-2.3913830702708403e-05   4.895804729068958e-06   -2.3239233624318173e-05
-2.3913830702708403e-05   4.895804729068958e-06   -2.3239233624318173e-05
-1.2798879481114615e-05   3.783919616526688e-06   -4.1097021259448794e-05
-1.2798879481114615e-05   3.783919616526688e-06   -4.1097021259448794e-05
-1.2798879481114615e-05   3.783919616526688e-06   -4.1097021259448794e-05
-1.2798879481114615e-05   3.783919616526688e-06   -4.1097021259448794e-05
-1.0636091957074333e-06   -4.770261890123327e-06   -5.353317999529515e-05
-1.0636091957074333e-06   -4.770261890123327e-06   -5.353317999529515e-05
-1.0636091957074333e-06   -4.770261890123327e-06   -5.353317999529515e-05
-1.0636091957074333e-06   -4.770261890123327e-06   -5.353317999529515e-05
2.097237058949773e-05   -3.1991122015337164e-06   -1.586385720679954e-05
2.097237058949773e-05   -3.1991122015337164e-06   -1.586385720679954e-05
2.097237058949773e-05   -3.1991122015337164e-06   -1.586385720679954e-05
2.097237058949773e-05   -3.1991122015337164e-06   -1.586385720679954e-05
2.0955569561376095e-05   -3.2252410716421243e-06   -5.291871564963571e-05
2.0955569561376095e-05   -3.2252410716421243e-06   -5.291871564963571e-05
2.0955569561376095e-05   -3.2252410716421243e-06   -5.291871564963571e-05
2.0955569561376095e-05   -3.2252410716421243e-06   -5.291871564963571e-05
-1.290465066941737e-06   -1.7736606273083353e-06   -1.6712939535706198e-05
-1.290465066941737e-06   -1.7736606273083353e-06   -1.6712939535706198e-05
-1.290465066941737e-06   -1.7736606273083353e-06   -1.6712939535706198e-05
-1.290465066941737e-06   -1.7736606273083353e-06   -1.6712939535706198e-05
9.81791813482373e-06   -3.129969948359305e-06   -3.44131259460181e-05
9.81791813482373e-06   -3.129969948359305e-06   -3.44131259460181e-05
9.81791813482373e-06   -3.129969948359305e-06   -3.44131259460181e-05
9.81791813482373e-06   -3.129969948359305e-06   -3.44131259460181e-05
-1.290465066941737e-06   -3.2252410716421243e-06   -5.3789663916235895e-05
-1.290465066941737e-06   -3.2252410716421243e-06   -5.3789663916235895e-05
-1.290465066941737e-06   -3.2252410716421243e-06   -5.3789663916235895e-05
-1.290465066941737e-06   -3.2252410716421243e-06   -5.3789663916235895e-05
2.0955569561376095e-05   -1.7736606273083353e-06   -1.584199126910586e-05
2.0955569561376095e-05   -1.7736606273083353e-06   -1.584199126910586e-05
2.0955569561376095e-05   -1.7736606273083353e-06   -1.584199126910586e-05
2.0955569561376095e-05   -1.7736606273083353e-06   -1.584199126910586e-05
2.1053668194729436e-05   -1.711745909990835e-06   -5.43189741176559e-05
2.1053668194729436e-05   -1.711745909990835e-06   -5.43189741176559e-05
2.1053668194729436e-05   -1.711745909990835e-06   -5.43189741176559e-05
2.1053668194729436e-05   -1.711745909990835e-06   -5.43189741176559e-05
-1.4546357141523602e-06   -3.72879113662186e-07   -1.7608454347316902e-05
-1.4546357141523602e-06   -3.72879113662186e-07   -1.7608454347316902e-05
-1.4546357141523602e-06   -3.72879113662186e-07   -1.7608454347316902e-05
-1.4546357141523602e-06   -3.72879113662186e-07   -1.7608454347316902e-05
9.515963369357448e-06   -1.8939236738428058e-06   -3.498015941705788e-05
9.515963369357448e-06   -1.8939236738428058e-06   -3.498015941705788e-05
9.515963369357448e-06   -1.8939236738428058e-06   -3.498015941705788e-05
9.515963369357448e-06   -1.8939236738428058e-06   -3.498015941705788e-05
-1.454635714152356e-06   -1.7117459099907808e-06   -5.512229419545281e-05
-1.454635714152356e-06   -1.7117459099907808e-06   -5.512229419545281e-05
-1.454635714152356e-06   -1.7117459099907808e-06   -5.512229419545281e-05
-1.454635714152356e-06   -1.7117459099907808e-06   -5.512229419545281e-05
2.1053668194729436e-05   -3.72879113662186e-07   -1.680513426951944e-05
2.1053668194729436e-05   -3.72879113662186e-07   -1.680513426951944e-05
2.1053668194729436e-05   -3.72879113662186e-07   -1.680513426951944e-05
2.1053668194729436e-05   -3.72879113662186e-07   -1.680513426951944e-05
2.0891224356044336e-05   1.6034985516558825e-07   -5.5905853805254905e-05
2.0891224356044336e-05   1.6034985516558825e-07   -5.5905853805254905e-05
2.0891224356044336e-05   1.6034985516558825e-07   -5.5905853805254905e-05
2.0891224356044336e-05   1.6034985516558825e-07   -5.5905853805254905e-05
-1.7121746819549384e-06   1.265049211775465e-06   -1.8896341689222106e-05
-1.7121746819549384e-06   1.265049211775465e-06   -1.8896341689222106e-05
-1.7121746819549384e-06   1.265049211775465e-06   -1.8896341689222106e-05
-1.7121746819549384e-06   1.265049211775465e-06   -1.8896341689222106e-05
9.409637526655874e-06   -5.712843847747269e-07   -3.633089521230972e-05
9.409637526655874e-06   -5.712843847747269e-07   -3.633089521230972e-05
9.409637526655874e-06   -5.712843847747269e-07   -3.633089521230972e-05
9.409637526655874e-06   -5.712843847747269e-07   -3.633089521230972e-05
2.097237058949769e-05   -8.867058020846125e-06   -2.9953416526718162e-05
2.097237058949769e-05   -8.867058020846125e-06   -2.9953416526718162e-05
2.097237058949769e-05   -8.867058020846125e-06   -2.9953416526718162e-05
2.097237058949769e-05   -8.867058020846125e-06   -2.9953416526718162e-05
4.160938303184261e-05   -5.802786453509151e-06   6.2801671509255886e-06
4.160938303184261e-05   -5.802786453509151e-06   6.2801671509255886e-06
4.160938303184261e-05   -5.802786453509151e-06   6.2801671509255886e-06
4.160938303184261e-05   -5.802786453509151e-06   6.2801671509255886e-06
4.3010353021919894e-05   -8.044945861602657e-06   -3.370534024290449e-05
4.3010353021919894e-05   -8.044945861602657e-06   -3.370534024290449e-05
4.3010353021919894e-05   -8.044945861602657e-06   -3.370534024290449e-05
4.3010353021919894e-05   -8.044945861602657e-06   -3.370534024290449e-05
2.0955569561376068e-05   -4.981519381962608e-06   1.2145763035512189e-06
2.0955569561376068e-05   -4.981519381962608e-06   1.2145763035512189e-06
2.0955569561376068e-05   -4.981519381962608e-06   1.2145763035512189e-06
2.0955569561376068e-05   -4.981519381962608e-06   1.2145763035512189e-06
3.0284773516755344e-05   -6.842082013175724e-06   -1.321775937668647e-05
3.0284773516755344e-05   -6.842082013175724e-06   -1.321775937668647e-05
3.0284773516755344e-05   -6.842082013175724e-06   -1.321775937668647e-05
3.0284773516755344e-05   -6.842082013175724e-06   -1.321775937668647e-05
2.095556956137604e-05   -8.044945861602711e-06   -3.5543396130688386e-05
2.095556956137604e-05   -8.044945861602711e-06   -3.5543396130688386e-05
2.095556956137604e-05   -8.044945861602711e-06   -3.5543396130688386e-05
2.095556956137604e-05   -8.044945861602711e-06   -3.5543396130688386e-05
4.3010353021919894e-05   -4.981519381962608e-06   3.0526321913354384e-06
4.3010353021919894e-05   -4.981519381962608e-06   3.0526321913354384e-06
4.3010353021919894e-05   -4.981519381962608e-06   3.0526321913354384e-06
4.3010353021919894e-05   -4.981519381962608e-06   3.0526321913354384e-06
4.408683225681274e-05   -7.173947154184531e-06   -3.801557145637794e-05
4.408683225681274e-05   -7.173947154184531e-06   -3.801557145637794e-05
4.408683225681274e-05   -7.173947154184531e-06   -3.801557145637794e-05
4.408683225681274e-05   -7.173947154184531e-06   -3.801557145637794e-05
2.105366819472937e-05   -4.27699316435002e-06   -1.3651370801398533e-06
2.105366819472937e-05   -4.27699316435002e-06   -1.3651370801398533e-06
2.105366819472937e-05   -4.27699316435002e-06   -1.3651370801398533e-06
2.105366819472937e-05   -4.27699316435002e-06   -1.3651370801398533e-06
3.1312535939086975e-05   -6.312189918169641e-06   -1.724213193511059e-05
3.1312535939086975e-05   -6.312189918169641e-06   -1.724213193511059e-05
3.1312535939086975e-05   -6.312189918169641e-06   -1.724213193511059e-05
3.1312535939086975e-05   -6.312189918169641e-06   -1.724213193511059e-05
2.105366819472941e-05   -7.173947154184531e-06   -3.975374385027853e-05
2.105366819472941e-05   -7.173947154184531e-06   -3.975374385027853e-05
2.105366819472941e-05   -7.173947154184531e-06   -3.975374385027853e-05
2.105366819472941e-05   -7.173947154184531e-06   -3.975374385027853e-05
4.408683225681263e-05   -4.276993164350129e-06   3.7303531376104825e-07
4.408683225681263e-05   -4.276993164350129e-06   3.7303531376104825e-07
4.408683225681263e-05   -4.276993164350129e-06   3.7303531376104825e-07
4.408683225681263e-05   -4.276993164350129e-06   3.7303531376104825e-07
4.523369173397909e-05   -5.2995216889346235e-06   -4.534837139988665e-05
4.523369173397909e-05   -5.2995216889346235e-06   -4.534837139988665e-05
4.523369173397909e-05   -5.2995216889346235e-06   -4.534837139988665e-05
4.523369173397909e-05   -5.2995216889346235e-06   -4.534837139988665e-05
2.0891224356044282e-05   -2.7718839376945697e-06   -6.294175087406139e-06
2.0891224356044282e-05   -2.7718839376945697e-06   -6.294175087406139e-06
2.0891224356044282e-05   -2.7718839376945697e-06   -6.294175087406139e-06
2.0891224356044282e-05   -2.7718839376945697e-06   -6.294175087406139e-06
3.117772401623825e-05   -5.4379353014660054e-06   -2.1838710369466392e-05
3.117772401623825e-05   -5.4379353014660054e-06   -2.1838710369466392e-05
3.117772401623825e-05   -5.4379353014660054e-06   -2.1838710369466392e-05
3.117772401623825e-05   -5.4379353014660054e-06   -2.1838710369466392e-05
-5.0003108294072185e-05   7.663326988746394e-06   -3.803748522499364e-05
-5.0003108294072185e-05   7.663326988746394e-06   -3.803748522499364e-05
-5.0003108294072185e-05   7.663326988746394e-06   -3.803748522499364e-05
-5.0003108294072185e-05   7.663326988746394e-06   -3.803748522499364e-05
-3.404444562806773e-05   4.875606638450733e-06   -1.3112346325163603e-05
-3.404444562806773e-05   4.875606638450733e-06   -1.3112346325163603e-05
-3.404444562806773e-05   4.875606638450733e-06   -1.3112346325163603e-05
-3.404444562806773e-05   4.875606638450733e-06   -1.3112346325163603e-05
-3.392057173269851e-05   9.269952634665497e-06   -3.231428620090724e-05
-3.392057173269851e-05   9.269952634665497e-06   -3.231428620090724e-05
-3.392057173269851e-05   9.269952634665497e-06   -3.231428620090724e-05
-3.392057173269851e-05   9.269952634665497e-06   -3.231428620090724e-05
-4.850812711295916e-05   6.2056196800937095e-06   -6.163094127729701e-06
-4.850812711295916e-05   6.2056196800937095e-06   -6.163094127729701e-06
-4.850812711295916e-05   6.2056196800937095e-06   -6.163094127729701e-06
-4.850812711295916e-05   6.2056196800937095e-06   -6.163094127729701e-06
-3.985340106710184e-05   7.379197480990394e-06   -2.1291784218029975e-05
-3.985340106710184e-05   7.379197480990394e-06   -2.1291784218029975e-05
-3.985340106710184e-05   7.379197480990394e-06   -2.1291784218029975e-05
-3.985340106710184e-05   7.379197480990394e-06   -2.1291784218029975e-05
-4.850812711295916e-05   9.269952634665497e-06   -3.0475686428164115e-05
-4.850812711295916e-05   9.269952634665497e-06   -3.0475686428164115e-05
-4.850812711295916e-05   9.269952634665497e-06   -3.0475686428164115e-05
-4.850812711295916e-05   9.269952634665497e-06   -3.0475686428164115e-05
-3.3920571732698566e-05   6.2056196800937095e-06   -8.00169390047286e-06
-3.3920571732698566e-05   6.2056196800937095e-06   -8.00169390047286e-06
-3.3920571732698566e-05   6.2056196800937095e-06   -8.00169390047286e-06
-3.3920571732698566e-05   6.2056196800937095e-06   -8.00169390047286e-06
-3.366335954372687e-05   9.975757859122854e-06   -2.81778869396863e-05
-3.366335954372687e-05   9.975757859122854e-06   -2.81778869396863e-05
-3.366335954372687e-05   9.975757859122854e-06   -2.81778869396863e-05
-3.366335954372687e-05   9.975757859122854e-06   -2.81778869396863e-05
-4.7390491452327366e-05   6.825249197699927e-06   -3.4090285618316183e-06
-4.7390491452327366e-05   6.825249197699927e-06   -3.4090285618316183e-06
-4.7390491452327366e-05   6.825249197699927e-06   -3.4090285618316183e-06
-4.7390491452327366e-05   6.825249197699927e-06   -3.4090285618316183e-06
-3.9855854256986374e-05   8.121329622412738e-06   -1.6744405475561128e-05
-3.9855854256986374e-05   8.121329622412738e-06   -1.6744405475561128e-05
-3.9855854256986374e-05   8.121329622412738e-06   -1.6744405475561128e-05
-3.9855854256986374e-05   8.121329622412738e-06   -1.6744405475561128e-05
-4.7390491452327366e-05   9.975757859122854e-06   -2.6287581742832455e-05
-4.7390491452327366e-05   9.975757859122854e-06   -2.6287581742832455e-05
-4.7390491452327366e-05   9.975757859122854e-06   -2.6287581742832455e-05
-4.7390491452327366e-05   9.975757859122854e-06   -2.6287581742832455e-05
-3.366335954372695e-05   6.825249197700035e-06   -5.299333758685412e-06
-3.366335954372695e-05   6.825249197700035e-06   -5.299333758685412e-06
-3.366335954372695e-05   6.825249197700035e-06   -5.299333758685412e-06
-3.366335954372695e-05   6.825249197700035e-06   -5.299333758685412e-06
-3.3560333342562345e-05   1.067022751878523e-05   -2.2451821010443704e-05
-3.3560333342562345e-05   1.067022751878523e-05   -2.2451821010443704e-05
-3.3560333342562345e-05   1.067022751878523e-05   -2.2451821010443704e-05
-3.3560333342562345e-05   1.067022751878523e-05   -2.2451821010443704e-05
-4.592804519958787e-05   7.60433376632212e-06   5.683360767682472e-10
-4.592804519958787e-05   7.60433376632212e-06   5.683360767682472e-10
-4.592804519958787e-05   7.60433376632212e-06   5.683360767682472e-10
-4.592804519958787e-05   7.60433376632212e-06   5.683360767682472e-10
-3.867681225765108e-05   8.52334846651755e-06   -1.2636228720601926e-05
-3.867681225765108e-05   8.52334846651755e-06   -1.2636228720601926e-05
-3.867681225765108e-05   8.52334846651755e-06   -1.2636228720601926e-05
-3.867681225765108e-05   8.52334846651755e-06   -1.2636228720601926e-05
-3.4044445628067705e-05   3.82084063313404e-06   -4.84647283388877e-05
-3.4044445628067705e-05   3.82084063313404e-06   -4.84647283388877e-05
-3.4044445628067705e-05   3.82084063313404e-06   -4.84647283388877e-05
-3.4044445628067705e-05   3.82084063313404e-06   -4.84647283388877e-05
-1.9580171995605853e-05   2.5203158787990253e-06   -2.513792047071888e-05
-1.9580171995605853e-05   2.5203158787990253e-06   -2.513792047071888e-05
-1.9580171995605853e-05   2.5203158787990253e-06   -2.513792047071888e-05
-1.9580171995605853e-05   2.5203158787990253e-06   -2.513792047071888e-05
-1.9589659096034564e-05   5.400873947099933e-06   -4.8048712404372335e-05
-1.9589659096034564e-05   5.400873947099933e-06   -4.8048712404372335e-05
-1.9589659096034564e-05   5.400873947099933e-06   -4.8048712404372335e-05
-1.9589659096034564e-05   5.400873947099933e-06   -4.8048712404372335e-05
-3.392057173269851e-05   3.924408637586644e-06   -2.3277978824224298e-05
-3.392057173269851e-05   3.924408637586644e-06   -2.3277978824224298e-05
-3.392057173269851e-05   3.924408637586644e-06   -2.3277978824224298e-05
-3.392057173269851e-05   3.924408637586644e-06   -2.3277978824224298e-05
-2.653679424997977e-05   4.179042479792567e-06   -3.57370549340793e-05
-2.653679424997977e-05   4.179042479792567e-06   -3.57370549340793e-05
-2.653679424997977e-05   4.179042479792567e-06   -3.57370549340793e-05
-2.653679424997977e-05   4.179042479792567e-06   -3.57370549340793e-05
-3.3920571732698484e-05   5.400873947099824e-06   -4.7162833218664156e-05
-3.3920571732698484e-05   5.400873947099824e-06   -4.7162833218664156e-05
-3.3920571732698484e-05   5.400873947099824e-06   -4.7162833218664156e-05
-3.3920571732698484e-05   5.400873947099824e-06   -4.7162833218664156e-05
-1.9589659096034564e-05   3.924408637586644e-06   -2.4163858009932314e-05
-1.9589659096034564e-05   3.924408637586644e-06   -2.4163858009932314e-05
-1.9589659096034564e-05   3.924408637586644e-06   -2.4163858009932314e-05
-1.9589659096034564e-05   3.924408637586644e-06   -2.4163858009932314e-05
-1.9575119208025654e-05   6.8045052820479845e-06   -4.697175126804054e-05
-1.9575119208025654e-05   6.8045052820479845e-06   -4.697175126804054e-05
-1.9575119208025654e-05   6.8045052820479845e-06   -4.697175126804054e-05
-1.9575119208025654e-05   6.8045052820479845e-06   -4.697175126804054e-05
-3.366335954372687e-05   5.201981018640922e-06   -2.252983615049425e-05
-3.366335954372687e-05   5.201981018640922e-06   -2.252983615049425e-05
-3.366335954372687e-05   5.201981018640922e-06   -2.252983615049425e-05
-3.366335954372687e-05   5.201981018640922e-06   -2.252983615049425e-05
-2.6413097224771202e-05   5.332068335674829e-06   -3.469165907230698e-05
-2.6413097224771202e-05   5.332068335674829e-06   -3.469165907230698e-05
-2.6413097224771202e-05   5.332068335674829e-06   -3.469165907230698e-05
-2.6413097224771202e-05   5.332068335674829e-06   -3.469165907230698e-05
-3.366335954372687e-05   6.8045052820479845e-06   -4.60102367099962e-05
-3.366335954372687e-05   6.8045052820479845e-06   -4.60102367099962e-05
-3.366335954372687e-05   6.8045052820479845e-06   -4.60102367099962e-05
-3.366335954372687e-05   6.8045052820479845e-06   -4.60102367099962e-05
-1.9575119208025695e-05   5.201981018640922e-06   -2.3491350708538324e-05
-1.9575119208025695e-05   5.201981018640922e-06   -2.3491350708538324e-05
-1.9575119208025695e-05   5.201981018640922e-06   -2.3491350708538324e-05
-1.9575119208025695e-05   5.201981018640922e-06   -2.3491350708538324e-05
-1.9590696602432334e-05   8.29751669731958e-06   -4.716105921252084e-05
-1.9590696602432334e-05   8.29751669731958e-06   -4.716105921252084e-05
-1.9590696602432334e-05   8.29751669731958e-06   -4.716105921252084e-05
-1.9590696602432334e-05   8.29751669731958e-06   -4.716105921252084e-05
-3.356033334256237e-05   6.5896391559354135e-06   -2.2853604787473445e-05
-3.356033334256237e-05   6.5896391559354135e-06   -2.2853604787473445e-05
-3.356033334256237e-05   6.5896391559354135e-06   -2.2853604787473445e-05
-3.356033334256237e-05   6.5896391559354135e-06   -2.2853604787473445e-05
-2.6584076505366795e-05   6.4726823272667246e-06   -3.44105254189315e-05
-2.6584076505366795e-05   6.4726823272667246e-06   -3.44105254189315e-05
-2.6584076505366795e-05   6.4726823272667246e-06   -3.44105254189315e-05
-2.6584076505366795e-05   6.4726823272667246e-06   -3.44105254189315e-05
-1.9580171995605826e-05   2.033572282837898e-07   -5.3488079827479994e-05
-1.9580171995605826e-05   2.033572282837898e-07   -5.3488079827479994e-05
-1.9580171995605826e-05   2.033572282837898e-07   -5.3488079827479994e-05
-1.9580171995605826e-05   2.033572282837898e-07   -5.3488079827479994e-05
-5.317235840504448e-06   4.336682157946416e-07   -2.9578332976471205e-05
-5.317235840504448e-06   4.336682157946416e-07   -2.9578332976471205e-05
-5.317235840504448e-06   4.336682157946416e-07   -2.9578332976471205e-05
-5.317235840504448e-06   4.336682157946416e-07   -2.9578332976471205e-05
-5.327290054604869e-06   1.7585837385751969e-06   -5.289770394133349e-05
-5.327290054604869e-06   1.7585837385751969e-06   -5.289770394133349e-05
-5.327290054604869e-06   1.7585837385751969e-06   -5.289770394133349e-05
-5.327290054604869e-06   1.7585837385751969e-06   -5.289770394133349e-05
-1.9589659096034523e-05   1.8453191473039553e-06   -2.9179130117521277e-05
-1.9589659096034523e-05   1.8453191473039553e-06   -2.9179130117521277e-05
-1.9589659096034523e-05   1.8453191473039553e-06   -2.9179130117521277e-05
-1.9589659096034523e-05   1.8453191473039553e-06   -2.9179130117521277e-05
-1.2370871756896113e-05   1.2427857546369603e-06   -4.084892231381851e-05
-1.2370871756896113e-05   1.2427857546369603e-06   -4.084892231381851e-05
-1.2370871756896113e-05   1.2427857546369603e-06   -4.084892231381851e-05
-1.2370871756896113e-05   1.2427857546369603e-06   -4.084892231381851e-05
-1.9589659096034523e-05   1.7585837385751969e-06   -5.294974518657076e-05
-1.9589659096034523e-05   1.7585837385751969e-06   -5.294974518657076e-05
-1.9589659096034523e-05   1.7585837385751969e-06   -5.294974518657076e-05
-1.9589659096034523e-05   1.7585837385751969e-06   -5.294974518657076e-05
-5.327290054604869e-06   1.8453191473039553e-06   -2.9127088872284038e-05
-5.327290054604869e-06   1.8453191473039553e-06   -2.9127088872284038e-05
-5.327290054604869e-06   1.8453191473039553e-06   -2.9127088872284038e-05
-5.327290054604869e-06   1.8453191473039553e-06   -2.9127088872284038e-05
-5.308471244426072e-06   3.309166490300338e-06   -5.30323690873991e-05
-5.308471244426072e-06   3.309166490300338e-06   -5.30323690873991e-05
-5.308471244426072e-06   3.309166490300338e-06   -5.30323690873991e-05
-5.308471244426072e-06   3.309166490300338e-06   -5.30323690873991e-05
-1.9575119208025654e-05   3.2614819785128273e-06   -2.922601177432737e-05
-1.9575119208025654e-05   3.2614819785128273e-06   -2.922601177432737e-05
-1.9575119208025654e-05   3.2614819785128273e-06   -2.922601177432737e-05
-1.9575119208025654e-05   3.2614819785128273e-06   -2.922601177432737e-05
-1.2453609223665775e-05   2.4776442344014724e-06   -4.062489243512708e-05
-1.2453609223665775e-05   2.4776442344014724e-06   -4.062489243512708e-05
-1.2453609223665775e-05   2.4776442344014724e-06   -4.062489243512708e-05
-1.2453609223665775e-05   2.4776442344014724e-06   -4.062489243512708e-05
-1.9575119208025654e-05   3.309166490300338e-06   -5.300375838032662e-05
-1.9575119208025654e-05   3.309166490300338e-06   -5.300375838032662e-05
-1.9575119208025654e-05   3.309166490300338e-06   -5.300375838032662e-05
-1.9575119208025654e-05   3.309166490300338e-06   -5.300375838032662e-05
-5.308471244426082e-06   3.2614819785128273e-06   -2.92546224813998e-05
-5.308471244426082e-06   3.2614819785128273e-06   -2.92546224813998e-05
-5.308471244426082e-06   3.2614819785128273e-06   -2.92546224813998e-05
-5.308471244426082e-06   3.2614819785128273e-06   -2.92546224813998e-05
-5.3167835836230325e-06   4.895804729068958e-06   -5.383443227104567e-05
-5.3167835836230325e-06   4.895804729068958e-06   -5.383443227104567e-05
-5.3167835836230325e-06   4.895804729068958e-06   -5.383443227104567e-05
-5.3167835836230325e-06   4.895804729068958e-06   -5.383443227104567e-05
-1.959069660243232e-05   4.702405043099304e-06   -2.9928537428114844e-05
-1.959069660243232e-05   4.702405043099304e-06   -2.9928537428114844e-05
-1.959069660243232e-05   4.702405043099304e-06   -2.9928537428114844e-05
-1.959069660243232e-05   4.702405043099304e-06   -2.9928537428114844e-05
-1.2560597668508575e-05   3.728719235986241e-06   -4.106115750038657e-05
-1.2560597668508575e-05   3.728719235986241e-06   -4.106115750038657e-05
-1.2560597668508575e-05   3.728719235986241e-06   -4.106115750038657e-05
-1.2560597668508575e-05   3.728719235986241e-06   -4.106115750038657e-05
-5.317235840504439e-06   -3.1991122015337164e-06   -4.736403607376815e-05
-5.317235840504439e-06   -3.1991122015337164e-06   -4.736403607376815e-05
-5.317235840504439e-06   -3.1991122015337164e-06   -4.736403607376815e-05
-5.317235840504439e-06   -3.1991122015337164e-06   -4.736403607376815e-05
8.738622512056358e-06   -1.4747326976140675e-06   -2.290297778381506e-05
8.738622512056358e-06   -1.4747326976140675e-06   -2.290297778381506e-05
8.738622512056358e-06   -1.4747326976140675e-06   -2.290297778381506e-05
8.738622512056358e-06   -1.4747326976140675e-06   -2.290297778381506e-05
8.853405500240175e-06   -1.7736606273083353e-06   -4.6287727225717144e-05
8.853405500240175e-06   -1.7736606273083353e-06   -4.6287727225717144e-05
8.853405500240175e-06   -1.7736606273083353e-06   -4.6287727225717144e-05
8.853405500240175e-06   -1.7736606273083353e-06   -4.6287727225717144e-05
-5.327290054604869e-06   -1.4516195515990125e-07   -2.363033383759791e-05
-5.327290054604869e-06   -1.4516195515990125e-07   -2.363033383759791e-05
-5.327290054604869e-06   -1.4516195515990125e-07   -2.363033383759791e-05
-5.327290054604869e-06   -1.4516195515990125e-07   -2.363033383759791e-05
1.7450502034136362e-06   -1.5254773008947136e-06   -3.4589378393521124e-05
1.7450502034136362e-06   -1.5254773008947136e-06   -3.4589378393521124e-05
1.7450502034136362e-06   -1.5254773008947136e-06   -3.4589378393521124e-05
1.7450502034136362e-06   -1.5254773008947136e-06   -3.4589378393521124e-05
-5.327290054604869e-06   -1.7736606273083353e-06   -4.726482642900638e-05
-5.327290054604869e-06   -1.7736606273083353e-06   -4.726482642900638e-05
-5.327290054604869e-06   -1.7736606273083353e-06   -4.726482642900638e-05
-5.327290054604869e-06   -1.7736606273083353e-06   -4.726482642900638e-05
8.853405500240216e-06   -1.4516195515979283e-07   -2.2653234634308918e-05
8.853405500240216e-06   -1.4516195515979283e-07   -2.2653234634308918e-05
8.853405500240216e-06   -1.4516195515979283e-07   -2.2653234634308918e-05
8.853405500240216e-06   -1.4516195515979283e-07   -2.2653234634308918e-05
9.123814965517448e-06   -3.72879113662186e-07   -4.726190142730622e-05
9.123814965517448e-06   -3.72879113662186e-07   -4.726190142730622e-05
9.123814965517448e-06   -3.72879113662186e-07   -4.726190142730622e-05
9.123814965517448e-06   -3.72879113662186e-07   -4.726190142730622e-05
-5.308471244426082e-06   1.1339905816082265e-06   -2.4112212894562618e-05
-5.308471244426082e-06   1.1339905816082265e-06   -2.4112212894562618e-05
-5.308471244426082e-06   1.1339905816082265e-06   -2.4112212894562618e-05
-5.308471244426082e-06   1.1339905816082265e-06   -2.4112212894562618e-05
1.663758901201889e-06   -4.1943360725067453e-07   -3.480054195729388e-05
1.663758901201889e-06   -4.1943360725067453e-07   -3.480054195729388e-05
1.663758901201889e-06   -4.1943360725067453e-07   -3.480054195729388e-05
1.663758901201889e-06   -4.1943360725067453e-07   -3.480054195729388e-05
-5.3084712444260774e-06   -3.72879113662186e-07   -4.816602324446835e-05
-5.3084712444260774e-06   -3.72879113662186e-07   -4.816602324446835e-05
-5.3084712444260774e-06   -3.72879113662186e-07   -4.816602324446835e-05
-5.3084712444260774e-06   -3.72879113662186e-07   -4.816602324446835e-05
9.123814965517475e-06   1.1339905816082265e-06   -2.3208091077400327e-05
9.123814965517475e-06   1.1339905816082265e-06   -2.3208091077400327e-05
9.123814965517475e-06   1.1339905816082265e-06   -2.3208091077400327e-05
9.123814965517475e-06   1.1339905816082265e-06   -2.3208091077400327e-05
9.256128898371503e-06   1.265049211775465e-06   -4.8655239210310564e-05
9.256128898371503e-06   1.265049211775465e-06   -4.8655239210310564e-05
9.256128898371503e-06   1.265049211775465e-06   -4.8655239210310564e-05
9.256128898371503e-06   1.265049211775465e-06   -4.8655239210310564e-05
-5.316783583623024e-06   2.600144336155287e-06   -2.5168108814947508e-05
-5.316783583623024e-06   2.600144336155287e-06   -2.5168108814947508e-05
-5.316783583623024e-06   2.600144336155287e-06   -2.5168108814947508e-05
-5.316783583623024e-06   2.600144336155287e-06   -2.5168108814947508e-05
1.712719597241351e-06   7.637084934418448e-07   -3.578208594409333e-05
1.712719597241351e-06   7.637084934418448e-07   -3.578208594409333e-05
1.712719597241351e-06   7.637084934418448e-07   -3.578208594409333e-05
1.712719597241351e-06   7.637084934418448e-07   -3.578208594409333e-05
8.738622512056345e-06   -5.802786453509151e-06   -2.6023946954093283e-05
8.738622512056345e-06   -5.802786453509151e-06   -2.6023946954093283e-05
8.738622512056345e-06   -5.802786453509151e-06   -2.6023946954093283e-05
8.738622512056345e-06   -5.802786453509151e-06   -2.6023946954093283e-05
2.12239110991224e-05   -2.710283931682371e-06   -3.359631129220479e-06
2.12239110991224e-05   -2.710283931682371e-06   -3.359631129220479e-06
2.12239110991224e-05   -2.710283931682371e-06   -3.359631129220479e-06
2.12239110991224e-05   -2.710283931682371e-06   -3.359631129220479e-06
2.2706257286828773e-05   -4.981519381962608e-06   -2.732813982866676e-05
2.2706257286828773e-05   -4.981519381962608e-06   -2.732813982866676e-05
2.2706257286828773e-05   -4.981519381962608e-06   -2.732813982866676e-05
2.2706257286828773e-05   -4.981519381962608e-06   -2.732813982866676e-05
8.853405500240202e-06   -1.8098196746403053e-06   -6.143073342079194e-06
8.853405500240202e-06   -1.8098196746403053e-06   -6.143073342079194e-06
8.853405500240202e-06   -1.8098196746403053e-06   -6.143073342079194e-06
8.853405500240202e-06   -1.8098196746403053e-06   -6.143073342079194e-06
1.4724737119588556e-05   -3.7075837025082404e-06   -1.4789967624272398e-05
1.4724737119588556e-05   -3.7075837025082404e-06   -1.4789967624272398e-05
1.4724737119588556e-05   -3.7075837025082404e-06   -1.4789967624272398e-05
1.4724737119588556e-05   -3.7075837025082404e-06   -1.4789967624272398e-05
8.853405500240189e-06   -4.981519381962608e-06   -2.9231159653059875e-05
8.853405500240189e-06   -4.981519381962608e-06   -2.9231159653059875e-05
8.853405500240189e-06   -4.981519381962608e-06   -2.9231159653059875e-05
8.853405500240189e-06   -4.981519381962608e-06   -2.9231159653059875e-05
2.2706257286828665e-05   -1.8098196746404137e-06   -4.240053517685807e-06
2.2706257286828665e-05   -1.8098196746404137e-06   -4.240053517685807e-06
2.2706257286828665e-05   -1.8098196746404137e-06   -4.240053517685807e-06
2.2706257286828665e-05   -1.8098196746404137e-06   -4.240053517685807e-06
2.384719368316024e-05   -4.276993164350129e-06   -2.996856478090101e-05
2.384719368316024e-05   -4.276993164350129e-06   -2.996856478090101e-05
2.384719368316024e-05   -4.276993164350129e-06   -2.996856478090101e-05
2.384719368316024e-05   -4.276993164350129e-06   -2.996856478090101e-05
9.123814965517475e-06   -1.1880940693076306e-06   -7.282939708521882e-06
9.123814965517475e-06   -1.1880940693076306e-06   -7.282939708521882e-06
9.123814965517475e-06   -1.1880940693076306e-06   -7.282939708521882e-06
9.123814965517475e-06   -1.1880940693076306e-06   -7.282939708521882e-06
1.563082492246249e-05   -3.2452197984748042e-06   -1.6893680865929882e-05
1.563082492246249e-05   -3.2452197984748042e-06   -1.6893680865929882e-05
1.563082492246249e-05   -3.2452197984748042e-06   -1.6893680865929882e-05
1.563082492246249e-05   -3.2452197984748042e-06   -1.6893680865929882e-05
9.123814965517462e-06   -4.276993164350129e-06   -3.182190423792642e-05
9.123814965517462e-06   -4.276993164350129e-06   -3.182190423792642e-05
9.123814965517462e-06   -4.276993164350129e-06   -3.182190423792642e-05
9.123814965517462e-06   -4.276993164350129e-06   -3.182190423792642e-05
2.3847193683160158e-05   -1.1880940693076306e-06   -5.4296002514962315e-06
2.3847193683160158e-05   -1.1880940693076306e-06   -5.4296002514962315e-06
2.3847193683160158e-05   -1.1880940693076306e-06   -5.4296002514962315e-06
2.3847193683160158e-05   -1.1880940693076306e-06   -5.4296002514962315e-06
2.5363367568858577e-05   -2.7718839376945697e-06   -3.5032202519302705e-05
2.5363367568858577e-05   -2.7718839376945697e-06   -3.5032202519302705e-05
2.5363367568858577e-05   -2.7718839376945697e-06   -3.5032202519302705e-05
2.5363367568858577e-05   -2.7718839376945697e-06   -3.5032202519302705e-05
9.25612889837153e-06   3.4265567568688565e-08   -9.870494438315417e-06
9.25612889837153e-06   3.4265567568688565e-08   -9.870494438315417e-06
9.25612889837153e-06   3.4265567568688565e-08   -9.870494438315417e-06
9.25612889837153e-06   3.4265567568688565e-08   -9.870494438315417e-06
1.593228697699775e-05   -2.5571752016407753e-06   -1.9442560107833616e-05
1.593228697699775e-05   -2.5571752016407753e-06   -1.9442560107833616e-05
1.593228697699775e-05   -2.5571752016407753e-06   -1.9442560107833616e-05
1.593228697699775e-05   -2.5571752016407753e-06   -1.9442560107833616e-05
-3.0272910760698057e-05   4.875606638450624e-06   -2.8367707718517207e-05
-3.0272910760698057e-05   4.875606638450624e-06   -2.8367707718517207e-05
-3.0272910760698057e-05   4.875606638450624e-06   -2.8367707718517207e-05
-3.0272910760698057e-05   4.875606638450624e-06   -2.8367707718517207e-05
-2.235163485948653e-05   1.986691727201388e-06   -1.6898930163247614e-05
-2.235163485948653e-05   1.986691727201388e-06   -1.6898930163247614e-05
-2.235163485948653e-05   1.986691727201388e-06   -1.6898930163247614e-05
-2.235163485948653e-05   1.986691727201388e-06   -1.6898930163247614e-05
-2.2022819296993706e-05   6.2056196800937095e-06   -2.5025437375370864e-05
-2.2022819296993706e-05   6.2056196800937095e-06   -2.5025437375370864e-05
-2.2022819296993706e-05   6.2056196800937095e-06   -2.5025437375370864e-05
-2.2022819296993706e-05   6.2056196800937095e-06   -2.5025437375370864e-05
-2.8628121829199612e-05   3.093444733940666e-06   -1.214929485400236e-05
-2.8628121829199612e-05   3.093444733940666e-06   -1.214929485400236e-05
-2.8628121829199612e-05   3.093444733940666e-06   -1.214929485400236e-05
-2.8628121829199612e-05   3.093444733940666e-06   -1.214929485400236e-05
-2.472497972543434e-05   4.373379269083377e-06   -1.9422492414697943e-05
-2.472497972543434e-05   4.373379269083377e-06   -1.9422492414697943e-05
-2.472497972543434e-05   4.373379269083377e-06   -1.9422492414697943e-05
-2.472497972543434e-05   4.373379269083377e-06   -1.9422492414697943e-05
-2.8628121829199612e-05   6.2056196800937095e-06   -2.3158132407679125e-05
-2.8628121829199612e-05   6.2056196800937095e-06   -2.3158132407679125e-05
-2.8628121829199612e-05   6.2056196800937095e-06   -2.3158132407679125e-05
-2.8628121829199612e-05   6.2056196800937095e-06   -2.3158132407679125e-05
-2.202281929699376e-05   3.093444733940666e-06   -1.4016599821694236e-05
-2.202281929699376e-05   3.093444733940666e-06   -1.4016599821694236e-05
-2.202281929699376e-05   3.093444733940666e-06   -1.4016599821694236e-05
-2.202281929699376e-05   3.093444733940666e-06   -1.4016599821694236e-05
-2.155354328052853e-05   6.825249197699927e-06   -2.2346387622828277e-05
-2.155354328052853e-05   6.825249197699927e-06   -2.2346387622828277e-05
-2.155354328052853e-05   6.825249197699927e-06   -2.2346387622828277e-05
-2.155354328052853e-05   6.825249197699927e-06   -2.2346387622828277e-05
-2.7316073713851965e-05   3.652604498214111e-06   -1.0838583414264267e-05
-2.7316073713851965e-05   3.652604498214111e-06   -1.0838583414264267e-05
-2.7316073713851965e-05   3.652604498214111e-06   -1.0838583414264267e-05
-2.7316073713851965e-05   3.652604498214111e-06   -1.0838583414264267e-05
-2.4291155219337534e-05   4.970562494254274e-06   -1.6670889036079172e-05
-2.4291155219337534e-05   4.970562494254274e-06   -1.6670889036079172e-05
-2.4291155219337534e-05   4.970562494254274e-06   -1.6670889036079172e-05
-2.4291155219337534e-05   4.970562494254274e-06   -1.6670889036079172e-05
-2.731607371385191e-05   6.825249197699927e-06   -2.0442800803136766e-05
-2.731607371385191e-05   6.825249197699927e-06   -2.0442800803136766e-05
-2.731607371385191e-05   6.825249197699927e-06   -2.0442800803136766e-05
-2.731607371385191e-05   6.825249197699927e-06   -2.0442800803136766e-05
-2.1553543280528585e-05   3.652604498214111e-06   -1.2742170233955751e-05
-2.1553543280528585e-05   3.652604498214111e-06   -1.2742170233955751e-05
-2.1553543280528585e-05   3.652604498214111e-06   -1.2742170233955751e-05
-2.1553543280528585e-05   3.652604498214111e-06   -1.2742170233955751e-05
-2.123377905895288e-05   7.6043337663220115e-06   -1.890946744217102e-05
-2.123377905895288e-05   7.6043337663220115e-06   -1.890946744217102e-05
-2.123377905895288e-05   7.6043337663220115e-06   -1.890946744217102e-05
-2.123377905895288e-05   7.6043337663220115e-06   -1.890946744217102e-05
-2.5645354373832283e-05   4.538325487085963e-06   -9.717236949830215e-06
-2.5645354373832283e-05   4.538325487085963e-06   -9.717236949830215e-06
-2.5645354373832283e-05   4.538325487085963e-06   -9.717236949830215e-06
-2.5645354373832283e-05   4.538325487085963e-06   -9.717236949830215e-06
-2.3156036272396145e-05   5.3845411883534505e-06   -1.4373829872984872e-05
-2.3156036272396145e-05   5.3845411883534505e-06   -1.4373829872984872e-05
-2.3156036272396145e-05   5.3845411883534505e-06   -1.4373829872984872e-05
-2.3156036272396145e-05   5.3845411883534505e-06   -1.4373829872984872e-05
-2.235163485948653e-05   2.5203158787991337e-06   -4.1346315958221006e-05
-2.235163485948653e-05   2.5203158787991337e-06   -4.1346315958221006e-05
-2.235163485948653e-05   2.5203158787991337e-06   -4.1346315958221006e-05
-2.235163485948653e-05   2.5203158787991337e-06   -4.1346315958221006e-05
-1.591561807255242e-05   1.1404452929541543e-06   -3.1447543664837906e-05
-1.591561807255242e-05   1.1404452929541543e-06   -3.1447543664837906e-05
-1.591561807255242e-05   1.1404452929541543e-06   -3.1447543664837906e-05
-1.591561807255242e-05   1.1404452929541543e-06   -3.1447543664837906e-05
-1.570027960570468e-05   3.924408637586644e-06   -4.1210670652919884e-05
-1.570027960570468e-05   3.924408637586644e-06   -4.1210670652919884e-05
-1.570027960570468e-05   3.924408637586644e-06   -4.1210670652919884e-05
-1.570027960570468e-05   3.924408637586644e-06   -4.1210670652919884e-05
-2.202281929699376e-05   2.409494714590999e-06   -2.97641561469736e-05
-2.202281929699376e-05   2.409494714590999e-06   -2.97641561469736e-05
-2.202281929699376e-05   2.409494714590999e-06   -2.97641561469736e-05
-2.202281929699376e-05   2.409494714590999e-06   -2.97641561469736e-05
-1.8812379618423185e-05   2.7421288621308406e-06   -3.531446943311607e-05
-1.8812379618423185e-05   2.7421288621308406e-06   -3.531446943311607e-05
-1.8812379618423185e-05   2.7421288621308406e-06   -3.531446943311607e-05
-1.8812379618423185e-05   2.7421288621308406e-06   -3.531446943311607e-05
-2.2022819296993706e-05   3.924408637586644e-06   -4.030172229912217e-05
-2.2022819296993706e-05   3.924408637586644e-06   -4.030172229912217e-05
-2.2022819296993706e-05   3.924408637586644e-06   -4.030172229912217e-05
-2.2022819296993706e-05   3.924408637586644e-06   -4.030172229912217e-05
-1.570027960570468e-05   2.409494714590999e-06   -3.0673104500771205e-05
-1.570027960570468e-05   2.409494714590999e-06   -3.0673104500771205e-05
-1.570027960570468e-05   2.409494714590999e-06   -3.0673104500771205e-05
-1.570027960570468e-05   2.409494714590999e-06   -3.0673104500771205e-05
-1.5462463670070162e-05   5.201981018640922e-06   -4.05443857368151e-05
-1.5462463670070162e-05   5.201981018640922e-06   -4.05443857368151e-05
-1.5462463670070162e-05   5.201981018640922e-06   -4.05443857368151e-05
-1.5462463670070162e-05   5.201981018640922e-06   -4.05443857368151e-05
-2.1553543280528612e-05   3.589488148344252e-06   -2.94250906638727e-05
-2.1553543280528612e-05   3.589488148344252e-06   -2.94250906638727e-05
-2.1553543280528612e-05   3.589488148344252e-06   -2.94250906638727e-05
-2.1553543280528612e-05   3.589488148344252e-06   -2.94250906638727e-05
-1.8529229388422487e-05   3.7681639213989378e-06   -3.4572819281215807e-05
-1.8529229388422487e-05   3.7681639213989378e-06   -3.4572819281215807e-05
-1.8529229388422487e-05   3.7681639213989378e-06   -3.4572819281215807e-05
-1.8529229388422487e-05   3.7681639213989378e-06   -3.4572819281215807e-05
-2.155354328052853e-05   5.201981018640922e-06   -3.95768900146369e-05
-2.155354328052853e-05   5.201981018640922e-06   -3.95768900146369e-05
-2.155354328052853e-05   5.201981018640922e-06   -3.95768900146369e-05
-2.155354328052853e-05   5.201981018640922e-06   -3.95768900146369e-05
-1.5462463670070148e-05   3.589488148344035e-06   -3.039258638605079e-05
-1.5462463670070148e-05   3.589488148344035e-06   -3.039258638605079e-05
-1.5462463670070148e-05   3.589488148344035e-06   -3.039258638605079e-05
-1.5462463670070148e-05   3.589488148344035e-06   -3.039258638605079e-05
-1.5250953546555848e-05   6.589639155935305e-06   -4.093750321792502e-05
-1.5250953546555848e-05   6.589639155935305e-06   -4.093750321792502e-05
-1.5250953546555848e-05   6.589639155935305e-06   -4.093750321792502e-05
-1.5250953546555848e-05   6.589639155935305e-06   -4.093750321792502e-05
-2.1233779058952933e-05   4.900640983133064e-06   -2.9952728460247988e-05
-2.1233779058952933e-05   4.900640983133064e-06   -2.9952728460247988e-05
-2.1233779058952933e-05   4.900640983133064e-06   -2.9952728460247988e-05
-2.1233779058952933e-05   4.900640983133064e-06   -2.9952728460247988e-05
-1.8418598643614998e-05   4.807383056972328e-06   -3.458874106344856e-05
-1.8418598643614998e-05   4.807383056972328e-06   -3.458874106344856e-05
-1.8418598643614998e-05   4.807383056972328e-06   -3.458874106344856e-05
-1.8418598643614998e-05   4.807383056972328e-06   -3.458874106344856e-05
-1.5915618072552366e-05   4.336682157946416e-07   -4.675283740798698e-05
-1.5915618072552366e-05   4.336682157946416e-07   -4.675283740798698e-05
-1.5915618072552366e-05   4.336682157946416e-07   -4.675283740798698e-05
-1.5915618072552366e-05   4.336682157946416e-07   -4.675283740798698e-05
-9.644128233340612e-06   6.535145441995474e-07   -3.6168446545591136e-05
-9.644128233340612e-06   6.535145441995474e-07   -3.6168446545591136e-05
-9.644128233340612e-06   6.535145441995474e-07   -3.6168446545591136e-05
-9.644128233340612e-06   6.535145441995474e-07   -3.6168446545591136e-05
-9.43425593101841e-06   1.8453191473038469e-06   -4.6165511156257976e-05
-9.43425593101841e-06   1.8453191473038469e-06   -4.6165511156257976e-05
-9.43425593101841e-06   1.8453191473038469e-06   -4.6165511156257976e-05
-9.43425593101841e-06   1.8453191473038469e-06   -4.6165511156257976e-05
-1.570027960570468e-05   1.9460384877224065e-06   -3.5782569969364746e-05
-1.570027960570468e-05   1.9460384877224065e-06   -3.5782569969364746e-05
-1.570027960570468e-05   1.9460384877224065e-06   -3.5782569969364746e-05
-1.570027960570468e-05   1.9460384877224065e-06   -3.5782569969364746e-05
-1.259236129041204e-05   1.3995552486190197e-06   -4.06345438847247e-05
-1.259236129041204e-05   1.3995552486190197e-06   -4.06345438847247e-05
-1.259236129041204e-05   1.3995552486190197e-06   -4.06345438847247e-05
-1.259236129041204e-05   1.3995552486190197e-06   -4.06345438847247e-05
-1.5700279605704653e-05   1.8453191473039553e-06   -4.622594276050887e-05
-1.5700279605704653e-05   1.8453191473039553e-06   -4.622594276050887e-05
-1.5700279605704653e-05   1.8453191473039553e-06   -4.622594276050887e-05
-1.5700279605704653e-05   1.8453191473039553e-06   -4.622594276050887e-05
-9.43425593101841e-06   1.9460384877224065e-06   -3.572213836511393e-05
-9.43425593101841e-06   1.9460384877224065e-06   -3.572213836511393e-05
-9.43425593101841e-06   1.9460384877224065e-06   -3.572213836511393e-05
-9.43425593101841e-06   1.9460384877224065e-06   -3.572213836511393e-05
-9.198144525267895e-06   3.261481978512719e-06   -4.628600394855002e-05
-9.198144525267895e-06   3.261481978512719e-06   -4.628600394855002e-05
-9.198144525267895e-06   3.261481978512719e-06   -4.628600394855002e-05
-9.198144525267895e-06   3.261481978512719e-06   -4.628600394855002e-05
-1.5462463670070148e-05   3.249886735269287e-06   -3.583851489460005e-05
-1.5462463670070148e-05   3.249886735269287e-06   -3.583851489460005e-05
-1.5462463670070148e-05   3.249886735269287e-06   -3.583851489460005e-05
-1.5462463670070148e-05   3.249886735269287e-06   -3.583851489460005e-05
-1.2451616657836802e-05   2.5100289960699237e-06   -4.041267860480281e-05
-1.2451616657836802e-05   2.5100289960699237e-06   -4.041267860480281e-05
-1.2451616657836802e-05   2.5100289960699237e-06   -4.041267860480281e-05
-1.2451616657836802e-05   2.5100289960699237e-06   -4.041267860480281e-05
-1.5462463670070108e-05   3.261481978512719e-06   -4.627904680260398e-05
-1.5462463670070108e-05   3.261481978512719e-06   -4.627904680260398e-05
-1.5462463670070108e-05   3.261481978512719e-06   -4.627904680260398e-05
-1.5462463670070108e-05   3.261481978512719e-06   -4.627904680260398e-05
-9.19814452526791e-06   3.249886735269287e-06   -3.584547204054625e-05
-9.19814452526791e-06   3.249886735269287e-06   -3.584547204054625e-05
-9.19814452526791e-06   3.249886735269287e-06   -3.584547204054625e-05
-9.19814452526791e-06   3.249886735269287e-06   -3.584547204054625e-05
-8.986013351680674e-06   4.702405043099304e-06   -4.7065105914614316e-05
-8.986013351680674e-06   4.702405043099304e-06   -4.7065105914614316e-05
-8.986013351680674e-06   4.702405043099304e-06   -4.7065105914614316e-05
-8.986013351680674e-06   4.702405043099304e-06   -4.7065105914614316e-05
-1.5250953546555848e-05   4.573410741635052e-06   -3.654614234227684e-05
-1.5250953546555848e-05   4.573410741635052e-06   -3.654614234227684e-05
-1.5250953546555848e-05   4.573410741635052e-06   -3.654614234227684e-05
-1.5250953546555848e-05   4.573410741635052e-06   -3.654614234227684e-05
-1.2335252255954775e-05   3.6352657649064892e-06   -4.084275750724191e-05
-1.2335252255954775e-05   3.6352657649064892e-06   -4.084275750724191e-05
-1.2335252255954775e-05   3.6352657649064892e-06   -4.084275750724191e-05
-1.2335252255954775e-05   3.6352657649064892e-06   -4.084275750724191e-05
-9.644128233340578e-06   -1.4747326976140675e-06   -4.098020212063959e-05
-9.644128233340578e-06   -1.4747326976140675e-06   -4.098020212063959e-05
-9.644128233340578e-06   -1.4747326976140675e-06   -4.098020212063959e-05
-9.644128233340578e-06   -1.4747326976140675e-06   -4.098020212063959e-05
-3.561854876473432e-06   2.7917324859662307e-07   -2.979073629146814e-05
-3.561854876473432e-06   2.7917324859662307e-07   -2.979073629146814e-05
-3.561854876473432e-06   2.7917324859662307e-07   -2.979073629146814e-05
-3.561854876473432e-06   2.7917324859662307e-07   -2.979073629146814e-05
-3.2483004568079727e-06   -1.4516195515979283e-07   -3.9662954702759e-05
-3.2483004568079727e-06   -1.4516195515979283e-07   -3.9662954702759e-05
-3.2483004568079727e-06   -1.4516195515979283e-07   -3.9662954702759e-05
-3.2483004568079727e-06   -1.4516195515979283e-07   -3.9662954702759e-05
-9.434255931018394e-06   1.5311737428611721e-06   -3.0358830331220694e-05
-9.434255931018394e-06   1.5311737428611721e-06   -3.0358830331220694e-05
-9.434255931018394e-06   1.5311737428611721e-06   -3.0358830331220694e-05
-9.434255931018394e-06   1.5311737428611721e-06   -3.0358830331220694e-05
-6.406830370386386e-06   1.7835892549065806e-07   -3.459285070851905e-05
-6.406830370386386e-06   1.7835892549065806e-07   -3.459285070851905e-05
-6.406830370386386e-06   1.7835892549065806e-07   -3.459285070851905e-05
-6.406830370386386e-06   1.7835892549065806e-07   -3.459285070851905e-05
-9.434255931018377e-06   -1.4516195515990125e-07   -4.06687561215716e-05
-9.434255931018377e-06   -1.4516195515990125e-07   -4.06687561215716e-05
-9.434255931018377e-06   -1.4516195515990125e-07   -4.06687561215716e-05
-9.434255931018377e-06   -1.4516195515990125e-07   -4.06687561215716e-05
-3.2483004568079863e-06   1.5311737428611721e-06   -2.935302891240825e-05
-3.2483004568079863e-06   1.5311737428611721e-06   -2.935302891240825e-05
-3.2483004568079863e-06   1.5311737428611721e-06   -2.935302891240825e-05
-3.2483004568079863e-06   1.5311737428611721e-06   -2.935302891240825e-05
-2.7827995566015386e-06   1.1339905816082265e-06   -4.01973778822272e-05
-2.7827995566015386e-06   1.1339905816082265e-06   -4.01973778822272e-05
-2.7827995566015386e-06   1.1339905816082265e-06   -4.01973778822272e-05
-2.7827995566015386e-06   1.1339905816082265e-06   -4.01973778822272e-05
-9.198144525267895e-06   2.7110180474173694e-06   -3.0451352747268675e-05
-9.198144525267895e-06   2.7110180474173694e-06   -3.0451352747268675e-05
-9.198144525267895e-06   2.7110180474173694e-06   -3.0451352747268675e-05
-9.198144525267895e-06   2.7110180474173694e-06   -3.0451352747268675e-05
-6.2172359705151445e-06   1.1891968090809325e-06   -3.450644092885496e-05
-6.2172359705151445e-06   1.1891968090809325e-06   -3.450644092885496e-05
-6.2172359705151445e-06   1.1891968090809325e-06   -3.450644092885496e-05
-6.2172359705151445e-06   1.1891968090809325e-06   -3.450644092885496e-05
-9.198144525267871e-06   1.1339905816082265e-06   -4.114359436171251e-05
-9.198144525267871e-06   1.1339905816082265e-06   -4.114359436171251e-05
-9.198144525267871e-06   1.1339905816082265e-06   -4.114359436171251e-05
-9.198144525267871e-06   1.1339905816082265e-06   -4.114359436171251e-05
-2.782799556601552e-06   2.7110180474173694e-06   -2.9505136267783173e-05
-2.782799556601552e-06   2.7110180474173694e-06   -2.9505136267783173e-05
-2.782799556601552e-06   2.7110180474173694e-06   -2.9505136267783173e-05
-2.782799556601552e-06   2.7110180474173694e-06   -2.9505136267783173e-05
-2.457781107858455e-06   2.600144336155287e-06   -4.132164247299384e-05
-2.457781107858455e-06   2.600144336155287e-06   -4.132164247299384e-05
-2.457781107858455e-06   2.600144336155287e-06   -4.132164247299384e-05
-2.457781107858455e-06   2.600144336155287e-06   -4.132164247299384e-05
-8.986013351680674e-06   4.045136030940899e-06   -3.130825041682792e-05
-8.986013351680674e-06   4.045136030940899e-06   -3.130825041682792e-05
-8.986013351680674e-06   4.045136030940899e-06   -3.130825041682792e-05
-8.986013351680674e-06   4.045136030940899e-06   -3.130825041682792e-05
-6.01875891026905e-06   2.248683181996702e-06   -3.517580277648079e-05
-6.01875891026905e-06   2.248683181996702e-06   -3.517580277648079e-05
-6.01875891026905e-06   2.248683181996702e-06   -3.517580277648079e-05
-6.01875891026905e-06   2.248683181996702e-06   -3.517580277648079e-05
-3.561854876473432e-06   -2.710283931682371e-06   -2.2240013411414642e-05
-3.561854876473432e-06   -2.710283931682371e-06   -2.2240013411414642e-05
-3.561854876473432e-06   -2.710283931682371e-06   -2.2240013411414642e-05
-3.561854876473432e-06   -2.710283931682371e-06   -2.2240013411414642e-05
9.375208205590244e-07   3.86938241101354e-07   -1.2882720612690372e-05
9.375208205590244e-07   3.86938241101354e-07   -1.2882720612690372e-05
9.375208205590244e-07   3.86938241101354e-07   -1.2882720612690372e-05
9.375208205590244e-07   3.86938241101354e-07   -1.2882720612690372e-05
2.5917466397917712e-06   -1.8098196746404137e-06   -2.1241015561648238e-05
2.5917466397917712e-06   -1.8098196746404137e-06   -2.1241015561648238e-05
2.5917466397917712e-06   -1.8098196746404137e-06   -2.1241015561648238e-05
2.5917466397917712e-06   -1.8098196746404137e-06   -2.1241015561648238e-05
-3.2483004568079727e-06   1.3764767401616522e-06   -1.3419381582862802e-05
-3.2483004568079727e-06   1.3764767401616522e-06   -1.3419381582862802e-05
-3.2483004568079727e-06   1.3764767401616522e-06   -1.3419381582862802e-05
-3.2483004568079727e-06   1.3764767401616522e-06   -1.3419381582862802e-05
-7.989752984336024e-07   -5.555503169878996e-07   -1.6342373945864156e-05
-7.989752984336024e-07   -5.555503169878996e-07   -1.6342373945864156e-05
-7.989752984336024e-07   -5.555503169878996e-07   -1.6342373945864156e-05
-7.989752984336024e-07   -5.555503169878996e-07   -1.6342373945864156e-05
-3.248300456807959e-06   -1.8098196746403053e-06   -2.315279341052925e-05
-3.248300456807959e-06   -1.8098196746403053e-06   -2.315279341052925e-05
-3.248300456807959e-06   -1.8098196746403053e-06   -2.315279341052925e-05
-3.248300456807959e-06   -1.8098196746403053e-06   -2.315279341052925e-05
2.5917466397917712e-06   1.3764767401614354e-06   -1.1507603733981763e-05
2.5917466397917712e-06   1.3764767401614354e-06   -1.1507603733981763e-05
2.5917466397917712e-06   1.3764767401614354e-06   -1.1507603733981763e-05
2.5917466397917712e-06   1.3764767401614354e-06   -1.1507603733981763e-05
3.897912041211753e-06   -1.188094069307739e-06   -2.2399562841932878e-05
3.897912041211753e-06   -1.188094069307739e-06   -2.2399562841932878e-05
3.897912041211753e-06   -1.188094069307739e-06   -2.2399562841932878e-05
3.897912041211753e-06   -1.188094069307739e-06   -2.2399562841932878e-05
-2.782799556601552e-06   1.933012049719048e-06   -1.3137707183659728e-05
-2.782799556601552e-06   1.933012049719048e-06   -1.3137707183659728e-05
-2.782799556601552e-06   1.933012049719048e-06   -1.3137707183659728e-05
-2.782799556601552e-06   1.933012049719048e-06   -1.3137707183659728e-05
4.059458849128963e-08   -8.178916561444975e-08   -1.6634483362947775e-05
4.059458849128963e-08   -8.178916561444975e-08   -1.6634483362947775e-05
4.059458849128963e-08   -8.178916561444975e-08   -1.6634483362947775e-05
4.059458849128963e-08   -8.178916561444975e-08   -1.6634483362947775e-05
-2.7827995566015386e-06   -1.188094069307739e-06   -2.4272226513348647e-05
-2.7827995566015386e-06   -1.188094069307739e-06   -2.4272226513348647e-05
-2.7827995566015386e-06   -1.188094069307739e-06   -2.4272226513348647e-05
-2.7827995566015386e-06   -1.188094069307739e-06   -2.4272226513348647e-05
3.897912041211753e-06   1.933012049718831e-06   -1.1265043512243824e-05
3.897912041211753e-06   1.933012049718831e-06   -1.1265043512243824e-05
3.897912041211753e-06   1.933012049718831e-06   -1.1265043512243824e-05
3.897912041211753e-06   1.933012049718831e-06   -1.1265043512243824e-05
5.545989978990849e-06   3.4265567568688565e-08   -2.5093612049278133e-05
5.545989978990849e-06   3.4265567568688565e-08   -2.5093612049278133e-05
5.545989978990849e-06   3.4265567568688565e-08   -2.5093612049278133e-05
5.545989978990849e-06   3.4265567568688565e-08   -2.5093612049278133e-05
-2.457781107858455e-06   2.9200541037549023e-06   -1.3485466692907258e-05
-2.457781107858455e-06   2.9200541037549023e-06   -1.3485466692907258e-05
-2.457781107858455e-06   2.9200541037549023e-06   -1.3485466692907258e-05
-2.457781107858455e-06   2.9200541037549023e-06   -1.3485466692907258e-05
7.622208974265073e-07   4.590820074337927e-07   -1.7375553443923315e-05
7.622208974265073e-07   4.590820074337927e-07   -1.7375553443923315e-05
7.622208974265073e-07   4.590820074337927e-07   -1.7375553443923315e-05
7.622208974265073e-07   4.590820074337927e-07   -1.7375553443923315e-05
-1.0549584455377971e-05   1.986691727201388e-06   -1.8911035349766445e-05
-1.0549584455377971e-05   1.986691727201388e-06   -1.8911035349766445e-05
-1.0549584455377971e-05   1.986691727201388e-06   -1.8911035349766445e-05
-1.0549584455377971e-05   1.986691727201388e-06   -1.8911035349766445e-05
-1.0688393983475201e-05   -9.235425299564028e-07   -2.0888525117556474e-05
-1.0688393983475201e-05   -9.235425299564028e-07   -2.0888525117556474e-05
-1.0688393983475201e-05   -9.235425299564028e-07   -2.0888525117556474e-05
-1.0688393983475201e-05   -9.235425299564028e-07   -2.0888525117556474e-05
-1.0152855916327594e-05   3.093444733940666e-06   -1.776822163948523e-05
-1.0152855916327594e-05   3.093444733940666e-06   -1.776822163948523e-05
-1.0152855916327594e-05   3.093444733940666e-06   -1.776822163948523e-05
-1.0152855916327594e-05   3.093444733940666e-06   -1.776822163948523e-05
-8.707134280448573e-06   -2.8163948305459652e-08   -1.8304792489935457e-05
-8.707134280448573e-06   -2.8163948305459652e-08   -1.8304792489935457e-05
-8.707134280448573e-06   -2.8163948305459652e-08   -1.8304792489935457e-05
-8.707134280448573e-06   -2.8163948305459652e-08   -1.8304792489935457e-05
-9.586321566944025e-06   1.3676946032806572e-06   -1.767699547672888e-05
-9.586321566944025e-06   1.3676946032806572e-06   -1.767699547672888e-05
-9.586321566944025e-06   1.3676946032806572e-06   -1.767699547672888e-05
-9.586321566944025e-06   1.3676946032806572e-06   -1.767699547672888e-05
-8.707134280448573e-06   3.093444733940666e-06   -1.589525643013736e-05
-8.707134280448573e-06   3.093444733940666e-06   -1.589525643013736e-05
-8.707134280448573e-06   3.093444733940666e-06   -1.589525643013736e-05
-8.707134280448573e-06   3.093444733940666e-06   -1.589525643013736e-05
-1.0152855916327621e-05   -2.8163948305459652e-08   -2.017775769928349e-05
-1.0152855916327621e-05   -2.8163948305459652e-08   -2.017775769928349e-05
-1.0152855916327621e-05   -2.8163948305459652e-08   -2.017775769928349e-05
-1.0152855916327621e-05   -2.8163948305459652e-08   -2.017775769928349e-05
-9.477341264680364e-06   3.652604498213894e-06   -1.6489067764299987e-05
-9.477341264680364e-06   3.652604498213894e-06   -1.6489067764299987e-05
-9.477341264680364e-06   3.652604498213894e-06   -1.6489067764299987e-05
-9.477341264680364e-06   3.652604498213894e-06   -1.6489067764299987e-05
-7.183424152318969e-06   4.783077856666818e-07   -1.840768492404035e-05
-7.183424152318969e-06   4.783077856666818e-07   -1.840768492404035e-05
-7.183424152318969e-06   4.783077856666818e-07   -1.840768492404035e-05
-7.183424152318969e-06   4.783077856666818e-07   -1.840768492404035e-05
-8.713946486479154e-06   1.8273727095930413e-06   -1.666625332146334e-05
-8.713946486479154e-06   1.8273727095930413e-06   -1.666625332146334e-05
-8.713946486479154e-06   1.8273727095930413e-06   -1.666625332146334e-05
-8.713946486479154e-06   1.8273727095930413e-06   -1.666625332146334e-05
-7.183424152318969e-06   3.652604498213894e-06   -1.4584489736771422e-05
-7.183424152318969e-06   3.652604498213894e-06   -1.4584489736771422e-05
-7.183424152318969e-06   3.652604498213894e-06   -1.4584489736771422e-05
-7.183424152318969e-06   3.652604498213894e-06   -1.4584489736771422e-05
-9.477341264680392e-06   4.783077856666818e-07   -2.031226295156881e-05
-9.477341264680392e-06   4.783077856666818e-07   -2.031226295156881e-05
-9.477341264680392e-06   4.783077856666818e-07   -2.031226295156881e-05
-9.477341264680392e-06   4.783077856666818e-07   -2.031226295156881e-05
-8.950381999186e-06   4.53832548708618e-06   -1.5299582764183566e-05
-8.950381999186e-06   4.53832548708618e-06   -1.5299582764183566e-05
-8.950381999186e-06   4.53832548708618e-06   -1.5299582764183566e-05
-8.950381999186e-06   4.53832548708618e-06   -1.5299582764183566e-05
-5.302131651315498e-06   1.4884435130995202e-06   -1.9550070826242238e-05
-5.302131651315498e-06   1.4884435130995202e-06   -1.9550070826242238e-05
-5.302131651315498e-06   1.4884435130995202e-06   -1.9550070826242238e-05
-5.302131651315498e-06   1.4884435130995202e-06   -1.9550070826242238e-05
-7.623490520968209e-06   2.267852595406192e-06   -1.614878482620501e-05
-7.623490520968209e-06   2.267852595406192e-06   -1.614878482620501e-05
-7.623490520968209e-06   2.267852595406192e-06   -1.614878482620501e-05
-7.623490520968209e-06   2.267852595406192e-06   -1.614878482620501e-05
-1.0688393983475147e-05   1.1404452929541543e-06   -3.437786705414434e-05
-1.0688393983475147e-05   1.1404452929541543e-06   -3.437786705414434e-05
-1.0688393983475147e-05   1.1404452929541543e-06   -3.437786705414434e-05
-1.0688393983475147e-05   1.1404452929541543e-06   -3.437786705414434e-05
-1.231289200742375e-05   -2.0016697792986024e-07   -3.788973112325573e-05
-1.231289200742375e-05   -2.0016697792986024e-07   -3.788973112325573e-05
-1.231289200742375e-05   -2.0016697792986024e-07   -3.788973112325573e-05
-1.231289200742375e-05   -2.0016697792986024e-07   -3.788973112325573e-05
-1.1880134216623846e-05   2.409494714590999e-06   -3.440374314338766e-05
-1.1880134216623846e-05   2.409494714590999e-06   -3.440374314338766e-05
-1.1880134216623846e-05   2.409494714590999e-06   -3.440374314338766e-05
-1.1880134216623846e-05   2.409494714590999e-06   -3.440374314338766e-05
-1.0152855916327621e-05   9.295527502195013e-07   -3.639457513192492e-05
-1.0152855916327621e-05   9.295527502195013e-07   -3.639457513192492e-05
-1.0152855916327621e-05   9.295527502195013e-07   -3.639457513192492e-05
-1.0152855916327621e-05   9.295527502195013e-07   -3.639457513192492e-05
-1.1127425033699626e-05   1.3177425228750282e-06   -3.500320713323231e-05
-1.1127425033699626e-05   1.3177425228750282e-06   -3.500320713323231e-05
-1.1127425033699626e-05   1.3177425228750282e-06   -3.500320713323231e-05
-1.1127425033699626e-05   1.3177425228750282e-06   -3.500320713323231e-05
-1.0152855916327594e-05   2.409494714590999e-06   -3.351577796476446e-05
-1.0152855916327594e-05   2.409494714590999e-06   -3.351577796476446e-05
-1.0152855916327594e-05   2.409494714590999e-06   -3.351577796476446e-05
-1.0152855916327594e-05   2.409494714590999e-06   -3.351577796476446e-05
-1.1880134216623833e-05   9.295527502195013e-07   -3.728254031054785e-05
-1.1880134216623833e-05   9.295527502195013e-07   -3.728254031054785e-05
-1.1880134216623833e-05   9.295527502195013e-07   -3.728254031054785e-05
-1.1880134216623833e-05   9.295527502195013e-07   -3.728254031054785e-05
-1.1430051272611323e-05   3.589488148344035e-06   -3.411536143175988e-05
-1.1430051272611323e-05   3.589488148344035e-06   -3.411536143175988e-05
-1.1430051272611323e-05   3.589488148344035e-06   -3.411536143175988e-05
-1.1430051272611323e-05   3.589488148344035e-06   -3.411536143175988e-05
-9.477341264680419e-06   2.0171994191060024e-06   -3.6426504874101666e-05
-9.477341264680419e-06   2.0171994191060024e-06   -3.6426504874101666e-05
-9.477341264680419e-06   2.0171994191060024e-06   -3.6426504874101666e-05
-9.477341264680419e-06   2.0171994191060024e-06   -3.6426504874101666e-05
-1.0693771539775293e-05   2.2284995014874333e-06   -3.452590113170575e-05
-1.0693771539775293e-05   2.2284995014874333e-06   -3.452590113170575e-05
-1.0693771539775293e-05   2.2284995014874333e-06   -3.452590113170575e-05
-1.0693771539775293e-05   2.2284995014874333e-06   -3.452590113170575e-05
-9.477341264680364e-06   3.589488148344252e-06   -3.317198819421691e-05
-9.477341264680364e-06   3.589488148344252e-06   -3.317198819421691e-05
-9.477341264680364e-06   3.589488148344252e-06   -3.317198819421691e-05
-9.477341264680364e-06   3.589488148344252e-06   -3.317198819421691e-05
-1.1430051272611283e-05   2.0171994191060024e-06   -3.7369878111644366e-05
-1.1430051272611283e-05   2.0171994191060024e-06   -3.7369878111644366e-05
-1.1430051272611283e-05   2.0171994191060024e-06   -3.7369878111644366e-05
-1.1430051272611283e-05   2.0171994191060024e-06   -3.7369878111644366e-05
-1.1006135776398475e-05   4.900640983133064e-06   -3.46803622585227e-05
-1.1006135776398475e-05   4.900640983133064e-06   -3.46803622585227e-05
-1.1006135776398475e-05   4.900640983133064e-06   -3.46803622585227e-05
-1.1006135776398475e-05   4.900640983133064e-06   -3.46803622585227e-05
-8.950381999186027e-06   3.259152730694659e-06   -3.712172560241348e-05
-8.950381999186027e-06   3.259152730694659e-06   -3.712172560241348e-05
-8.950381999186027e-06   3.259152730694659e-06   -3.712172560241348e-05
-8.950381999186027e-06   3.259152730694659e-06   -3.712172560241348e-05
-1.0312215799642918e-05   3.1838563985492167e-06   -3.480682480236477e-05
-1.0312215799642918e-05   3.1838563985492167e-06   -3.480682480236477e-05
-1.0312215799642918e-05   3.1838563985492167e-06   -3.480682480236477e-05
-1.0312215799642918e-05   3.1838563985492167e-06   -3.480682480236477e-05
-1.2312892007423709e-05   6.535145441995474e-07   -4.0035045094470806e-05
-1.2312892007423709e-05   6.535145441995474e-07   -4.0035045094470806e-05
-1.2312892007423709e-05   6.535145441995474e-07   -4.0035045094470806e-05
-1.2312892007423709e-05   6.535145441995474e-07   -4.0035045094470806e-05
-1.40238112891469e-05   9.367109804606956e-07   -4.271665936891964e-05
-1.40238112891469e-05   9.367109804606956e-07   -4.271665936891964e-05
-1.40238112891469e-05   9.367109804606956e-07   -4.271665936891964e-05
-1.40238112891469e-05   9.367109804606956e-07   -4.271665936891964e-05
-1.359850126828567e-05   1.9460384877224065e-06   -3.9418226373694144e-05
-1.359850126828567e-05   1.9460384877224065e-06   -3.9418226373694144e-05
-1.359850126828567e-05   1.9460384877224065e-06   -3.9418226373694144e-05
-1.359850126828567e-05   1.9460384877224065e-06   -3.9418226373694144e-05
-1.1880134216623833e-05   2.104342218200994e-06   -4.237715369808425e-05
-1.1880134216623833e-05   2.104342218200994e-06   -4.237715369808425e-05
-1.1880134216623833e-05   2.104342218200994e-06   -4.237715369808425e-05
-1.1880134216623833e-05   2.104342218200994e-06   -4.237715369808425e-05
-1.2875854008744084e-05   1.5920070357451632e-06   -4.041021960174396e-05
-1.2875854008744084e-05   1.5920070357451632e-06   -4.041021960174396e-05
-1.2875854008744084e-05   1.5920070357451632e-06   -4.041021960174396e-05
-1.2875854008744084e-05   1.5920070357451632e-06   -4.041021960174396e-05
-1.1880134216623805e-05   1.9460384877224065e-06   -3.951320861198123e-05
-1.1880134216623805e-05   1.9460384877224065e-06   -3.951320861198123e-05
-1.1880134216623805e-05   1.9460384877224065e-06   -3.951320861198123e-05
-1.1880134216623805e-05   1.9460384877224065e-06   -3.951320861198123e-05
-1.3598501268285695e-05   2.104342218200994e-06   -4.228217145979725e-05
-1.3598501268285695e-05   2.104342218200994e-06   -4.228217145979725e-05
-1.3598501268285695e-05   2.104342218200994e-06   -4.228217145979725e-05
-1.3598501268285695e-05   2.104342218200994e-06   -4.228217145979725e-05
-1.3151187624612903e-05   3.2498867352695037e-06   -3.953263435262891e-05
-1.3151187624612903e-05   3.2498867352695037e-06   -3.953263435262891e-05
-1.3151187624612903e-05   3.2498867352695037e-06   -3.953263435262891e-05
-1.3151187624612903e-05   3.2498867352695037e-06   -3.953263435262891e-05
-1.1430051272611323e-05   3.2976460480698376e-06   -4.2429850526978324e-05
-1.1430051272611323e-05   3.2976460480698376e-06   -4.2429850526978324e-05
-1.1430051272611323e-05   3.2976460480698376e-06   -4.2429850526978324e-05
-1.1430051272611323e-05   3.2976460480698376e-06   -4.2429850526978324e-05
-1.2518917777910911e-05   2.5908213201015703e-06   -4.019097818136523e-05
-1.2518917777910911e-05   2.5908213201015703e-06   -4.019097818136523e-05
-1.2518917777910911e-05   2.5908213201015703e-06   -4.019097818136523e-05
-1.2518917777910911e-05   2.5908213201015703e-06   -4.019097818136523e-05
-1.1430051272611283e-05   3.249886735269287e-06   -3.956128994030909e-05
-1.1430051272611283e-05   3.249886735269287e-06   -3.956128994030909e-05
-1.1430051272611283e-05   3.249886735269287e-06   -3.956128994030909e-05
-1.1430051272611283e-05   3.249886735269287e-06   -3.956128994030909e-05
-1.3151187624612903e-05   3.2976460480698376e-06   -4.2401194939297956e-05
-1.3151187624612903e-05   3.2976460480698376e-06   -4.2401194939297956e-05
-1.3151187624612903e-05   3.2976460480698376e-06   -4.2401194939297956e-05
-1.3151187624612903e-05   3.2976460480698376e-06   -4.2401194939297956e-05
-1.2729305893778697e-05   4.573410741634835e-06   -4.029994617289984e-05
-1.2729305893778697e-05   4.573410741634835e-06   -4.029994617289984e-05
-1.2729305893778697e-05   4.573410741634835e-06   -4.029994617289984e-05
-1.2729305893778697e-05   4.573410741634835e-06   -4.029994617289984e-05
-1.1006135776398489e-05   4.507462514918891e-06   -4.313232743250359e-05
-1.1006135776398489e-05   4.507462514918891e-06   -4.313232743250359e-05
-1.1006135776398489e-05   4.507462514918891e-06   -4.313232743250359e-05
-1.1006135776398489e-05   4.507462514918891e-06   -4.313232743250359e-05
-1.2190381803237921e-05   3.603610822523664e-06   -4.061627303900085e-05
-1.2190381803237921e-05   3.603610822523664e-06   -4.061627303900085e-05
-1.2190381803237921e-05   3.603610822523664e-06   -4.061627303900085e-05
-1.2190381803237921e-05   3.603610822523664e-06   -4.061627303900085e-05
-1.402381128914685e-05   2.7917324859662307e-07   -3.4539760546317536e-05
-1.402381128914685e-05   2.7917324859662307e-07   -3.4539760546317536e-05
-1.402381128914685e-05   2.7917324859662307e-07   -3.4539760546317536e-05
-1.402381128914685e-05   2.7917324859662307e-07   -3.4539760546317536e-05
-1.583024086086004e-05   2.0820134130957596e-06   -3.646877240047323e-05
-1.583024086086004e-05   2.0820134130957596e-06   -3.646877240047323e-05
-1.583024086086004e-05   2.0820134130957596e-06   -3.646877240047323e-05
-1.583024086086004e-05   2.0820134130957596e-06   -3.646877240047323e-05
-1.5315654752134304e-05   1.5311737428611721e-06   -3.302147943608615e-05
-1.5315654752134304e-05   1.5311737428611721e-06   -3.302147943608615e-05
-1.5315654752134304e-05   1.5311737428611721e-06   -3.302147943608615e-05
-1.5315654752134304e-05   1.5311737428611721e-06   -3.302147943608615e-05
-1.359850126828567e-05   3.2535719157193634e-06   -3.691684081288193e-05
-1.359850126828567e-05   3.2535719157193634e-06   -3.691684081288193e-05
-1.359850126828567e-05   3.2535719157193634e-06   -3.691684081288193e-05
-1.359850126828567e-05   3.2535719157193634e-06   -3.691684081288193e-05
-1.4578507987281083e-05   1.9170048838113886e-06   -3.448155606207865e-05
-1.4578507987281083e-05   1.9170048838113886e-06   -3.448155606207865e-05
-1.4578507987281083e-05   1.9170048838113886e-06   -3.448155606207865e-05
-1.4578507987281083e-05   1.9170048838113886e-06   -3.448155606207865e-05
-1.3598501268285646e-05   1.5311737428611721e-06   -3.4054918339801064e-05
-1.3598501268285646e-05   1.5311737428611721e-06   -3.4054918339801064e-05
-1.3598501268285646e-05   1.5311737428611721e-06   -3.4054918339801064e-05
-1.3598501268285646e-05   1.5311737428611721e-06   -3.4054918339801064e-05
-1.5315654752134304e-05   3.2535719157195803e-06   -3.58834019091672e-05
-1.5315654752134304e-05   3.2535719157195803e-06   -3.58834019091672e-05
-1.5315654752134304e-05   3.2535719157195803e-06   -3.58834019091672e-05
-1.5315654752134304e-05   3.2535719157195803e-06   -3.58834019091672e-05
-1.465071755988078e-05   2.7110180474173694e-06   -3.31645024906909e-05
-1.465071755988078e-05   2.7110180474173694e-06   -3.31645024906909e-05
-1.465071755988078e-05   2.7110180474173694e-06   -3.31645024906909e-05
-1.465071755988078e-05   2.7110180474173694e-06   -3.31645024906909e-05
-1.3151187624612881e-05   4.334372328518212e-06   -3.6637731618130914e-05
-1.3151187624612881e-05   4.334372328518212e-06   -3.6637731618130914e-05
-1.3151187624612881e-05   4.334372328518212e-06   -3.6637731618130914e-05
-1.3151187624612881e-05   4.334372328518212e-06   -3.6637731618130914e-05
-1.4118622893560436e-05   2.846479879056122e-06   -3.413260403354164e-05
-1.4118622893560436e-05   2.846479879056122e-06   -3.413260403354164e-05
-1.4118622893560436e-05   2.846479879056122e-06   -3.413260403354164e-05
-1.4118622893560436e-05   2.846479879056122e-06   -3.413260403354164e-05
-1.3151187624612846e-05   2.7110180474173694e-06   -3.4138515059351036e-05
-1.3151187624612846e-05   2.7110180474173694e-06   -3.4138515059351036e-05
-1.3151187624612846e-05   2.7110180474173694e-06   -3.4138515059351036e-05
-1.3151187624612846e-05   2.7110180474173694e-06   -3.4138515059351036e-05
-1.4650717559880821e-05   4.334372328517995e-06   -3.566371904947059e-05
-1.4650717559880821e-05   4.334372328517995e-06   -3.566371904947059e-05
-1.4650717559880821e-05   4.334372328517995e-06   -3.566371904947059e-05
-1.4650717559880821e-05   4.334372328517995e-06   -3.566371904947059e-05
-1.4128330651241776e-05   4.045136030940899e-06   -3.408435036825804e-05
-1.4128330651241776e-05   4.045136030940899e-06   -3.408435036825804e-05
-1.4128330651241776e-05   4.045136030940899e-06   -3.408435036825804e-05
-1.4128330651241776e-05   4.045136030940899e-06   -3.408435036825804e-05
-1.2729305893778697e-05   5.545648194797996e-06   -3.731636559567724e-05
-1.2729305893778697e-05   5.545648194797996e-06   -3.731636559567724e-05
-1.2729305893778697e-05   5.545648194797996e-06   -3.731636559567724e-05
-1.2729305893778697e-05   5.545648194797996e-06   -3.731636559567724e-05
-1.3774111594055252e-05   3.796415548778685e-06   -3.452548317427114e-05
-1.3774111594055252e-05   3.796415548778685e-06   -3.452548317427114e-05
-1.3774111594055252e-05   3.796415548778685e-06   -3.452548317427114e-05
-1.3774111594055252e-05   3.796415548778685e-06   -3.452548317427114e-05
-1.5830240860859973e-05   3.86938241101354e-07   -1.8408374072510737e-05
-1.5830240860859973e-05   3.86938241101354e-07   -1.8408374072510737e-05
-1.5830240860859973e-05   3.86938241101354e-07   -1.8408374072510737e-05
-1.5830240860859973e-05   3.86938241101354e-07   -1.8408374072510737e-05
-1.9170844989434076e-05   3.4985650978324595e-06   -2.210907150609529e-05
-1.9170844989434076e-05   3.4985650978324595e-06   -2.210907150609529e-05
-1.9170844989434076e-05   3.4985650978324595e-06   -2.210907150609529e-05
-1.9170844989434076e-05   3.4985650978324595e-06   -2.210907150609529e-05
-1.7343589026659384e-05   1.3764767401616522e-06   -1.5177317493125981e-05
-1.7343589026659384e-05   1.3764767401616522e-06   -1.5177317493125981e-05
-1.7343589026659384e-05   1.3764767401616522e-06   -1.5177317493125981e-05
-1.7343589026659384e-05   1.3764767401616522e-06   -1.5177317493125981e-05
-1.5315654752134277e-05   4.560667762519999e-06   -2.046772256408271e-05
-1.5315654752134277e-05   4.560667762519999e-06   -2.046772256408271e-05
-1.5315654752134277e-05   4.560667762519999e-06   -2.046772256408271e-05
-1.5315654752134277e-05   4.560667762519999e-06   -2.046772256408271e-05
-1.6230500424068827e-05   2.5842143076433826e-06   -1.775710770459966e-05
-1.6230500424068827e-05   2.5842143076433826e-06   -1.775710770459966e-05
-1.6230500424068827e-05   2.5842143076433826e-06   -1.775710770459966e-05
-1.6230500424068827e-05   2.5842143076433826e-06   -1.775710770459966e-05
-1.5315654752134236e-05   1.3764767401616522e-06   -1.708783210654073e-05
-1.5315654752134236e-05   1.3764767401616522e-06   -1.708783210654073e-05
-1.5315654752134236e-05   1.3764767401616522e-06   -1.708783210654073e-05
-1.5315654752134236e-05   1.3764767401616522e-06   -1.708783210654073e-05
-1.7343589026659357e-05   4.560667762519999e-06   -1.8557207950667745e-05
-1.7343589026659357e-05   4.560667762519999e-06   -1.8557207950667745e-05
-1.7343589026659357e-05   4.560667762519999e-06   -1.8557207950667745e-05
-1.7343589026659357e-05   4.560667762519999e-06   -1.8557207950667745e-05
-1.5857371887556754e-05   1.933012049718831e-06   -1.4928694910685191e-05
-1.5857371887556754e-05   1.933012049718831e-06   -1.4928694910685191e-05
-1.5857371887556754e-05   1.933012049718831e-06   -1.4928694910685191e-05
-1.5857371887556754e-05   1.933012049718831e-06   -1.4928694910685191e-05
-1.465071755988078e-05   5.046976209522594e-06   -1.880816395269399e-05
-1.465071755988078e-05   5.046976209522594e-06   -1.880816395269399e-05
-1.465071755988078e-05   5.046976209522594e-06   -1.880816395269399e-05
-1.465071755988078e-05   5.046976209522594e-06   -1.880816395269399e-05
-1.5450392272949335e-05   3.07591137232977e-06   -1.6292733861930696e-05
-1.5450392272949335e-05   3.07591137232977e-06   -1.6292733861930696e-05
-1.5450392272949335e-05   3.07591137232977e-06   -1.6292733861930696e-05
-1.5450392272949335e-05   3.07591137232977e-06   -1.6292733861930696e-05
-1.4650717559880767e-05   1.933012049718831e-06   -1.6797073406567536e-05
-1.4650717559880767e-05   1.933012049718831e-06   -1.6797073406567536e-05
-1.4650717559880767e-05   1.933012049718831e-06   -1.6797073406567536e-05
-1.4650717559880767e-05   1.933012049718831e-06   -1.6797073406567536e-05
-1.5857371887556754e-05   5.0469762095228105e-06   -1.6939785456811674e-05
-1.5857371887556754e-05   5.0469762095228105e-06   -1.6939785456811674e-05
-1.5857371887556754e-05   5.0469762095228105e-06   -1.6939785456811674e-05
-1.5857371887556754e-05   5.0469762095228105e-06   -1.6939785456811674e-05
-1.4039715163471526e-05   2.9200541037549023e-06   -1.5400236946584364e-05
-1.4039715163471526e-05   2.9200541037549023e-06   -1.5400236946584364e-05
-1.4039715163471526e-05   2.9200541037549023e-06   -1.5400236946584364e-05
-1.4039715163471526e-05   2.9200541037549023e-06   -1.5400236946584364e-05
-1.412833065124175e-05   5.800595294795478e-06   -1.6980869181591437e-05
-1.412833065124175e-05   5.800595294795478e-06   -1.6980869181591437e-05
-1.412833065124175e-05   5.800595294795478e-06   -1.6980869181591437e-05
-1.412833065124175e-05   5.800595294795478e-06   -1.6980869181591437e-05
-1.4303060930926281e-05   3.4734650413066094e-06   -1.5293373896690726e-05
-1.4303060930926281e-05   3.4734650413066094e-06   -1.5293373896690726e-05
-1.4303060930926281e-05   3.4734650413066094e-06   -1.5293373896690726e-05
-1.4303060930926281e-05   3.4734650413066094e-06   -1.5293373896690726e-05
9.334845137099574e-06   -9.235425299564028e-07   -9.577850979270862e-06
9.334845137099574e-06   -9.235425299564028e-07   -9.577850979270862e-06
9.334845137099574e-06   -9.235425299564028e-07   -9.577850979270862e-06
9.334845137099574e-06   -9.235425299564028e-07   -9.577850979270862e-06
9.572427685980824e-07   -3.885918613760276e-06   -2.531794724372244e-05
9.572427685980824e-07   -3.885918613760276e-06   -2.531794724372244e-05
9.572427685980824e-07   -3.885918613760276e-06   -2.531794724372244e-05
9.572427685980824e-07   -3.885918613760276e-06   -2.531794724372244e-05
1.6914920459392931e-06   -2.8163948305459652e-08   -1.058086000945693e-05
1.6914920459392931e-06   -2.8163948305459652e-08   -1.058086000945693e-05
1.6914920459392931e-06   -2.8163948305459652e-08   -1.058086000945693e-05
1.6914920459392931e-06   -2.8163948305459652e-08   -1.058086000945693e-05
1.1385474375432423e-05   -3.1933150166235397e-06   -2.4838406584287947e-05
1.1385474375432423e-05   -3.1933150166235397e-06   -2.4838406584287947e-05
1.1385474375432423e-05   -3.1933150166235397e-06   -2.4838406584287947e-05
1.1385474375432423e-05   -3.1933150166235397e-06   -2.4838406584287947e-05
5.624611156537283e-06   -1.6212567782243788e-06   -1.6180202829168958e-05
5.624611156537283e-06   -1.6212567782243788e-06   -1.6180202829168958e-05
5.624611156537283e-06   -1.6212567782243788e-06   -1.6180202829168958e-05
5.624611156537283e-06   -1.6212567782243788e-06   -1.6180202829168958e-05
1.1385474375432423e-05   -2.8163948305459652e-08   -8.681769368466146e-06
1.1385474375432423e-05   -2.8163948305459652e-08   -8.681769368466146e-06
1.1385474375432423e-05   -2.8163948305459652e-08   -8.681769368466146e-06
1.1385474375432423e-05   -2.8163948305459652e-08   -8.681769368466146e-06
1.6914920459392931e-06   -3.1933150166237566e-06   -2.6737497225279164e-05
1.6914920459392931e-06   -3.1933150166237566e-06   -2.6737497225279164e-05
1.6914920459392931e-06   -3.1933150166237566e-06   -2.6737497225279164e-05
1.6914920459392931e-06   -3.1933150166237566e-06   -2.6737497225279164e-05
2.5570215312299607e-06   4.783077856666818e-07   -1.0661725520671236e-05
2.5570215312299607e-06   4.783077856666818e-07   -1.0661725520671236e-05
2.5570215312299607e-06   4.783077856666818e-07   -1.0661725520671236e-05
2.5570215312299607e-06   4.783077856666818e-07   -1.0661725520671236e-05
1.3118881401459257e-05   -2.7316147503614677e-06   -2.6338871782769988e-05
1.3118881401459257e-05   -2.7316147503614677e-06   -2.6338871782769988e-05
1.3118881401459257e-05   -2.7316147503614677e-06   -2.6338871782769988e-05
1.3118881401459257e-05   -2.7316147503614677e-06   -2.6338871782769988e-05
6.925441501175319e-06   -1.2976513966138793e-06   -1.6876849961212773e-05
6.925441501175319e-06   -1.2976513966138793e-06   -1.6876849961212773e-05
6.925441501175319e-06   -1.2976513966138793e-06   -1.6876849961212773e-05
6.925441501175319e-06   -1.2976513966138793e-06   -1.6876849961212773e-05
1.3118881401459311e-05   4.783077856666818e-07   -8.735771999054476e-06
1.3118881401459311e-05   4.783077856666818e-07   -8.735771999054476e-06
1.3118881401459311e-05   4.783077856666818e-07   -8.735771999054476e-06
1.3118881401459311e-05   4.783077856666818e-07   -8.735771999054476e-06
2.5570215312299336e-06   -2.7316147503616845e-06   -2.8264825304386964e-05
2.5570215312299336e-06   -2.7316147503616845e-06   -2.8264825304386964e-05
2.5570215312299336e-06   -2.7316147503616845e-06   -2.8264825304386964e-05
2.5570215312299336e-06   -2.7316147503616845e-06   -2.8264825304386964e-05
3.269591310316682e-06   1.4884435130995202e-06   -1.1681983077823938e-05
3.269591310316682e-06   1.4884435130995202e-06   -1.1681983077823938e-05
3.269591310316682e-06   1.4884435130995202e-06   -1.1681983077823938e-05
3.269591310316682e-06   1.4884435130995202e-06   -1.1681983077823938e-05
1.5201130966772968e-05   -1.56820013860119e-06   -2.973389631423073e-05
1.5201130966772968e-05   -1.56820013860119e-06   -2.973389631423073e-05
1.5201130966772968e-05   -1.56820013860119e-06   -2.973389631423073e-05
1.5201130966772968e-05   -1.56820013860119e-06   -2.973389631423073e-05
7.960482292917664e-06   -8.224834080082163e-07   -1.8113578562828554e-05
7.960482292917664e-06   -8.224834080082163e-07   -1.8113578562828554e-05
7.960482292917664e-06   -8.224834080082163e-07   -1.8113578562828554e-05
7.960482292917664e-06   -8.224834080082163e-07   -1.8113578562828554e-05
9.572427685980824e-07   -2.001669779296434e-07   -2.7552115272722272e-05
9.572427685980824e-07   -2.001669779296434e-07   -2.7552115272722272e-05
9.572427685980824e-07   -2.001669779296434e-07   -2.7552115272722272e-05
9.572427685980824e-07   -2.001669779296434e-07   -2.7552115272722272e-05
-8.820292969327631e-06   -1.537264786485729e-06   -4.4650266854398416e-05
-8.820292969327631e-06   -1.537264786485729e-06   -4.4650266854398416e-05
-8.820292969327631e-06   -1.537264786485729e-06   -4.4650266854398416e-05
-8.820292969327631e-06   -1.537264786485729e-06   -4.4650266854398416e-05
-8.17618082648219e-06   9.295527502197181e-07   -2.770805225225763e-05
-8.17618082648219e-06   9.295527502197181e-07   -2.770805225225763e-05
-8.17618082648219e-06   9.295527502197181e-07   -2.770805225225763e-05
-8.17618082648219e-06   9.295527502197181e-07   -2.770805225225763e-05
1.6914920459392931e-06   -5.877386000455176e-07   -4.324379889613435e-05
1.6914920459392931e-06   -5.877386000455176e-07   -4.324379889613435e-05
1.6914920459392931e-06   -5.877386000455176e-07   -4.324379889613435e-05
1.6914920459392931e-06   -5.877386000455176e-07   -4.324379889613435e-05
-3.5040201007659942e-06   -5.8168286179525325e-08   -3.490235417327866e-05
-3.5040201007659942e-06   -5.8168286179525325e-08   -3.490235417327866e-05
-3.5040201007659942e-06   -5.8168286179525325e-08   -3.490235417327866e-05
-3.5040201007659942e-06   -5.8168286179525325e-08   -3.490235417327866e-05
1.6914920459392931e-06   9.295527502195013e-07   -2.6797677442098357e-05
1.6914920459392931e-06   9.295527502195013e-07   -2.6797677442098357e-05
1.6914920459392931e-06   9.295527502195013e-07   -2.6797677442098357e-05
1.6914920459392931e-06   9.295527502195013e-07   -2.6797677442098357e-05
-8.17618082648219e-06   -5.877386000455176e-07   -4.415417370629362e-05
-8.17618082648219e-06   -5.877386000455176e-07   -4.415417370629362e-05
-8.17618082648219e-06   -5.877386000455176e-07   -4.415417370629362e-05
-8.17618082648219e-06   -5.877386000455176e-07   -4.415417370629362e-05
-7.52839696577484e-06   2.0171994191060024e-06   -2.774984133691364e-05
-7.52839696577484e-06   2.0171994191060024e-06   -2.774984133691364e-05
-7.52839696577484e-06   2.0171994191060024e-06   -2.774984133691364e-05
-7.52839696577484e-06   2.0171994191060024e-06   -2.774984133691364e-05
2.5570215312299607e-06   3.940762629234089e-07   -4.3584998271545446e-05
2.5570215312299607e-06   3.940762629234089e-07   -4.3584998271545446e-05
2.5570215312299607e-06   3.940762629234089e-07   -4.3584998271545446e-05
2.5570215312299607e-06   3.940762629234089e-07   -4.3584998271545446e-05
-2.933486259040934e-06   7.216667254361132e-07   -3.463070623193509e-05
-2.933486259040934e-06   7.216667254361132e-07   -3.463070623193509e-05
-2.933486259040934e-06   7.216667254361132e-07   -3.463070623193509e-05
-2.933486259040934e-06   7.216667254361132e-07   -3.463070623193509e-05
2.5570215312299607e-06   2.0171994191060024e-06   -2.6775967443204147e-05
2.5570215312299607e-06   2.0171994191060024e-06   -2.6775967443204147e-05
2.5570215312299607e-06   2.0171994191060024e-06   -2.6775967443204147e-05
2.5570215312299607e-06   2.0171994191060024e-06   -2.6775967443204147e-05
-7.52839696577484e-06   3.940762629234089e-07   -4.4558872165255154e-05
-7.52839696577484e-06   3.940762629234089e-07   -4.4558872165255154e-05
-7.52839696577484e-06   3.940762629234089e-07   -4.4558872165255154e-05
-7.52839696577484e-06   3.940762629234089e-07   -4.4558872165255154e-05
-6.909439453408651e-06   3.259152730694659e-06   -2.844513848520593e-05
-6.909439453408651e-06   3.259152730694659e-06   -2.844513848520593e-05
-6.909439453408651e-06   3.259152730694659e-06   -2.844513848520593e-05
-6.909439453408651e-06   3.259152730694659e-06   -2.844513848520593e-05
3.269591310316655e-06   1.5567697046899552e-06   -4.438875994247887e-05
3.269591310316655e-06   1.5567697046899552e-06   -4.438875994247887e-05
3.269591310316655e-06   1.5567697046899552e-06   -4.438875994247887e-05
3.269591310316655e-06   1.5567697046899552e-06   -4.438875994247887e-05
-2.2982081248335945e-06   1.5860867725208446e-06   -3.512668445792742e-05
-2.2982081248335945e-06   1.5860867725208446e-06   -3.512668445792742e-05
-2.2982081248335945e-06   1.5860867725208446e-06   -3.512668445792742e-05
-2.2982081248335945e-06   1.5860867725208446e-06   -3.512668445792742e-05
-8.820292969327658e-06   9.367109804604788e-07   -3.3351220065276155e-05
-8.820292969327658e-06   9.367109804604788e-07   -3.3351220065276155e-05
-8.820292969327658e-06   9.367109804604788e-07   -3.3351220065276155e-05
-8.820292969327658e-06   9.367109804604788e-07   -3.3351220065276155e-05
-1.8513012086353423e-05   1.1808060545240567e-06   -4.935929488254765e-05
-1.8513012086353423e-05   1.1808060545240567e-06   -4.935929488254765e-05
-1.8513012086353423e-05   1.1808060545240567e-06   -4.935929488254765e-05
-1.8513012086353423e-05   1.1808060545240567e-06   -4.935929488254765e-05
-1.7864314182360355e-05   2.104342218200994e-06   -3.2754035389347125e-05
-1.7864314182360355e-05   2.104342218200994e-06   -3.2754035389347125e-05
-1.7864314182360355e-05   2.104342218200994e-06   -3.2754035389347125e-05
-1.7864314182360355e-05   2.104342218200994e-06   -3.2754035389347125e-05
-8.176180826482217e-06   2.185392635612642e-06   -4.894955456625778e-05
-8.176180826482217e-06   2.185392635612642e-06   -4.894955456625778e-05
-8.176180826482217e-06   2.185392635612642e-06   -4.894955456625778e-05
-8.176180826482217e-06   2.185392635612642e-06   -4.894955456625778e-05
-1.326618483170275e-05   1.8067395399904741e-06   -4.02390227001836e-05
-1.326618483170275e-05   1.8067395399904741e-06   -4.02390227001836e-05
-1.326618483170275e-05   1.8067395399904741e-06   -4.02390227001836e-05
-1.326618483170275e-05   1.8067395399904741e-06   -4.02390227001836e-05
-8.176180826482217e-06   2.104342218201211e-06   -3.280266563979422e-05
-8.176180826482217e-06   2.104342218201211e-06   -3.280266563979422e-05
-8.176180826482217e-06   2.104342218201211e-06   -3.280266563979422e-05
-8.176180826482217e-06   2.104342218201211e-06   -3.280266563979422e-05
-1.7864314182360355e-05   2.185392635612642e-06   -4.89009243158109e-05
-1.7864314182360355e-05   2.185392635612642e-06   -4.89009243158109e-05
-1.7864314182360355e-05   2.185392635612642e-06   -4.89009243158109e-05
-1.7864314182360355e-05   2.185392635612642e-06   -4.89009243158109e-05
-1.7205205468910006e-05   3.2976460480698376e-06   -3.283900909513914e-05
-1.7205205468910006e-05   3.2976460480698376e-06   -3.283900909513914e-05
-1.7205205468910006e-05   3.2976460480698376e-06   -3.283900909513914e-05
-1.7205205468910006e-05   3.2976460480698376e-06   -3.283900909513914e-05
-7.528396965774867e-06   3.2489871432503543e-06   -4.8937827924139276e-05
-7.528396965774867e-06   3.2489871432503543e-06   -4.8937827924139276e-05
-7.528396965774867e-06   3.2489871432503543e-06   -4.8937827924139276e-05
-7.528396965774867e-06   3.2489871432503543e-06   -4.8937827924139276e-05
-1.2695334655158514e-05   2.6836009966316535e-06   -3.998703342052932e-05
-1.2695334655158514e-05   2.6836009966316535e-06   -3.998703342052932e-05
-1.2695334655158514e-05   2.6836009966316535e-06   -3.998703342052932e-05
-1.2695334655158514e-05   2.6836009966316535e-06   -3.998703342052932e-05
-7.528396965774867e-06   3.2976460480698376e-06   -3.280981375224741e-05
-7.528396965774867e-06   3.2976460480698376e-06   -3.280981375224741e-05
-7.528396965774867e-06   3.2976460480698376e-06   -3.280981375224741e-05
-7.528396965774867e-06   3.2976460480698376e-06   -3.280981375224741e-05
-1.7205205468909975e-05   3.2489871432503543e-06   -4.896702326703112e-05
-1.7205205468909975e-05   3.2489871432503543e-06   -4.896702326703112e-05
-1.7205205468909975e-05   3.2489871432503543e-06   -4.896702326703112e-05
-1.7205205468909975e-05   3.2489871432503543e-06   -4.896702326703112e-05
-1.6576703779033137e-05   4.507462514918891e-06   -3.357674660027445e-05
-1.6576703779033137e-05   4.507462514918891e-06   -3.357674660027445e-05
-1.6576703779033137e-05   4.507462514918891e-06   -3.357674660027445e-05
-1.6576703779033137e-05   4.507462514918891e-06   -3.357674660027445e-05
-6.909439453408651e-06   4.3309637875166805e-06   -4.9582954573207264e-05
-6.909439453408651e-06   4.3309637875166805e-06   -4.9582954573207264e-05
-6.909439453408651e-06   4.3309637875166805e-06   -4.9582954573207264e-05
-6.909439453408651e-06   4.3309637875166805e-06   -4.9582954573207264e-05
-1.2164270475136228e-05   3.57377719350507e-06   -4.03705909139216e-05
-1.2164270475136228e-05   3.57377719350507e-06   -4.03705909139216e-05
-1.2164270475136228e-05   3.57377719350507e-06   -4.03705909139216e-05
-1.2164270475136228e-05   3.57377719350507e-06   -4.03705909139216e-05
-1.8513012086353447e-05   2.0820134130959764e-06   -2.8038580151091316e-05
-1.8513012086353447e-05   2.0820134130959764e-06   -2.8038580151091316e-05
-1.8513012086353447e-05   2.0820134130959764e-06   -2.8038580151091316e-05
-1.8513012086353447e-05   2.0820134130959764e-06   -2.8038580151091316e-05
-2.809010184236814e-05   3.818858088820536e-06   -4.295828960568129e-05
-2.809010184236814e-05   3.818858088820536e-06   -4.295828960568129e-05
-2.809010184236814e-05   3.818858088820536e-06   -4.295828960568129e-05
-2.809010184236814e-05   3.818858088820536e-06   -4.295828960568129e-05
-2.734891986638854e-05   3.2535719157193634e-06   -2.6406155364570687e-05
-2.734891986638854e-05   3.2535719157193634e-06   -2.6406155364570687e-05
-2.734891986638854e-05   3.2535719157193634e-06   -2.6406155364570687e-05
-2.734891986638854e-05   3.2535719157193634e-06   -2.6406155364570687e-05
-1.7864314182360355e-05   4.891154212155122e-06   -4.319638088247913e-05
-1.7864314182360355e-05   4.891154212155122e-06   -4.319638088247913e-05
-1.7864314182360355e-05   4.891154212155122e-06   -4.319638088247913e-05
-1.7864314182360355e-05   4.891154212155122e-06   -4.319638088247913e-05
-2.279510289907919e-05   3.650749216253281e-06   -3.423415669040659e-05
-2.279510289907919e-05   3.650749216253281e-06   -3.423415669040659e-05
-2.279510289907919e-05   3.650749216253281e-06   -3.423415669040659e-05
-2.279510289907919e-05   3.650749216253281e-06   -3.423415669040659e-05
-1.7864314182360382e-05   3.2535719157193634e-06   -2.7388704742432098e-05
-1.7864314182360382e-05   3.2535719157193634e-06   -2.7388704742432098e-05
-1.7864314182360382e-05   3.2535719157193634e-06   -2.7388704742432098e-05
-1.7864314182360382e-05   3.2535719157193634e-06   -2.7388704742432098e-05
-2.7348919866388575e-05   4.8911542121553384e-06   -4.221383150461769e-05
-2.7348919866388575e-05   4.8911542121553384e-06   -4.221383150461769e-05
-2.7348919866388575e-05   4.8911542121553384e-06   -4.221383150461769e-05
-2.7348919866388575e-05   4.8911542121553384e-06   -4.221383150461769e-05
-2.6461552202752995e-05   4.334372328517995e-06   -2.616194076597838e-05
-2.6461552202752995e-05   4.334372328517995e-06   -2.616194076597838e-05
-2.6461552202752995e-05   4.334372328517995e-06   -2.616194076597838e-05
-2.6461552202752995e-05   4.334372328517995e-06   -2.616194076597838e-05
-1.7205205468910006e-05   5.857047341841339e-06   -4.250279033037727e-05
-1.7205205468910006e-05   5.857047341841339e-06   -4.250279033037727e-05
-1.7205205468910006e-05   5.857047341841339e-06   -4.250279033037727e-05
-1.7205205468910006e-05   5.857047341841339e-06   -4.250279033037727e-05
-2.2048134897743546e-05   4.4973912835706564e-06   -3.361544764735958e-05
-2.2048134897743546e-05   4.4973912835706564e-06   -3.361544764735958e-05
-2.2048134897743546e-05   4.4973912835706564e-06   -3.361544764735958e-05
-2.2048134897743546e-05   4.4973912835706564e-06   -3.361544764735958e-05
-1.7205205468909992e-05   4.334372328517995e-06   -2.7075545773972234e-05
-1.7205205468909992e-05   4.334372328517995e-06   -2.7075545773972234e-05
-1.7205205468909992e-05   4.334372328517995e-06   -2.7075545773972234e-05
-1.7205205468909992e-05   4.334372328517995e-06   -2.7075545773972234e-05
-2.6461552202752995e-05   5.857047341841122e-06   -4.15891853223836e-05
-2.6461552202752995e-05   5.857047341841122e-06   -4.15891853223836e-05
-2.6461552202752995e-05   5.857047341841122e-06   -4.15891853223836e-05
-2.6461552202752995e-05   5.857047341841122e-06   -4.15891853223836e-05
-2.5722248653291325e-05   5.545648194797996e-06   -2.6885943561569736e-05
-2.5722248653291325e-05   5.545648194797996e-06   -2.6885943561569736e-05
-2.5722248653291325e-05   5.545648194797996e-06   -2.6885943561569736e-05
-2.5722248653291325e-05   5.545648194797996e-06   -2.6885943561569736e-05
-1.6576703779033137e-05   6.937768637878868e-06   -4.2963790617848806e-05
-1.6576703779033137e-05   6.937768637878868e-06   -4.2963790617848806e-05
-1.6576703779033137e-05   6.937768637878868e-06   -4.2963790617848806e-05
-1.6576703779033137e-05   6.937768637878868e-06   -4.2963790617848806e-05
-2.1547826928326174e-05   5.331622847618879e-06   -3.37148978948712e-05
-2.1547826928326174e-05   5.331622847618879e-06   -3.37148978948712e-05
-2.1547826928326174e-05   5.331622847618879e-06   -3.37148978948712e-05
-2.1547826928326174e-05   5.331622847618879e-06   -3.37148978948712e-05
-2.809010184236814e-05   3.4985650978324595e-06   -1.4503748565317717e-05
-2.809010184236814e-05   3.4985650978324595e-06   -1.4503748565317717e-05
-2.809010184236814e-05   3.4985650978324595e-06   -1.4503748565317717e-05
-2.809010184236814e-05   3.4985650978324595e-06   -1.4503748565317717e-05
-3.9004790755550864e-05   6.565499300351324e-06   -3.085473623244423e-05
-3.9004790755550864e-05   6.565499300351324e-06   -3.085473623244423e-05
-3.9004790755550864e-05   6.565499300351324e-06   -3.085473623244423e-05
-3.9004790755550864e-05   6.565499300351324e-06   -3.085473623244423e-05
-3.6968247117466426e-05   4.560667762519999e-06   -9.119630545586697e-06
-3.6968247117466426e-05   4.560667762519999e-06   -9.119630545586697e-06
-3.6968247117466426e-05   4.560667762519999e-06   -9.119630545586697e-06
-3.6968247117466426e-05   4.560667762519999e-06   -9.119630545586697e-06
-2.734891986638854e-05   7.678743552352613e-06   -2.7022688104615984e-05
-2.734891986638854e-05   7.678743552352613e-06   -2.7022688104615984e-05
-2.734891986638854e-05   7.678743552352613e-06   -2.7022688104615984e-05
-2.734891986638854e-05   7.678743552352613e-06   -2.7022688104615984e-05
-3.151642503320191e-05   5.703188539075976e-06   -1.8891513151961183e-05
-3.151642503320191e-05   5.703188539075976e-06   -1.8891513151961183e-05
-3.151642503320191e-05   5.703188539075976e-06   -1.8891513151961183e-05
-3.151642503320191e-05   5.703188539075976e-06   -1.8891513151961183e-05
-2.7348919866388562e-05   4.560667762519999e-06   -1.0990476019486091e-05
-2.7348919866388562e-05   4.560667762519999e-06   -1.0990476019486091e-05
-2.7348919866388562e-05   4.560667762519999e-06   -1.0990476019486091e-05
-2.7348919866388562e-05   4.560667762519999e-06   -1.0990476019486091e-05
-3.696824711746626e-05   7.678743552352613e-06   -2.515184263071667e-05
-3.696824711746626e-05   7.678743552352613e-06   -2.515184263071667e-05
-3.696824711746626e-05   7.678743552352613e-06   -2.515184263071667e-05
-3.696824711746626e-05   7.678743552352613e-06   -2.515184263071667e-05
-3.528502401112588e-05   5.046976209522594e-06   -7.487997727578539e-06
-3.528502401112588e-05   5.046976209522594e-06   -7.487997727578539e-06
-3.528502401112588e-05   5.046976209522594e-06   -7.487997727578539e-06
-3.528502401112588e-05   5.046976209522594e-06   -7.487997727578539e-06
-2.646155220275296e-05   8.077622778894858e-06   -2.401217201648988e-05
-2.646155220275296e-05   8.077622778894858e-06   -2.401217201648988e-05
-2.646155220275296e-05   8.077622778894858e-06   -2.401217201648988e-05
-2.646155220275296e-05   8.077622778894858e-06   -2.401217201648988e-05
-3.077021091843646e-05   6.203773283941418e-06   -1.5706764460045384e-05
-3.077021091843646e-05   6.203773283941418e-06   -1.5706764460045384e-05
-3.077021091843646e-05   6.203773283941418e-06   -1.5706764460045384e-05
-3.077021091843646e-05   6.203773283941418e-06   -1.5706764460045384e-05
-2.6461552202752995e-05   5.0469762095228105e-06   -9.30638566920181e-06
-2.6461552202752995e-05   5.0469762095228105e-06   -9.30638566920181e-06
-2.6461552202752995e-05   5.0469762095228105e-06   -9.30638566920181e-06
-2.6461552202752995e-05   5.0469762095228105e-06   -9.30638566920181e-06
-3.528502401112582e-05   8.077622778894858e-06   -2.2193784074866878e-05
-3.528502401112582e-05   8.077622778894858e-06   -2.2193784074866878e-05
-3.528502401112582e-05   8.077622778894858e-06   -2.2193784074866878e-05
-3.528502401112582e-05   8.077622778894858e-06   -2.2193784074866878e-05
-3.32945153474062e-05   5.800595294795478e-06   -5.780975566913862e-06
-3.32945153474062e-05   5.800595294795478e-06   -5.780975566913862e-06
-3.32945153474062e-05   5.800595294795478e-06   -5.780975566913862e-06
-3.32945153474062e-05   5.800595294795478e-06   -5.780975566913862e-06
-2.5722248653291325e-05   8.583560092936164e-06   -2.0071198935989757e-05
-2.5722248653291325e-05   8.583560092936164e-06   -2.0071198935989757e-05
-2.5722248653291325e-05   8.583560092936164e-06   -2.0071198935989757e-05
-2.5722248653291325e-05   8.583560092936164e-06   -2.0071198935989757e-05
-2.918824343660657e-05   6.445543230528808e-06   -1.3011730846353544e-05
-2.918824343660657e-05   6.445543230528808e-06   -1.3011730846353544e-05
-2.918824343660657e-05   6.445543230528808e-06   -1.3011730846353544e-05
-2.918824343660657e-05   6.445543230528808e-06   -1.3011730846353544e-05
2.9622150051184675e-05   -3.885918613760276e-06   -2.3000791815066222e-07
2.9622150051184675e-05   -3.885918613760276e-06   -2.3000791815066222e-07
2.9622150051184675e-05   -3.885918613760276e-06   -2.3000791815066222e-07
2.9622150051184675e-05   -3.885918613760276e-06   -2.3000791815066222e-07
1.2625553511135982e-05   -7.0105420199445545e-06   -3.0432442861942372e-05
1.2625553511135982e-05   -7.0105420199445545e-06   -3.0432442861942372e-05
1.2625553511135982e-05   -7.0105420199445545e-06   -3.0432442861942372e-05
1.2625553511135982e-05   -7.0105420199445545e-06   -3.0432442861942372e-05
1.3521144656122945e-05   -3.1933150166237566e-06   -3.3490711119027548e-06
1.3521144656122945e-05   -3.1933150166237566e-06   -3.3490711119027548e-06
1.3521144656122945e-05   -3.1933150166237566e-06   -3.3490711119027548e-06
1.3521144656122945e-05   -3.1933150166237566e-06   -3.3490711119027548e-06
3.1864525901998373e-05   -6.519734932959945e-06   -3.192552123855972e-05
3.1864525901998373e-05   -6.519734932959945e-06   -3.192552123855972e-05
3.1864525901998373e-05   -6.519734932959945e-06   -3.192552123855972e-05
3.1864525901998373e-05   -6.519734932959945e-06   -3.192552123855972e-05
2.10248999381758e-05   -4.62009332254619e-06   -1.499926293177051e-05
2.10248999381758e-05   -4.62009332254619e-06   -1.499926293177051e-05
2.10248999381758e-05   -4.62009332254619e-06   -1.499926293177051e-05
2.10248999381758e-05   -4.62009332254619e-06   -1.499926293177051e-05
3.186452590199843e-05   -3.1933150166237566e-06   -1.3532191621009552e-06
3.186452590199843e-05   -3.1933150166237566e-06   -1.3532191621009552e-06
3.186452590199843e-05   -3.1933150166237566e-06   -1.3532191621009552e-06
3.186452590199843e-05   -3.1933150166237566e-06   -1.3532191621009552e-06
1.3521144656122917e-05   -6.519734932959945e-06   -3.392137318836174e-05
1.3521144656122917e-05   -6.519734932959945e-06   -3.392137318836174e-05
1.3521144656122917e-05   -6.519734932959945e-06   -3.392137318836174e-05
1.3521144656122917e-05   -6.519734932959945e-06   -3.392137318836174e-05
1.4513213728755033e-05   -2.7316147503614677e-06   -4.716315888338369e-06
1.4513213728755033e-05   -2.7316147503614677e-06   -4.716315888338369e-06
1.4513213728755033e-05   -2.7316147503614677e-06   -4.716315888338369e-06
1.4513213728755033e-05   -2.7316147503614677e-06   -4.716315888338369e-06
3.3748464952507216e-05   -6.098088041418294e-06   -3.4755183953291214e-05
3.3748464952507216e-05   -6.098088041418294e-06   -3.4755183953291214e-05
3.3748464952507216e-05   -6.098088041418294e-06   -3.4755183953291214e-05
3.3748464952507216e-05   -6.098088041418294e-06   -3.4755183953291214e-05
2.2709124592852747e-05   -4.432419870568395e-06   -1.7355684256377022e-05
2.2709124592852747e-05   -4.432419870568395e-06   -1.7355684256377022e-05
2.2709124592852747e-05   -4.432419870568395e-06   -1.7355684256377022e-05
2.2709124592852747e-05   -4.432419870568395e-06   -1.7355684256377022e-05
3.374846495250727e-05   -2.7316147503614677e-06   -2.696431913704403e-06
3.374846495250727e-05   -2.7316147503614677e-06   -2.696431913704403e-06
3.374846495250727e-05   -2.7316147503614677e-06   -2.696431913704403e-06
3.374846495250727e-05   -2.7316147503614677e-06   -2.696431913704403e-06
1.4513213728755033e-05   -6.098088041418294e-06   -3.6775067927925396e-05
1.4513213728755033e-05   -6.098088041418294e-06   -3.6775067927925396e-05
1.4513213728755033e-05   -6.098088041418294e-06   -3.6775067927925396e-05
1.4513213728755033e-05   -6.098088041418294e-06   -3.6775067927925396e-05
1.5333432919473487e-05   -1.56820013860119e-06   -7.87240795515026e-06
1.5333432919473487e-05   -1.56820013860119e-06   -7.87240795515026e-06
1.5333432919473487e-05   -1.56820013860119e-06   -7.87240795515026e-06
1.5333432919473487e-05   -1.56820013860119e-06   -7.87240795515026e-06
3.593589795675351e-05   -4.764490132023926e-06   -4.0292075687896854e-05
3.593589795675351e-05   -4.764490132023926e-06   -4.0292075687896854e-05
3.593589795675351e-05   -4.764490132023926e-06   -4.0292075687896854e-05
3.593589795675351e-05   -4.764490132023926e-06   -4.0292075687896854e-05
2.3622354979906593e-05   -3.911570934343744e-06   -2.028125557842743e-05
2.3622354979906593e-05   -3.911570934343744e-06   -2.028125557842743e-05
2.3622354979906593e-05   -3.911570934343744e-06   -2.028125557842743e-05
2.3622354979906593e-05   -3.911570934343744e-06   -2.028125557842743e-05
1.262555351113601e-05   -1.537264786485729e-06   -2.063484288740403e-05
1.262555351113601e-05   -1.537264786485729e-06   -2.063484288740403e-05
1.262555351113601e-05   -1.537264786485729e-06   -2.063484288740403e-05
1.262555351113601e-05   -1.537264786485729e-06   -2.063484288740403e-05
-5.367421385847593e-06   -3.2839135782358232e-06   -5.167112365742684e-05
-5.367421385847593e-06   -3.2839135782358232e-06   -5.167112365742684e-05
-5.367421385847593e-06   -3.2839135782358232e-06   -5.167112365742684e-05
-5.367421385847593e-06   -3.2839135782358232e-06   -5.167112365742684e-05
-4.534022889618824e-06   -5.877386000455176e-07   -2.1064191216144373e-05
-4.534022889618824e-06   -5.877386000455176e-07   -2.1064191216144373e-05
-4.534022889618824e-06   -5.877386000455176e-07   -2.1064191216144373e-05
-4.534022889618824e-06   -5.877386000455176e-07   -2.1064191216144373e-05
1.3521144656122917e-05   -2.602435989022215e-06   -4.994731869232779e-05
1.3521144656122917e-05   -2.602435989022215e-06   -4.994731869232779e-05
1.3521144656122917e-05   -2.602435989022215e-06   -4.994731869232779e-05
1.3521144656122917e-05   -2.602435989022215e-06   -4.994731869232779e-05
4.106145671686754e-06   -1.5880151920163316e-06   -3.486430619647113e-05
4.106145671686754e-06   -1.5880151920163316e-06   -3.486430619647113e-05
4.106145671686754e-06   -1.5880151920163316e-06   -3.486430619647113e-05
4.106145671686754e-06   -1.5880151920163316e-06   -3.486430619647113e-05
1.3521144656122945e-05   -5.877386000455176e-07   -1.985537278275805e-05
1.3521144656122945e-05   -5.877386000455176e-07   -1.985537278275805e-05
1.3521144656122945e-05   -5.877386000455176e-07   -1.985537278275805e-05
1.3521144656122945e-05   -5.877386000455176e-07   -1.985537278275805e-05
-4.534022889618824e-06   -2.602435989022215e-06   -5.11561371257139e-05
-4.534022889618824e-06   -2.602435989022215e-06   -5.11561371257139e-05
-4.534022889618824e-06   -2.602435989022215e-06   -5.11561371257139e-05
-4.534022889618824e-06   -2.602435989022215e-06   -5.11561371257139e-05
-3.7382949619311383e-06   3.940762629234089e-07   -2.133457546147884e-05
-3.7382949619311383e-06   3.940762629234089e-07   -2.133457546147884e-05
-3.7382949619311383e-06   3.940762629234089e-07   -2.133457546147884e-05
-3.7382949619311383e-06   3.940762629234089e-07   -2.133457546147884e-05
1.4513213728755033e-05   -1.7694014137134562e-06   -5.045567000664048e-05
1.4513213728755033e-05   -1.7694014137134562e-06   -5.045567000664048e-05
1.4513213728755033e-05   -1.7694014137134562e-06   -5.045567000664048e-05
1.4513213728755033e-05   -1.7694014137134562e-06   -5.045567000664048e-05
4.767518235681097e-06   -9.853150357867421e-07   -3.468329601160572e-05
4.767518235681097e-06   -9.853150357867421e-07   -3.468329601160572e-05
4.767518235681097e-06   -9.853150357867421e-07   -3.468329601160572e-05
4.767518235681097e-06   -9.853150357867421e-07   -3.468329601160572e-05
1.4513213728755033e-05   3.940762629234089e-07   -2.0036488855496633e-05
1.4513213728755033e-05   3.940762629234089e-07   -2.0036488855496633e-05
1.4513213728755033e-05   3.940762629234089e-07   -2.0036488855496633e-05
1.4513213728755033e-05   3.940762629234089e-07   -2.0036488855496633e-05
-3.7382949619311383e-06   -1.7694014137134562e-06   -5.1753756612622466e-05
-3.7382949619311383e-06   -1.7694014137134562e-06   -5.1753756612622466e-05
-3.7382949619311383e-06   -1.7694014137134562e-06   -5.1753756612622466e-05
-3.7382949619311383e-06   -1.7694014137134562e-06   -5.1753756612622466e-05
-2.990822069287314e-06   1.5567697046899552e-06   -2.2060128571127014e-05
-2.990822069287314e-06   1.5567697046899552e-06   -2.2060128571127014e-05
-2.990822069287314e-06   1.5567697046899552e-06   -2.2060128571127014e-05
-2.990822069287314e-06   1.5567697046899552e-06   -2.2060128571127014e-05
1.5333432919473487e-05   -7.213022598915632e-07   -5.123371037364584e-05
1.5333432919473487e-05   -7.213022598915632e-07   -5.123371037364584e-05
1.5333432919473487e-05   -7.213022598915632e-07   -5.123371037364584e-05
1.5333432919473487e-05   -7.213022598915632e-07   -5.123371037364584e-05
5.59239053262933e-06   -2.420398428184048e-07   -3.528619717915065e-05
5.59239053262933e-06   -2.420398428184048e-07   -3.528619717915065e-05
5.59239053262933e-06   -2.420398428184048e-07   -3.528619717915065e-05
5.59239053262933e-06   -2.420398428184048e-07   -3.528619717915065e-05
-5.367421385847593e-06   1.1808060545240567e-06   -2.65383172350414e-05
-5.367421385847593e-06   1.1808060545240567e-06   -2.65383172350414e-05
-5.367421385847593e-06   1.1808060545240567e-06   -2.65383172350414e-05
-5.367421385847593e-06   1.1808060545240567e-06   -2.65383172350414e-05
-2.3043477899383135e-05   5.960865089873167e-07   -5.6349243151589384e-05
-2.3043477899383135e-05   5.960865089873167e-07   -5.6349243151589384e-05
-2.3043477899383135e-05   5.960865089873167e-07   -5.6349243151589384e-05
-2.3043477899383135e-05   5.960865089873167e-07   -5.6349243151589384e-05
-2.21464342011126e-05   2.185392635612642e-06   -2.6353939478819186e-05
-2.21464342011126e-05   2.185392635612642e-06   -2.6353939478819186e-05
-2.21464342011126e-05   2.185392635612642e-06   -2.6353939478819186e-05
-2.21464342011126e-05   2.185392635612642e-06   -2.6353939478819186e-05
-4.534022889618824e-06   1.3614469644277795e-06   -5.5213590928598265e-05
-4.534022889618824e-06   1.3614469644277795e-06   -5.5213590928598265e-05
-4.534022889618824e-06   1.3614469644277795e-06   -5.5213590928598265e-05
-4.534022889618824e-06   1.3614469644277795e-06   -5.5213590928598265e-05
-1.3678516168765015e-05   1.6189374066003653e-06   -4.012726306199129e-05
-1.3678516168765015e-05   1.6189374066003653e-06   -4.012726306199129e-05
-1.3678516168765015e-05   1.6189374066003653e-06   -4.012726306199129e-05
-1.3678516168765015e-05   1.6189374066003653e-06   -4.012726306199129e-05
-4.534022889618824e-06   2.185392635612642e-06   -2.5859572076108745e-05
-4.534022889618824e-06   2.185392635612642e-06   -2.5859572076108745e-05
-4.534022889618824e-06   2.185392635612642e-06   -2.5859572076108745e-05
-4.534022889618824e-06   2.185392635612642e-06   -2.5859572076108745e-05
-2.21464342011126e-05   1.3614469644277795e-06   -5.570795833130895e-05
-2.21464342011126e-05   1.3614469644277795e-06   -5.570795833130895e-05
-2.21464342011126e-05   1.3614469644277795e-06   -5.570795833130895e-05
-2.21464342011126e-05   1.3614469644277795e-06   -5.570795833130895e-05
-2.1281238322482024e-05   3.2489871432503543e-06   -2.631423685353347e-05
-2.1281238322482024e-05   3.2489871432503543e-06   -2.631423685353347e-05
-2.1281238322482024e-05   3.2489871432503543e-06   -2.631423685353347e-05
-2.1281238322482024e-05   3.2489871432503543e-06   -2.631423685353347e-05
-3.7382949619311112e-06   2.2478110879662477e-06   -5.495177015461475e-05
-3.7382949619311112e-06   2.2478110879662477e-06   -5.495177015461475e-05
-3.7382949619311112e-06   2.2478110879662477e-06   -5.495177015461475e-05
-3.7382949619311112e-06   2.2478110879662477e-06   -5.495177015461475e-05
-1.2906609687141313e-05   2.3354666890519973e-06   -3.972383897324892e-05
-1.2906609687141313e-05   2.3354666890519973e-06   -3.972383897324892e-05
-1.2906609687141313e-05   2.3354666890519973e-06   -3.972383897324892e-05
-1.2906609687141313e-05   2.3354666890519973e-06   -3.972383897324892e-05
-3.7382949619311112e-06   3.2489871432503543e-06   -2.571353122036318e-05
-3.7382949619311112e-06   3.2489871432503543e-06   -2.571353122036318e-05
-3.7382949619311112e-06   3.2489871432503543e-06   -2.571353122036318e-05
-3.7382949619311112e-06   3.2489871432503543e-06   -2.571353122036318e-05
-2.1281238322482024e-05   2.2478110879662477e-06   -5.55524757877852e-05
-2.1281238322482024e-05   2.2478110879662477e-06   -5.55524757877852e-05
-2.1281238322482024e-05   2.2478110879662477e-06   -5.55524757877852e-05
-2.1281238322482024e-05   2.2478110879662477e-06   -5.55524757877852e-05
-2.048174749905128e-05   4.3309637875166805e-06   -2.693316126677536e-05
-2.048174749905128e-05   4.3309637875166805e-06   -2.693316126677536e-05
-2.048174749905128e-05   4.3309637875166805e-06   -2.693316126677536e-05
-2.048174749905128e-05   4.3309637875166805e-06   -2.693316126677536e-05
-2.9908220692873412e-06   3.1638506533117165e-06   -5.538443576919247e-05
-2.9908220692873412e-06   3.1638506533117165e-06   -5.538443576919247e-05
-2.9908220692873412e-06   3.1638506533117165e-06   -5.538443576919247e-05
-2.9908220692873412e-06   3.1638506533117165e-06   -5.538443576919247e-05
-1.2216969244468095e-05   3.0706949099741643e-06   -3.995163036455633e-05
-1.2216969244468095e-05   3.0706949099741643e-06   -3.995163036455633e-05
-1.2216969244468095e-05   3.0706949099741643e-06   -3.995163036455633e-05
-1.2216969244468095e-05   3.0706949099741643e-06   -3.995163036455633e-05
-2.3043477899383176e-05   3.818858088820536e-06   -2.1530250490931673e-05
-2.3043477899383176e-05   3.818858088820536e-06   -2.1530250490931673e-05
-2.3043477899383176e-05   3.818858088820536e-06   -2.1530250490931673e-05
-2.3043477899383176e-05   3.818858088820536e-06   -2.1530250490931673e-05
-4.039124031502448e-05   4.614886854446658e-06   -4.9965570590958285e-05
-4.039124031502448e-05   4.614886854446658e-06   -4.9965570590958285e-05
-4.039124031502448e-05   4.614886854446658e-06   -4.9965570590958285e-05
-4.039124031502448e-05   4.614886854446658e-06   -4.9965570590958285e-05
-3.931007537366434e-05   4.891154212155122e-06   -2.023195666803288e-05
-3.931007537366434e-05   4.891154212155122e-06   -2.023195666803288e-05
-3.931007537366434e-05   4.891154212155122e-06   -2.023195666803288e-05
-3.931007537366434e-05   4.891154212155122e-06   -2.023195666803288e-05
-2.214643420111264e-05   5.586886507912784e-06   -4.925546466640728e-05
-2.214643420111264e-05   5.586886507912784e-06   -4.925546466640728e-05
-2.214643420111264e-05   5.586886507912784e-06   -4.925546466640728e-05
-2.214643420111264e-05   5.586886507912784e-06   -4.925546466640728e-05
-3.099467152323876e-05   4.931070132667154e-06   -3.411491263771618e-05
-3.099467152323876e-05   4.931070132667154e-06   -3.411491263771618e-05
-3.099467152323876e-05   4.931070132667154e-06   -3.411491263771618e-05
-3.099467152323876e-05   4.931070132667154e-06   -3.411491263771618e-05
-2.214643420111264e-05   4.8911542121553384e-06   -2.064939604548761e-05
-2.214643420111264e-05   4.8911542121553384e-06   -2.064939604548761e-05
-2.214643420111264e-05   4.8911542121553384e-06   -2.064939604548761e-05
-2.214643420111264e-05   4.8911542121553384e-06   -2.064939604548761e-05
-3.931007537366442e-05   5.586886507912784e-06   -4.883802528895262e-05
-3.931007537366442e-05   5.586886507912784e-06   -4.883802528895262e-05
-3.931007537366442e-05   5.586886507912784e-06   -4.883802528895262e-05
-3.931007537366442e-05   5.586886507912784e-06   -4.883802528895262e-05
-3.811383352721427e-05   5.857047341841339e-06   -1.9509842386817655e-05
-3.811383352721427e-05   5.857047341841339e-06   -1.9509842386817655e-05
-3.811383352721427e-05   5.857047341841339e-06   -1.9509842386817655e-05
-3.811383352721427e-05   5.857047341841339e-06   -1.9509842386817655e-05
-2.1281238322482065e-05   6.4239832252778635e-06   -4.7904329258100095e-05
-2.1281238322482065e-05   6.4239832252778635e-06   -4.7904329258100095e-05
-2.1281238322482065e-05   6.4239832252778635e-06   -4.7904329258100095e-05
-2.1281238322482065e-05   6.4239832252778635e-06   -4.7904329258100095e-05
-2.9901206094257712e-05   5.687818353929206e-06   -3.3096017382331614e-05
-2.9901206094257712e-05   5.687818353929206e-06   -3.3096017382331614e-05
-2.9901206094257712e-05   5.687818353929206e-06   -3.3096017382331614e-05
-2.9901206094257712e-05   5.687818353929206e-06   -3.3096017382331614e-05
-2.1281238322482044e-05   5.857047341841339e-06   -1.9850003916879484e-05
-2.1281238322482044e-05   5.857047341841339e-06   -1.9850003916879484e-05
-2.1281238322482044e-05   5.857047341841339e-06   -1.9850003916879484e-05
-2.1281238322482044e-05   5.857047341841339e-06   -1.9850003916879484e-05
-3.811383352721427e-05   6.4239832252778635e-06   -4.756416772803821e-05
-3.811383352721427e-05   6.4239832252778635e-06   -4.756416772803821e-05
-3.811383352721427e-05   6.4239832252778635e-06   -4.756416772803821e-05
-3.811383352721427e-05   6.4239832252778635e-06   -4.756416772803821e-05
-3.710298038569172e-05   6.937768637878868e-06   -1.9960694444824635e-05
-3.710298038569172e-05   6.937768637878868e-06   -1.9960694444824635e-05
-3.710298038569172e-05   6.937768637878868e-06   -1.9960694444824635e-05
-3.710298038569172e-05   6.937768637878868e-06   -1.9960694444824635e-05
-2.0481747499051314e-05   7.350108021463887e-06   -4.7910152886043066e-05
-2.0481747499051314e-05   7.350108021463887e-06   -4.7910152886043066e-05
-2.0481747499051314e-05   7.350108021463887e-06   -4.7910152886043066e-05
-2.0481747499051314e-05   7.350108021463887e-06   -4.7910152886043066e-05
-2.9220808291519987e-05   6.384885153885855e-06   -3.276591784471508e-05
-2.9220808291519987e-05   6.384885153885855e-06   -3.276591784471508e-05
-2.9220808291519987e-05   6.384885153885855e-06   -3.276591784471508e-05
-2.9220808291519987e-05   6.384885153885855e-06   -3.276591784471508e-05
-4.039124031502448e-05   6.565499300351324e-06   -1.0789240379830605e-05
-4.039124031502448e-05   6.565499300351324e-06   -1.0789240379830605e-05
-4.039124031502448e-05   6.565499300351324e-06   -1.0789240379830605e-05
-4.039124031502448e-05   6.565499300351324e-06   -1.0789240379830605e-05
-5.866276390514673e-05   9.071283455053085e-06   -3.973830920388005e-05
-5.866276390514673e-05   9.071283455053085e-06   -3.973830920388005e-05
-5.866276390514673e-05   9.071283455053085e-06   -3.973830920388005e-05
-5.866276390514673e-05   9.071283455053085e-06   -3.973830920388005e-05
-5.618026485703487e-05   7.678743552352613e-06   -3.4304112839767236e-06
-5.618026485703487e-05   7.678743552352613e-06   -3.4304112839767236e-06
-5.618026485703487e-05   7.678743552352613e-06   -3.4304112839767236e-06
-5.618026485703487e-05   7.678743552352613e-06   -3.4304112839767236e-06
-3.931007537366434e-05   1.0362746859110018e-05   -3.315779574031541e-05
-3.931007537366434e-05   1.0362746859110018e-05   -3.315779574031541e-05
-3.931007537366434e-05   1.0362746859110018e-05   -3.315779574031541e-05
-3.931007537366434e-05   1.0362746859110018e-05   -3.315779574031541e-05
-4.662532230826175e-05   8.642172679097261e-06   -1.9933373007978645e-05
-4.662532230826175e-05   8.642172679097261e-06   -1.9933373007978645e-05
-4.662532230826175e-05   8.642172679097261e-06   -1.9933373007978645e-05
-4.662532230826175e-05   8.642172679097261e-06   -1.9933373007978645e-05
-3.9310075373664377e-05   7.678743552352613e-06   -5.040813268031253e-06
-3.9310075373664377e-05   7.678743552352613e-06   -5.040813268031253e-06
-3.9310075373664377e-05   7.678743552352613e-06   -5.040813268031253e-06
-3.9310075373664377e-05   7.678743552352613e-06   -5.040813268031253e-06
-5.618026485703479e-05   1.0362746859110018e-05   -3.154739375626093e-05
-5.618026485703479e-05   1.0362746859110018e-05   -3.154739375626093e-05
-5.618026485703479e-05   1.0362746859110018e-05   -3.154739375626093e-05
-5.618026485703479e-05   1.0362746859110018e-05   -3.154739375626093e-05
-5.413742188984843e-05   8.077622778894641e-06   -3.5795685005999764e-07
-5.413742188984843e-05   8.077622778894641e-06   -3.5795685005999764e-07
-5.413742188984843e-05   8.077622778894641e-06   -3.5795685005999764e-07
-5.413742188984843e-05   8.077622778894641e-06   -3.5795685005999764e-07
-3.811383352721427e-05   1.0702409830335487e-05   -2.8638809685314692e-05
-3.811383352721427e-05   1.0702409830335487e-05   -2.8638809685314692e-05
-3.811383352721427e-05   1.0702409830335487e-05   -2.8638809685314692e-05
-3.811383352721427e-05   1.0702409830335487e-05   -2.8638809685314692e-05
-4.57790598900832e-05   9.15642812039652e-06   -1.4935843387902476e-05
-4.57790598900832e-05   9.15642812039652e-06   -1.4935843387902476e-05
-4.57790598900832e-05   9.15642812039652e-06   -1.4935843387902476e-05
-4.57790598900832e-05   9.15642812039652e-06   -1.4935843387902476e-05
-3.811383352721427e-05   8.077622778894641e-06   -1.9328290809244187e-06
-3.811383352721427e-05   8.077622778894641e-06   -1.9328290809244187e-06
-3.811383352721427e-05   8.077622778894641e-06   -1.9328290809244187e-06
-3.811383352721427e-05   8.077622778894641e-06   -1.9328290809244187e-06
-5.413742188984825e-05   1.0702409830335054e-05   -2.7063937454450135e-05
-5.413742188984825e-05   1.0702409830335054e-05   -2.7063937454450135e-05
-5.413742188984825e-05   1.0702409830335054e-05   -2.7063937454450135e-05
-5.413742188984825e-05   1.0702409830335054e-05   -2.7063937454450135e-05
-5.1933730314723836e-05   8.583560092936164e-06   3.5435929161742232e-06
-5.1933730314723836e-05   8.583560092936164e-06   3.5435929161742232e-06
-5.1933730314723836e-05   8.583560092936164e-06   3.5435929161742232e-06
-5.1933730314723836e-05   8.583560092936164e-06   3.5435929161742232e-06
-3.710298038569172e-05   1.099517333458342e-05   -2.2621291577201076e-05
-3.710298038569172e-05   1.099517333458342e-05   -2.2621291577201076e-05
-3.710298038569172e-05   1.099517333458342e-05   -2.2621291577201076e-05
-3.710298038569172e-05   1.099517333458342e-05   -2.2621291577201076e-05
-4.3708389025367024e-05   9.240407279046629e-06   -1.0559417544420634e-05
-4.3708389025367024e-05   9.240407279046629e-06   -1.0559417544420634e-05
-4.3708389025367024e-05   9.240407279046629e-06   -1.0559417544420634e-05
-4.3708389025367024e-05   9.240407279046629e-06   -1.0559417544420634e-05
5.027244424806956e-05   -7.0105420199445545e-06   9.95886109943331e-06
5.027244424806956e-05   -7.0105420199445545e-06   9.95886109943331e-06
5.027244424806956e-05   -7.0105420199445545e-06   9.95886109943331e-06
5.027244424806956e-05   -7.0105420199445545e-06   9.95886109943331e-06
2.4228834826249253e-05   -1.0381776875552882e-05   -3.5469895516965916e-05
2.4228834826249253e-05   -1.0381776875552882e-05   -3.5469895516965916e-05
2.4228834826249253e-05   -1.0381776875552882e-05   -3.5469895516965916e-05
2.4228834826249253e-05   -1.0381776875552882e-05   -3.5469895516965916e-05
2.522142903804315e-05   -6.519734932959945e-06   4.798369344778805e-06
2.522142903804315e-05   -6.519734932959945e-06   4.798369344778805e-06
2.522142903804315e-05   -6.519734932959945e-06   4.798369344778805e-06
2.522142903804315e-05   -6.519734932959945e-06   4.798369344778805e-06
5.25760784933232e-05   -1.0139180530881198e-05   -3.862104572193543e-05
5.25760784933232e-05   -1.0139180530881198e-05   -3.862104572193543e-05
5.25760784933232e-05   -1.0139180530881198e-05   -3.862104572193543e-05
5.25760784933232e-05   -1.0139180530881198e-05   -3.862104572193543e-05
3.6526796874664896e-05   -7.676271137576664e-06   -1.3349988660153918e-05
3.6526796874664896e-05   -7.676271137576664e-06   -1.3349988660153918e-05
3.6526796874664896e-05   -7.676271137576664e-06   -1.3349988660153918e-05
3.6526796874664896e-05   -7.676271137576664e-06   -1.3349988660153918e-05
5.257607849332331e-05   -6.519734932959945e-06   6.970036703531513e-06
5.257607849332331e-05   -6.519734932959945e-06   6.970036703531513e-06
5.257607849332331e-05   -6.519734932959945e-06   6.970036703531513e-06
5.257607849332331e-05   -6.519734932959945e-06   6.970036703531513e-06
2.5221429038043097e-05   -1.0139180530881198e-05   -4.0792713080688246e-05
2.5221429038043097e-05   -1.0139180530881198e-05   -4.0792713080688246e-05
2.5221429038043097e-05   -1.0139180530881198e-05   -4.0792713080688246e-05
2.5221429038043097e-05   -1.0139180530881198e-05   -4.0792713080688246e-05
2.620882510916112e-05   -6.098088041418294e-06   2.273989796380176e-06
2.620882510916112e-05   -6.098088041418294e-06   2.273989796380176e-06
2.620882510916112e-05   -6.098088041418294e-06   2.273989796380176e-06
2.620882510916112e-05   -6.098088041418294e-06   2.273989796380176e-06
5.434440865143155e-05   -9.787225813648413e-06   -4.2405166777399425e-05
5.434440865143155e-05   -9.787225813648413e-06   -4.2405166777399425e-05
5.434440865143155e-05   -9.787225813648413e-06   -4.2405166777399425e-05
5.434440865143155e-05   -9.787225813648413e-06   -4.2405166777399425e-05
3.8466771589779896e-05   -7.650949989086633e-06   -1.722420383605018e-05
3.8466771589779896e-05   -7.650949989086633e-06   -1.722420383605018e-05
3.8466771589779896e-05   -7.650949989086633e-06   -1.722420383605018e-05
3.8466771589779896e-05   -7.650949989086633e-06   -1.722420383605018e-05
5.434440865143155e-05   -6.098088041418294e-06   4.487472459718117e-06
5.434440865143155e-05   -6.098088041418294e-06   4.487472459718117e-06
5.434440865143155e-05   -6.098088041418294e-06   4.487472459718117e-06
5.434440865143155e-05   -6.098088041418294e-06   4.487472459718117e-06
2.620882510916112e-05   -9.787225813647979e-06   -4.4618649440737474e-05
2.620882510916112e-05   -9.787225813647979e-06   -4.4618649440737474e-05
2.620882510916112e-05   -9.787225813647979e-06   -4.4618649440737474e-05
2.620882510916112e-05   -9.787225813647979e-06   -4.4618649440737474e-05
2.6879596380713827e-05   -4.764490132023926e-06   -2.811245466020039e-06
2.6879596380713827e-05   -4.764490132023926e-06   -2.811245466020039e-06
2.6879596380713827e-05   -4.764490132023926e-06   -2.811245466020039e-06
2.6879596380713827e-05   -4.764490132023926e-06   -2.811245466020039e-06
5.6214260019756825e-05   -8.414259369417861e-06   -4.95124899886551e-05
5.6214260019756825e-05   -8.414259369417861e-06   -4.95124899886551e-05
5.6214260019756825e-05   -8.414259369417861e-06   -4.95124899886551e-05
5.6214260019756825e-05   -8.414259369417861e-06   -4.95124899886551e-05
3.900980165322505e-05   -7.062996072482695e-06   -2.1649150689264122e-05
3.900980165322505e-05   -7.062996072482695e-06   -2.1649150689264122e-05
3.900980165322505e-05   -7.062996072482695e-06   -2.1649150689264122e-05
3.900980165322505e-05   -7.062996072482695e-06   -2.1649150689264122e-05
2.4228834826249307e-05   -3.2839135782358232e-06   -1.2254571334366273e-05
2.4228834826249307e-05   -3.2839135782358232e-06   -1.2254571334366273e-05
2.4228834826249307e-05   -3.2839135782358232e-06   -1.2254571334366273e-05
2.4228834826249307e-05   -3.2839135782358232e-06   -1.2254571334366273e-05
-1.4625985591191874e-06   -6.730319769652094e-06   -5.7141470691496766e-05
-1.4625985591191874e-06   -6.730319769652094e-06   -5.7141470691496766e-05
-1.4625985591191874e-06   -6.730319769652094e-06   -5.7141470691496766e-05
-1.4625985591191874e-06   -6.730319769652094e-06   -5.7141470691496766e-05
-4.4362300658936055e-07   -2.6024359890226487e-06   -1.3511191531010791e-05
-4.4362300658936055e-07   -2.6024359890226487e-06   -1.3511191531010791e-05
-4.4362300658936055e-07   -2.6024359890226487e-06   -1.3511191531010791e-05
-4.4362300658936055e-07   -2.6024359890226487e-06   -1.3511191531010791e-05
2.522142903804315e-05   -6.408461608728086e-06   -5.400266290024147e-05
2.522142903804315e-05   -6.408461608728086e-06   -5.400266290024147e-05
2.522142903804315e-05   -6.408461608728086e-06   -5.400266290024147e-05
2.522142903804315e-05   -6.408461608728086e-06   -5.400266290024147e-05
1.1921889946379065e-05   -4.071702826802855e-06   -3.32388196832901e-05
1.1921889946379065e-05   -4.071702826802855e-06   -3.32388196832901e-05
1.1921889946379065e-05   -4.071702826802855e-06   -3.32388196832901e-05
1.1921889946379065e-05   -4.071702826802855e-06   -3.32388196832901e-05
2.5221429038043124e-05   -2.6024359890226487e-06   -1.1227576159187139e-05
2.5221429038043124e-05   -2.6024359890226487e-06   -1.1227576159187139e-05
2.5221429038043124e-05   -2.6024359890226487e-06   -1.1227576159187139e-05
2.5221429038043124e-05   -2.6024359890226487e-06   -1.1227576159187139e-05
-4.4362300658936055e-07   -6.408461608728086e-06   -5.628627827206512e-05
-4.4362300658936055e-07   -6.408461608728086e-06   -5.628627827206512e-05
-4.4362300658936055e-07   -6.408461608728086e-06   -5.628627827206512e-05
-4.4362300658936055e-07   -6.408461608728086e-06   -5.628627827206512e-05
4.541897998084309e-07   -1.7694014137134562e-06   -1.383035656663369e-05
4.541897998084309e-07   -1.7694014137134562e-06   -1.383035656663369e-05
4.541897998084309e-07   -1.7694014137134562e-06   -1.383035656663369e-05
4.541897998084309e-07   -1.7694014137134562e-06   -1.383035656663369e-05
2.620882510916112e-05   -5.808975220877952e-06   -5.4331004464589524e-05
2.620882510916112e-05   -5.808975220877952e-06   -5.4331004464589524e-05
2.620882510916112e-05   -5.808975220877952e-06   -5.4331004464589524e-05
2.620882510916112e-05   -5.808975220877952e-06   -5.4331004464589524e-05
1.2615732235038744e-05   -3.738021307886537e-06   -3.29184220221793e-05
1.2615732235038744e-05   -3.738021307886537e-06   -3.29184220221793e-05
1.2615732235038744e-05   -3.738021307886537e-06   -3.29184220221793e-05
1.2615732235038744e-05   -3.738021307886537e-06   -3.29184220221793e-05
2.620882510916112e-05   -1.7694014137134562e-06   -1.1406612282335122e-05
2.620882510916112e-05   -1.7694014137134562e-06   -1.1406612282335122e-05
2.620882510916112e-05   -1.7694014137134562e-06   -1.1406612282335122e-05
2.620882510916112e-05   -1.7694014137134562e-06   -1.1406612282335122e-05
4.541897998084309e-07   -5.808975220877952e-06   -5.675474874888842e-05
4.541897998084309e-07   -5.808975220877952e-06   -5.675474874888842e-05
4.541897998084309e-07   -5.808975220877952e-06   -5.675474874888842e-05
4.541897998084309e-07   -5.808975220877952e-06   -5.675474874888842e-05
1.0935106330999564e-06   -7.213022598915632e-07   -1.4375961845855632e-05
1.0935106330999564e-06   -7.213022598915632e-07   -1.4375961845855632e-05
1.0935106330999564e-06   -7.213022598915632e-07   -1.4375961845855632e-05
1.0935106330999564e-06   -7.213022598915632e-07   -1.4375961845855632e-05
2.687959638071388e-05   -4.9560617434579735e-06   -5.4811915735072556e-05
2.687959638071388e-05   -4.9560617434579735e-06   -5.4811915735072556e-05
2.687959638071388e-05   -4.9560617434579735e-06   -5.4811915735072556e-05
2.687959638071388e-05   -4.9560617434579735e-06   -5.4811915735072556e-05
1.3445989424988667e-05   -3.149869678232241e-06   -3.3506286047999944e-05
1.3445989424988667e-05   -3.149869678232241e-06   -3.3506286047999944e-05
1.3445989424988667e-05   -3.149869678232241e-06   -3.3506286047999944e-05
1.3445989424988667e-05   -3.149869678232241e-06   -3.3506286047999944e-05
-1.4625985591191874e-06   5.960865089873167e-07   -1.864970281605636e-05
-1.4625985591191874e-06   5.960865089873167e-07   -1.864970281605636e-05
-1.4625985591191874e-06   5.960865089873167e-07   -1.864970281605636e-05
-1.4625985591191874e-06   5.960865089873167e-07   -1.864970281605636e-05
-2.6774498299743412e-05   -3.538058946120099e-06   -6.331668965682828e-05
-2.6774498299743412e-05   -3.538058946120099e-06   -6.331668965682828e-05
-2.6774498299743412e-05   -3.538058946120099e-06   -6.331668965682828e-05
-2.6774498299743412e-05   -3.538058946120099e-06   -6.331668965682828e-05
-2.5551951601525863e-05   1.3614469644282132e-06   -2.0280877508767163e-05
-2.5551951601525863e-05   1.3614469644282132e-06   -2.0280877508767163e-05
-2.5551951601525863e-05   1.3614469644282132e-06   -2.0280877508767163e-05
-2.5551951601525863e-05   1.3614469644282132e-06   -2.0280877508767163e-05
-4.4362300658936055e-07   -3.158939993691892e-06   -5.941585965878925e-05
-4.4362300658936055e-07   -3.158939993691892e-06   -5.941585965878925e-05
-4.4362300658936055e-07   -3.158939993691892e-06   -5.941585965878925e-05
-4.4362300658936055e-07   -3.158939993691892e-06   -5.941585965878925e-05
-1.3397040854586533e-05   -6.867516898177717e-07   -3.931014289445167e-05
-1.3397040854586533e-05   -6.867516898177717e-07   -3.931014289445167e-05
-1.3397040854586533e-05   -6.867516898177717e-07   -3.931014289445167e-05
-1.3397040854586533e-05   -6.867516898177717e-07   -3.931014289445167e-05
-4.4362300658936055e-07   1.3614469644282132e-06   -1.7568645333895187e-05
-4.4362300658936055e-07   1.3614469644282132e-06   -1.7568645333895187e-05
-4.4362300658936055e-07   1.3614469644282132e-06   -1.7568645333895187e-05
-4.4362300658936055e-07   1.3614469644282132e-06   -1.7568645333895187e-05
-2.5551951601525863e-05   -3.1589399936914585e-06   -6.212809183366139e-05
-2.5551951601525863e-05   -3.1589399936914585e-06   -6.212809183366139e-05
-2.5551951601525863e-05   -3.1589399936914585e-06   -6.212809183366139e-05
-2.5551951601525863e-05   -3.1589399936914585e-06   -6.212809183366139e-05
-2.4430323527541368e-05   2.2478110879666814e-06   -1.9918079370499168e-05
-2.4430323527541368e-05   2.2478110879666814e-06   -1.9918079370499168e-05
-2.4430323527541368e-05   2.2478110879666814e-06   -1.9918079370499168e-05
-2.4430323527541368e-05   2.2478110879666814e-06   -1.9918079370499168e-05
4.541897998084309e-07   -2.5683710151557654e-06   -5.850255898754244e-05
4.541897998084309e-07   -2.5683710151557654e-06   -5.850255898754244e-05
4.541897998084309e-07   -2.5683710151557654e-06   -5.850255898754244e-05
4.541897998084309e-07   -2.5683710151557654e-06   -5.850255898754244e-05
-1.2401218372684808e-05   -2.525518220299755e-07   -3.8466370215929115e-05
-1.2401218372684808e-05   -2.525518220299755e-07   -3.8466370215929115e-05
-1.2401218372684808e-05   -2.525518220299755e-07   -3.8466370215929115e-05
-1.2401218372684808e-05   -2.525518220299755e-07   -3.8466370215929115e-05
4.541897998084309e-07   2.2478110879666814e-06   -1.7028370108625917e-05
4.541897998084309e-07   2.2478110879666814e-06   -1.7028370108625917e-05
4.541897998084309e-07   2.2478110879666814e-06   -1.7028370108625917e-05
4.541897998084309e-07   2.2478110879666814e-06   -1.7028370108625917e-05
-2.4430323527541408e-05   -2.5683710151553317e-06   -6.139226824941569e-05
-2.4430323527541408e-05   -2.5683710151553317e-06   -6.139226824941569e-05
-2.4430323527541408e-05   -2.5683710151553317e-06   -6.139226824941569e-05
-2.4430323527541408e-05   -2.5683710151553317e-06   -6.139226824941569e-05
-2.3674028990357956e-05   3.1638506533117165e-06   -2.0263189782194265e-05
-2.3674028990357956e-05   3.1638506533117165e-06   -2.0263189782194265e-05
-2.3674028990357956e-05   3.1638506533117165e-06   -2.0263189782194265e-05
-2.3674028990357956e-05   3.1638506533117165e-06   -2.0263189782194265e-05
1.0935106330999564e-06   -2.0083922125900544e-06   -5.8439076768416305e-05
1.0935106330999564e-06   -2.0083922125900544e-06   -5.8439076768416305e-05
1.0935106330999564e-06   -2.0083922125900544e-06   -5.8439076768416305e-05
1.0935106330999564e-06   -2.0083922125900544e-06   -5.8439076768416305e-05
-1.1690858643858175e-05   2.349784998410473e-07   -3.84778170676119e-05
-1.1690858643858175e-05   2.349784998410473e-07   -3.84778170676119e-05
-1.1690858643858175e-05   2.349784998410473e-07   -3.84778170676119e-05
-1.1690858643858175e-05   2.349784998410473e-07   -3.84778170676119e-05
-2.6774498299743358e-05   4.614886854446224e-06   -1.5224134787865428e-05
-2.6774498299743358e-05   4.614886854446224e-06   -1.5224134787865428e-05
-2.6774498299743358e-05   4.614886854446224e-06   -1.5224134787865428e-05
-2.6774498299743358e-05   4.614886854446224e-06   -1.5224134787865428e-05
-5.2438795510802626e-05   8.894684213989028e-07   -6.0233214532792604e-05
-5.2438795510802626e-05   8.894684213989028e-07   -6.0233214532792604e-05
-5.2438795510802626e-05   8.894684213989028e-07   -6.0233214532792604e-05
-5.2438795510802626e-05   8.894684213989028e-07   -6.0233214532792604e-05
-5.069840472841397e-05   5.586886507912784e-06   -1.6225887970526673e-05
-5.069840472841397e-05   5.586886507912784e-06   -1.6225887970526673e-05
-5.069840472841397e-05   5.586886507912784e-06   -1.6225887970526673e-05
-5.069840472841397e-05   5.586886507912784e-06   -1.6225887970526673e-05
-2.555195160152581e-05   1.5910462968110085e-06   -5.573913905534549e-05
-2.555195160152581e-05   1.5910462968110085e-06   -5.573913905534549e-05
-2.555195160152581e-05   1.5910462968110085e-06   -5.573913905534549e-05
-2.555195160152581e-05   1.5910462968110085e-06   -5.573913905534549e-05
-3.846228577924887e-05   3.5045208766570045e-06   -3.5370000173714946e-05
-3.846228577924887e-05   3.5045208766570045e-06   -3.5370000173714946e-05
-3.846228577924887e-05   3.5045208766570045e-06   -3.5370000173714946e-05
-3.846228577924887e-05   3.5045208766570045e-06   -3.5370000173714946e-05
-2.555195160152581e-05   5.586886507912784e-06   -1.382838384386513e-05
-2.555195160152581e-05   5.586886507912784e-06   -1.382838384386513e-05
-2.555195160152581e-05   5.586886507912784e-06   -1.382838384386513e-05
-2.555195160152581e-05   5.586886507912784e-06   -1.382838384386513e-05
-5.069840472841406e-05   1.5910462968105749e-06   -5.813664318200687e-05
-5.069840472841406e-05   1.5910462968105749e-06   -5.813664318200687e-05
-5.069840472841406e-05   1.5910462968105749e-06   -5.813664318200687e-05
-5.069840472841406e-05   1.5910462968105749e-06   -5.813664318200687e-05
-4.901615672152701e-05   6.4239832252778635e-06   -1.4782151972146749e-05
-4.901615672152701e-05   6.4239832252778635e-06   -1.4782151972146749e-05
-4.901615672152701e-05   6.4239832252778635e-06   -1.4782151972146749e-05
-4.901615672152701e-05   6.4239832252778635e-06   -1.4782151972146749e-05
-2.4430323527541408e-05   2.2369513397236564e-06   -5.3246321497457005e-05
-2.4430323527541408e-05   2.2369513397236564e-06   -5.3246321497457005e-05
-2.4430323527541408e-05   2.2369513397236564e-06   -5.3246321497457005e-05
-2.4430323527541408e-05   2.2369513397236564e-06   -5.3246321497457005e-05
-3.688960340771088e-05   4.114931554651067e-06   -3.3607643159464114e-05
-3.688960340771088e-05   4.114931554651067e-06   -3.3607643159464114e-05
-3.688960340771088e-05   4.114931554651067e-06   -3.3607643159464114e-05
-3.688960340771088e-05   4.114931554651067e-06   -3.3607643159464114e-05
-2.443032352754134e-05   6.4239832252778635e-06   -1.2269932840813791e-05
-2.443032352754134e-05   6.4239832252778635e-06   -1.2269932840813791e-05
-2.443032352754134e-05   6.4239832252778635e-06   -1.2269932840813791e-05
-2.443032352754134e-05   6.4239832252778635e-06   -1.2269932840813791e-05
-4.901615672152709e-05   2.2369513397232227e-06   -5.575854062878972e-05
-4.901615672152709e-05   2.2369513397232227e-06   -5.575854062878972e-05
-4.901615672152709e-05   2.2369513397232227e-06   -5.575854062878972e-05
-4.901615672152709e-05   2.2369513397232227e-06   -5.575854062878972e-05
-4.773979567107045e-05   7.350108021463887e-06   -1.4828637484080214e-05
-4.773979567107045e-05   7.350108021463887e-06   -1.4828637484080214e-05
-4.773979567107045e-05   7.350108021463887e-06   -1.4828637484080214e-05
-4.773979567107045e-05   7.350108021463887e-06   -1.4828637484080214e-05
-2.3674028990358004e-05   2.7834439121996596e-06   -5.219825015304253e-05
-2.3674028990358004e-05   2.7834439121996596e-06   -5.219825015304253e-05
-2.3674028990358004e-05   2.7834439121996596e-06   -5.219825015304253e-05
-2.3674028990358004e-05   2.7834439121996596e-06   -5.219825015304253e-05
-3.6008077377693084e-05   4.540952249501833e-06   -3.269600784319845e-05
-3.6008077377693084e-05   4.540952249501833e-06   -3.269600784319845e-05
-3.6008077377693084e-05   4.540952249501833e-06   -3.269600784319845e-05
-3.6008077377693084e-05   4.540952249501833e-06   -3.269600784319845e-05
-5.2438795510802626e-05   9.071283455053085e-06   -8.735594953436943e-06
-5.2438795510802626e-05   9.071283455053085e-06   -8.735594953436943e-06
-5.2438795510802626e-05   9.071283455053085e-06   -8.735594953436943e-06
-5.2438795510802626e-05   9.071283455053085e-06   -8.735594953436943e-06
-7.925101169813663e-05   8.562355015041389e-06   -5.372797899633446e-05
-7.925101169813663e-05   8.562355015041389e-06   -5.372797899633446e-05
-7.925101169813663e-05   8.562355015041389e-06   -5.372797899633446e-05
-7.925101169813663e-05   8.562355015041389e-06   -5.372797899633446e-05
-7.581905295166646e-05   1.0362746859110018e-05   -2.584155194059346e-07
-7.581905295166646e-05   1.0362746859110018e-05   -2.584155194059346e-07
-7.581905295166646e-05   1.0362746859110018e-05   -2.584155194059346e-07
-7.581905295166646e-05   1.0362746859110018e-05   -2.584155194059346e-07
-5.0698404728413884e-05   1.084148502991612e-05   -4.2413405460643754e-05
-5.0698404728413884e-05   1.084148502991612e-05   -4.2413405460643754e-05
-5.0698404728413884e-05   1.084148502991612e-05   -4.2413405460643754e-05
-5.0698404728413884e-05   1.084148502991612e-05   -4.2413405460643754e-05
-6.176782690009074e-05   1.022272765448598e-05   -2.359311408259117e-05
-6.176782690009074e-05   1.022272765448598e-05   -2.359311408259117e-05
-6.176782690009074e-05   1.022272765448598e-05   -2.359311408259117e-05
-6.176782690009074e-05   1.022272765448598e-05   -2.359311408259117e-05
-5.069840472841402e-05   1.0362746859110018e-05   -5.456584218895087e-07
-5.069840472841402e-05   1.0362746859110018e-05   -5.456584218895087e-07
-5.069840472841402e-05   1.0362746859110018e-05   -5.456584218895087e-07
-5.069840472841402e-05   1.0362746859110018e-05   -5.456584218895087e-07
-7.581905295166646e-05   1.084148502991612e-05   -4.212616255816026e-05
-7.581905295166646e-05   1.084148502991612e-05   -4.212616255816026e-05
-7.581905295166646e-05   1.084148502991612e-05   -4.212616255816026e-05
-7.581905295166646e-05   1.084148502991612e-05   -4.212616255816026e-05
-7.297239855630106e-05   1.0702409830335054e-05   4.533919309697085e-06
-7.297239855630106e-05   1.0702409830335054e-05   4.533919309697085e-06
-7.297239855630106e-05   1.0702409830335054e-05   4.533919309697085e-06
-7.297239855630106e-05   1.0702409830335054e-05   4.533919309697085e-06
-4.901615672152701e-05   1.1353598562202812e-05   -3.578386365404666e-05
-4.901615672152701e-05   1.1353598562202812e-05   -3.578386365404666e-05
-4.901615672152701e-05   1.1353598562202812e-05   -3.578386365404666e-05
-4.901615672152701e-05   1.1353598562202812e-05   -3.578386365404666e-05
-6.046741234031607e-05   1.0965589504263046e-05   -1.6465632187967244e-05
-6.046741234031607e-05   1.0965589504263046e-05   -1.6465632187967244e-05
-6.046741234031607e-05   1.0965589504263046e-05   -1.6465632187967244e-05
-6.046741234031607e-05   1.0965589504263046e-05   -1.6465632187967244e-05
-4.901615672152709e-05   1.0702409830335487e-05   4.14320607057669e-06
-4.901615672152709e-05   1.0702409830335487e-05   4.14320607057669e-06
-4.901615672152709e-05   1.0702409830335487e-05   4.14320607057669e-06
-4.901615672152709e-05   1.0702409830335487e-05   4.14320607057669e-06
-7.297239855630092e-05   1.1353598562202378e-05   -3.539315041492649e-05
-7.297239855630092e-05   1.1353598562202378e-05   -3.539315041492649e-05
-7.297239855630092e-05   1.1353598562202378e-05   -3.539315041492649e-05
-7.297239855630092e-05   1.1353598562202378e-05   -3.539315041492649e-05
-6.999542909631857e-05   1.099517333458342e-05   1.0955974733737077e-05
-6.999542909631857e-05   1.099517333458342e-05   1.0955974733737077e-05
-6.999542909631857e-05   1.099517333458342e-05   1.0955974733737077e-05
-6.999542909631857e-05   1.099517333458342e-05   1.0955974733737077e-05
-4.773979567107045e-05   1.2233764233127251e-05   -2.6879902180803166e-05
-4.773979567107045e-05   1.2233764233127251e-05   -2.6879902180803166e-05
-4.773979567107045e-05   1.2233764233127251e-05   -2.6879902180803166e-05
-4.773979567107045e-05   1.2233764233127251e-05   -2.6879902180803166e-05
-5.759398079651981e-05   1.121550960063878e-05   -9.845307525561844e-06
-5.759398079651981e-05   1.121550960063878e-05   -9.845307525561844e-06
-5.759398079651981e-05   1.121550960063878e-05   -9.845307525561844e-06
-5.759398079651981e-05   1.121550960063878e-05   -9.845307525561844e-06
6.911485445610602e-05   -1.0381776875553316e-05   2.357208842331546e-05
6.911485445610602e-05   -1.0381776875553316e-05   2.357208842331546e-05
6.911485445610602e-05   -1.0381776875553316e-05   2.357208842331546e-05
6.911485445610602e-05   -1.0381776875553316e-05   2.357208842331546e-05
3.474334606166831e-05   -1.3130406431337022e-05   -3.536293663421739e-05
3.474334606166831e-05   -1.3130406431337022e-05   -3.536293663421739e-05
3.474334606166831e-05   -1.3130406431337022e-05   -3.536293663421739e-05
3.474334606166831e-05   -1.3130406431337022e-05   -3.536293663421739e-05
3.5592925805790545e-05   -1.0139180530881198e-05   1.6906749609514994e-05
3.5592925805790545e-05   -1.0139180530881198e-05   1.6906749609514994e-05
3.5592925805790545e-05   -1.0139180530881198e-05   1.6906749609514994e-05
3.5592925805790545e-05   -1.0139180530881198e-05   1.6906749609514994e-05
7.08380187685684e-05   -1.3458870557781291e-05   -3.984325797897457e-05
7.08380187685684e-05   -1.3458870557781291e-05   -3.984325797897457e-05
7.08380187685684e-05   -1.3458870557781291e-05   -3.984325797897457e-05
7.08380187685684e-05   -1.3458870557781291e-05   -3.984325797897457e-05
5.047823034582695e-05   -1.0604761644936352e-05   -7.622742622112664e-06
5.047823034582695e-05   -1.0604761644936352e-05   -7.622742622112664e-06
5.047823034582695e-05   -1.0604761644936352e-05   -7.622742622112664e-06
5.047823034582695e-05   -1.0604761644936352e-05   -7.622742622112664e-06
7.08380187685684e-05   -1.0139180530881198e-05   1.8898563625655094e-05
7.08380187685684e-05   -1.0139180530881198e-05   1.8898563625655094e-05
7.08380187685684e-05   -1.0139180530881198e-05   1.8898563625655094e-05
7.08380187685684e-05   -1.0139180530881198e-05   1.8898563625655094e-05
3.5592925805790545e-05   -1.3458870557781291e-05   -4.183507199511478e-05
3.5592925805790545e-05   -1.3458870557781291e-05   -4.183507199511478e-05
3.5592925805790545e-05   -1.3458870557781291e-05   -4.183507199511478e-05
3.5592925805790545e-05   -1.3458870557781291e-05   -4.183507199511478e-05
3.631104659569353e-05   -9.787225813647979e-06   1.3339384067001525e-05
3.631104659569353e-05   -9.787225813647979e-06   1.3339384067001525e-05
3.631104659569353e-05   -9.787225813647979e-06   1.3339384067001525e-05
3.631104659569353e-05   -9.787225813647979e-06   1.3339384067001525e-05
7.19119831133783e-05   -1.3337077087052437e-05   -4.386559936509746e-05
7.19119831133783e-05   -1.3337077087052437e-05   -4.386559936509746e-05
7.19119831133783e-05   -1.3337077087052437e-05   -4.386559936509746e-05
7.19119831133783e-05   -1.3337077087052437e-05   -4.386559936509746e-05
5.225838542717351e-05   -1.0939888207371976e-05   -1.254791654923084e-05
5.225838542717351e-05   -1.0939888207371976e-05   -1.254791654923084e-05
5.225838542717351e-05   -1.0939888207371976e-05   -1.254791654923084e-05
5.225838542717351e-05   -1.0939888207371976e-05   -1.254791654923084e-05
7.19119831133783e-05   -9.787225813647979e-06   1.5469294831043853e-05
7.19119831133783e-05   -9.787225813647979e-06   1.5469294831043853e-05
7.19119831133783e-05   -9.787225813647979e-06   1.5469294831043853e-05
7.19119831133783e-05   -9.787225813647979e-06   1.5469294831043853e-05
3.631104659569353e-05   -1.3337077087052437e-05   -4.599551012913973e-05
3.631104659569353e-05   -1.3337077087052437e-05   -4.599551012913973e-05
3.631104659569353e-05   -1.3337077087052437e-05   -4.599551012913973e-05
3.631104659569353e-05   -1.3337077087052437e-05   -4.599551012913973e-05
3.7061420114377385e-05   -8.414259369418295e-06   6.416639332618287e-06
3.7061420114377385e-05   -8.414259369418295e-06   6.416639332618287e-06
3.7061420114377385e-05   -8.414259369418295e-06   6.416639332618287e-06
3.7061420114377385e-05   -8.414259369418295e-06   6.416639332618287e-06
7.296946000697374e-05   -1.2595519040152232e-05   -5.0921338019268604e-05
7.296946000697374e-05   -1.2595519040152232e-05   -5.0921338019268604e-05
7.296946000697374e-05   -1.2595519040152232e-05   -5.0921338019268604e-05
7.296946000697374e-05   -1.2595519040152232e-05   -5.0921338019268604e-05
5.228496070264384e-05   -1.0528675197904631e-05   -1.7687278817400654e-05
5.228496070264384e-05   -1.0528675197904631e-05   -1.7687278817400654e-05
5.228496070264384e-05   -1.0528675197904631e-05   -1.7687278817400654e-05
5.228496070264384e-05   -1.0528675197904631e-05   -1.7687278817400654e-05
3.474334606166831e-05   -6.730319769652094e-06   2.319179230164106e-06
3.474334606166831e-05   -6.730319769652094e-06   2.319179230164106e-06
3.474334606166831e-05   -6.730319769652094e-06   2.319179230164106e-06
3.474334606166831e-05   -6.730319769652094e-06   2.319179230164106e-06
4.128164898014539e-06   -1.3179457458204445e-05   -5.257560532239032e-05
4.128164898014539e-06   -1.3179457458204445e-05   -5.257560532239032e-05
4.128164898014539e-06   -1.3179457458204445e-05   -5.257560532239032e-05
4.128164898014539e-06   -1.3179457458204445e-05   -5.257560532239032e-05
5.118415518229959e-06   -6.40846160872852e-06   -3.253134649764365e-07
5.118415518229959e-06   -6.40846160872852e-06   -3.253134649764365e-07
5.118415518229959e-06   -6.40846160872852e-06   -3.253134649764365e-07
5.118415518229959e-06   -6.40846160872852e-06   -3.253134649764365e-07
3.5592925805790626e-05   -1.3111983700291908e-05   -4.709405068930602e-05
3.5592925805790626e-05   -1.3111983700291908e-05   -4.709405068930602e-05
3.5592925805790626e-05   -1.3111983700291908e-05   -4.709405068930602e-05
3.5592925805790626e-05   -1.3111983700291908e-05   -4.709405068930602e-05
1.9973355496866204e-05   -8.891119898799243e-06   -2.3593951788661045e-05
1.9973355496866204e-05   -8.891119898799243e-06   -2.3593951788661045e-05
1.9973355496866204e-05   -8.891119898799243e-06   -2.3593951788661045e-05
1.9973355496866204e-05   -8.891119898799243e-06   -2.3593951788661045e-05
3.559292580579052e-05   -6.40846160872852e-06   3.6967997899617702e-06
3.559292580579052e-05   -6.40846160872852e-06   3.6967997899617702e-06
3.559292580579052e-05   -6.40846160872852e-06   3.6967997899617702e-06
3.559292580579052e-05   -6.40846160872852e-06   3.6967997899617702e-06
5.118415518229932e-06   -1.3111983700291908e-05   -5.111616394424395e-05
5.118415518229932e-06   -1.3111983700291908e-05   -5.111616394424395e-05
5.118415518229932e-06   -1.3111983700291908e-05   -5.111616394424395e-05
5.118415518229932e-06   -1.3111983700291908e-05   -5.111616394424395e-05
6.012288610447914e-06   -5.808975220877952e-06   -6.492846829761131e-07
6.012288610447914e-06   -5.808975220877952e-06   -6.492846829761131e-07
6.012288610447914e-06   -5.808975220877952e-06   -6.492846829761131e-07
6.012288610447914e-06   -5.808975220877952e-06   -6.492846829761131e-07
3.631104659569353e-05   -1.2936164764420274e-05   -4.6870900932260236e-05
3.631104659569353e-05   -1.2936164764420274e-05   -4.6870900932260236e-05
3.631104659569353e-05   -1.2936164764420274e-05   -4.6870900932260236e-05
3.631104659569353e-05   -1.2936164764420274e-05   -4.6870900932260236e-05
2.053573839187216e-05   -8.989153208231737e-06   -2.2946927526270233e-05
2.053573839187216e-05   -8.989153208231737e-06   -2.2946927526270233e-05
2.053573839187216e-05   -8.989153208231737e-06   -2.2946927526270233e-05
2.053573839187216e-05   -8.989153208231737e-06   -2.2946927526270233e-05
3.631104659569353e-05   -5.808975220877952e-06   3.6270290431491495e-06
3.631104659569353e-05   -5.808975220877952e-06   3.6270290431491495e-06
3.631104659569353e-05   -5.808975220877952e-06   3.6270290431491495e-06
3.631104659569353e-05   -5.808975220877952e-06   3.6270290431491495e-06
6.012288610447914e-06   -1.2936164764420274e-05   -5.1147214658385336e-05
6.012288610447914e-06   -1.2936164764420274e-05   -5.1147214658385336e-05
6.012288610447914e-06   -1.2936164764420274e-05   -5.1147214658385336e-05
6.012288610447914e-06   -1.2936164764420274e-05   -5.1147214658385336e-05
7.346313496305501e-06   -4.9560617434579735e-06   -1.270159670341232e-06
7.346313496305501e-06   -4.9560617434579735e-06   -1.270159670341232e-06
7.346313496305501e-06   -4.9560617434579735e-06   -1.270159670341232e-06
7.346313496305501e-06   -4.9560617434579735e-06   -1.270159670341232e-06
3.706142011437736e-05   -1.2584786408422702e-05   -4.6218102568148795e-05
3.706142011437736e-05   -1.2584786408422702e-05   -4.6218102568148795e-05
3.706142011437736e-05   -1.2584786408422702e-05   -4.6218102568148795e-05
3.706142011437736e-05   -1.2584786408422702e-05   -4.6218102568148795e-05
2.1607776380727067e-05   -8.849887784320026e-06   -2.2702968853193515e-05
2.1607776380727067e-05   -8.849887784320026e-06   -2.2702968853193515e-05
2.1607776380727067e-05   -8.849887784320026e-06   -2.2702968853193515e-05
2.1607776380727067e-05   -8.849887784320026e-06   -2.2702968853193515e-05
4.128164898014539e-06   -3.538058946120533e-06   -5.245035075234026e-06
4.128164898014539e-06   -3.538058946120533e-06   -5.245035075234026e-06
4.128164898014539e-06   -3.538058946120533e-06   -5.245035075234026e-06
4.128164898014539e-06   -3.538058946120533e-06   -5.245035075234026e-06
-2.6170703398388108e-05   -1.5906275674190066e-05   -6.316407893941348e-05
-2.6170703398388108e-05   -1.5906275674190066e-05   -6.316407893941348e-05
-2.6170703398388108e-05   -1.5906275674190066e-05   -6.316407893941348e-05
-2.6170703398388108e-05   -1.5906275674190066e-05   -6.316407893941348e-05
-2.4628261156824758e-05   -3.1589399936914585e-06   -1.1314532139245761e-05
-2.4628261156824758e-05   -3.1589399936914585e-06   -1.1314532139245761e-05
-2.4628261156824758e-05   -3.1589399936914585e-06   -1.1314532139245761e-05
-2.4628261156824758e-05   -3.1589399936914585e-06   -1.1314532139245761e-05
5.118415518229932e-06   -1.6258335472933618e-05   -5.3032689310125096e-05
5.118415518229932e-06   -1.6258335472933618e-05   -5.3032689310125096e-05
5.118415518229932e-06   -1.6258335472933618e-05   -5.3032689310125096e-05
5.118415518229932e-06   -1.6258335472933618e-05   -5.3032689310125096e-05
-1.0038028330825283e-05   -8.995357574859836e-06   -3.212973630054407e-05
-1.0038028330825283e-05   -8.995357574859836e-06   -3.212973630054407e-05
-1.0038028330825283e-05   -8.995357574859836e-06   -3.212973630054407e-05
-1.0038028330825283e-05   -8.995357574859836e-06   -3.212973630054407e-05
5.118415518229932e-06   -3.1589399936914585e-06   -3.4548948517007256e-06
5.118415518229932e-06   -3.1589399936914585e-06   -3.4548948517007256e-06
5.118415518229932e-06   -3.1589399936914585e-06   -3.4548948517007256e-06
5.118415518229932e-06   -3.1589399936914585e-06   -3.4548948517007256e-06
-2.4628261156824785e-05   -1.6258335472933618e-05   -6.089232659767046e-05
-2.4628261156824785e-05   -1.6258335472933618e-05   -6.089232659767046e-05
-2.4628261156824785e-05   -1.6258335472933618e-05   -6.089232659767046e-05
-2.4628261156824785e-05   -1.6258335472933618e-05   -6.089232659767046e-05
-2.329917584018331e-05   -2.5683710151557654e-06   -1.0565646152727601e-05
-2.329917584018331e-05   -2.5683710151557654e-06   -1.0565646152727601e-05
-2.329917584018331e-05   -2.5683710151557654e-06   -1.0565646152727601e-05
-2.329917584018331e-05   -2.5683710151557654e-06   -1.0565646152727601e-05
6.012288610447914e-06   -1.6182623066984727e-05   -5.124953567268244e-05
6.012288610447914e-06   -1.6182623066984727e-05   -5.124953567268244e-05
6.012288610447914e-06   -1.6182623066984727e-05   -5.124953567268244e-05
6.012288610447914e-06   -1.6182623066984727e-05   -5.124953567268244e-05
-8.942717632802809e-06   -9.199455277984683e-06   -3.051442594066429e-05
-8.942717632802809e-06   -9.199455277984683e-06   -3.051442594066429e-05
-8.942717632802809e-06   -9.199455277984683e-06   -3.051442594066429e-05
-8.942717632802809e-06   -9.199455277984683e-06   -3.051442594066429e-05
6.012288610447914e-06   -2.5683710151557654e-06   -2.3970949216301374e-06
6.012288610447914e-06   -2.5683710151557654e-06   -2.3970949216301374e-06
6.012288610447914e-06   -2.5683710151557654e-06   -2.3970949216301374e-06
6.012288610447914e-06   -2.5683710151557654e-06   -2.3970949216301374e-06
-2.3299175840183392e-05   -1.6182623066984727e-05   -5.9418086903779846e-05
-2.3299175840183392e-05   -1.6182623066984727e-05   -5.9418086903779846e-05
-2.3299175840183392e-05   -1.6182623066984727e-05   -5.9418086903779846e-05
-2.3299175840183392e-05   -1.6182623066984727e-05   -5.9418086903779846e-05
-2.1006060821115934e-05   -2.0083922125900544e-06   -1.0520778407702635e-05
-2.1006060821115934e-05   -2.0083922125900544e-06   -1.0520778407702635e-05
-2.1006060821115934e-05   -2.0083922125900544e-06   -1.0520778407702635e-05
-2.1006060821115934e-05   -2.0083922125900544e-06   -1.0520778407702635e-05
7.346313496305501e-06   -1.5615581202852412e-05   -4.9610422209247796e-05
7.346313496305501e-06   -1.5615581202852412e-05   -4.9610422209247796e-05
7.346313496305501e-06   -1.5615581202852412e-05   -4.9610422209247796e-05
7.346313496305501e-06   -1.5615581202852412e-05   -4.9610422209247796e-05
-7.5193383019714994e-06   -8.995750639384775e-06   -2.880623421686664e-05
-7.5193383019714994e-06   -8.995750639384775e-06   -2.880623421686664e-05
-7.5193383019714994e-06   -8.995750639384775e-06   -2.880623421686664e-05
-7.5193383019714994e-06   -8.995750639384775e-06   -2.880623421686664e-05
-2.6170703398388067e-05   8.894684213989028e-07   -7.3472389282120635e-06
-2.6170703398388067e-05   8.894684213989028e-07   -7.3472389282120635e-06
-2.6170703398388067e-05   8.894684213989028e-07   -7.3472389282120635e-06
-2.6170703398388067e-05   8.894684213989028e-07   -7.3472389282120635e-06
-5.997730778733381e-05   -1.9839782585398622e-05   -7.612913018053332e-05
-5.997730778733381e-05   -1.9839782585398622e-05   -7.612913018053332e-05
-5.997730778733381e-05   -1.9839782585398622e-05   -7.612913018053332e-05
-5.997730778733381e-05   -1.9839782585398622e-05   -7.612913018053332e-05
-5.813578128541956e-05   1.5910462968105749e-06   -1.9170340543738385e-05
-5.813578128541956e-05   1.5910462968105749e-06   -1.9170340543738385e-05
-5.813578128541956e-05   1.5910462968105749e-06   -1.9170340543738385e-05
-5.813578128541956e-05   1.5910462968105749e-06   -1.9170340543738385e-05
-2.4628261156824758e-05   -2.2150222341203035e-05   -6.077144624192142e-05
-2.4628261156824758e-05   -2.2150222341203035e-05   -6.077144624192142e-05
-2.4628261156824758e-05   -2.2150222341203035e-05   -6.077144624192142e-05
-2.4628261156824758e-05   -2.2150222341203035e-05   -6.077144624192142e-05
-4.162015456498846e-05   -1.0093126700820923e-05   -3.96858812792112e-05
-4.162015456498846e-05   -1.0093126700820923e-05   -3.96858812792112e-05
-4.162015456498846e-05   -1.0093126700820923e-05   -3.96858812792112e-05
-4.162015456498846e-05   -1.0093126700820923e-05   -3.96858812792112e-05
-2.4628261156824758e-05   1.5910462968105749e-06   -4.925579360930349e-06
-2.4628261156824758e-05   1.5910462968105749e-06   -4.925579360930349e-06
-2.4628261156824758e-05   1.5910462968105749e-06   -4.925579360930349e-06
-2.4628261156824758e-05   1.5910462968105749e-06   -4.925579360930349e-06
-5.813578128541956e-05   -2.2150222341203035e-05   -7.501620742472953e-05
-5.813578128541956e-05   -2.2150222341203035e-05   -7.501620742472953e-05
-5.813578128541956e-05   -2.2150222341203035e-05   -7.501620742472953e-05
-5.813578128541956e-05   -2.2150222341203035e-05   -7.501620742472953e-05
-5.637044998125938e-05   2.2369513397236564e-06   -1.7126367552529982e-05
-5.637044998125938e-05   2.2369513397236564e-06   -1.7126367552529982e-05
-5.637044998125938e-05   2.2369513397236564e-06   -1.7126367552529982e-05
-5.637044998125938e-05   2.2369513397236564e-06   -1.7126367552529982e-05
-2.329917584018335e-05   -2.2274162246544837e-05   -5.753848963589581e-05
-2.329917584018335e-05   -2.2274162246544837e-05   -5.753848963589581e-05
-2.329917584018335e-05   -2.2274162246544837e-05   -5.753848963589581e-05
-2.329917584018335e-05   -2.2274162246544837e-05   -5.753848963589581e-05
-3.982459484877528e-05   -1.0127660008807122e-05   -3.7284025964218464e-05
-3.982459484877528e-05   -1.0127660008807122e-05   -3.7284025964218464e-05
-3.982459484877528e-05   -1.0127660008807122e-05   -3.7284025964218464e-05
-3.982459484877528e-05   -1.0127660008807122e-05   -3.7284025964218464e-05
-2.3299175840183338e-05   2.2369513397236564e-06   -2.419699400768886e-06
-2.3299175840183338e-05   2.2369513397236564e-06   -2.419699400768886e-06
-2.3299175840183338e-05   2.2369513397236564e-06   -2.419699400768886e-06
-2.3299175840183338e-05   2.2369513397236564e-06   -2.419699400768886e-06
-5.637044998125948e-05   -2.2274162246544837e-05   -7.224515778765693e-05
-5.637044998125948e-05   -2.2274162246544837e-05   -7.224515778765693e-05
-5.637044998125948e-05   -2.2274162246544837e-05   -7.224515778765693e-05
-5.637044998125948e-05   -2.2274162246544837e-05   -7.224515778765693e-05
-5.347730901547852e-05   2.7834439121996596e-06   -1.5044528465386984e-05
-5.347730901547852e-05   2.7834439121996596e-06   -1.5044528465386984e-05
-5.347730901547852e-05   2.7834439121996596e-06   -1.5044528465386984e-05
-5.347730901547852e-05   2.7834439121996596e-06   -1.5044528465386984e-05
-2.1006060821116015e-05   -2.0329760075466028e-05   -5.529535306339202e-05
-2.1006060821116015e-05   -2.0329760075466028e-05   -5.529535306339202e-05
-2.1006060821116015e-05   -2.0329760075466028e-05   -5.529535306339202e-05
-2.1006060821116015e-05   -2.0329760075466028e-05   -5.529535306339202e-05
-3.8051226949581515e-05   -8.946647367468353e-06   -3.371661047408051e-05
-3.8051226949581515e-05   -8.946647367468353e-06   -3.371661047408051e-05
-3.8051226949581515e-05   -8.946647367468353e-06   -3.371661047408051e-05
-3.8051226949581515e-05   -8.946647367468353e-06   -3.371661047408051e-05
-5.997730778733381e-05   8.562355015041389e-06   -1.2974196931825246e-05
-5.997730778733381e-05   8.562355015041389e-06   -1.2974196931825246e-05
-5.997730778733381e-05   8.562355015041389e-06   -1.2974196931825246e-05
-5.997730778733381e-05   8.562355015041389e-06   -1.2974196931825246e-05
-0.00010327728352272314   0.0   -9.02782361664994e-05
-0.00010327728352272314   0.0   -9.02782361664994e-05
-0.00010327728352272314   0.0   -9.02782361664994e-05
-0.00010327728352272314   0.0   -9.02782361664994e-05
-0.00010058238159632785   1.084148502991612e-05   -9.951993840325154e-06
-0.00010058238159632785   1.084148502991612e-05   -9.951993840325154e-06
-0.00010058238159632785   1.084148502991612e-05   -9.951993840325154e-06
-0.00010058238159632785   1.084148502991612e-05   -9.951993840325154e-06
-5.8135781285419456e-05   0.0   -7.419143667388938e-05
-5.8135781285419456e-05   0.0   -7.419143667388938e-05
-5.8135781285419456e-05   0.0   -7.419143667388938e-05
-5.8135781285419456e-05   0.0   -7.419143667388938e-05
-7.707296337864614e-05   3.312418950993795e-06   -4.461691788910796e-05
-7.707296337864614e-05   3.312418950993795e-06   -4.461691788910796e-05
-7.707296337864614e-05   3.312418950993795e-06   -4.461691788910796e-05
-7.707296337864614e-05   3.312418950993795e-06   -4.461691788910796e-05
-5.81357812854195e-05   1.084148502991612e-05   -3.4471028223753523e-06
-5.81357812854195e-05   1.084148502991612e-05   -3.4471028223753523e-06
-5.81357812854195e-05   1.084148502991612e-05   -3.4471028223753523e-06
-5.81357812854195e-05   1.084148502991612e-05   -3.4471028223753523e-06
-0.00010058238159632768   0.0   -8.069632769183883e-05
-0.00010058238159632768   0.0   -8.069632769183883e-05
-0.00010058238159632768   0.0   -8.069632769183883e-05
-0.00010058238159632768   0.0   -8.069632769183883e-05
-9.830287323205831e-05   1.1353598562202378e-05   -3.9638497151088786e-06
-9.830287323205831e-05   1.1353598562202378e-05   -3.9638497151088786e-06
-9.830287323205831e-05   1.1353598562202378e-05   -3.9638497151088786e-06
-9.830287323205831e-05   1.1353598562202378e-05   -3.9638497151088786e-06
-5.637044998125948e-05   0.0   -6.703906266245242e-05
-5.637044998125948e-05   0.0   -6.703906266245242e-05
-5.637044998125948e-05   0.0   -6.703906266245242e-05
-5.637044998125948e-05   0.0   -6.703906266245242e-05
-7.62691347624581e-05   5.249718006890194e-06   -3.7024418831254485e-05
-7.62691347624581e-05   5.249718006890194e-06   -3.7024418831254485e-05
-7.62691347624581e-05   5.249718006890194e-06   -3.7024418831254485e-05
-7.62691347624581e-05   5.249718006890194e-06   -3.7024418831254485e-05
-5.637044998125948e-05   1.1353598562202812e-05   2.848309422212635e-06
-5.637044998125948e-05   1.1353598562202812e-05   2.848309422212635e-06
-5.637044998125948e-05   1.1353598562202812e-05   2.848309422212635e-06
-5.637044998125948e-05   1.1353598562202812e-05   2.848309422212635e-06
-9.830287323205814e-05   0.0   -7.385122179977364e-05
-9.830287323205814e-05   0.0   -7.385122179977364e-05
-9.830287323205814e-05   0.0   -7.385122179977364e-05
-9.830287323205814e-05   0.0   -7.385122179977364e-05
-9.3755039433913e-05   1.2233764233127685e-05   5.6735594325342444e-06
-9.3755039433913e-05   1.2233764233127685e-05   5.6735594325342444e-06
-9.3755039433913e-05   1.2233764233127685e-05   5.6735594325342444e-06
-9.3755039433913e-05   1.2233764233127685e-05   5.6735594325342444e-06
-5.3477309015478614e-05   0.0   -5.4115732724979926e-05
-5.3477309015478614e-05   0.0   -5.4115732724979926e-05
-5.3477309015478614e-05   0.0   -5.4115732724979926e-05
-5.3477309015478614e-05   0.0   -5.4115732724979926e-05
-7.230062839042023e-05   6.475511080805858e-06   -2.6628840415226997e-05
-7.230062839042023e-05   6.475511080805858e-06   -2.6628840415226997e-05
-7.230062839042023e-05   6.475511080805858e-06   -2.6628840415226997e-05
-7.230062839042023e-05   6.475511080805858e-06   -2.6628840415226997e-05
7.646463340367355e-05   -1.3130406431337022e-05   4.564401507680706e-05
7.646463340367355e-05   -1.3130406431337022e-05   4.564401507680706e-05
7.646463340367355e-05   -1.3130406431337022e-05   4.564401507680706e-05
7.646463340367355e-05   -1.3130406431337022e-05   4.564401507680706e-05
3.967337125170318e-05   -1.011739643315239e-05   -1.3866949177566154e-05
3.967337125170318e-05   -1.011739643315239e-05   -1.3866949177566154e-05
3.967337125170318e-05   -1.011739643315239e-05   -1.3866949177566154e-05
3.967337125170318e-05   -1.011739643315239e-05   -1.3866949177566154e-05
3.8675100364656505e-05   -1.3458870557781291e-05   4.0312854900287094e-05
3.8675100364656505e-05   -1.3458870557781291e-05   4.0312854900287094e-05
3.8675100364656505e-05   -1.3458870557781291e-05   4.0312854900287094e-05
3.8675100364656505e-05   -1.3458870557781291e-05   4.0312854900287094e-05
7.564656239660657e-05   -1.1123821331371873e-05   -2.270727802214205e-05
7.564656239660657e-05   -1.1123821331371873e-05   -2.270727802214205e-05
7.564656239660657e-05   -1.1123821331371873e-05   -2.270727802214205e-05
7.564656239660657e-05   -1.1123821331371873e-05   -2.270727802214205e-05
5.525741481487363e-05   -1.1313794004738469e-05   1.1388618218099522e-05
5.525741481487363e-05   -1.1313794004738469e-05   1.1388618218099522e-05
5.525741481487363e-05   -1.1313794004738469e-05   1.1388618218099522e-05
5.525741481487363e-05   -1.1313794004738469e-05   1.1388618218099522e-05
7.564656239660657e-05   -1.3458870557781291e-05   3.891182536444127e-05
7.564656239660657e-05   -1.3458870557781291e-05   3.891182536444127e-05
7.564656239660657e-05   -1.3458870557781291e-05   3.891182536444127e-05
7.564656239660657e-05   -1.3458870557781291e-05   3.891182536444127e-05
3.8675100364656505e-05   -1.1123821331371873e-05   -2.1306248486296225e-05
3.8675100364656505e-05   -1.1123821331371873e-05   -2.1306248486296225e-05
3.8675100364656505e-05   -1.1123821331371873e-05   -2.1306248486296225e-05
3.8675100364656505e-05   -1.1123821331371873e-05   -2.1306248486296225e-05
3.777205570218706e-05   -1.3337077087052437e-05   3.619450594071361e-05
3.777205570218706e-05   -1.3337077087052437e-05   3.619450594071361e-05
3.777205570218706e-05   -1.3337077087052437e-05   3.619450594071361e-05
3.777205570218706e-05   -1.3337077087052437e-05   3.619450594071361e-05
7.470049839993525e-05   -1.1216454733890824e-05   -2.662527196743052e-05
7.470049839993525e-05   -1.1216454733890824e-05   -2.662527196743052e-05
7.470049839993525e-05   -1.1216454733890824e-05   -2.662527196743052e-05
7.470049839993525e-05   -1.1216454733890824e-05   -2.662527196743052e-05
5.52152400169859e-05   -1.151221491882664e-05   6.027614781779875e-06
5.52152400169859e-05   -1.151221491882664e-05   6.027614781779875e-06
5.52152400169859e-05   -1.151221491882664e-05   6.027614781779875e-06
5.52152400169859e-05   -1.151221491882664e-05   6.027614781779875e-06
7.470049839993538e-05   -1.3337077087052437e-05   3.4922132528816645e-05
7.470049839993538e-05   -1.3337077087052437e-05   3.4922132528816645e-05
7.470049839993538e-05   -1.3337077087052437e-05   3.4922132528816645e-05
7.470049839993538e-05   -1.3337077087052437e-05   3.4922132528816645e-05
3.777205570218706e-05   -1.1216454733890824e-05   -2.5352898555533552e-05
3.777205570218706e-05   -1.1216454733890824e-05   -2.5352898555533552e-05
3.777205570218706e-05   -1.1216454733890824e-05   -2.5352898555533552e-05
3.777205570218706e-05   -1.1216454733890824e-05   -2.5352898555533552e-05
3.667032514090777e-05   -1.2595519040152232e-05   2.949432161315161e-05
3.667032514090777e-05   -1.2595519040152232e-05   2.949432161315161e-05
3.667032514090777e-05   -1.2595519040152232e-05   2.949432161315161e-05
3.667032514090777e-05   -1.2595519040152232e-05   2.949432161315161e-05
7.321818854353353e-05   -1.0982500509927433e-05   -3.238659517602627e-05
7.321818854353353e-05   -1.0982500509927433e-05   -3.238659517602627e-05
7.321818854353353e-05   -1.0982500509927433e-05   -3.238659517602627e-05
7.321818854353353e-05   -1.0982500509927433e-05   -3.238659517602627e-05
5.333011917173174e-05   -1.0946994385851831e-05   7.388834358645208e-07
5.333011917173174e-05   -1.0946994385851831e-05   7.388834358645208e-07
5.333011917173174e-05   -1.0946994385851831e-05   7.388834358645208e-07
5.333011917173174e-05   -1.0946994385851831e-05   7.388834358645208e-07
3.967337125170318e-05   -1.3179457458204445e-05   3.410863500067653e-05
3.967337125170318e-05   -1.3179457458204445e-05   3.410863500067653e-05
3.967337125170318e-05   -1.3179457458204445e-05   3.410863500067653e-05
3.967337125170318e-05   -1.3179457458204445e-05   3.410863500067653e-05
8.453078254442757e-06   -6.256508088893064e-06   -1.3771417039837438e-05
8.453078254442757e-06   -6.256508088893064e-06   -1.3771417039837438e-05
8.453078254442757e-06   -6.256508088893064e-06   -1.3771417039837438e-05
8.453078254442757e-06   -6.256508088893064e-06   -1.3771417039837438e-05
6.873174973450591e-06   -1.3111983700291908e-05   3.8939495210899185e-05
6.873174973450591e-06   -1.3111983700291908e-05   3.8939495210899185e-05
6.873174973450591e-06   -1.3111983700291908e-05   3.8939495210899185e-05
6.873174973450591e-06   -1.3111983700291908e-05   3.8939495210899185e-05
3.8675100364656505e-05   -6.6359520256198574e-06   -1.7949332779247125e-05
3.8675100364656505e-05   -6.6359520256198574e-06   -1.7949332779247125e-05
3.8675100364656505e-05   -6.6359520256198574e-06   -1.7949332779247125e-05
3.8675100364656505e-05   -6.6359520256198574e-06   -1.7949332779247125e-05
2.3386083257540547e-05   -9.433365251183996e-06   9.210810334617714e-06
2.3386083257540547e-05   -9.433365251183996e-06   9.210810334617714e-06
2.3386083257540547e-05   -9.433365251183996e-06   9.210810334617714e-06
2.3386083257540547e-05   -9.433365251183996e-06   9.210810334617714e-06
3.867510036465653e-05   -1.3111983700291908e-05   3.505387620609613e-05
3.867510036465653e-05   -1.3111983700291908e-05   3.505387620609613e-05
3.867510036465653e-05   -1.3111983700291908e-05   3.505387620609613e-05
3.867510036465653e-05   -1.3111983700291908e-05   3.505387620609613e-05
6.873174973450591e-06   -6.6359520256198574e-06   -1.4063713774443987e-05
6.873174973450591e-06   -6.6359520256198574e-06   -1.4063713774443987e-05
6.873174973450591e-06   -6.6359520256198574e-06   -1.4063713774443987e-05
6.873174973450591e-06   -6.6359520256198574e-06   -1.4063713774443987e-05
5.746553313887352e-06   -1.2936164764420274e-05   3.8997997693579044e-05
5.746553313887352e-06   -1.2936164764420274e-05   3.8997997693579044e-05
5.746553313887352e-06   -1.2936164764420274e-05   3.8997997693579044e-05
5.746553313887352e-06   -1.2936164764420274e-05   3.8997997693579044e-05
3.777205570218706e-05   -6.8046938377771746e-06   -1.80567221762397e-05
3.777205570218706e-05   -6.8046938377771746e-06   -1.80567221762397e-05
3.777205570218706e-05   -6.8046938377771746e-06   -1.80567221762397e-05
3.777205570218706e-05   -6.8046938377771746e-06   -1.80567221762397e-05
2.2031834174182318e-05   -9.240104478648592e-06   9.638226754958741e-06
2.2031834174182318e-05   -9.240104478648592e-06   9.638226754958741e-06
2.2031834174182318e-05   -9.240104478648592e-06   9.638226754958741e-06
2.2031834174182318e-05   -9.240104478648592e-06   9.638226754958741e-06
3.777205570218714e-05   -1.2936164764420274e-05   3.531911513759327e-05
3.777205570218714e-05   -1.2936164764420274e-05   3.531911513759327e-05
3.777205570218714e-05   -1.2936164764420274e-05   3.531911513759327e-05
3.777205570218714e-05   -1.2936164764420274e-05   3.531911513759327e-05
5.746553313887352e-06   -6.8046938377771746e-06   -1.4377839620254062e-05
5.746553313887352e-06   -6.8046938377771746e-06   -1.4377839620254062e-05
5.746553313887352e-06   -6.8046938377771746e-06   -1.4377839620254062e-05
5.746553313887352e-06   -6.8046938377771746e-06   -1.4377839620254062e-05
4.493285107207983e-06   -1.2584786408422702e-05   4.026641362165403e-05
4.493285107207983e-06   -1.2584786408422702e-05   4.026641362165403e-05
4.493285107207983e-06   -1.2584786408422702e-05   4.026641362165403e-05
4.493285107207983e-06   -1.2584786408422702e-05   4.026641362165403e-05
3.667032514090773e-05   -6.651285150185461e-06   -1.6922087189454466e-05
3.667032514090773e-05   -6.651285150185461e-06   -1.6922087189454466e-05
3.667032514090773e-05   -6.651285150185461e-06   -1.6922087189454466e-05
3.667032514090773e-05   -6.651285150185461e-06   -1.6922087189454466e-05
2.120359242301196e-05   -8.834732456132737e-06   1.016586905727365e-05
2.120359242301196e-05   -8.834732456132737e-06   1.016586905727365e-05
2.120359242301196e-05   -8.834732456132737e-06   1.016586905727365e-05
2.120359242301196e-05   -8.834732456132737e-06   1.016586905727365e-05
8.453078254442784e-06   -1.5906275674190066e-05   3.5094861042081656e-05
8.453078254442784e-06   -1.5906275674190066e-05   3.5094861042081656e-05
8.453078254442784e-06   -1.5906275674190066e-05   3.5094861042081656e-05
8.453078254442784e-06   -1.5906275674190066e-05   3.5094861042081656e-05
-2.153777692558922e-05   -2.631943470705108e-06   -6.925298269214088e-06
-2.153777692558922e-05   -2.631943470705108e-06   -6.925298269214088e-06
-2.153777692558922e-05   -2.631943470705108e-06   -6.925298269214088e-06
-2.153777692558922e-05   -2.631943470705108e-06   -6.925298269214088e-06
-2.3995519175033168e-05   -1.6258335472933618e-05   4.511043755818403e-05
-2.3995519175033168e-05   -1.6258335472933618e-05   4.511043755818403e-05
-2.3995519175033168e-05   -1.6258335472933618e-05   4.511043755818403e-05
-2.3995519175033168e-05   -1.6258335472933618e-05   4.511043755818403e-05
6.873174973450591e-06   -2.7792226176578776e-06   -1.4424853735788007e-05
6.873174973450591e-06   -2.7792226176578776e-06   -1.4424853735788007e-05
6.873174973450591e-06   -2.7792226176578776e-06   -1.4424853735788007e-05
6.873174973450591e-06   -2.7792226176578776e-06   -1.4424853735788007e-05
-7.283104851041394e-06   -9.091868502515699e-06   1.2956533502613238e-05
-7.283104851041394e-06   -9.091868502515699e-06   1.2956533502613238e-05
-7.283104851041394e-06   -9.091868502515699e-06   1.2956533502613238e-05
-7.283104851041394e-06   -9.091868502515699e-06   1.2956533502613238e-05
6.873174973450591e-06   -1.6258335472933618e-05   3.702296984501815e-05
6.873174973450591e-06   -1.6258335472933618e-05   3.702296984501815e-05
6.873174973450591e-06   -1.6258335472933618e-05   3.702296984501815e-05
6.873174973450591e-06   -1.6258335472933618e-05   3.702296984501815e-05
-2.3995519175033114e-05   -2.7792226176578776e-06   -6.337386022622427e-06
-2.3995519175033114e-05   -2.7792226176578776e-06   -6.337386022622427e-06
-2.3995519175033114e-05   -2.7792226176578776e-06   -6.337386022622427e-06
-2.3995519175033114e-05   -2.7792226176578776e-06   -6.337386022622427e-06
-2.5497670847965737e-05   -1.6182623066984727e-05   4.682948568849265e-05
-2.5497670847965737e-05   -1.6182623066984727e-05   4.682948568849265e-05
-2.5497670847965737e-05   -1.6182623066984727e-05   4.682948568849265e-05
-2.5497670847965737e-05   -1.6182623066984727e-05   4.682948568849265e-05
5.746553313887352e-06   -2.959608051634078e-06   -1.317803025713965e-05
5.746553313887352e-06   -2.959608051634078e-06   -1.317803025713965e-05
5.746553313887352e-06   -2.959608051634078e-06   -1.317803025713965e-05
5.746553313887352e-06   -2.959608051634078e-06   -1.317803025713965e-05
-8.946979296871953e-06   -9.063017845912374e-06   1.497323663735982e-05
-8.946979296871953e-06   -9.063017845912374e-06   1.497323663735982e-05
-8.946979296871953e-06   -9.063017845912374e-06   1.497323663735982e-05
-8.946979296871953e-06   -9.063017845912374e-06   1.497323663735982e-05
5.746553313887325e-06   -1.6182623066984727e-05   3.8895676679282e-05
5.746553313887325e-06   -1.6182623066984727e-05   3.8895676679282e-05
5.746553313887325e-06   -1.6182623066984727e-05   3.8895676679282e-05
5.746553313887325e-06   -1.6182623066984727e-05   3.8895676679282e-05
-2.5497670847965682e-05   -2.959608051634078e-06   -5.244221247929217e-06
-2.5497670847965682e-05   -2.959608051634078e-06   -5.244221247929217e-06
-2.5497670847965682e-05   -2.959608051634078e-06   -5.244221247929217e-06
-2.5497670847965682e-05   -2.959608051634078e-06   -5.244221247929217e-06
-2.7264454172862488e-05   -1.5615581202852412e-05   4.9055368961592504e-05
-2.7264454172862488e-05   -1.5615581202852412e-05   4.9055368961592504e-05
-2.7264454172862488e-05   -1.5615581202852412e-05   4.9055368961592504e-05
-2.7264454172862488e-05   -1.5615581202852412e-05   4.9055368961592504e-05
4.493285107207983e-06   -2.942180899421446e-06   -1.1478236687250082e-05
4.493285107207983e-06   -2.942180899421446e-06   -1.1478236687250082e-05
4.493285107207983e-06   -2.942180899421446e-06   -1.1478236687250082e-05
4.493285107207983e-06   -2.942180899421446e-06   -1.1478236687250082e-05
-1.0301857559520129e-05   -8.702394316236102e-06   1.6636462474052213e-05
-1.0301857559520129e-05   -8.702394316236102e-06   1.6636462474052213e-05
-1.0301857559520129e-05   -8.702394316236102e-06   1.6636462474052213e-05
-1.0301857559520129e-05   -8.702394316236102e-06   1.6636462474052213e-05
-2.153777692558926e-05   -1.9839782585398622e-05   4.25319597271317e-05
-2.153777692558926e-05   -1.9839782585398622e-05   4.25319597271317e-05
-2.153777692558926e-05   -1.9839782585398622e-05   4.25319597271317e-05
-2.153777692558926e-05   -1.9839782585398622e-05   4.25319597271317e-05
-5.569044483099286e-05   2.827269092579767e-06   -7.889224417538879e-07
-5.569044483099286e-05   2.827269092579767e-06   -7.889224417538879e-07
-5.569044483099286e-05   2.827269092579767e-06   -7.889224417538879e-07
-5.569044483099286e-05   2.827269092579767e-06   -7.889224417538879e-07
-5.864375493204243e-05   -2.2150222341203035e-05   6.011636474527286e-05
-5.864375493204243e-05   -2.2150222341203035e-05   6.011636474527286e-05
-5.864375493204243e-05   -2.2150222341203035e-05   6.011636474527286e-05
-5.864375493204243e-05   -2.2150222341203035e-05   6.011636474527286e-05
-2.3995519175033114e-05   2.658189044363931e-06   -1.2515741681082433e-05
-2.3995519175033114e-05   2.658189044363931e-06   -1.2515741681082433e-05
-2.3995519175033114e-05   2.658189044363931e-06   -1.2515741681082433e-05
-2.3995519175033114e-05   2.658189044363931e-06   -1.2515741681082433e-05
-3.940813602172507e-05   -8.237525801212814e-06   1.9709381970749976e-05
-3.940813602172507e-05   -8.237525801212814e-06   1.9709381970749976e-05
-3.940813602172507e-05   -8.237525801212814e-06   1.9709381970749976e-05
-3.940813602172507e-05   -8.237525801212814e-06   1.9709381970749976e-05
-2.3995519175033168e-05   -2.2150222341203035e-05   4.523131791393255e-05
-2.3995519175033168e-05   -2.2150222341203035e-05   4.523131791393255e-05
-2.3995519175033168e-05   -2.2150222341203035e-05   4.523131791393255e-05
-2.3995519175033168e-05   -2.2150222341203035e-05   4.523131791393255e-05
-5.864375493204243e-05   2.658189044363931e-06   2.3693051502573885e-06
-5.864375493204243e-05   2.658189044363931e-06   2.3693051502573885e-06
-5.864375493204243e-05   2.658189044363931e-06   2.3693051502573885e-06
-5.864375493204243e-05   2.658189044363931e-06   2.3693051502573885e-06
-6.0443854124389424e-05   -2.2274162246544837e-05   6.348160548645741e-05
-6.0443854124389424e-05   -2.2274162246544837e-05   6.348160548645741e-05
-6.0443854124389424e-05   -2.2274162246544837e-05   6.348160548645741e-05
-6.0443854124389424e-05   -2.2274162246544837e-05   6.348160548645741e-05
-2.5497670847965682e-05   2.346708636923305e-06   -9.534555837662878e-06
-2.5497670847965682e-05   2.346708636923305e-06   -9.534555837662878e-06
-2.5497670847965682e-05   2.346708636923305e-06   -9.534555837662878e-06
-2.5497670847965682e-05   2.346708636923305e-06   -9.534555837662878e-06
-4.132680293568509e-05   -9.483851855731588e-06   2.3945667270795627e-05
-4.132680293568509e-05   -9.483851855731588e-06   2.3945667270795627e-05
-4.132680293568509e-05   -9.483851855731588e-06   2.3945667270795627e-05
-4.132680293568509e-05   -9.483851855731588e-06   2.3945667270795627e-05
-2.549767084796567e-05   -2.2274162246544837e-05   4.870908295637644e-05
-2.549767084796567e-05   -2.2274162246544837e-05   4.870908295637644e-05
-2.549767084796567e-05   -2.2274162246544837e-05   4.870908295637644e-05
-2.549767084796567e-05   -2.2274162246544837e-05   4.870908295637644e-05
-6.04438541243893e-05   2.346708636923305e-06   5.237966692417904e-06
-6.04438541243893e-05   2.346708636923305e-06   5.237966692417904e-06
-6.04438541243893e-05   2.346708636923305e-06   5.237966692417904e-06
-6.04438541243893e-05   2.346708636923305e-06   5.237966692417904e-06
-6.23833516941717e-05   -2.0329760075466028e-05   6.492904890145713e-05
-6.23833516941717e-05   -2.0329760075466028e-05   6.492904890145713e-05
-6.23833516941717e-05   -2.0329760075466028e-05   6.492904890145713e-05
-6.23833516941717e-05   -2.0329760075466028e-05   6.492904890145713e-05
-2.726445417286242e-05   1.994068924286805e-06   -6.996744367243136e-06
-2.726445417286242e-05   1.994068924286805e-06   -6.996744367243136e-06
-2.726445417286242e-05   1.994068924286805e-06   -6.996744367243136e-06
-2.726445417286242e-05   1.994068924286805e-06   -6.996744367243136e-06
-4.330348281946244e-05   -9.55484635012209e-06   2.6664319208402902e-05
-4.330348281946244e-05   -9.55484635012209e-06   2.6664319208402902e-05
-4.330348281946244e-05   -9.55484635012209e-06   2.6664319208402902e-05
-4.330348281946244e-05   -9.55484635012209e-06   2.6664319208402902e-05
-5.5690444830992656e-05   0.0   4.7120497756977233e-05
-5.5690444830992656e-05   0.0   4.7120497756977233e-05
-5.5690444830992656e-05   0.0   4.7120497756977233e-05
-5.5690444830992656e-05   0.0   4.7120497756977233e-05
-9.808630492296835e-05   1.286070480344733e-05   -1.5822846180913938e-05
-9.808630492296835e-05   1.286070480344733e-05   -1.5822846180913938e-05
-9.808630492296835e-05   1.286070480344733e-05   -1.5822846180913938e-05
-9.808630492296835e-05   1.286070480344733e-05   -1.5822846180913938e-05
-0.00010215946999455384   0.0   6.838857696419383e-05
-0.00010215946999455384   0.0   6.838857696419383e-05
-0.00010215946999455384   0.0   6.838857696419383e-05
-0.00010215946999455384   0.0   6.838857696419383e-05
-5.864375493204232e-05   1.2412402446801852e-05   -1.1585056274740068e-05
-5.864375493204232e-05   1.2412402446801852e-05   -1.1585056274740068e-05
-5.864375493204232e-05   1.2412402446801852e-05   -1.1585056274740068e-05
-5.864375493204232e-05   1.2412402446801852e-05   -1.1585056274740068e-05
-7.529138838734814e-05   7.630152046499313e-06   1.903034972428432e-05
-7.529138838734814e-05   7.630152046499313e-06   1.903034972428432e-05
-7.529138838734814e-05   7.630152046499313e-06   1.903034972428432e-05
-7.529138838734814e-05   7.630152046499313e-06   1.903034972428432e-05
-5.864375493204227e-05   0.0   6.0941135496112714e-05
-5.864375493204227e-05   0.0   6.0941135496112714e-05
-5.864375493204227e-05   0.0   6.0941135496112714e-05
-5.864375493204227e-05   0.0   6.0941135496112714e-05
-0.00010215946999455401   1.2412402446801852e-05   -4.137614806658902e-06
-0.00010215946999455401   1.2412402446801852e-05   -4.137614806658902e-06
-0.00010215946999455401   1.2412402446801852e-05   -4.137614806658902e-06
-0.00010215946999455401   1.2412402446801852e-05   -4.137614806658902e-06
-0.00010421087586172479   0.0   7.594410075120565e-05
-0.00010421087586172479   0.0   7.594410075120565e-05
-0.00010421087586172479   0.0   7.594410075120565e-05
-0.00010421087586172479   0.0   7.594410075120565e-05
-6.04438541243893e-05   1.2094000232572896e-05   -4.257335617231079e-06
-6.04438541243893e-05   1.2094000232572896e-05   -4.257335617231079e-06
-6.04438541243893e-05   1.2094000232572896e-05   -4.257335617231079e-06
-6.04438541243893e-05   1.2094000232572896e-05   -4.257335617231079e-06
-7.922003437054809e-05   6.371134861645096e-06   3.047001734892427e-05
-7.922003437054809e-05   6.371134861645096e-06   3.047001734892427e-05
-7.922003437054809e-05   6.371134861645096e-06   3.047001734892427e-05
-7.922003437054809e-05   6.371134861645096e-06   3.047001734892427e-05
-6.04438541243893e-05   0.0   6.868770061166179e-05
-6.04438541243893e-05   0.0   6.868770061166179e-05
-6.04438541243893e-05   0.0   6.868770061166179e-05
-6.04438541243893e-05   0.0   6.868770061166179e-05
-0.00010421087586172517   1.2094000232572896e-05   2.999064522312897e-06
-0.00010421087586172517   1.2094000232572896e-05   2.999064522312897e-06
-0.00010421087586172517   1.2094000232572896e-05   2.999064522312897e-06
-0.00010421087586172517   1.2094000232572896e-05   2.999064522312897e-06
-0.00010649535716852817   0.0   8.601932040022534e-05
-0.00010649535716852817   0.0   8.601932040022534e-05
-0.00010649535716852817   0.0   8.601932040022534e-05
-0.00010649535716852817   0.0   8.601932040022534e-05
-6.23833516941717e-05   1.0071214612928075e-05   6.456582508540515e-06
-6.23833516941717e-05   1.0071214612928075e-05   6.456582508540515e-06
-6.23833516941717e-05   1.0071214612928075e-05   6.456582508540515e-06
-6.23833516941717e-05   1.0071214612928075e-05   6.456582508540515e-06
-7.988014291311065e-05   4.472286675613526e-06   3.897725796916116e-05
-7.988014291311065e-05   4.472286675613526e-06   3.897725796916116e-05
-7.988014291311065e-05   4.472286675613526e-06   3.897725796916116e-05
-7.988014291311065e-05   4.472286675613526e-06   3.897725796916116e-05
6.725199076968485e-05   -1.011739643315239e-05   4.774843955853e-05
6.725199076968485e-05   -1.011739643315239e-05   4.774843955853e-05
6.725199076968485e-05   -1.011739643315239e-05   4.774843955853e-05
6.725199076968485e-05   -1.011739643315239e-05   4.774843955853e-05
3.401386607786352e-05   -7.630057605617982e-06   -6.1560316313182244e-06
3.401386607786352e-05   -7.630057605617982e-06   -6.1560316313182244e-06
3.401386607786352e-05   -7.630057605617982e-06   -6.1560316313182244e-06
3.401386607786352e-05   -7.630057605617982e-06   -6.1560316313182244e-06
3.3116086148372316e-05   -1.1123821331371873e-05   4.1678838416939895e-05
3.3116086148372316e-05   -1.1123821331371873e-05   4.1678838416939895e-05
3.3116086148372316e-05   -1.1123821331371873e-05   4.1678838416939895e-05
3.3116086148372316e-05   -1.1123821331371873e-05   4.1678838416939895e-05
6.564905978696841e-05   -8.647924561870721e-06   -1.402832237575422e-05
6.564905978696841e-05   -8.647924561870721e-06   -1.402832237575422e-05
6.564905978696841e-05   -8.647924561870721e-06   -1.402832237575422e-05
6.564905978696841e-05   -8.647924561870721e-06   -1.402832237575422e-05
4.778148644974737e-05   -9.004854252250491e-06   1.5965124333841996e-05
4.778148644974737e-05   -9.004854252250491e-06   1.5965124333841996e-05
4.778148644974737e-05   -9.004854252250491e-06   1.5965124333841996e-05
4.778148644974737e-05   -9.004854252250491e-06   1.5965124333841996e-05
6.56490597869683e-05   -1.1123821331371873e-05   4.019330035523916e-05
6.56490597869683e-05   -1.1123821331371873e-05   4.019330035523916e-05
6.56490597869683e-05   -1.1123821331371873e-05   4.019330035523916e-05
6.56490597869683e-05   -1.1123821331371873e-05   4.019330035523916e-05
3.311608614837237e-05   -8.647924561870721e-06   -1.2542784314053526e-05
3.311608614837237e-05   -8.647924561870721e-06   -1.2542784314053526e-05
3.311608614837237e-05   -8.647924561870721e-06   -1.2542784314053526e-05
3.311608614837237e-05   -8.647924561870721e-06   -1.2542784314053526e-05
3.195923911496094e-05   -1.1216454733890824e-05   3.7411221887990185e-05
3.195923911496094e-05   -1.1216454733890824e-05   3.7411221887990185e-05
3.195923911496094e-05   -1.1216454733890824e-05   3.7411221887990185e-05
3.195923911496094e-05   -1.1216454733890824e-05   3.7411221887990185e-05
6.402794130416786e-05   -8.79926213252476e-06   -1.7486930654841265e-05
6.402794130416786e-05   -8.79926213252476e-06   -1.7486930654841265e-05
6.402794130416786e-05   -8.79926213252476e-06   -1.7486930654841265e-05
6.402794130416786e-05   -8.79926213252476e-06   -1.7486930654841265e-05
4.733159008565462e-05   -9.398094073922135e-06   1.0699620540852617e-05
4.733159008565462e-05   -9.398094073922135e-06   1.0699620540852617e-05
4.733159008565462e-05   -9.398094073922135e-06   1.0699620540852617e-05
4.733159008565462e-05   -9.398094073922135e-06   1.0699620540852617e-05
6.402794130416786e-05   -1.1216454733890824e-05   3.596090632717024e-05
6.402794130416786e-05   -1.1216454733890824e-05   3.596090632717024e-05
6.402794130416786e-05   -1.1216454733890824e-05   3.596090632717024e-05
6.402794130416786e-05   -1.1216454733890824e-05   3.596090632717024e-05
3.195923911496094e-05   -8.79926213252476e-06   -1.6036615094021378e-05
3.195923911496094e-05   -8.79926213252476e-06   -1.6036615094021378e-05
3.195923911496094e-05   -8.79926213252476e-06   -1.6036615094021378e-05
3.195923911496094e-05   -8.79926213252476e-06   -1.6036615094021378e-05
3.0745513408823896e-05   -1.0982500509926999e-05   3.108103843294462e-05
3.0745513408823896e-05   -1.0982500509926999e-05   3.108103843294462e-05
3.0745513408823896e-05   -1.0982500509926999e-05   3.108103843294462e-05
3.0745513408823896e-05   -1.0982500509926999e-05   3.108103843294462e-05
6.199865789218992e-05   -8.743790107494914e-06   -2.235076194745826e-05
6.199865789218992e-05   -8.743790107494914e-06   -2.235076194745826e-05
6.199865789218992e-05   -8.743790107494914e-06   -2.235076194745826e-05
6.199865789218992e-05   -8.743790107494914e-06   -2.235076194745826e-05
4.522172440536742e-05   -9.152137113961796e-06   5.855802067793398e-06
4.522172440536742e-05   -9.152137113961796e-06   5.855802067793398e-06
4.522172440536742e-05   -9.152137113961796e-06   5.855802067793398e-06
4.522172440536742e-05   -9.152137113961796e-06   5.855802067793398e-06
3.4013866077863575e-05   -6.256508088893064e-06   4.518260537119279e-05
3.4013866077863575e-05   -6.256508088893064e-06   4.518260537119279e-05
3.4013866077863575e-05   -6.256508088893064e-06   4.518260537119279e-05
3.4013866077863575e-05   -6.256508088893064e-06   4.518260537119279e-05
3.7305101505700556e-06   -2.6923844291724085e-06   -3.151180311797676e-06
3.7305101505700556e-06   -2.6923844291724085e-06   -3.151180311797676e-06
3.7305101505700556e-06   -2.6923844291724085e-06   -3.151180311797676e-06
3.7305101505700556e-06   -2.6923844291724085e-06   -3.151180311797676e-06
2.838684690966266e-06   -6.6359520256198574e-06   4.707369344765402e-05
2.838684690966266e-06   -6.6359520256198574e-06   4.707369344765402e-05
2.838684690966266e-06   -6.6359520256198574e-06   4.707369344765402e-05
2.838684690966266e-06   -6.6359520256198574e-06   4.707369344765402e-05
3.311608614837237e-05   -3.239386486178497e-06   -5.426581638354693e-06
3.311608614837237e-05   -3.239386486178497e-06   -5.426581638354693e-06
3.311608614837237e-05   -3.239386486178497e-06   -5.426581638354693e-06
3.311608614837237e-05   -3.239386486178497e-06   -5.426581638354693e-06
1.8248269332405776e-05   -4.375862071291561e-06   2.003499840599085e-05
1.8248269332405776e-05   -4.375862071291561e-06   2.003499840599085e-05
1.8248269332405776e-05   -4.375862071291561e-06   2.003499840599085e-05
1.8248269332405776e-05   -4.375862071291561e-06   2.003499840599085e-05
3.311608614837236e-05   -6.6359520256198574e-06   4.503575412398886e-05
3.311608614837236e-05   -6.6359520256198574e-06   4.503575412398886e-05
3.311608614837236e-05   -6.6359520256198574e-06   4.503575412398886e-05
3.311608614837236e-05   -6.6359520256198574e-06   4.503575412398886e-05
2.838684690966266e-06   -3.239386486178497e-06   -3.3886423146897195e-06
2.838684690966266e-06   -3.239386486178497e-06   -3.3886423146897195e-06
2.838684690966266e-06   -3.239386486178497e-06   -3.3886423146897195e-06
2.838684690966266e-06   -3.239386486178497e-06   -3.3886423146897195e-06
1.700224212405736e-06   -6.8046938377771746e-06   4.663134613287724e-05
1.700224212405736e-06   -6.8046938377771746e-06   4.663134613287724e-05
1.700224212405736e-06   -6.8046938377771746e-06   4.663134613287724e-05
1.700224212405736e-06   -6.8046938377771746e-06   4.663134613287724e-05
3.195923911496094e-05   -3.5981140617882823e-06   -5.72429323697477e-06
3.195923911496094e-05   -3.5981140617882823e-06   -5.72429323697477e-06
3.195923911496094e-05   -3.5981140617882823e-06   -5.72429323697477e-06
3.195923911496094e-05   -3.5981140617882823e-06   -5.72429323697477e-06
1.711737401675253e-05   -4.582937469745432e-06   1.960304263814766e-05
1.711737401675253e-05   -4.582937469745432e-06   1.960304263814766e-05
1.711737401675253e-05   -4.582937469745432e-06   1.960304263814766e-05
1.711737401675253e-05   -4.582937469745432e-06   1.960304263814766e-05
3.195923911496089e-05   -6.8046938377771746e-06   4.4707398267283685e-05
3.195923911496089e-05   -6.8046938377771746e-06   4.4707398267283685e-05
3.195923911496089e-05   -6.8046938377771746e-06   4.4707398267283685e-05
3.195923911496089e-05   -6.8046938377771746e-06   4.4707398267283685e-05
1.700224212405736e-06   -3.5981140617882823e-06   -3.8003453713814344e-06
1.700224212405736e-06   -3.5981140617882823e-06   -3.8003453713814344e-06
1.700224212405736e-06   -3.5981140617882823e-06   -3.8003453713814344e-06
1.700224212405736e-06   -3.5981140617882823e-06   -3.8003453713814344e-06
4.425798981202392e-07   -6.651285150185461e-06   4.7317396821451195e-05
4.425798981202392e-07   -6.651285150185461e-06   4.7317396821451195e-05
4.425798981202392e-07   -6.651285150185461e-06   4.7317396821451195e-05
4.425798981202392e-07   -6.651285150185461e-06   4.7317396821451195e-05
3.0745513408823855e-05   -3.7518492834020395e-06   -4.927153883124615e-06
3.0745513408823855e-05   -3.7518492834020395e-06   -4.927153883124615e-06
3.0745513408823855e-05   -3.7518492834020395e-06   -4.927153883124615e-06
3.0745513408823855e-05   -3.7518492834020395e-06   -4.927153883124615e-06
1.6196062702154977e-05   -4.5395273533250895e-06   1.979453746994448e-05
1.6196062702154977e-05   -4.5395273533250895e-06   1.979453746994448e-05
1.6196062702154977e-05   -4.5395273533250895e-06   1.979453746994448e-05
1.6196062702154977e-05   -4.5395273533250895e-06   1.979453746994448e-05
3.7305101505700556e-06   -2.631943470705108e-06   4.620259901555739e-05
3.7305101505700556e-06   -2.631943470705108e-06   4.620259901555739e-05
3.7305101505700556e-06   -2.631943470705108e-06   4.620259901555739e-05
3.7305101505700556e-06   -2.631943470705108e-06   4.620259901555739e-05
-2.5607308221603433e-05   2.3925221635510453e-06   3.209144424890127e-07
-2.5607308221603433e-05   2.3925221635510453e-06   3.209144424890127e-07
-2.5607308221603433e-05   2.3925221635510453e-06   3.209144424890127e-07
-2.5607308221603433e-05   2.3925221635510453e-06   3.209144424890127e-07
-2.6612137614450348e-05   -2.7792226176578776e-06   4.9564404597891853e-05
-2.6612137614450348e-05   -2.7792226176578776e-06   4.9564404597891853e-05
-2.6612137614450348e-05   -2.7792226176578776e-06   4.9564404597891853e-05
-2.6612137614450348e-05   -2.7792226176578776e-06   4.9564404597891853e-05
2.838684690966266e-06   1.9738625683120813e-06   -2.372150356051174e-06
2.838684690966266e-06   1.9738625683120813e-06   -2.372150356051174e-06
2.838684690966266e-06   1.9738625683120813e-06   -2.372150356051174e-06
2.838684690966266e-06   1.9738625683120813e-06   -2.372150356051174e-06
-1.13916176069122e-05   -4.073429509150739e-08   2.255377825845532e-05
-1.13916176069122e-05   -4.073429509150739e-08   2.255377825845532e-05
-1.13916176069122e-05   -4.073429509150739e-08   2.255377825845532e-05
-1.13916176069122e-05   -4.073429509150739e-08   2.255377825845532e-05
2.838684690966266e-06   -2.7792226176578776e-06   4.671255348630992e-05
2.838684690966266e-06   -2.7792226176578776e-06   4.671255348630992e-05
2.838684690966266e-06   -2.7792226176578776e-06   4.671255348630992e-05
2.838684690966266e-06   -2.7792226176578776e-06   4.671255348630992e-05
-2.6612137614450348e-05   1.973862568312515e-06   4.797007555309204e-07
-2.6612137614450348e-05   1.973862568312515e-06   4.797007555309204e-07
-2.6612137614450348e-05   1.973862568312515e-06   4.797007555309204e-07
-2.6612137614450348e-05   1.973862568312515e-06   4.797007555309204e-07
-2.7959286559785864e-05   -2.959608051634078e-06   5.0557403403239535e-05
-2.7959286559785864e-05   -2.959608051634078e-06   5.0557403403239535e-05
-2.7959286559785864e-05   -2.959608051634078e-06   5.0557403403239535e-05
-2.7959286559785864e-05   -2.959608051634078e-06   5.0557403403239535e-05
1.700224212405736e-06   1.5841384604455867e-06   -1.6013624576613245e-06
1.700224212405736e-06   1.5841384604455867e-06   -1.6013624576613245e-06
1.700224212405736e-06   1.5841384604455867e-06   -1.6013624576613245e-06
1.700224212405736e-06   1.5841384604455867e-06   -1.6013624576613245e-06
-1.2382797300708858e-05   -1.584393863741755e-07   2.2915886772288284e-05
-1.2382797300708858e-05   -1.584393863741755e-07   2.2915886772288284e-05
-1.2382797300708858e-05   -1.584393863741755e-07   2.2915886772288284e-05
-1.2382797300708858e-05   -1.584393863741755e-07   2.2915886772288284e-05
1.700224212405736e-06   -2.959608051634078e-06   4.783115549599143e-05
1.700224212405736e-06   -2.959608051634078e-06   4.783115549599143e-05
1.700224212405736e-06   -2.959608051634078e-06   4.783115549599143e-05
1.700224212405736e-06   -2.959608051634078e-06   4.783115549599143e-05
-2.7959286559785837e-05   1.5841384604455867e-06   1.1248854495868321e-06
-2.7959286559785837e-05   1.5841384604455867e-06   1.1248854495868321e-06
-2.7959286559785837e-05   1.5841384604455867e-06   1.1248854495868321e-06
-2.7959286559785837e-05   1.5841384604455867e-06   1.1248854495868321e-06
-2.9394577182821282e-05   -2.942180899421446e-06   5.174850965081472e-05
-2.9394577182821282e-05   -2.942180899421446e-06   5.174850965081472e-05
-2.9394577182821282e-05   -2.942180899421446e-06   5.174850965081472e-05
-2.9394577182821282e-05   -2.942180899421446e-06   5.174850965081472e-05
4.4257989812022567e-07   1.3034242374136695e-06   -5.274485661890794e-07
4.4257989812022567e-07   1.3034242374136695e-06   -5.274485661890794e-07
4.4257989812022567e-07   1.3034242374136695e-06   -5.274485661890794e-07
4.4257989812022567e-07   1.3034242374136695e-06   -5.274485661890794e-07
-1.3646841174349018e-05   -2.429196544486388e-07   2.388272622304451e-05
-1.3646841174349018e-05   -2.429196544486388e-07   2.388272622304451e-05
-1.3646841174349018e-05   -2.429196544486388e-07   2.388272622304451e-05
-1.3646841174349018e-05   -2.429196544486388e-07   2.388272622304451e-05
-2.560730822160335e-05   2.827269092579767e-06   4.175342321678416e-05
-2.560730822160335e-05   2.827269092579767e-06   4.175342321678416e-05
-2.560730822160335e-05   2.827269092579767e-06   4.175342321678416e-05
-2.560730822160335e-05   2.827269092579767e-06   4.175342321678416e-05
-5.43484805973221e-05   7.794469639074361e-06   -3.1682104148502647e-06
-5.43484805973221e-05   7.794469639074361e-06   -3.1682104148502647e-06
-5.43484805973221e-05   7.794469639074361e-06   -3.1682104148502647e-06
-5.43484805973221e-05   7.794469639074361e-06   -3.1682104148502647e-06
-5.5811981882060424e-05   2.658189044363931e-06   4.6215991931657964e-05
-5.5811981882060424e-05   2.658189044363931e-06   4.6215991931657964e-05
-5.5811981882060424e-05   2.658189044363931e-06   4.6215991931657964e-05
-5.5811981882060424e-05   2.658189044363931e-06   4.6215991931657964e-05
-2.6612137614450267e-05   7.3747606980745055e-06   -5.280358173251885e-06
-2.6612137614450267e-05   7.3747606980745055e-06   -5.280358173251885e-06
-2.6612137614450267e-05   7.3747606980745055e-06   -5.280358173251885e-06
-2.6612137614450267e-05   7.3747606980745055e-06   -5.280358173251885e-06
-4.027479907054393e-05   5.253630827288611e-06   1.8763422176042155e-05
-4.027479907054393e-05   5.253630827288611e-06   1.8763422176042155e-05
-4.027479907054393e-05   5.253630827288611e-06   1.8763422176042155e-05
-4.027479907054393e-05   5.253630827288611e-06   1.8763422176042155e-05
-2.6612137614450294e-05   2.658189044363931e-06   4.3386048939431576e-05
-2.6612137614450294e-05   2.658189044363931e-06   4.3386048939431576e-05
-2.6612137614450294e-05   2.658189044363931e-06   4.3386048939431576e-05
-2.6612137614450294e-05   2.658189044363931e-06   4.3386048939431576e-05
-5.581198188206034e-05   7.3747606980745055e-06   -2.450415181025605e-06
-5.581198188206034e-05   7.3747606980745055e-06   -2.450415181025605e-06
-5.581198188206034e-05   7.3747606980745055e-06   -2.450415181025605e-06
-5.581198188206034e-05   7.3747606980745055e-06   -2.450415181025605e-06
-5.760549750961032e-05   2.346708636923305e-06   4.9050998108053374e-05
-5.760549750961032e-05   2.346708636923305e-06   4.9050998108053374e-05
-5.760549750961032e-05   2.346708636923305e-06   4.9050998108053374e-05
-5.760549750961032e-05   2.346708636923305e-06   4.9050998108053374e-05
-2.7959286559785837e-05   6.986590794502354e-06   -3.1432827695348857e-06
-2.7959286559785837e-05   6.986590794502354e-06   -3.1432827695348857e-06
-2.7959286559785837e-05   6.986590794502354e-06   -3.1432827695348857e-06
-2.7959286559785837e-05   6.986590794502354e-06   -3.1432827695348857e-06
-4.136490760771142e-05   5.156823274719748e-06   2.0297279488876987e-05
-4.136490760771142e-05   5.156823274719748e-06   2.0297279488876987e-05
-4.136490760771142e-05   5.156823274719748e-06   2.0297279488876987e-05
-4.136490760771142e-05   5.156823274719748e-06   2.0297279488876987e-05
-2.795928655978581e-05   2.346708636923305e-06   4.62670688135059e-05
-2.795928655978581e-05   2.346708636923305e-06   4.62670688135059e-05
-2.795928655978581e-05   2.346708636923305e-06   4.62670688135059e-05
-2.795928655978581e-05   2.346708636923305e-06   4.62670688135059e-05
-5.760549750961032e-05   6.98659079450192e-06   -3.593534749874675e-07
-5.760549750961032e-05   6.98659079450192e-06   -3.593534749874675e-07
-5.760549750961032e-05   6.98659079450192e-06   -3.593534749874675e-07
-5.760549750961032e-05   6.98659079450192e-06   -3.593534749874675e-07
-5.950320035268017e-05   1.994068924286805e-06   5.1308381070342725e-05
-5.950320035268017e-05   1.994068924286805e-06   5.1308381070342725e-05
-5.950320035268017e-05   1.994068924286805e-06   5.1308381070342725e-05
-5.950320035268017e-05   1.994068924286805e-06   5.1308381070342725e-05
-2.9394577182821174e-05   6.464767726919226e-06   -1.5550768276682858e-06
-2.9394577182821174e-05   6.464767726919226e-06   -1.5550768276682858e-06
-2.9394577182821174e-05   6.464767726919226e-06   -1.5550768276682858e-06
-2.9394577182821174e-05   6.464767726919226e-06   -1.5550768276682858e-06
-4.318057212706956e-05   4.8418397469605565e-06   2.239533820072245e-05
-4.318057212706956e-05   4.8418397469605565e-06   2.239533820072245e-05
-4.318057212706956e-05   4.8418397469605565e-06   2.239533820072245e-05
-4.318057212706956e-05   4.8418397469605565e-06   2.239533820072245e-05
-5.43484805973221e-05   1.286070480344733e-05   2.198339692345238e-05
-5.43484805973221e-05   1.286070480344733e-05   2.198339692345238e-05
-5.43484805973221e-05   1.286070480344733e-05   2.198339692345238e-05
-5.43484805973221e-05   1.286070480344733e-05   2.198339692345238e-05
-8.187383879926742e-05   1.2676334538369322e-05   -2.400282223883666e-05
-8.187383879926742e-05   1.2676334538369322e-05   -2.400282223883666e-05
-8.187383879926742e-05   1.2676334538369322e-05   -2.400282223883666e-05
-8.187383879926742e-05   1.2676334538369322e-05   -2.400282223883666e-05
-8.450096985623096e-05   1.2412402446801852e-05   3.256590136233766e-05
-8.450096985623096e-05   1.2412402446801852e-05   3.256590136233766e-05
-8.450096985623096e-05   1.2412402446801852e-05   3.256590136233766e-05
-8.450096985623096e-05   1.2412402446801852e-05   3.256590136233766e-05
-5.581198188206034e-05   1.2919520539597228e-05   -1.5553349450290988e-05
-5.581198188206034e-05   1.2919520539597228e-05   -1.5553349450290988e-05
-5.581198188206034e-05   1.2919520539597228e-05   -1.5553349450290988e-05
-5.581198188206034e-05   1.2919520539597228e-05   -1.5553349450290988e-05
-6.635108368661935e-05   1.2917414157092178e-05   2.013084053477214e-06
-6.635108368661935e-05   1.2917414157092178e-05   2.013084053477214e-06
-6.635108368661935e-05   1.2917414157092178e-05   2.013084053477214e-06
-6.635108368661935e-05   1.2917414157092178e-05   2.013084053477214e-06
-5.581198188206029e-05   1.2412402446801852e-05   3.2261630506660345e-05
-5.581198188206029e-05   1.2412402446801852e-05   3.2261630506660345e-05
-5.581198188206029e-05   1.2412402446801852e-05   3.2261630506660345e-05
-5.581198188206029e-05   1.2412402446801852e-05   3.2261630506660345e-05
-8.450096985623096e-05   1.2919520539596795e-05   -1.5249078594613838e-05
-8.450096985623096e-05   1.2919520539596795e-05   -1.5249078594613838e-05
-8.450096985623096e-05   1.2919520539596795e-05   -1.5249078594613838e-05
-8.450096985623096e-05   1.2919520539596795e-05   -1.5249078594613838e-05
-8.707726732349507e-05   1.209400023257333e-05   3.999516512663429e-05
-8.707726732349507e-05   1.209400023257333e-05   3.999516512663429e-05
-8.707726732349507e-05   1.209400023257333e-05   3.999516512663429e-05
-8.707726732349507e-05   1.209400023257333e-05   3.999516512663429e-05
-5.760549750961024e-05   1.282644911295653e-05   -9.563920558070611e-06
-5.760549750961024e-05   1.282644911295653e-05   -9.563920558070611e-06
-5.760549750961024e-05   1.282644911295653e-05   -9.563920558070611e-06
-5.760549750961024e-05   1.282644911295653e-05   -9.563920558070611e-06
-6.936299691385418e-05   1.291551438710025e-05   9.978472617850568e-06
-6.936299691385418e-05   1.291551438710025e-05   9.978472617850568e-06
-6.936299691385418e-05   1.291551438710025e-05   9.978472617850568e-06
-6.936299691385418e-05   1.291551438710025e-05   9.978472617850568e-06
-5.760549750961024e-05   1.2094000232572896e-05   3.95556957984045e-05
-5.760549750961024e-05   1.2094000232572896e-05   3.95556957984045e-05
-5.760549750961024e-05   1.2094000232572896e-05   3.95556957984045e-05
-5.760549750961024e-05   1.2094000232572896e-05   3.95556957984045e-05
-8.707726732349507e-05   1.282644911295653e-05   -9.124451229840496e-06
-8.707726732349507e-05   1.282644911295653e-05   -9.124451229840496e-06
-8.707726732349507e-05   1.282644911295653e-05   -9.124451229840496e-06
-8.707726732349507e-05   1.282644911295653e-05   -9.124451229840496e-06
-9.011563306867248e-05   1.0071214612928075e-05   5.240926192405363e-05
-9.011563306867248e-05   1.0071214612928075e-05   5.240926192405363e-05
-9.011563306867248e-05   1.0071214612928075e-05   5.240926192405363e-05
-9.011563306867248e-05   1.0071214612928075e-05   5.240926192405363e-05
-5.950320035267995e-05   1.1807633575893102e-05   3.4668935295370734e-07
-5.950320035267995e-05   1.1807633575893102e-05   3.4668935295370734e-07
-5.950320035267995e-05   1.1807633575893102e-05   3.4668935295370734e-07
-5.950320035267995e-05   1.1807633575893102e-05   3.4668935295370734e-07
-7.044359442430381e-05   1.2302326791798976e-05   1.8283863542783736e-05
-7.044359442430381e-05   1.2302326791798976e-05   1.8283863542783736e-05
-7.044359442430381e-05   1.2302326791798976e-05   1.8283863542783736e-05
-7.044359442430381e-05   1.2302326791798976e-05   1.8283863542783736e-05
5.4539697284974315e-05   -7.630057605617548e-06   4.2088426061842295e-05
5.4539697284974315e-05   -7.630057605617548e-06   4.2088426061842295e-05
5.4539697284974315e-05   -7.630057605617548e-06   4.2088426061842295e-05
5.4539697284974315e-05   -7.630057605617548e-06   4.2088426061842295e-05
2.700276739064898e-05   -5.593705539795775e-06   -2.5846458558734763e-06
2.700276739064898e-05   -5.593705539795775e-06   -2.5846458558734763e-06
2.700276739064898e-05   -5.593705539795775e-06   -2.5846458558734763e-06
2.700276739064898e-05   -5.593705539795775e-06   -2.5846458558734763e-06
2.5968609423841713e-05   -8.647924561870721e-06   3.660039065241853e-05
2.5968609423841713e-05   -8.647924561870721e-06   3.660039065241853e-05
2.5968609423841713e-05   -8.647924561870721e-06   3.660039065241853e-05
2.5968609423841713e-05   -8.647924561870721e-06   3.660039065241853e-05
5.26377380842075e-05   -6.490404331576955e-06   -9.142669253033754e-06
5.26377380842075e-05   -6.490404331576955e-06   -9.142669253033754e-06
5.26377380842075e-05   -6.490404331576955e-06   -9.142669253033754e-06
5.26377380842075e-05   -6.490404331576955e-06   -9.142669253033754e-06
3.8204176871739384e-05   -7.017974806407257e-06   1.5229808385977582e-05
3.8204176871739384e-05   -7.017974806407257e-06   1.5229808385977582e-05
3.8204176871739384e-05   -7.017974806407257e-06   1.5229808385977582e-05
3.8204176871739384e-05   -7.017974806407257e-06   1.5229808385977582e-05
5.263773808420741e-05   -8.647924561870721e-06   3.530587851424249e-05
5.263773808420741e-05   -8.647924561870721e-06   3.530587851424249e-05
5.263773808420741e-05   -8.647924561870721e-06   3.530587851424249e-05
5.263773808420741e-05   -8.647924561870721e-06   3.530587851424249e-05
2.5968609423841794e-05   -6.490404331576955e-06   -7.848157114857552e-06
2.5968609423841794e-05   -6.490404331576955e-06   -7.848157114857552e-06
2.5968609423841794e-05   -6.490404331576955e-06   -7.848157114857552e-06
2.5968609423841794e-05   -6.490404331576955e-06   -7.848157114857552e-06
2.4819483292452994e-05   -8.799262132524327e-06   3.280088186007448e-05
2.4819483292452994e-05   -8.799262132524327e-06   3.280088186007448e-05
2.4819483292452994e-05   -8.799262132524327e-06   3.280088186007448e-05
2.4819483292452994e-05   -8.799262132524327e-06   3.280088186007448e-05
5.09154973716741e-05   -6.6705857671781055e-06   -1.1969680757835194e-05
5.09154973716741e-05   -6.6705857671781055e-06   -1.1969680757835194e-05
5.09154973716741e-05   -6.6705857671781055e-06   -1.1969680757835194e-05
5.09154973716741e-05   -6.6705857671781055e-06   -1.1969680757835194e-05
3.7488187047714785e-05   -7.3654693350726046e-06   1.0826099922833592e-05
3.7488187047714785e-05   -7.3654693350726046e-06   1.0826099922833592e-05
3.7488187047714785e-05   -7.3654693350726046e-06   1.0826099922833592e-05
3.7488187047714785e-05   -7.3654693350726046e-06   1.0826099922833592e-05
5.0915497371673926e-05   -8.799262132524327e-06   3.15236760408664e-05
5.0915497371673926e-05   -8.799262132524327e-06   3.15236760408664e-05
5.0915497371673926e-05   -8.799262132524327e-06   3.15236760408664e-05
5.0915497371673926e-05   -8.799262132524327e-06   3.15236760408664e-05
2.4819483292453028e-05   -6.6705857671781055e-06   -1.0692474938627352e-05
2.4819483292453028e-05   -6.6705857671781055e-06   -1.0692474938627352e-05
2.4819483292453028e-05   -6.6705857671781055e-06   -1.0692474938627352e-05
2.4819483292453028e-05   -6.6705857671781055e-06   -1.0692474938627352e-05
2.371427299290705e-05   -8.743790107494914e-06   2.750280343871811e-05
2.371427299290705e-05   -8.743790107494914e-06   2.750280343871811e-05
2.371427299290705e-05   -8.743790107494914e-06   2.750280343871811e-05
2.371427299290705e-05   -8.743790107494914e-06   2.750280343871811e-05
4.896495729940957e-05   -6.743614587079172e-06   -1.5781775717701706e-05
4.896495729940957e-05   -6.743614587079172e-06   -1.5781775717701706e-05
4.896495729940957e-05   -6.743614587079172e-06   -1.5781775717701706e-05
4.896495729940957e-05   -6.743614587079172e-06   -1.5781775717701706e-05
3.555766108408248e-05   -7.241075237887813e-06   6.862194364995618e-06
3.555766108408248e-05   -7.241075237887813e-06   6.862194364995618e-06
3.555766108408248e-05   -7.241075237887813e-06   6.862194364995618e-06
3.555766108408248e-05   -7.241075237887813e-06   6.862194364995618e-06
2.700276739064898e-05   -2.692384429172842e-06   4.41766144250236e-05
2.700276739064898e-05   -2.692384429172842e-06   4.41766144250236e-05
2.700276739064898e-05   -2.692384429172842e-06   4.41766144250236e-05
2.700276739064898e-05   -2.692384429172842e-06   4.41766144250236e-05
1.1552241681101253e-06   -1.0698245899824765e-06   2.070911624306492e-06
1.1552241681101253e-06   -1.0698245899824765e-06   2.070911624306492e-06
1.1552241681101253e-06   -1.0698245899824765e-06   2.070911624306492e-06
1.1552241681101253e-06   -1.0698245899824765e-06   2.070911624306492e-06
1.6248443079100276e-07   -3.239386486178497e-06   4.4636797578079994e-05
1.6248443079100276e-07   -3.239386486178497e-06   4.4636797578079994e-05
1.6248443079100276e-07   -3.239386486178497e-06   4.4636797578079994e-05
1.6248443079100276e-07   -3.239386486178497e-06   4.4636797578079994e-05
2.5968609423841794e-05   -1.705712736240969e-06   7.063850063661738e-07
2.5968609423841794e-05   -1.705712736240969e-06   7.063850063661738e-07
2.5968609423841794e-05   -1.705712736240969e-06   7.063850063661738e-07
2.5968609423841794e-05   -1.705712736240969e-06   7.063850063661738e-07
1.3407597093654568e-05   -2.0962083382802636e-06   2.1875702917901704e-05
1.3407597093654568e-05   -2.0962083382802636e-06   2.1875702917901704e-05
1.3407597093654568e-05   -2.0962083382802636e-06   2.1875702917901704e-05
1.3407597093654568e-05   -2.0962083382802636e-06   2.1875702917901704e-05
2.5968609423841774e-05   -3.239386486178497e-06   4.371659332811739e-05
2.5968609423841774e-05   -3.239386486178497e-06   4.371659332811739e-05
2.5968609423841774e-05   -3.239386486178497e-06   4.371659332811739e-05
2.5968609423841774e-05   -3.239386486178497e-06   4.371659332811739e-05
1.6248443079100276e-07   -1.705712736240969e-06   1.6265892563288586e-06
1.6248443079100276e-07   -1.705712736240969e-06   1.6265892563288586e-06
1.6248443079100276e-07   -1.705712736240969e-06   1.6265892563288586e-06
1.6248443079100276e-07   -1.705712736240969e-06   1.6265892563288586e-06
-8.69403735655037e-07   -3.5981140617882823e-06   4.396518788892358e-05
-8.69403735655037e-07   -3.5981140617882823e-06   4.396518788892358e-05
-8.69403735655037e-07   -3.5981140617882823e-06   4.396518788892358e-05
-8.69403735655037e-07   -3.5981140617882823e-06   4.396518788892358e-05
2.4819483292453028e-05   -2.1781404421173864e-06   2.983920036076507e-07
2.4819483292453028e-05   -2.1781404421173864e-06   2.983920036076507e-07
2.4819483292453028e-05   -2.1781404421173864e-06   2.983920036076507e-07
2.4819483292453028e-05   -2.1781404421173864e-06   2.983920036076507e-07
1.2268014957882289e-05   -2.4293995671696884e-06   2.136826136959081e-05
1.2268014957882289e-05   -2.4293995671696884e-06   2.136826136959081e-05
1.2268014957882289e-05   -2.4293995671696884e-06   2.136826136959081e-05
1.2268014957882289e-05   -2.4293995671696884e-06   2.136826136959081e-05
2.4819483292452994e-05   -3.5981140617882823e-06   4.3113203717121086e-05
2.4819483292452994e-05   -3.5981140617882823e-06   4.3113203717121086e-05
2.4819483292452994e-05   -3.5981140617882823e-06   4.3113203717121086e-05
2.4819483292452994e-05   -3.5981140617882823e-06   4.3113203717121086e-05
-8.69403735655037e-07   -2.1781404421173864e-06   1.1503761754101584e-06
-8.69403735655037e-07   -2.1781404421173864e-06   1.1503761754101584e-06
-8.69403735655037e-07   -2.1781404421173864e-06   1.1503761754101584e-06
-8.69403735655037e-07   -2.1781404421173864e-06   1.1503761754101584e-06
-1.943670964666956e-06   -3.751849283402473e-06   4.430376230416802e-05
-1.943670964666956e-06   -3.751849283402473e-06   4.430376230416802e-05
-1.943670964666956e-06   -3.751849283402473e-06   4.430376230416802e-05
-1.943670964666956e-06   -3.751849283402473e-06   4.430376230416802e-05
2.3714272992907106e-05   -2.5508875457756243e-06   8.19945332301947e-07
2.3714272992907106e-05   -2.5508875457756243e-06   8.19945332301947e-07
2.3714272992907106e-05   -2.5508875457756243e-06   8.19945332301947e-07
2.3714272992907106e-05   -2.5508875457756243e-06   8.19945332301947e-07
1.141110005543315e-05   -2.6083881043328233e-06   2.1359733896560368e-05
1.141110005543315e-05   -2.6083881043328233e-06   2.1359733896560368e-05
1.141110005543315e-05   -2.6083881043328233e-06   2.1359733896560368e-05
1.141110005543315e-05   -2.6083881043328233e-06   2.1359733896560368e-05
1.1552241681101253e-06   2.3925221635510453e-06   4.5607565702270644e-05
1.1552241681101253e-06   2.3925221635510453e-06   4.5607565702270644e-05
1.1552241681101253e-06   2.3925221635510453e-06   4.5607565702270644e-05
1.1552241681101253e-06   2.3925221635510453e-06   4.5607565702270644e-05
-2.3937209656562698e-05   3.4732712552204732e-06   4.435292116150829e-06
-2.3937209656562698e-05   3.4732712552204732e-06   4.435292116150829e-06
-2.3937209656562698e-05   3.4732712552204732e-06   4.435292116150829e-06
-2.3937209656562698e-05   3.4732712552204732e-06   4.435292116150829e-06
-2.4974456331289523e-05   1.9738625683120813e-06   4.623541173806871e-05
-2.4974456331289523e-05   1.9738625683120813e-06   4.623541173806871e-05
-2.4974456331289523e-05   1.9738625683120813e-06   4.623541173806871e-05
-2.4974456331289523e-05   1.9738625683120813e-06   4.623541173806871e-05
1.6248443079100276e-07   2.9440662372287596e-06   3.758388266584438e-06
1.6248443079100276e-07   2.9440662372287596e-06   3.758388266584438e-06
1.6248443079100276e-07   2.9440662372287596e-06   3.758388266584438e-06
1.6248443079100276e-07   2.9440662372287596e-06   3.758388266584438e-06
-1.1916921923183329e-05   2.726691400189909e-06   2.4021157092098274e-05
-1.1916921923183329e-05   2.726691400189909e-06   2.4021157092098274e-05
-1.1916921923183329e-05   2.726691400189909e-06   2.4021157092098274e-05
-1.1916921923183329e-05   2.726691400189909e-06   2.4021157092098274e-05
1.6248443079100276e-07   1.9738625683120813e-06   4.56532895367187e-05
1.6248443079100276e-07   1.9738625683120813e-06   4.56532895367187e-05
1.6248443079100276e-07   1.9738625683120813e-06   4.56532895367187e-05
1.6248443079100276e-07   1.9738625683120813e-06   4.56532895367187e-05
-2.4974456331289523e-05   2.9440662372287596e-06   4.340510467934228e-06
-2.4974456331289523e-05   2.9440662372287596e-06   4.340510467934228e-06
-2.4974456331289523e-05   2.9440662372287596e-06   4.340510467934228e-06
-2.4974456331289523e-05   2.9440662372287596e-06   4.340510467934228e-06
-2.6069777361384475e-05   1.5841384604455867e-06   4.667181107648362e-05
-2.6069777361384475e-05   1.5841384604455867e-06   4.667181107648362e-05
-2.6069777361384475e-05   1.5841384604455867e-06   4.667181107648362e-05
-2.6069777361384475e-05   1.5841384604455867e-06   4.667181107648362e-05
-8.69403735655037e-07   2.430205583511466e-06   4.163548093094735e-06
-8.69403735655037e-07   2.430205583511466e-06   4.163548093094735e-06
-8.69403735655037e-07   2.430205583511466e-06   4.163548093094735e-06
-8.69403735655037e-07   2.430205583511466e-06   4.163548093094735e-06
-1.2880487064983315e-05   2.4245479077569278e-06   2.418541491409497e-05
-1.2880487064983315e-05   2.4245479077569278e-06   2.418541491409497e-05
-1.2880487064983315e-05   2.4245479077569278e-06   2.418541491409497e-05
-1.2880487064983315e-05   2.4245479077569278e-06   2.418541491409497e-05
-8.69403735655037e-07   1.5841384604455867e-06   4.616417080264396e-05
-8.69403735655037e-07   1.5841384604455867e-06   4.616417080264396e-05
-8.69403735655037e-07   1.5841384604455867e-06   4.616417080264396e-05
-8.69403735655037e-07   1.5841384604455867e-06   4.616417080264396e-05
-2.606977736138453e-05   2.430205583511466e-06   4.671188366934609e-06
-2.606977736138453e-05   2.430205583511466e-06   4.671188366934609e-06
-2.606977736138453e-05   2.430205583511466e-06   4.671188366934609e-06
-2.606977736138453e-05   2.430205583511466e-06   4.671188366934609e-06
-2.7200065457521494e-05   1.3034242374141032e-06   4.736543398575614e-05
-2.7200065457521494e-05   1.3034242374141032e-06   4.736543398575614e-05
-2.7200065457521494e-05   1.3034242374141032e-06   4.736543398575614e-05
-2.7200065457521494e-05   1.3034242374141032e-06   4.736543398575614e-05
-1.943670964666956e-06   1.972804045284604e-06   4.869815279609648e-06
-1.943670964666956e-06   1.972804045284604e-06   4.869815279609648e-06
-1.943670964666956e-06   1.972804045284604e-06   4.869815279609648e-06
-1.943670964666956e-06   1.972804045284604e-06   4.869815279609648e-06
-1.3923222440104512e-05   2.135078011291768e-06   2.4738370025735265e-05
-1.3923222440104512e-05   2.135078011291768e-06   2.4738370025735265e-05
-1.3923222440104512e-05   2.135078011291768e-06   2.4738370025735265e-05
-1.3923222440104512e-05   2.135078011291768e-06   2.4738370025735265e-05
-2.3937209656562806e-05   7.794469639073928e-06   3.978656997203635e-05
-2.3937209656562806e-05   7.794469639073928e-06   3.978656997203635e-05
-2.3937209656562806e-05   7.794469639073928e-06   3.978656997203635e-05
-2.3937209656562806e-05   7.794469639073928e-06   3.978656997203635e-05
-4.8238652482023985e-05   7.89310634194797e-06   -6.566527153413319e-07
-4.8238652482023985e-05   7.89310634194797e-06   -6.566527153413319e-07
-4.8238652482023985e-05   7.89310634194797e-06   -6.566527153413319e-07
-4.8238652482023985e-05   7.89310634194797e-06   -6.566527153413319e-07
-4.944283468124e-05   7.3747606980745055e-06   4.0483108924819046e-05
-4.944283468124e-05   7.3747606980745055e-06   4.0483108924819046e-05
-4.944283468124e-05   7.3747606980745055e-06   4.0483108924819046e-05
-4.944283468124e-05   7.3747606980745055e-06   4.0483108924819046e-05
-2.497445633128955e-05   7.3876875572964455e-06   -3.052777739647773e-07
-2.497445633128955e-05   7.3876875572964455e-06   -3.052777739647773e-07
-2.497445633128955e-05   7.3876875572964455e-06   -3.052777739647773e-07
-2.497445633128955e-05   7.3876875572964455e-06   -3.052777739647773e-07
-3.6484512133559016e-05   7.594203086608818e-06   1.8754239245563306e-05
-3.6484512133559016e-05   7.594203086608818e-06   1.8754239245563306e-05
-3.6484512133559016e-05   7.594203086608818e-06   1.8754239245563306e-05
-3.6484512133559016e-05   7.594203086608818e-06   1.8754239245563306e-05
-2.497445633128955e-05   7.3747606980745055e-06   4.047535280928601e-05
-2.497445633128955e-05   7.3747606980745055e-06   4.047535280928601e-05
-2.497445633128955e-05   7.3747606980745055e-06   4.047535280928601e-05
-2.497445633128955e-05   7.3747606980745055e-06   4.047535280928601e-05
-4.9442834681239916e-05   7.387687557296012e-06   -2.9752165843152656e-07
-4.9442834681239916e-05   7.387687557296012e-06   -2.9752165843152656e-07
-4.9442834681239916e-05   7.387687557296012e-06   -2.9752165843152656e-07
-4.9442834681239916e-05   7.387687557296012e-06   -2.9752165843152656e-07
-5.0777480297373845e-05   6.98659079450192e-06   4.236477247631255e-05
-5.0777480297373845e-05   6.98659079450192e-06   4.236477247631255e-05
-5.0777480297373845e-05   6.98659079450192e-06   4.236477247631255e-05
-5.0777480297373845e-05   6.98659079450192e-06   4.236477247631255e-05
-2.606977736138453e-05   6.921806826086854e-06   1.224137964046519e-06
-2.606977736138453e-05   6.921806826086854e-06   1.224137964046519e-06
-2.606977736138453e-05   6.921806826086854e-06   1.224137964046519e-06
-2.606977736138453e-05   6.921806826086854e-06   1.224137964046519e-06
-3.735524170111997e-05   7.3087293210004345e-06   1.9801091699990763e-05
-3.735524170111997e-05   7.3087293210004345e-06   1.9801091699990763e-05
-3.735524170111997e-05   7.3087293210004345e-06   1.9801091699990763e-05
-3.735524170111997e-05   7.3087293210004345e-06   1.9801091699990763e-05
-2.6069777361384502e-05   6.98659079450192e-06   4.2403642857361847e-05
-2.6069777361384502e-05   6.98659079450192e-06   4.2403642857361847e-05
-2.6069777361384502e-05   6.98659079450192e-06   4.2403642857361847e-05
-2.6069777361384502e-05   6.98659079450192e-06   4.2403642857361847e-05
-5.077748029737371e-05   6.921806826086854e-06   1.185267582997111e-06
-5.077748029737371e-05   6.921806826086854e-06   1.185267582997111e-06
-5.077748029737371e-05   6.921806826086854e-06   1.185267582997111e-06
-5.077748029737371e-05   6.921806826086854e-06   1.185267582997111e-06
-5.204947430371875e-05   6.464767726919226e-06   4.3723328779670225e-05
-5.204947430371875e-05   6.464767726919226e-06   4.3723328779670225e-05
-5.204947430371875e-05   6.464767726919226e-06   4.3723328779670225e-05
-5.204947430371875e-05   6.464767726919226e-06   4.3723328779670225e-05
-2.7200065457521602e-05   6.352911289409218e-06   2.374761231847388e-06
-2.7200065457521602e-05   6.352911289409218e-06   2.374761231847388e-06
-2.7200065457521602e-05   6.352911289409218e-06   2.374761231847388e-06
-2.7200065457521602e-05   6.352911289409218e-06   2.374761231847388e-06
-3.874016061340537e-05   6.938014142784769e-06   2.1257191446296753e-05
-3.874016061340537e-05   6.938014142784769e-06   2.1257191446296753e-05
-3.874016061340537e-05   6.938014142784769e-06   2.1257191446296753e-05
-3.874016061340537e-05   6.938014142784769e-06   2.1257191446296753e-05
-4.823865248202393e-05   1.2676334538369322e-05   1.912176232882136e-05
-4.823865248202393e-05   1.2676334538369322e-05   1.912176232882136e-05
-4.823865248202393e-05   1.2676334538369322e-05   1.912176232882136e-05
-4.823865248202393e-05   1.2676334538369322e-05   1.912176232882136e-05
-7.132865632784489e-05   1.1363387659721075e-05   -2.0149345541402796e-05
-7.132865632784489e-05   1.1363387659721075e-05   -2.0149345541402796e-05
-7.132865632784489e-05   1.1363387659721075e-05   -2.0149345541402796e-05
-7.132865632784489e-05   1.1363387659721075e-05   -2.0149345541402796e-05
-7.322495478497357e-05   1.2919520539597228e-05   2.6518647475209847e-05
-7.322495478497357e-05   1.2919520539597228e-05   2.6518647475209847e-05
-7.322495478497357e-05   1.2919520539597228e-05   2.6518647475209847e-05
-7.322495478497357e-05   1.2919520539597228e-05   2.6518647475209847e-05
-4.944283468124e-05   1.148364190569056e-05   -1.2256692184002646e-05
-4.944283468124e-05   1.148364190569056e-05   -1.2256692184002646e-05
-4.944283468124e-05   1.148364190569056e-05   -1.2256692184002646e-05
-4.944283468124e-05   1.148364190569056e-05   -1.2256692184002646e-05
-5.8239976979454215e-05   1.2040257788627738e-05   2.071242116592374e-06
-5.8239976979454215e-05   1.2040257788627738e-05   2.071242116592374e-06
-5.8239976979454215e-05   1.2040257788627738e-05   2.071242116592374e-06
-5.8239976979454215e-05   1.2040257788627738e-05   2.071242116592374e-06
-4.9442834681239834e-05   1.2919520539596795e-05   2.7380174655553717e-05
-4.9442834681239834e-05   1.2919520539596795e-05   2.7380174655553717e-05
-4.9442834681239834e-05   1.2919520539596795e-05   2.7380174655553717e-05
-4.9442834681239834e-05   1.2919520539596795e-05   2.7380174655553717e-05
-7.322495478497384e-05   1.148364190569056e-05   -1.3118219364346463e-05
-7.322495478497384e-05   1.148364190569056e-05   -1.3118219364346463e-05
-7.322495478497384e-05   1.148364190569056e-05   -1.3118219364346463e-05
-7.322495478497384e-05   1.148364190569056e-05   -1.3118219364346463e-05
-7.507663855891357e-05   1.282644911295653e-05   3.227864039105979e-05
-7.507663855891357e-05   1.282644911295653e-05   3.227864039105979e-05
-7.507663855891357e-05   1.282644911295653e-05   3.227864039105979e-05
-7.507663855891357e-05   1.282644911295653e-05   3.227864039105979e-05
-5.0777480297373845e-05   1.1357174109341128e-05   -7.338391709337455e-06
-5.0777480297373845e-05   1.1357174109341128e-05   -7.338391709337455e-06
-5.0777480297373845e-05   1.1357174109341128e-05   -7.338391709337455e-06
-5.0777480297373845e-05   1.1357174109341128e-05   -7.338391709337455e-06
-6.056949985101031e-05   1.2259937469569996e-05   8.43998286392041e-06
-6.056949985101031e-05   1.2259937469569996e-05   8.43998286392041e-06
-6.056949985101031e-05   1.2259937469569996e-05   8.43998286392041e-06
-6.056949985101031e-05   1.2259937469569996e-05   8.43998286392041e-06
-5.0777480297373845e-05   1.282644911295653e-05   3.3160205393229295e-05
-5.0777480297373845e-05   1.282644911295653e-05   3.3160205393229295e-05
-5.0777480297373845e-05   1.282644911295653e-05   3.3160205393229295e-05
-5.0777480297373845e-05   1.282644911295653e-05   3.3160205393229295e-05
-7.507663855891385e-05   1.1357174109341128e-05   -8.21995671150674e-06
-7.507663855891385e-05   1.1357174109341128e-05   -8.21995671150674e-06
-7.507663855891385e-05   1.1357174109341128e-05   -8.21995671150674e-06
-7.507663855891385e-05   1.1357174109341128e-05   -8.21995671150674e-06
-7.723922847593495e-05   1.1807633575893102e-05   4.214684610409766e-05
-7.723922847593495e-05   1.1807633575893102e-05   4.214684610409766e-05
-7.723922847593495e-05   1.1807633575893102e-05   4.214684610409766e-05
-7.723922847593495e-05   1.1807633575893102e-05   4.214684610409766e-05
-5.204947430371875e-05   1.0481250951535279e-05   9.597520583519295e-07
-5.204947430371875e-05   1.0481250951535279e-05   9.597520583519295e-07
-5.204947430371875e-05   1.0481250951535279e-05   9.597520583519295e-07
-5.204947430371875e-05   1.0481250951535279e-05   9.597520583519295e-07
-6.116171497287045e-05   1.1898576898527417e-05   1.5296424272076927e-05
-6.116171497287045e-05   1.1898576898527417e-05   1.5296424272076927e-05
-6.116171497287045e-05   1.1898576898527417e-05   1.5296424272076927e-05
-6.116171497287045e-05   1.1898576898527417e-05   1.5296424272076927e-05
4.139770900944715e-05   -5.593705539795775e-06   3.5136467193894096e-05
4.139770900944715e-05   -5.593705539795775e-06   3.5136467193894096e-05
4.139770900944715e-05   -5.593705539795775e-06   3.5136467193894096e-05
4.139770900944715e-05   -5.593705539795775e-06   3.5136467193894096e-05
1.9489556705880887e-05   -3.6960361233535216e-06   -2.3851832885082164e-07
1.9489556705880887e-05   -3.6960361233535216e-06   -2.3851832885082164e-07
1.9489556705880887e-05   -3.6960361233535216e-06   -2.3851832885082164e-07
1.9489556705880887e-05   -3.6960361233535216e-06   -2.3851832885082164e-07
1.8565970713761498e-05   -6.490404331576955e-06   3.087369546753973e-05
1.8565970713761498e-05   -6.490404331576955e-06   3.087369546753973e-05
1.8565970713761498e-05   -6.490404331576955e-06   3.087369546753973e-05
1.8565970713761498e-05   -6.490404331576955e-06   3.087369546753973e-05
3.961081788834879e-05   -4.486289501648075e-06   -5.4035187213963916e-06
3.961081788834879e-05   -4.486289501648075e-06   -5.4035187213963916e-06
3.961081788834879e-05   -4.486289501648075e-06   -5.4035187213963916e-06
3.961081788834879e-05   -4.486289501648075e-06   -5.4035187213963916e-06
2.8365763995915553e-05   -5.10526508073518e-06   1.3709623113444618e-05
2.8365763995915553e-05   -5.10526508073518e-06   1.3709623113444618e-05
2.8365763995915553e-05   -5.10526508073518e-06   1.3709623113444618e-05
2.8365763995915553e-05   -5.10526508073518e-06   1.3709623113444618e-05
3.961081788834879e-05   -6.490404331577389e-06   2.9671226569582534e-05
3.961081788834879e-05   -6.490404331577389e-06   2.9671226569582534e-05
3.961081788834879e-05   -6.490404331577389e-06   2.9671226569582534e-05
3.961081788834879e-05   -6.490404331577389e-06   2.9671226569582534e-05
1.856597071376153e-05   -4.486289501648075e-06   -4.201049823438895e-06
1.856597071376153e-05   -4.486289501648075e-06   -4.201049823438895e-06
1.856597071376153e-05   -4.486289501648075e-06   -4.201049823438895e-06
1.856597071376153e-05   -4.486289501648075e-06   -4.201049823438895e-06
1.7546621475618822e-05   -6.6705857671781055e-06   2.7877229945419846e-05
1.7546621475618822e-05   -6.6705857671781055e-06   2.7877229945419846e-05
1.7546621475618822e-05   -6.6705857671781055e-06   2.7877229945419846e-05
1.7546621475618822e-05   -6.6705857671781055e-06   2.7877229945419846e-05
3.8044878734277214e-05   -4.697452104295962e-06   -7.4704123500732436e-06
3.8044878734277214e-05   -4.697452104295962e-06   -7.4704123500732436e-06
3.8044878734277214e-05   -4.697452104295962e-06   -7.4704123500732436e-06
3.8044878734277214e-05   -4.697452104295962e-06   -7.4704123500732436e-06
2.762485333194067e-05   -5.425863486059005e-06   1.0333343482879249e-05
2.762485333194067e-05   -5.425863486059005e-06   1.0333343482879249e-05
2.762485333194067e-05   -5.425863486059005e-06   1.0333343482879249e-05
2.762485333194067e-05   -5.425863486059005e-06   1.0333343482879249e-05
3.804487873427716e-05   -6.670585767177672e-06   2.6693349747690604e-05
3.804487873427716e-05   -6.670585767177672e-06   2.6693349747690604e-05
3.804487873427716e-05   -6.670585767177672e-06   2.6693349747690604e-05
3.804487873427716e-05   -6.670585767177672e-06   2.6693349747690604e-05
1.754662147561885e-05   -4.697452104295962e-06   -6.286532152343987e-06
1.754662147561885e-05   -4.697452104295962e-06   -6.286532152343987e-06
1.754662147561885e-05   -4.697452104295962e-06   -6.286532152343987e-06
1.754662147561885e-05   -4.697452104295962e-06   -6.286532152343987e-06
1.6605426088436128e-05   -6.743614587079172e-06   2.3819424231305694e-05
1.6605426088436128e-05   -6.743614587079172e-06   2.3819424231305694e-05
1.6605426088436128e-05   -6.743614587079172e-06   2.3819424231305694e-05
1.6605426088436128e-05   -6.743614587079172e-06   2.3819424231305694e-05
3.629538231775755e-05   -4.895014894199575e-06   -1.0106329299957637e-05
3.629538231775755e-05   -4.895014894199575e-06   -1.0106329299957637e-05
3.629538231775755e-05   -4.895014894199575e-06   -1.0106329299957637e-05
3.629538231775755e-05   -4.895014894199575e-06   -1.0106329299957637e-05
2.5990593199507886e-05   -5.394929185645672e-06   7.368267805326961e-06
2.5990593199507886e-05   -5.394929185645672e-06   7.368267805326961e-06
2.5990593199507886e-05   -5.394929185645672e-06   7.368267805326961e-06
2.5990593199507886e-05   -5.394929185645672e-06   7.368267805326961e-06
1.9489556705880812e-05   -1.0698245899824765e-06   3.995709042042524e-05
1.9489556705880812e-05   -1.0698245899824765e-06   3.995709042042524e-05
1.9489556705880812e-05   -1.0698245899824765e-06   3.995709042042524e-05
1.9489556705880812e-05   -1.0698245899824765e-06   3.995709042042524e-05
-1.2472289831676154e-06   -1.8545812961300728e-08   6.026548204890458e-06
-1.2472289831676154e-06   -1.8545812961300728e-08   6.026548204890458e-06
-1.2472289831676154e-06   -1.8545812961300728e-08   6.026548204890458e-06
-1.2472289831676154e-06   -1.8545812961300728e-08   6.026548204890458e-06
-2.115492385289892e-06   -1.705712736240969e-06   4.0028055172514456e-05
-2.115492385289892e-06   -1.705712736240969e-06   4.0028055172514456e-05
-2.115492385289892e-06   -1.705712736240969e-06   4.0028055172514456e-05
-2.115492385289892e-06   -1.705712736240969e-06   4.0028055172514456e-05
1.856597071376153e-05   -7.060167633225582e-07   4.959132423677754e-06
1.856597071376153e-05   -7.060167633225582e-07   4.959132423677754e-06
1.856597071376153e-05   -7.060167633225582e-07   4.959132423677754e-06
1.856597071376153e-05   -7.060167633225582e-07   4.959132423677754e-06
8.532712457974103e-06   -8.999655299224592e-07   2.1797598776616663e-05
8.532712457974103e-06   -8.999655299224592e-07   2.1797598776616663e-05
8.532712457974103e-06   -8.999655299224592e-07   2.1797598776616663e-05
8.532712457974103e-06   -8.999655299224592e-07   2.1797598776616663e-05
1.8565970713761484e-05   -1.7057127362405354e-06   3.9428237588763756e-05
1.8565970713761484e-05   -1.7057127362405354e-06   3.9428237588763756e-05
1.8565970713761484e-05   -1.7057127362405354e-06   3.9428237588763756e-05
1.8565970713761484e-05   -1.7057127362405354e-06   3.9428237588763756e-05
-2.115492385289892e-06   -7.060167633225582e-07   5.558950007428969e-06
-2.115492385289892e-06   -7.060167633225582e-07   5.558950007428969e-06
-2.115492385289892e-06   -7.060167633225582e-07   5.558950007428969e-06
-2.115492385289892e-06   -7.060167633225582e-07   5.558950007428969e-06
-3.002214184408378e-06   -2.1781404421173864e-06   3.942617273563782e-05
-3.002214184408378e-06   -2.1781404421173864e-06   3.942617273563782e-05
-3.002214184408378e-06   -2.1781404421173864e-06   3.942617273563782e-05
-3.002214184408378e-06   -2.1781404421173864e-06   3.942617273563782e-05
1.754662147561885e-05   -1.248014028812968e-06   4.620037454276178e-06
1.754662147561885e-05   -1.248014028812968e-06   4.620037454276178e-06
1.754662147561885e-05   -1.248014028812968e-06   4.620037454276178e-06
1.754662147561885e-05   -1.248014028812968e-06   4.620037454276178e-06
7.558909360936864e-06   -1.3242892341726667e-06   2.131198943529681e-05
7.558909360936864e-06   -1.3242892341726667e-06   2.131198943529681e-05
7.558909360936864e-06   -1.3242892341726667e-06   2.131198943529681e-05
7.558909360936864e-06   -1.3242892341726667e-06   2.131198943529681e-05
1.7546621475618822e-05   -2.17814044211782e-06   3.886809688765508e-05
1.7546621475618822e-05   -2.17814044211782e-06   3.886809688765508e-05
1.7546621475618822e-05   -2.17814044211782e-06   3.886809688765508e-05
1.7546621475618822e-05   -2.17814044211782e-06   3.886809688765508e-05
-3.002214184408378e-06   -1.248014028812968e-06   5.178113302259065e-06
-3.002214184408378e-06   -1.248014028812968e-06   5.178113302259065e-06
-3.002214184408378e-06   -1.248014028812968e-06   5.178113302259065e-06
-3.002214184408378e-06   -1.248014028812968e-06   5.178113302259065e-06
-3.89373746403912e-06   -2.5508875457756243e-06   3.970150990596343e-05
-3.89373746403912e-06   -2.5508875457756243e-06   3.970150990596343e-05
-3.89373746403912e-06   -2.5508875457756243e-06   3.970150990596343e-05
-3.89373746403912e-06   -2.5508875457756243e-06   3.970150990596343e-05
1.660542608843615e-05   -1.7501043176040496e-06   5.055767381601444e-06
1.660542608843615e-05   -1.7501043176040496e-06   5.055767381601444e-06
1.660542608843615e-05   -1.7501043176040496e-06   5.055767381601444e-06
1.660542608843615e-05   -1.7501043176040496e-06   5.055767381601444e-06
6.815107432596969e-06   -1.63851821981904e-06   2.130601348266346e-05
6.815107432596969e-06   -1.63851821981904e-06   2.130601348266346e-05
6.815107432596969e-06   -1.63851821981904e-06   2.130601348266346e-05
6.815107432596969e-06   -1.63851821981904e-06   2.130601348266346e-05
-1.2472289831676425e-06   3.4732712552204732e-06   4.230378872348067e-05
-1.2472289831676425e-06   3.4732712552204732e-06   4.230378872348067e-05
-1.2472289831676425e-06   3.4732712552204732e-06   4.230378872348067e-05
-1.2472289831676425e-06   3.4732712552204732e-06   4.230378872348067e-05
-2.154896376608555e-05   3.5748160279523537e-06   8.528490948923276e-06
-2.154896376608555e-05   3.5748160279523537e-06   8.528490948923276e-06
-2.154896376608555e-05   3.5748160279523537e-06   8.528490948923276e-06
-2.154896376608555e-05   3.5748160279523537e-06   8.528490948923276e-06
-2.2421866087233595e-05   2.9440662372287596e-06   4.217579482760649e-05
-2.2421866087233595e-05   2.9440662372287596e-06   4.217579482760649e-05
-2.2421866087233595e-05   2.9440662372287596e-06   4.217579482760649e-05
-2.2421866087233595e-05   2.9440662372287596e-06   4.217579482760649e-05
-2.115492385289892e-06   2.9706339786223467e-06   8.315898012864026e-06
-2.115492385289892e-06   2.9706339786223467e-06   8.315898012864026e-06
-2.115492385289892e-06   2.9706339786223467e-06   8.315898012864026e-06
-2.115492385289892e-06   2.9706339786223467e-06   8.315898012864026e-06
-1.1864106845498073e-05   3.1841163616003025e-06   2.443549935009085e-05
-1.1864106845498073e-05   3.1841163616003025e-06   2.443549935009085e-05
-1.1864106845498073e-05   3.1841163616003025e-06   2.443549935009085e-05
-1.1864106845498073e-05   3.1841163616003025e-06   2.443549935009085e-05
-2.115492385289892e-06   2.9440662372287596e-06   4.215985418277025e-05
-2.115492385289892e-06   2.9440662372287596e-06   4.215985418277025e-05
-2.115492385289892e-06   2.9440662372287596e-06   4.215985418277025e-05
-2.115492385289892e-06   2.9440662372287596e-06   4.215985418277025e-05
-2.2421866087233595e-05   2.9706339786223467e-06   8.331838657700237e-06
-2.2421866087233595e-05   2.9706339786223467e-06   8.331838657700237e-06
-2.2421866087233595e-05   2.9706339786223467e-06   8.331838657700237e-06
-2.2421866087233595e-05   2.9706339786223467e-06   8.331838657700237e-06
-2.3316585544378045e-05   2.430205583511466e-06   4.24068427577961e-05
-2.3316585544378045e-05   2.430205583511466e-06   4.24068427577961e-05
-2.3316585544378045e-05   2.430205583511466e-06   4.24068427577961e-05
-2.3316585544378045e-05   2.430205583511466e-06   4.24068427577961e-05
-3.002214184408378e-06   2.3760357576348146e-06   8.582059053373174e-06
-3.002214184408378e-06   2.3760357576348146e-06   8.582059053373174e-06
-3.002214184408378e-06   2.3760357576348146e-06   8.582059053373174e-06
-3.002214184408378e-06   2.3760357576348146e-06   8.582059053373174e-06
-1.2674595996345003e-05   2.7778403659793095e-06   2.4461612641594717e-05
-1.2674595996345003e-05   2.7778403659793095e-06   2.4461612641594717e-05
-1.2674595996345003e-05   2.7778403659793095e-06   2.4461612641594717e-05
-1.2674595996345003e-05   2.7778403659793095e-06   2.4461612641594717e-05
-3.002214184408378e-06   2.4302055835118998e-06   4.243934465332261e-05
-3.002214184408378e-06   2.4302055835118998e-06   4.243934465332261e-05
-3.002214184408378e-06   2.4302055835118998e-06   4.243934465332261e-05
-3.002214184408378e-06   2.4302055835118998e-06   4.243934465332261e-05
-2.3316585544378045e-05   2.3760357576348146e-06   8.549557157846608e-06
-2.3316585544378045e-05   2.3760357576348146e-06   8.549557157846608e-06
-2.3316585544378045e-05   2.3760357576348146e-06   8.549557157846608e-06
-2.3316585544378045e-05   2.3760357576348146e-06   8.549557157846608e-06
-2.4210966378939287e-05   1.972804045284604e-06   4.293420215805343e-05
-2.4210966378939287e-05   1.972804045284604e-06   4.293420215805343e-05
-2.4210966378939287e-05   1.972804045284604e-06   4.293420215805343e-05
-2.4210966378939287e-05   1.972804045284604e-06   4.293420215805343e-05
-3.89373746403912e-06   1.8118029575485417e-06   9.168754619194759e-06
-3.89373746403912e-06   1.8118029575485417e-06   9.168754619194759e-06
-3.89373746403912e-06   1.8118029575485417e-06   9.168754619194759e-06
-3.89373746403912e-06   1.8118029575485417e-06   9.168754619194759e-06
-1.3523088558752656e-05   2.38193683800526e-06   2.487559278211099e-05
-1.3523088558752656e-05   2.38193683800526e-06   2.487559278211099e-05
-1.3523088558752656e-05   2.38193683800526e-06   2.487559278211099e-05
-1.3523088558752656e-05   2.38193683800526e-06   2.487559278211099e-05
-2.1548963766085524e-05   7.89310634194797e-06   3.7213588733903125e-05
-2.1548963766085524e-05   7.89310634194797e-06   3.7213588733903125e-05
-2.1548963766085524e-05   7.89310634194797e-06   3.7213588733903125e-05
-2.1548963766085524e-05   7.89310634194797e-06   3.7213588733903125e-05
-4.1401282138433214e-05   7.032656431223746e-06   3.6101215002226714e-06
-4.1401282138433214e-05   7.032656431223746e-06   3.6101215002226714e-06
-4.1401282138433214e-05   7.032656431223746e-06   3.6101215002226714e-06
-4.1401282138433214e-05   7.032656431223746e-06   3.6101215002226714e-06
-4.234051301468778e-05   7.3876875572964455e-06   3.696975009822743e-05
-4.234051301468778e-05   7.3876875572964455e-06   3.696975009822743e-05
-4.234051301468778e-05   7.3876875572964455e-06   3.696975009822743e-05
-4.234051301468778e-05   7.3876875572964455e-06   3.696975009822743e-05
-2.242186608723365e-05   6.4539267448297626e-06   4.332261706616785e-06
-2.242186608723365e-05   6.4539267448297626e-06   4.332261706616785e-06
-2.242186608723365e-05   6.4539267448297626e-06   4.332261706616785e-06
-2.242186608723365e-05   6.4539267448297626e-06   4.332261706616785e-06
-3.1822696117288915e-05   7.0981917723983955e-06   1.9613752740167754e-05
-3.1822696117288915e-05   7.0981917723983955e-06   1.9613752740167754e-05
-3.1822696117288915e-05   7.0981917723983955e-06   1.9613752740167754e-05
-3.1822696117288915e-05   7.0981917723983955e-06   1.9613752740167754e-05
-2.2421866087233595e-05   7.387687557296012e-06   3.753000658570727e-05
-2.2421866087233595e-05   7.387687557296012e-06   3.753000658570727e-05
-2.2421866087233595e-05   7.387687557296012e-06   3.753000658570727e-05
-2.2421866087233595e-05   7.387687557296012e-06   3.753000658570727e-05
-4.234051301468778e-05   6.4539267448297626e-06   3.7720052191370567e-06
-4.234051301468778e-05   6.4539267448297626e-06   3.7720052191370567e-06
-4.234051301468778e-05   6.4539267448297626e-06   3.7720052191370567e-06
-4.234051301468778e-05   6.4539267448297626e-06   3.7720052191370567e-06
-4.3374514567165836e-05   6.921806826086854e-06   3.835558707616449e-05
-4.3374514567165836e-05   6.921806826086854e-06   3.835558707616449e-05
-4.3374514567165836e-05   6.921806826086854e-06   3.835558707616449e-05
-4.3374514567165836e-05   6.921806826086854e-06   3.835558707616449e-05
-2.33165855443781e-05   5.914798028180523e-06   5.529910650261681e-06
-2.33165855443781e-05   5.914798028180523e-06   5.529910650261681e-06
-2.33165855443781e-05   5.914798028180523e-06   5.529910650261681e-06
-2.33165855443781e-05   5.914798028180523e-06   5.529910650261681e-06
-3.24971260070074e-05   6.7286633776506705e-06   2.0342492211629652e-05
-3.24971260070074e-05   6.7286633776506705e-06   2.0342492211629652e-05
-3.24971260070074e-05   6.7286633776506705e-06   2.0342492211629652e-05
-3.24971260070074e-05   6.7286633776506705e-06   2.0342492211629652e-05
-2.3316585544378072e-05   6.921806826086421e-06   3.8959792354908334e-05
-2.3316585544378072e-05   6.921806826086421e-06   3.8959792354908334e-05
-2.3316585544378072e-05   6.921806826086421e-06   3.8959792354908334e-05
-2.3316585544378072e-05   6.921806826086421e-06   3.8959792354908334e-05
-4.3374514567165836e-05   5.914798028180523e-06   4.925705371518164e-06
-4.3374514567165836e-05   5.914798028180523e-06   4.925705371518164e-06
-4.3374514567165836e-05   5.914798028180523e-06   4.925705371518164e-06
-4.3374514567165836e-05   5.914798028180523e-06   4.925705371518164e-06
-4.432002480869523e-05   6.352911289409218e-06   3.939801788623953e-05
-4.432002480869523e-05   6.352911289409218e-06   3.939801788623953e-05
-4.432002480869523e-05   6.352911289409218e-06   3.939801788623953e-05
-4.432002480869523e-05   6.352911289409218e-06   3.939801788623953e-05
-2.421096637893934e-05   5.287074057193624e-06   6.5224228426422645e-06
-2.421096637893934e-05   5.287074057193624e-06   6.5224228426422645e-06
-2.421096637893934e-05   5.287074057193624e-06   6.5224228426422645e-06
-2.421096637893934e-05   5.287074057193624e-06   6.5224228426422645e-06
-3.356969291249426e-05   6.311957378185573e-06   2.1505370405973747e-05
-3.356969291249426e-05   6.311957378185573e-06   2.1505370405973747e-05
-3.356969291249426e-05   6.311957378185573e-06   2.1505370405973747e-05
-3.356969291249426e-05   6.311957378185573e-06   2.1505370405973747e-05
-4.1401282138433214e-05   1.1363387659721075e-05   1.7992394088596052e-05
-4.1401282138433214e-05   1.1363387659721075e-05   1.7992394088596052e-05
-4.1401282138433214e-05   1.1363387659721075e-05   1.7992394088596052e-05
-4.1401282138433214e-05   1.1363387659721075e-05   1.7992394088596052e-05
-6.02506296854568e-05   9.690686282891759e-06   -1.4426805982540583e-05
-6.02506296854568e-05   9.690686282891759e-06   -1.4426805982540583e-05
-6.02506296854568e-05   9.690686282891759e-06   -1.4426805982540583e-05
-6.02506296854568e-05   9.690686282891759e-06   -1.4426805982540583e-05
-6.19384645377352e-05   1.1483641905690994e-05   2.3905470882760365e-05
-6.19384645377352e-05   1.1483641905690994e-05   2.3905470882760365e-05
-6.19384645377352e-05   1.1483641905690994e-05   2.3905470882760365e-05
-6.19384645377352e-05   1.1483641905690994e-05   2.3905470882760365e-05
-4.234051301468778e-05   9.641794089197513e-06   -7.652672965756174e-06
-4.234051301468778e-05   9.641794089197513e-06   -7.652672965756174e-06
-4.234051301468778e-05   9.641794089197513e-06   -7.652672965756174e-06
-4.234051301468778e-05   9.641794089197513e-06   -7.652672965756174e-06
-4.95241048129961e-05   1.039061065259781e-05   3.87069009338424e-06
-4.95241048129961e-05   1.039061065259781e-05   3.87069009338424e-06
-4.95241048129961e-05   1.039061065259781e-05   3.87069009338424e-06
-4.95241048129961e-05   1.039061065259781e-05   3.87069009338424e-06
-4.234051301468778e-05   1.148364190569056e-05   2.5010579572656583e-05
-4.234051301468778e-05   1.148364190569056e-05   2.5010579572656583e-05
-4.234051301468778e-05   1.148364190569056e-05   2.5010579572656583e-05
-4.234051301468778e-05   1.148364190569056e-05   2.5010579572656583e-05
-6.193846453773536e-05   9.641794089197513e-06   -8.757781655652393e-06
-6.193846453773536e-05   9.641794089197513e-06   -8.757781655652393e-06
-6.193846453773536e-05   9.641794089197513e-06   -8.757781655652393e-06
-6.193846453773536e-05   9.641794089197513e-06   -8.757781655652393e-06
-6.34497971276159e-05   1.1357174109340694e-05   2.8684723636513733e-05
-6.34497971276159e-05   1.1357174109340694e-05   2.8684723636513733e-05
-6.34497971276159e-05   1.1357174109340694e-05   2.8684723636513733e-05
-6.34497971276159e-05   1.1357174109340694e-05   2.8684723636513733e-05
-4.3374514567165836e-05   9.445167197147473e-06   -3.626876483587161e-06
-4.3374514567165836e-05   9.445167197147473e-06   -3.626876483587161e-06
-4.3374514567165836e-05   9.445167197147473e-06   -3.626876483587161e-06
-4.3374514567165836e-05   9.445167197147473e-06   -3.626876483587161e-06
-5.1463437380988434e-05   1.0505201143611378e-05   9.21864117157424e-06
-5.1463437380988434e-05   1.0505201143611378e-05   9.21864117157424e-06
-5.1463437380988434e-05   1.0505201143611378e-05   9.21864117157424e-06
-5.1463437380988434e-05   1.0505201143611378e-05   9.21864117157424e-06
-4.3374514567165836e-05   1.1357174109341128e-05   2.9831927783830143e-05
-4.3374514567165836e-05   1.1357174109341128e-05   2.9831927783830143e-05
-4.3374514567165836e-05   1.1357174109341128e-05   2.9831927783830143e-05
-4.3374514567165836e-05   1.1357174109341128e-05   2.9831927783830143e-05
-6.344979712761596e-05   9.445167197147473e-06   -4.774080630903137e-06
-6.344979712761596e-05   9.445167197147473e-06   -4.774080630903137e-06
-6.344979712761596e-05   9.445167197147473e-06   -4.774080630903137e-06
-6.344979712761596e-05   9.445167197147473e-06   -4.774080630903137e-06
-6.518651443696526e-05   1.0481250951535279e-05   3.6908268098394606e-05
-6.518651443696526e-05   1.0481250951535279e-05   3.6908268098394606e-05
-6.518651443696526e-05   1.0481250951535279e-05   3.6908268098394606e-05
-6.518651443696526e-05   1.0481250951535279e-05   3.6908268098394606e-05
-4.432002480869523e-05   8.578160156777134e-06   3.2726398614660226e-06
-4.432002480869523e-05   8.578160156777134e-06   3.2726398614660226e-06
-4.432002480869523e-05   8.578160156777134e-06   3.2726398614660226e-06
-4.432002480869523e-05   8.578160156777134e-06   3.2726398614660226e-06
-5.187917304361994e-05   1.0145769852449617e-05   1.4930654435604688e-05
-5.187917304361994e-05   1.0145769852449617e-05   1.4930654435604688e-05
-5.187917304361994e-05   1.0145769852449617e-05   1.4930654435604688e-05
-5.187917304361994e-05   1.0145769852449617e-05   1.4930654435604688e-05
2.851601582463294e-05   -3.6960361233535216e-06   2.8599720180978033e-05
2.851601582463294e-05   -3.6960361233535216e-06   2.8599720180978033e-05
2.851601582463294e-05   -3.6960361233535216e-06   2.8599720180978033e-05
2.851601582463294e-05   -3.6960361233535216e-06   2.8599720180978033e-05
1.1832043225574861e-05   -1.8160226701289823e-06   1.9211072544828532e-06
1.1832043225574861e-05   -1.8160226701289823e-06   1.9211072544828532e-06
1.1832043225574861e-05   -1.8160226701289823e-06   1.9211072544828532e-06
1.1832043225574861e-05   -1.8160226701289823e-06   1.9211072544828532e-06
1.1089302335988542e-05   -4.486289501648075e-06   2.5714378133213575e-05
1.1089302335988542e-05   -4.486289501648075e-06   2.5714378133213575e-05
1.1089302335988542e-05   -4.486289501648075e-06   2.5714378133213575e-05
1.1089302335988542e-05   -4.486289501648075e-06   2.5714378133213575e-05
2.6935128710999445e-05   -2.5227267598426553e-06   -1.8734701368876728e-06
2.6935128710999445e-05   -2.5227267598426553e-06   -1.8734701368876728e-06
2.6935128710999445e-05   -2.5227267598426553e-06   -1.8734701368876728e-06
2.6935128710999445e-05   -2.5227267598426553e-06   -1.8734701368876728e-06
1.861823577911147e-05   -3.2055497934167874e-06   1.2397711903070602e-05
1.861823577911147e-05   -3.2055497934167874e-06   1.2397711903070602e-05
1.861823577911147e-05   -3.2055497934167874e-06   1.2397711903070602e-05
1.861823577911147e-05   -3.2055497934167874e-06   1.2397711903070602e-05
2.6935128710999492e-05   -4.486289501648075e-06   2.4536240488130627e-05
2.6935128710999492e-05   -4.486289501648075e-06   2.4536240488130627e-05
2.6935128710999492e-05   -4.486289501648075e-06   2.4536240488130627e-05
2.6935128710999492e-05   -4.486289501648075e-06   2.4536240488130627e-05
1.1089302335988505e-05   -2.5227267598426553e-06   -6.953324918044807e-07
1.1089302335988505e-05   -2.5227267598426553e-06   -6.953324918044807e-07
1.1089302335988505e-05   -2.5227267598426553e-06   -6.953324918044807e-07
1.1089302335988505e-05   -2.5227267598426553e-06   -6.953324918044807e-07
1.0255171914443282e-05   -4.697452104295962e-06   2.35715843956456e-05
1.0255171914443282e-05   -4.697452104295962e-06   2.35715843956456e-05
1.0255171914443282e-05   -4.697452104295962e-06   2.35715843956456e-05
1.0255171914443282e-05   -4.697452104295962e-06   2.35715843956456e-05
2.5578123015494077e-05   -2.7661022186469247e-06   -3.1254773708282862e-06
2.5578123015494077e-05   -2.7661022186469247e-06   -3.1254773708282862e-06
2.5578123015494077e-05   -2.7661022186469247e-06   -3.1254773708282862e-06
2.5578123015494077e-05   -2.7661022186469247e-06   -3.1254773708282862e-06
1.7914578920642732e-05   -3.505274790934149e-06   1.0090599663963593e-05
1.7914578920642732e-05   -3.505274790934149e-06   1.0090599663963593e-05
1.7914578920642732e-05   -3.505274790934149e-06   1.0090599663963593e-05
1.7914578920642732e-05   -3.505274790934149e-06   1.0090599663963593e-05
2.5578123015494118e-05   -4.697452104295962e-06   2.2412774464256264e-05
2.5578123015494118e-05   -4.697452104295962e-06   2.2412774464256264e-05
2.5578123015494118e-05   -4.697452104295962e-06   2.2412774464256264e-05
2.5578123015494118e-05   -4.697452104295962e-06   2.2412774464256264e-05
1.0255171914443265e-05   -2.7661022186469247e-06   -1.9666674394387337e-06
1.0255171914443265e-05   -2.7661022186469247e-06   -1.9666674394387337e-06
1.0255171914443265e-05   -2.7661022186469247e-06   -1.9666674394387337e-06
1.0255171914443265e-05   -2.7661022186469247e-06   -1.9666674394387337e-06
9.507492425712611e-06   -4.895014894199575e-06   2.0789832610793686e-05
9.507492425712611e-06   -4.895014894199575e-06   2.0789832610793686e-05
9.507492425712611e-06   -4.895014894199575e-06   2.0789832610793686e-05
9.507492425712611e-06   -4.895014894199575e-06   2.0789832610793686e-05
2.403912435054545e-05   -3.0881253134345914e-06   -4.513687679053393e-06
2.403912435054545e-05   -3.0881253134345914e-06   -4.513687679053393e-06
2.403912435054545e-05   -3.0881253134345914e-06   -4.513687679053393e-06
2.403912435054545e-05   -3.0881253134345914e-06   -4.513687679053393e-06
1.6612399023423088e-05   -3.564216440521493e-06   8.149842542402755e-06
1.6612399023423088e-05   -3.564216440521493e-06   8.149842542402755e-06
1.6612399023423088e-05   -3.564216440521493e-06   8.149842542402755e-06
1.6612399023423088e-05   -3.564216440521493e-06   8.149842542402755e-06
1.1832043225574898e-05   -1.8545812961300728e-08   3.536202752044181e-05
1.1832043225574898e-05   -1.8545812961300728e-08   3.536202752044181e-05
1.1832043225574898e-05   -1.8545812961300728e-08   3.536202752044181e-05
1.1832043225574898e-05   -1.8545812961300728e-08   3.536202752044181e-05
-3.824699613339357e-06   9.356405988702587e-07   9.839967969350492e-06
-3.824699613339357e-06   9.356405988702587e-07   9.839967969350492e-06
-3.824699613339357e-06   9.356405988702587e-07   9.839967969350492e-06
-3.824699613339357e-06   9.356405988702587e-07   9.839967969350492e-06
-4.5071417985855986e-06   -7.060167633225582e-07   3.543019202098801e-05
-4.5071417985855986e-06   -7.060167633225582e-07   3.543019202098801e-05
-4.5071417985855986e-06   -7.060167633225582e-07   3.543019202098801e-05
-4.5071417985855986e-06   -7.060167633225582e-07   3.543019202098801e-05
1.1089302335988505e-05   2.2003597110673012e-07   8.880486822707204e-06
1.1089302335988505e-05   2.2003597110673012e-07   8.880486822707204e-06
1.1089302335988505e-05   2.2003597110673012e-07   8.880486822707204e-06
1.1089302335988505e-05   2.2003597110673012e-07   8.880486822707204e-06
3.535792306171801e-06   4.635137154456424e-08   2.1573880965472872e-05
3.535792306171801e-06   4.635137154456424e-08   2.1573880965472872e-05
3.535792306171801e-06   4.635137154456424e-08   2.1573880965472872e-05
3.535792306171801e-06   4.635137154456424e-08   2.1573880965472872e-05
1.1089302335988532e-05   -7.060167633225582e-07   3.487456038033052e-05
1.1089302335988532e-05   -7.060167633225582e-07   3.487456038033052e-05
1.1089302335988532e-05   -7.060167633225582e-07   3.487456038033052e-05
1.1089302335988532e-05   -7.060167633225582e-07   3.487456038033052e-05
-4.5071417985855986e-06   2.2003597110673012e-07   9.436118463364588e-06
-4.5071417985855986e-06   2.2003597110673012e-07   9.436118463364588e-06
-4.5071417985855986e-06   2.2003597110673012e-07   9.436118463364588e-06
-4.5071417985855986e-06   2.2003597110673012e-07   9.436118463364588e-06
-5.204871151244782e-06   -1.248014028812968e-06   3.500758250117846e-05
-5.204871151244782e-06   -1.248014028812968e-06   3.500758250117846e-05
-5.204871151244782e-06   -1.248014028812968e-06   3.500758250117846e-05
-5.204871151244782e-06   -1.248014028812968e-06   3.500758250117846e-05
1.0255171914443265e-05   -3.6563319729190913e-07   8.711415559452448e-06
1.0255171914443265e-05   -3.6563319729190913e-07   8.711415559452448e-06
1.0255171914443265e-05   -3.6563319729190913e-07   8.711415559452448e-06
1.0255171914443265e-05   -3.6563319729190913e-07   8.711415559452448e-06
2.7855604081442688e-06   -4.3101033917218243e-07   2.119999435508033e-05
2.7855604081442688e-06   -4.3101033917218243e-07   2.119999435508033e-05
2.7855604081442688e-06   -4.3101033917218243e-07   2.119999435508033e-05
2.7855604081442688e-06   -4.3101033917218243e-07   2.119999435508033e-05
1.0255171914443306e-05   -1.248014028812968e-06   3.4478154002265914e-05
1.0255171914443306e-05   -1.248014028812968e-06   3.4478154002265914e-05
1.0255171914443306e-05   -1.248014028812968e-06   3.4478154002265914e-05
1.0255171914443306e-05   -1.248014028812968e-06   3.4478154002265914e-05
-5.204871151244782e-06   -3.6563319729190913e-07   9.240844058365288e-06
-5.204871151244782e-06   -3.6563319729190913e-07   9.240844058365288e-06
-5.204871151244782e-06   -3.6563319729190913e-07   9.240844058365288e-06
-5.204871151244782e-06   -3.6563319729190913e-07   9.240844058365288e-06
-5.8967246194764275e-06   -1.7501043176040496e-06   3.532707569432465e-05
-5.8967246194764275e-06   -1.7501043176040496e-06   3.532707569432465e-05
-5.8967246194764275e-06   -1.7501043176040496e-06   3.532707569432465e-05
-5.8967246194764275e-06   -1.7501043176040496e-06   3.532707569432465e-05
9.50749242571257e-06   -9.429272881044618e-07   9.169074401309915e-06
9.50749242571257e-06   -9.429272881044618e-07   9.169074401309915e-06
9.50749242571257e-06   -9.429272881044618e-07   9.169074401309915e-06
9.50749242571257e-06   -9.429272881044618e-07   9.169074401309915e-06
2.192725128066513e-06   -8.291285425571747e-07   2.1292073983391474e-05
2.192725128066513e-06   -8.291285425571747e-07   2.1292073983391474e-05
2.192725128066513e-06   -8.291285425571747e-07   2.1292073983391474e-05
2.192725128066513e-06   -8.291285425571747e-07   2.1292073983391474e-05
-3.824699613339384e-06   3.5748160279523537e-06   3.837555524793422e-05
-3.824699613339384e-06   3.5748160279523537e-06   3.837555524793422e-05
-3.824699613339384e-06   3.5748160279523537e-06   3.837555524793422e-05
-3.824699613339384e-06   3.5748160279523537e-06   3.837555524793422e-05
-1.922380699451333e-05   3.517540992524623e-06   1.2676011258054586e-05
-1.922380699451333e-05   3.517540992524623e-06   1.2676011258054586e-05
-1.922380699451333e-05   3.517540992524623e-06   1.2676011258054586e-05
-1.922380699451333e-05   3.517540992524623e-06   1.2676011258054586e-05
-1.9897051530370468e-05   2.9706339786223467e-06   3.8125048333772496e-05
-1.9897051530370468e-05   2.9706339786223467e-06   3.8125048333772496e-05
-1.9897051530370468e-05   2.9706339786223467e-06   3.8125048333772496e-05
-1.9897051530370468e-05   2.9706339786223467e-06   3.8125048333772496e-05
-4.5071417985855715e-06   2.8671478242046303e-06   1.2537290473448644e-05
-4.5071417985855715e-06   2.8671478242046303e-06   1.2537290473448644e-05
-4.5071417985855715e-06   2.8671478242046303e-06   1.2537290473448644e-05
-4.5071417985855715e-06   2.8671478242046303e-06   1.2537290473448644e-05
-1.1892754341665291e-05   3.152521379849206e-06   2.4675420578528754e-05
-1.1892754341665291e-05   3.152521379849206e-06   2.4675420578528754e-05
-1.1892754341665291e-05   3.152521379849206e-06   2.4675420578528754e-05
-1.1892754341665291e-05   3.152521379849206e-06   2.4675420578528754e-05
-4.5071417985855986e-06   2.9706339786223467e-06   3.818714002642347e-05
-4.5071417985855986e-06   2.9706339786223467e-06   3.818714002642347e-05
-4.5071417985855986e-06   2.9706339786223467e-06   3.818714002642347e-05
-4.5071417985855986e-06   2.9706339786223467e-06   3.818714002642347e-05
-1.9897051530370468e-05   2.8671478242046303e-06   1.2475198780797885e-05
-1.9897051530370468e-05   2.8671478242046303e-06   1.2475198780797885e-05
-1.9897051530370468e-05   2.8671478242046303e-06   1.2475198780797885e-05
-1.9897051530370468e-05   2.8671478242046303e-06   1.2475198780797885e-05
-2.058650645963433e-05   2.3760357576348146e-06   3.83204335606751e-05
-2.058650645963433e-05   2.3760357576348146e-06   3.83204335606751e-05
-2.058650645963433e-05   2.3760357576348146e-06   3.83204335606751e-05
-2.058650645963433e-05   2.3760357576348146e-06   3.83204335606751e-05
-5.204871151244782e-06   2.224211271605785e-06   1.2775469404976612e-05
-5.204871151244782e-06   2.224211271605785e-06   1.2775469404976612e-05
-5.204871151244782e-06   2.224211271605785e-06   1.2775469404976612e-05
-5.204871151244782e-06   2.224211271605785e-06   1.2775469404976612e-05
-1.2509379989633968e-05   2.680401314794894e-06   2.4675936776379114e-05
-1.2509379989633968e-05   2.680401314794894e-06   2.4675936776379114e-05
-1.2509379989633968e-05   2.680401314794894e-06   2.4675936776379114e-05
-1.2509379989633968e-05   2.680401314794894e-06   2.4675936776379114e-05
-5.204871151244782e-06   2.3760357576348146e-06   3.841152825229252e-05
-5.204871151244782e-06   2.3760357576348146e-06   3.841152825229252e-05
-5.204871151244782e-06   2.3760357576348146e-06   3.841152825229252e-05
-5.204871151244782e-06   2.3760357576348146e-06   3.841152825229252e-05
-2.058650645963433e-05   2.224211271605785e-06   1.268437471335941e-05
-2.058650645963433e-05   2.224211271605785e-06   1.268437471335941e-05
-2.058650645963433e-05   2.224211271605785e-06   1.268437471335941e-05
-2.058650645963433e-05   2.224211271605785e-06   1.268437471335941e-05
-2.1267953492597105e-05   1.8118029575485417e-06   3.8835641664644246e-05
-2.1267953492597105e-05   1.8118029575485417e-06   3.8835641664644246e-05
-2.1267953492597105e-05   1.8118029575485417e-06   3.8835641664644246e-05
-2.1267953492597105e-05   1.8118029575485417e-06   3.8835641664644246e-05
-5.8967246194764275e-06   1.6052174069310088e-06   1.3340878206480333e-05
-5.8967246194764275e-06   1.6052174069310088e-06   1.3340878206480333e-05
-5.8967246194764275e-06   1.6052174069310088e-06   1.3340878206480333e-05
-5.8967246194764275e-06   1.6052174069310088e-06   1.3340878206480333e-05
-1.3154339376464976e-05   2.2193667971737163e-06   2.506841316731557e-05
-1.3154339376464976e-05   2.2193667971737163e-06   2.506841316731557e-05
-1.3154339376464976e-05   2.2193667971737163e-06   2.506841316731557e-05
-1.3154339376464976e-05   2.2193667971737163e-06   2.506841316731557e-05
-1.922380699451333e-05   7.032656431223746e-06   3.393909072441168e-05
-1.922380699451333e-05   7.032656431223746e-06   3.393909072441168e-05
-1.922380699451333e-05   7.032656431223746e-06   3.393909072441168e-05
-1.922380699451333e-05   7.032656431223746e-06   3.393909072441168e-05
-3.436313728804474e-05   6.029208863805435e-06   8.10480502807479e-06
-3.436313728804474e-05   6.029208863805435e-06   8.10480502807479e-06
-3.436313728804474e-05   6.029208863805435e-06   8.10480502807479e-06
-3.436313728804474e-05   6.029208863805435e-06   8.10480502807479e-06
-3.508525667753282e-05   6.4539267448297626e-06   3.348936101863105e-05
-3.508525667753282e-05   6.4539267448297626e-06   3.348936101863105e-05
-3.508525667753282e-05   6.4539267448297626e-06   3.348936101863105e-05
-3.508525667753282e-05   6.4539267448297626e-06   3.348936101863105e-05
-1.9897051530370414e-05   5.393742804732458e-06   8.811796137418964e-06
-1.9897051530370414e-05   5.393742804732458e-06   8.811796137418964e-06
-1.9897051530370414e-05   5.393742804732458e-06   8.811796137418964e-06
-1.9897051530370414e-05   5.393742804732458e-06   8.811796137418964e-06
-2.706565384047853e-05   6.1216335122539316e-06   2.0322732229753854e-05
-2.706565384047853e-05   6.1216335122539316e-06   2.0322732229753854e-05
-2.706565384047853e-05   6.1216335122539316e-06   2.0322732229753854e-05
-2.706565384047853e-05   6.1216335122539316e-06   2.0322732229753854e-05
-1.9897051530370468e-05   6.4539267448297626e-06   3.4125471382689477e-05
-1.9897051530370468e-05   6.4539267448297626e-06   3.4125471382689477e-05
-1.9897051530370468e-05   6.4539267448297626e-06   3.4125471382689477e-05
-1.9897051530370468e-05   6.4539267448297626e-06   3.4125471382689477e-05
-3.508525667753271e-05   5.3937428047326746e-06   8.175685773360647e-06
-3.508525667753271e-05   5.3937428047326746e-06   8.175685773360647e-06
-3.508525667753271e-05   5.3937428047326746e-06   8.175685773360647e-06
-3.508525667753271e-05   5.3937428047326746e-06   8.175685773360647e-06
-3.589800299740075e-05   5.914798028180523e-06   3.463542667312032e-05
-3.589800299740075e-05   5.914798028180523e-06   3.463542667312032e-05
-3.589800299740075e-05   5.914798028180523e-06   3.463542667312032e-05
-3.589800299740075e-05   5.914798028180523e-06   3.463542667312032e-05
-2.058650645963425e-05   4.805864061563922e-06   9.781626156813187e-06
-2.058650645963425e-05   4.805864061563922e-06   9.781626156813187e-06
-2.058650645963425e-05   4.805864061563922e-06   9.781626156813187e-06
-2.058650645963425e-05   4.805864061563922e-06   9.781626156813187e-06
-2.7566103991360065e-05   5.688704927071797e-06   2.088458419038518e-05
-2.7566103991360065e-05   5.688704927071797e-06   2.088458419038518e-05
-2.7566103991360065e-05   5.688704927071797e-06   2.088458419038518e-05
-2.7566103991360065e-05   5.688704927071797e-06   2.088458419038518e-05
-2.0586506459634304e-05   5.914798028180523e-06   3.5300787053090064e-05
-2.0586506459634304e-05   5.914798028180523e-06   3.5300787053090064e-05
-2.0586506459634304e-05   5.914798028180523e-06   3.5300787053090064e-05
-2.0586506459634304e-05   5.914798028180523e-06   3.5300787053090064e-05
-3.589800299740064e-05   4.805864061563922e-06   9.116265776843119e-06
-3.589800299740064e-05   4.805864061563922e-06   9.116265776843119e-06
-3.589800299740064e-05   4.805864061563922e-06   9.116265776843119e-06
-3.589800299740064e-05   4.805864061563922e-06   9.116265776843119e-06
-3.662069327098512e-05   5.287074057193624e-06   3.560294993725974e-05
-3.662069327098512e-05   5.287074057193624e-06   3.560294993725974e-05
-3.662069327098512e-05   5.287074057193624e-06   3.560294993725974e-05
-3.662069327098512e-05   5.287074057193624e-06   3.560294993725974e-05
-2.126795349259705e-05   4.148806384737238e-06   1.0698010910086919e-05
-2.126795349259705e-05   4.148806384737238e-06   1.0698010910086919e-05
-2.126795349259705e-05   4.148806384737238e-06   1.0698010910086919e-05
-2.126795349259705e-05   4.148806384737238e-06   1.0698010910086919e-05
-2.8380552304751327e-05   5.2331618890554335e-06   2.190172896108719e-05
-2.8380552304751327e-05   5.2331618890554335e-06   2.190172896108719e-05
-2.8380552304751327e-05   5.2331618890554335e-06   2.190172896108719e-05
-2.8380552304751327e-05   5.2331618890554335e-06   2.190172896108719e-05
-3.436313728804474e-05   9.690686282891759e-06   1.6303715527294814e-05
-3.436313728804474e-05   9.690686282891759e-06   1.6303715527294814e-05
-3.436313728804474e-05   9.690686282891759e-06   1.6303715527294814e-05
-3.436313728804474e-05   9.690686282891759e-06   1.6303715527294814e-05
-4.8555272384855595e-05   7.906763269429446e-06   -8.420196775467317e-06
-4.8555272384855595e-05   7.906763269429446e-06   -8.420196775467317e-06
-4.8555272384855595e-05   7.906763269429446e-06   -8.420196775467317e-06
-4.8555272384855595e-05   7.906763269429446e-06   -8.420196775467317e-06
-5.006487937473286e-05   9.641794089197513e-06   2.0901153350990796e-05
-5.006487937473286e-05   9.641794089197513e-06   2.0901153350990796e-05
-5.006487937473286e-05   9.641794089197513e-06   2.0901153350990796e-05
-5.006487937473286e-05   9.641794089197513e-06   2.0901153350990796e-05
-3.508525667753271e-05   7.702578284619248e-06   -2.9013549949292094e-06
-3.508525667753271e-05   7.702578284619248e-06   -2.9013549949292094e-06
-3.508525667753271e-05   7.702578284619248e-06   -2.9013549949292094e-06
-3.508525667753271e-05   7.702578284619248e-06   -2.9013549949292094e-06
-4.044254179431269e-05   8.576697991691945e-06   5.502981708794662e-06
-4.044254179431269e-05   8.576697991691945e-06   5.502981708794662e-06
-4.044254179431269e-05   8.576697991691945e-06   5.502981708794662e-06
-4.044254179431269e-05   8.576697991691945e-06   5.502981708794662e-06
-3.5085256677532765e-05   9.641794089197513e-06   2.2064682833737494e-05
-3.5085256677532765e-05   9.641794089197513e-06   2.2064682833737494e-05
-3.5085256677532765e-05   9.641794089197513e-06   2.2064682833737494e-05
-3.5085256677532765e-05   9.641794089197513e-06   2.2064682833737494e-05
-5.006487937473297e-05   7.702578284619248e-06   -4.064884477676233e-06
-5.006487937473297e-05   7.702578284619248e-06   -4.064884477676233e-06
-5.006487937473297e-05   7.702578284619248e-06   -4.064884477676233e-06
-5.006487937473297e-05   7.702578284619248e-06   -4.064884477676233e-06
-5.1382148236140475e-05   9.445167197147473e-06   2.4887774765205897e-05
-5.1382148236140475e-05   9.445167197147473e-06   2.4887774765205897e-05
-5.1382148236140475e-05   9.445167197147473e-06   2.4887774765205897e-05
-5.1382148236140475e-05   9.445167197147473e-06   2.4887774765205897e-05
-3.589800299740059e-05   7.453383775798397e-06   2.759360867819749e-07
-3.589800299740059e-05   7.453383775798397e-06   2.759360867819749e-07
-3.589800299740059e-05   7.453383775798397e-06   2.759360867819749e-07
-3.589800299740059e-05   7.453383775798397e-06   2.759360867819749e-07
-4.2040650285374455e-05   8.58202344311337e-06   9.836497766351187e-06
-4.2040650285374455e-05   8.58202344311337e-06   9.836497766351187e-06
-4.2040650285374455e-05   8.58202344311337e-06   9.836497766351187e-06
-4.2040650285374455e-05   8.58202344311337e-06   9.836497766351187e-06
-3.589800299740075e-05   9.445167197147473e-06   2.6082844818015212e-05
-3.589800299740075e-05   9.445167197147473e-06   2.6082844818015212e-05
-3.589800299740075e-05   9.445167197147473e-06   2.6082844818015212e-05
-3.589800299740075e-05   9.445167197147473e-06   2.6082844818015212e-05
-5.1382148236140475e-05   7.453383775798397e-06   -9.191339660273405e-07
-5.1382148236140475e-05   7.453383775798397e-06   -9.191339660273405e-07
-5.1382148236140475e-05   7.453383775798397e-06   -9.191339660273405e-07
-5.1382148236140475e-05   7.453383775798397e-06   -9.191339660273405e-07
-5.291031979533483e-05   8.578160156777134e-06   3.181624306264146e-05
-5.291031979533483e-05   8.578160156777134e-06   3.181624306264146e-05
-5.291031979533483e-05   8.578160156777134e-06   3.181624306264146e-05
-5.291031979533483e-05   8.578160156777134e-06   3.181624306264146e-05
-3.6620693270984956e-05   6.61744976882526e-06   5.843291754829556e-06
-3.6620693270984956e-05   6.61744976882526e-06   5.843291754829556e-06
-3.6620693270984956e-05   6.61744976882526e-06   5.843291754829556e-06
-3.6620693270984956e-05   6.61744976882526e-06   5.843291754829556e-06
-4.239842347183217e-05   8.218001312663243e-06   1.4512511163272028e-05
-4.239842347183217e-05   8.218001312663243e-06   1.4512511163272028e-05
-4.239842347183217e-05   8.218001312663243e-06   1.4512511163272028e-05
-4.239842347183217e-05   8.218001312663243e-06   1.4512511163272028e-05
1.582753372612445e-05   -1.8160226701289823e-06   2.249787265222198e-05
1.582753372612445e-05   -1.8160226701289823e-06   2.249787265222198e-05
1.582753372612445e-05   -1.8160226701289823e-06   2.249787265222198e-05
1.582753372612445e-05   -1.8160226701289823e-06   2.249787265222198e-05
4.135216406074447e-06   4.4204545817175256e-08   4.126813448373026e-06
4.135216406074447e-06   4.4204545817175256e-08   4.126813448373026e-06
4.135216406074447e-06   4.4204545817175256e-08   4.126813448373026e-06
4.135216406074447e-06   4.4204545817175256e-08   4.126813448373026e-06
3.5798024537510517e-06   -2.5227267598426553e-06   2.0977343124842706e-05
3.5798024537510517e-06   -2.5227267598426553e-06   2.0977343124842706e-05
3.5798024537510517e-06   -2.5227267598426553e-06   2.0977343124842706e-05
3.5798024537510517e-06   -2.5227267598426553e-06   2.0977343124842706e-05
1.445476172999052e-05   -5.88967371577525e-07   1.6921553648181753e-06
1.445476172999052e-05   -5.88967371577525e-07   1.6921553648181753e-06
1.445476172999052e-05   -5.88967371577525e-07   1.6921553648181753e-06
1.445476172999052e-05   -5.88967371577525e-07   1.6921553648181753e-06
8.938317900762048e-06   -1.3105099067566017e-06   1.1319153934640403e-05
8.938317900762048e-06   -1.3105099067566017e-06   1.1319153934640403e-05
8.938317900762048e-06   -1.3105099067566017e-06   1.1319153934640403e-05
8.938317900762048e-06   -1.3105099067566017e-06   1.1319153934640403e-05
1.4454761729990547e-05   -2.5227267598426553e-06   1.9817087491883628e-05
1.4454761729990547e-05   -2.5227267598426553e-06   1.9817087491883628e-05
1.4454761729990547e-05   -2.5227267598426553e-06   1.9817087491883628e-05
1.4454761729990547e-05   -2.5227267598426553e-06   1.9817087491883628e-05
3.579802453751045e-06   -5.88967371577525e-07   2.8524109977772806e-06
3.579802453751045e-06   -5.88967371577525e-07   2.8524109977772806e-06
3.579802453751045e-06   -5.88967371577525e-07   2.8524109977772806e-06
3.579802453751045e-06   -5.88967371577525e-07   2.8524109977772806e-06
2.9326200990015203e-06   -2.7661022186469247e-06   1.96890189388541e-05
2.9326200990015203e-06   -2.7661022186469247e-06   1.96890189388541e-05
2.9326200990015203e-06   -2.7661022186469247e-06   1.96890189388541e-05
2.9326200990015203e-06   -2.7661022186469247e-06   1.96890189388541e-05
1.329257771951549e-05   -8.621093753591585e-07   1.280027198691556e-06
1.329257771951549e-05   -8.621093753591585e-07   1.280027198691556e-06
1.329257771951549e-05   -8.621093753591585e-07   1.280027198691556e-06
1.329257771951549e-05   -8.621093753591585e-07   1.280027198691556e-06
8.274557159397444e-06   -1.5868778526066142e-06   1.0078255885236781e-05
8.274557159397444e-06   -1.5868778526066142e-06   1.0078255885236781e-05
8.274557159397444e-06   -1.5868778526066142e-06   1.0078255885236781e-05
8.274557159397444e-06   -1.5868778526066142e-06   1.0078255885236781e-05
1.3292577719515504e-05   -2.7661022186469247e-06   1.8546623232881462e-05
1.3292577719515504e-05   -2.7661022186469247e-06   1.8546623232881462e-05
1.3292577719515504e-05   -2.7661022186469247e-06   1.8546623232881462e-05
1.3292577719515504e-05   -2.7661022186469247e-06   1.8546623232881462e-05
2.93262009900151e-06   -8.621093753591585e-07   2.422422904664384e-06
2.93262009900151e-06   -8.621093753591585e-07   2.422422904664384e-06
2.93262009900151e-06   -8.621093753591585e-07   2.422422904664384e-06
2.93262009900151e-06   -8.621093753591585e-07   2.422422904664384e-06
2.371948339970302e-06   -3.0881253134345914e-06   1.820100643585773e-05
2.371948339970302e-06   -3.0881253134345914e-06   1.820100643585773e-05
2.371948339970302e-06   -3.0881253134345914e-06   1.820100643585773e-05
2.371948339970302e-06   -3.0881253134345914e-06   1.820100643585773e-05
1.193184297426387e-05   -1.317359474282834e-06   1.2053892085444077e-06
1.193184297426387e-05   -1.317359474282834e-06   1.2053892085444077e-06
1.193184297426387e-05   -1.317359474282834e-06   1.2053892085444077e-06
1.193184297426387e-05   -1.317359474282834e-06   1.2053892085444077e-06
7.297513920671608e-06   -1.7297135716947982e-06   9.176683422979079e-06
7.297513920671608e-06   -1.7297135716947982e-06   9.176683422979079e-06
7.297513920671608e-06   -1.7297135716947982e-06   9.176683422979079e-06
7.297513920671608e-06   -1.7297135716947982e-06   9.176683422979079e-06
4.135216406074457e-06   9.356405988702587e-07   3.096035784955816e-05
4.135216406074457e-06   9.356405988702587e-07   3.096035784955816e-05
4.135216406074457e-06   9.356405988702587e-07   3.096035784955816e-05
4.135216406074457e-06   9.356405988702587e-07   3.096035784955816e-05
-6.517574098441385e-06   1.77765620886991e-06   1.371091637469824e-05
-6.517574098441385e-06   1.77765620886991e-06   1.371091637469824e-05
-6.517574098441385e-06   1.77765620886991e-06   1.371091637469824e-05
-6.517574098441385e-06   1.77765620886991e-06   1.371091637469824e-05
-7.005428848960607e-06   2.2003597110673012e-07   3.105832703997652e-05
-7.005428848960607e-06   2.2003597110673012e-07   3.105832703997652e-05
-7.005428848960607e-06   2.2003597110673012e-07   3.105832703997652e-05
-7.005428848960607e-06   2.2003597110673012e-07   3.105832703997652e-05
3.579802453751045e-06   1.0619769721434934e-06   1.2911110268168422e-05
3.579802453751045e-06   1.0619769721434934e-06   1.2911110268168422e-05
3.579802453751045e-06   1.0619769721434934e-06   1.2911110268168422e-05
3.579802453751045e-06   1.0619769721434934e-06   1.2911110268168422e-05
-1.5316152765958426e-06   9.275599857630143e-07   2.151079001057592e-05
-1.5316152765958426e-06   9.275599857630143e-07   2.151079001057592e-05
-1.5316152765958426e-06   9.275599857630143e-07   2.151079001057592e-05
-1.5316152765958426e-06   9.275599857630143e-07   2.151079001057592e-05
3.579802453751045e-06   2.2003597110673012e-07   3.0553162439354506e-05
3.579802453751045e-06   2.2003597110673012e-07   3.0553162439354506e-05
3.579802453751045e-06   2.2003597110673012e-07   3.0553162439354506e-05
3.579802453751045e-06   2.2003597110673012e-07   3.0553162439354506e-05
-7.005428848960607e-06   1.0619769721434934e-06   1.3416274868790633e-05
-7.005428848960607e-06   1.0619769721434934e-06   1.3416274868790633e-05
-7.005428848960607e-06   1.0619769721434934e-06   1.3416274868790633e-05
-7.005428848960607e-06   1.0619769721434934e-06   1.3416274868790633e-05
-7.507503080011644e-06   -3.6563319729190913e-07   3.08596629888221e-05
-7.507503080011644e-06   -3.6563319729190913e-07   3.08596629888221e-05
-7.507503080011644e-06   -3.6563319729190913e-07   3.08596629888221e-05
-7.507503080011644e-06   -3.6563319729190913e-07   3.08596629888221e-05
2.93262009900151e-06   4.5530188783581005e-07   1.2966896639390303e-05
2.93262009900151e-06   4.5530188783581005e-07   1.2966896639390303e-05
2.93262009900151e-06   4.5530188783581005e-07   1.2966896639390303e-05
2.93262009900151e-06   4.5530188783581005e-07   1.2966896639390303e-05
-2.052304962914869e-06   4.2832587197677227e-07   2.1291290685433728e-05
-2.052304962914869e-06   4.2832587197677227e-07   2.1291290685433728e-05
-2.052304962914869e-06   4.2832587197677227e-07   2.1291290685433728e-05
-2.052304962914869e-06   4.2832587197677227e-07   2.1291290685433728e-05
2.9326200990015203e-06   -3.6563319729190913e-07   3.0367101937745465e-05
2.9326200990015203e-06   -3.6563319729190913e-07   3.0367101937745465e-05
2.9326200990015203e-06   -3.6563319729190913e-07   3.0367101937745465e-05
2.9326200990015203e-06   -3.6563319729190913e-07   3.0367101937745465e-05
-7.507503080011671e-06   4.553018878355932e-07   1.3459457690467077e-05
-7.507503080011671e-06   4.553018878355932e-07   1.3459457690467077e-05
-7.507503080011671e-06   4.553018878355932e-07   1.3459457690467077e-05
-7.507503080011671e-06   4.553018878355932e-07   1.3459457690467077e-05
-8.002056545117691e-06   -9.429272881044618e-07   3.12664860305685e-05
-8.002056545117691e-06   -9.429272881044618e-07   3.12664860305685e-05
-8.002056545117691e-06   -9.429272881044618e-07   3.12664860305685e-05
-8.002056545117691e-06   -9.429272881044618e-07   3.12664860305685e-05
2.3719483399702985e-06   -1.6484185009417278e-07   1.3509626625949272e-05
2.3719483399702985e-06   -1.6484185009417278e-07   1.3509626625949272e-05
2.3719483399702985e-06   -1.6484185009417278e-07   1.3509626625949272e-05
2.3719483399702985e-06   -1.6484185009417278e-07   1.3509626625949272e-05
-2.49330373222548e-06   -1.983375099096421e-08   2.1531375220147414e-05
-2.49330373222548e-06   -1.983375099096421e-08   2.1531375220147414e-05
-2.49330373222548e-06   -1.983375099096421e-08   2.1531375220147414e-05
-2.49330373222548e-06   -1.983375099096421e-08   2.1531375220147414e-05
-6.517574098441385e-06   3.517540992524623e-06   3.433597552551879e-05
-6.517574098441385e-06   3.517540992524623e-06   3.433597552551879e-05
-6.517574098441385e-06   3.517540992524623e-06   3.433597552551879e-05
-6.517574098441385e-06   3.517540992524623e-06   3.433597552551879e-05
-1.6990410869580937e-05   3.315448726992241e-06   1.675999221429996e-05
-1.6990410869580937e-05   3.315448726992241e-06   1.675999221429996e-05
-1.6990410869580937e-05   3.315448726992241e-06   1.675999221429996e-05
-1.6990410869580937e-05   3.315448726992241e-06   1.675999221429996e-05
-1.74584446369244e-05   2.8671478242046303e-06   3.4032511246240684e-05
-1.74584446369244e-05   2.8671478242046303e-06   3.4032511246240684e-05
-1.74584446369244e-05   2.8671478242046303e-06   3.4032511246240684e-05
-1.74584446369244e-05   2.8671478242046303e-06   3.4032511246240684e-05
-7.005428848960607e-06   2.6555014845052426e-06   1.6737806070120847e-05
-7.005428848960607e-06   2.6555014845052426e-06   1.6737806070120847e-05
-7.005428848960607e-06   2.6555014845052426e-06   1.6737806070120847e-05
-7.005428848960607e-06   2.6555014845052426e-06   1.6737806070120847e-05
-1.2015289312798693e-05   3.0152351342897354e-06   2.4871733319981493e-05
-1.2015289312798693e-05   3.0152351342897354e-06   2.4871733319981493e-05
-1.2015289312798693e-05   3.0152351342897354e-06   2.4871733319981493e-05
-1.2015289312798693e-05   3.0152351342897354e-06   2.4871733319981493e-05
-7.005428848960607e-06   2.8671478242046303e-06   3.415949905006036e-05
-7.005428848960607e-06   2.8671478242046303e-06   3.415949905006036e-05
-7.005428848960607e-06   2.8671478242046303e-06   3.415949905006036e-05
-7.005428848960607e-06   2.8671478242046303e-06   3.415949905006036e-05
-1.7458444636924347e-05   2.6555014845052426e-06   1.6610818266301307e-05
-1.7458444636924347e-05   2.6555014845052426e-06   1.6610818266301307e-05
-1.7458444636924347e-05   2.6555014845052426e-06   1.6610818266301307e-05
-1.7458444636924347e-05   2.6555014845052426e-06   1.6610818266301307e-05
-1.794184642966564e-05   2.224211271605785e-06   3.425911909742639e-05
-1.794184642966564e-05   2.224211271605785e-06   3.425911909742639e-05
-1.794184642966564e-05   2.224211271605785e-06   3.425911909742639e-05
-1.794184642966564e-05   2.224211271605785e-06   3.425911909742639e-05
-7.507503080011644e-06   1.9989292082602667e-06   1.7003716086010638e-05
-7.507503080011644e-06   1.9989292082602667e-06   1.7003716086010638e-05
-7.507503080011644e-06   1.9989292082602667e-06   1.7003716086010638e-05
-7.507503080011644e-06   1.9989292082602667e-06   1.7003716086010638e-05
-1.2432056288139452e-05   2.5131925007833202e-06   2.4902746790709553e-05
-1.2432056288139452e-05   2.5131925007833202e-06   2.4902746790709553e-05
-1.2432056288139452e-05   2.5131925007833202e-06   2.4902746790709553e-05
-1.2432056288139452e-05   2.5131925007833202e-06   2.4902746790709553e-05
-7.507503080011671e-06   2.224211271605785e-06   3.4394288335433745e-05
-7.507503080011671e-06   2.224211271605785e-06   3.4394288335433745e-05
-7.507503080011671e-06   2.224211271605785e-06   3.4394288335433745e-05
-7.507503080011671e-06   2.224211271605785e-06   3.4394288335433745e-05
-1.794184642966561e-05   1.9989292082602667e-06   1.6868546848003364e-05
-1.794184642966561e-05   1.9989292082602667e-06   1.6868546848003364e-05
-1.794184642966561e-05   1.9989292082602667e-06   1.6868546848003364e-05
-1.794184642966561e-05   1.9989292082602667e-06   1.6868546848003364e-05
-1.8417713657162835e-05   1.6052174069310088e-06   3.481297532817928e-05
-1.8417713657162835e-05   1.6052174069310088e-06   3.481297532817928e-05
-1.8417713657162835e-05   1.6052174069310088e-06   3.481297532817928e-05
-1.8417713657162835e-05   1.6052174069310088e-06   3.481297532817928e-05
-8.002056545117691e-06   1.3702035904978628e-06   1.7594555097964266e-05
-8.002056545117691e-06   1.3702035904978628e-06   1.7594555097964266e-05
-8.002056545117691e-06   1.3702035904978628e-06   1.7594555097964266e-05
-8.002056545117691e-06   1.3702035904978628e-06   1.7594555097964266e-05
-1.287533220549685e-05   2.021186380194752e-06   2.532609152477831e-05
-1.287533220549685e-05   2.021186380194752e-06   2.532609152477831e-05
-1.287533220549685e-05   2.021186380194752e-06   2.532609152477831e-05
-1.287533220549685e-05   2.021186380194752e-06   2.532609152477831e-05
-1.6990410869580937e-05   6.029208863805435e-06   3.0245582476670554e-05
-1.6990410869580937e-05   6.029208863805435e-06   3.0245582476670554e-05
-1.6990410869580937e-05   6.029208863805435e-06   3.0245582476670554e-05
-1.6990410869580937e-05   6.029208863805435e-06   3.0245582476670554e-05
-2.7271891763962143e-05   4.923798490444765e-06   1.2446534762018788e-05
-2.7271891763962143e-05   4.923798490444765e-06   1.2446534762018788e-05
-2.7271891763962143e-05   4.923798490444765e-06   1.2446534762018788e-05
-2.7271891763962143e-05   4.923798490444765e-06   1.2446534762018788e-05
-2.7781970545593434e-05   5.3937428047326746e-06   2.9687768914715565e-05
-2.7781970545593434e-05   5.3937428047326746e-06   2.9687768914715565e-05
-2.7781970545593434e-05   5.3937428047326746e-06   2.9687768914715565e-05
-2.7781970545593434e-05   5.3937428047326746e-06   2.9687768914715565e-05
-1.745844463692432e-05   4.2581766578225246e-06   1.3163232088413601e-05
-1.745844463692432e-05   4.2581766578225246e-06   1.3163232088413601e-05
-1.745844463692432e-05   4.2581766578225246e-06   1.3163232088413601e-05
-1.745844463692432e-05   4.2581766578225246e-06   1.3163232088413601e-05
-2.2321750138858086e-05   5.067629619505279e-06   2.0783069481294816e-05
-2.2321750138858086e-05   5.067629619505279e-06   2.0783069481294816e-05
-2.2321750138858086e-05   5.067629619505279e-06   2.0783069481294816e-05
-2.2321750138858086e-05   5.067629619505279e-06   2.0783069481294816e-05
-1.74584446369244e-05   5.3937428047326746e-06   3.036910860286209e-05
-1.74584446369244e-05   5.3937428047326746e-06   3.036910860286209e-05
-1.74584446369244e-05   5.3937428047326746e-06   3.036910860286209e-05
-1.74584446369244e-05   5.3937428047326746e-06   3.036910860286209e-05
-2.778197054559338e-05   4.2581766578225246e-06   1.248189240026762e-05
-2.778197054559338e-05   4.2581766578225246e-06   1.248189240026762e-05
-2.778197054559338e-05   4.2581766578225246e-06   1.248189240026762e-05
-2.778197054559338e-05   4.2581766578225246e-06   1.248189240026762e-05
-2.8386130550956258e-05   4.805864061563922e-06   3.0664737310536535e-05
-2.8386130550956258e-05   4.805864061563922e-06   3.0664737310536535e-05
-2.8386130550956258e-05   4.805864061563922e-06   3.0664737310536535e-05
-2.8386130550956258e-05   4.805864061563922e-06   3.0664737310536535e-05
-1.7941846429665585e-05   3.6531420109910204e-06   1.394923033872929e-05
-1.7941846429665585e-05   3.6531420109910204e-06   1.394923033872929e-05
-1.7941846429665585e-05   3.6531420109910204e-06   1.394923033872929e-05
-1.7941846429665585e-05   3.6531420109910204e-06   1.394923033872929e-05
-2.265251001671686e-05   4.596778530589762e-06   2.1234154405388778e-05
-2.265251001671686e-05   4.596778530589762e-06   2.1234154405388778e-05
-2.265251001671686e-05   4.596778530589762e-06   2.1234154405388778e-05
-2.265251001671686e-05   4.596778530589762e-06   2.1234154405388778e-05
-1.794184642966564e-05   4.805864061563922e-06   3.135637054088006e-05
-1.794184642966564e-05   4.805864061563922e-06   3.135637054088006e-05
-1.794184642966564e-05   4.805864061563922e-06   3.135637054088006e-05
-1.794184642966564e-05   4.805864061563922e-06   3.135637054088006e-05
-2.8386130550956204e-05   3.6531420109910204e-06   1.325759710838544e-05
-2.8386130550956204e-05   3.6531420109910204e-06   1.325759710838544e-05
-2.8386130550956204e-05   3.6531420109910204e-06   1.325759710838544e-05
-2.8386130550956204e-05   3.6531420109910204e-06   1.325759710838544e-05
-2.8904679543591705e-05   4.148806384737455e-06   3.160879514383101e-05
-2.8904679543591705e-05   4.148806384737455e-06   3.160879514383101e-05
-2.8904679543591705e-05   4.148806384737455e-06   3.160879514383101e-05
-2.8904679543591705e-05   4.148806384737455e-06   3.160879514383101e-05
-1.8417713657162754e-05   3.00669935419484e-06   1.4815782884775074e-05
-1.8417713657162754e-05   3.00669935419484e-06   1.4815782884775074e-05
-1.8417713657162754e-05   3.00669935419484e-06   1.4815782884775074e-05
-1.8417713657162754e-05   3.00669935419484e-06   1.4815782884775074e-05
-2.3220837046381126e-05   4.125394780478495e-06   2.214977127770317e-05
-2.3220837046381126e-05   4.125394780478495e-06   2.214977127770317e-05
-2.3220837046381126e-05   4.125394780478495e-06   2.214977127770317e-05
-2.3220837046381126e-05   4.125394780478495e-06   2.214977127770317e-05
-2.7271891763962252e-05   7.906763269429446e-06   1.4127688257189368e-05
-2.7271891763962252e-05   7.906763269429446e-06   1.4127688257189368e-05
-2.7271891763962252e-05   7.906763269429446e-06   1.4127688257189368e-05
-2.7271891763962252e-05   7.906763269429446e-06   1.4127688257189368e-05
-3.654006182189667e-05   6.05567425797566e-06   -2.4299152462401515e-06
-3.654006182189667e-05   6.05567425797566e-06   -2.4299152462401515e-06
-3.654006182189667e-05   6.05567425797566e-06   -2.4299152462401515e-06
-3.654006182189667e-05   6.05567425797566e-06   -2.4299152462401515e-06
-3.784750993114346e-05   7.702578284619248e-06   1.7417723526604555e-05
-3.784750993114346e-05   7.702578284619248e-06   1.7417723526604555e-05
-3.784750993114346e-05   7.702578284619248e-06   1.7417723526604555e-05
-3.784750993114346e-05   7.702578284619248e-06   1.7417723526604555e-05
-2.7781970545593326e-05   5.71423725158446e-06   1.8348291705089833e-06
-2.7781970545593326e-05   5.71423725158446e-06   1.8348291705089833e-06
-2.7781970545593326e-05   5.71423725158446e-06   1.8348291705089833e-06
-2.7781970545593326e-05   5.71423725158446e-06   1.8348291705089833e-06
-3.118197811067131e-05   6.719359232423405e-06   6.898435257137055e-06
-3.118197811067131e-05   6.719359232423405e-06   6.898435257137055e-06
-3.118197811067131e-05   6.719359232423405e-06   6.898435257137055e-06
-3.118197811067131e-05   6.719359232423405e-06   6.898435257137055e-06
-2.778197054559338e-05   7.702578284619248e-06   1.8610728146425384e-05
-2.778197054559338e-05   7.702578284619248e-06   1.8610728146425384e-05
-2.778197054559338e-05   7.702578284619248e-06   1.8610728146425384e-05
-2.778197054559338e-05   7.702578284619248e-06   1.8610728146425384e-05
-3.784750993114357e-05   5.71423725158446e-06   6.418245506883708e-07
-3.784750993114357e-05   5.71423725158446e-06   6.418245506883708e-07
-3.784750993114357e-05   5.71423725158446e-06   6.418245506883708e-07
-3.784750993114357e-05   5.71423725158446e-06   6.418245506883708e-07
-3.897338246316095e-05   7.453383775798397e-06   2.06099160468987e-05
-3.897338246316095e-05   7.453383775798397e-06   2.06099160468987e-05
-3.897338246316095e-05   7.453383775798397e-06   2.06099160468987e-05
-3.897338246316095e-05   7.453383775798397e-06   2.06099160468987e-05
-2.8386130550956204e-05   5.429231153170544e-06   4.178987766801051e-06
-2.8386130550956204e-05   5.429231153170544e-06   4.178987766801051e-06
-2.8386130550956204e-05   5.429231153170544e-06   4.178987766801051e-06
-2.8386130550956204e-05   5.429231153170544e-06   4.178987766801051e-06
-3.243688560368481e-05   6.630662889791326e-06   1.0209387146043478e-05
-3.243688560368481e-05   6.630662889791326e-06   1.0209387146043478e-05
-3.243688560368481e-05   6.630662889791326e-06   1.0209387146043478e-05
-3.243688560368481e-05   6.630662889791326e-06   1.0209387146043478e-05
-2.8386130550956258e-05   7.453383775798614e-06   2.18244076204755e-05
-2.8386130550956258e-05   7.453383775798614e-06   2.18244076204755e-05
-2.8386130550956258e-05   7.453383775798614e-06   2.18244076204755e-05
-2.8386130550956258e-05   7.453383775798614e-06   2.18244076204755e-05
-3.897338246316106e-05   5.429231153170327e-06   2.964496193224198e-06
-3.897338246316106e-05   5.429231153170327e-06   2.964496193224198e-06
-3.897338246316106e-05   5.429231153170327e-06   2.964496193224198e-06
-3.897338246316106e-05   5.429231153170327e-06   2.964496193224198e-06
-4.032106937146702e-05   6.617449768825043e-06   2.6259258803897415e-05
-4.032106937146702e-05   6.617449768825043e-06   2.6259258803897415e-05
-4.032106937146702e-05   6.617449768825043e-06   2.6259258803897415e-05
-4.032106937146702e-05   6.617449768825043e-06   2.6259258803897415e-05
-2.890467954359165e-05   4.654486788575581e-06   8.409720212255306e-06
-2.890467954359165e-05   4.654486788575581e-06   8.409720212255306e-06
-2.890467954359165e-05   4.654486788575581e-06   8.409720212255306e-06
-2.890467954359165e-05   4.654486788575581e-06   8.409720212255306e-06
-3.275060267948104e-05   6.278355864801355e-06   1.3845270659669116e-05
-3.275060267948104e-05   6.278355864801355e-06   1.3845270659669116e-05
-3.275060267948104e-05   6.278355864801355e-06   1.3845270659669116e-05
-3.275060267948104e-05   6.278355864801355e-06   1.3845270659669116e-05
3.148015932018025e-06   4.4204545817392096e-08   1.6781568495852824e-05
3.148015932018025e-06   4.4204545817392096e-08   1.6781568495852824e-05
3.148015932018025e-06   4.4204545817392096e-08   1.6781568495852824e-05
3.148015932018025e-06   4.4204545817392096e-08   1.6781568495852824e-05
-3.5354704579387354e-06   1.8296069284162286e-06   6.713665942150913e-06
-3.5354704579387354e-06   1.8296069284162286e-06   6.713665942150913e-06
-3.5354704579387354e-06   1.8296069284162286e-06   6.713665942150913e-06
-3.5354704579387354e-06   1.8296069284162286e-06   6.713665942150913e-06
-3.928465456112991e-06   -5.88967371577525e-07   1.6555433298905673e-05
-3.928465456112991e-06   -5.88967371577525e-07   1.6555433298905673e-05
-3.928465456112991e-06   -5.88967371577525e-07   1.6555433298905673e-05
-3.928465456112991e-06   -5.88967371577525e-07   1.6555433298905673e-05
1.951676759305804e-06   1.2389627891877617e-06   5.658438176748431e-06
1.951676759305804e-06   1.2389627891877617e-06   5.658438176748431e-06
1.951676759305804e-06   1.2389627891877617e-06   5.658438176748431e-06
1.951676759305804e-06   1.2389627891877617e-06   5.658438176748431e-06
-7.468959293179367e-07   5.299258320817703e-07   1.0581481498718296e-05
-7.468959293179367e-07   5.299258320817703e-07   1.0581481498718296e-05
-7.468959293179367e-07   5.299258320817703e-07   1.0581481498718296e-05
-7.468959293179367e-07   5.299258320817703e-07   1.0581481498718296e-05
1.951676759305804e-06   -5.88967371577525e-07   1.5458675202446458e-05
1.951676759305804e-06   -5.88967371577525e-07   1.5458675202446458e-05
1.951676759305804e-06   -5.88967371577525e-07   1.5458675202446458e-05
1.951676759305804e-06   -5.88967371577525e-07   1.5458675202446458e-05
-3.928465456112991e-06   1.2389627891877617e-06   6.755196273207646e-06
-3.928465456112991e-06   1.2389627891877617e-06   6.755196273207646e-06
-3.928465456112991e-06   1.2389627891877617e-06   6.755196273207646e-06
-3.928465456112991e-06   1.2389627891877617e-06   6.755196273207646e-06
-4.413878429352241e-06   -8.621093753591585e-07   1.6124425871586107e-05
-4.413878429352241e-06   -8.621093753591585e-07   1.6124425871586107e-05
-4.413878429352241e-06   -8.621093753591585e-07   1.6124425871586107e-05
-4.413878429352241e-06   -8.621093753591585e-07   1.6124425871586107e-05
9.137205427150216e-07   9.136206553569254e-07   6.179656233044396e-06
9.137205427150216e-07   9.136206553569254e-07   6.179656233044396e-06
9.137205427150216e-07   9.136206553569254e-07   6.179656233044396e-06
9.137205427150216e-07   9.136206553569254e-07   6.179656233044396e-06
-1.392733762259052e-06   2.78234204247399e-07   1.0404978612000074e-05
-1.392733762259052e-06   2.78234204247399e-07   1.0404978612000074e-05
-1.392733762259052e-06   2.78234204247399e-07   1.0404978612000074e-05
-1.392733762259052e-06   2.78234204247399e-07   1.0404978612000074e-05
9.137205427150216e-07   -8.621093753591585e-07   1.5058987853156349e-05
9.137205427150216e-07   -8.621093753591585e-07   1.5058987853156349e-05
9.137205427150216e-07   -8.621093753591585e-07   1.5058987853156349e-05
9.137205427150216e-07   -8.621093753591585e-07   1.5058987853156349e-05
-4.413878429352241e-06   9.136206553569254e-07   7.245094251473938e-06
-4.413878429352241e-06   9.136206553569254e-07   7.245094251473938e-06
-4.413878429352241e-06   9.136206553569254e-07   7.245094251473938e-06
-4.413878429352241e-06   9.136206553569254e-07   7.245094251473938e-06
-4.819463241073704e-06   -1.3173594742826172e-06   1.5974258633027734e-05
-4.819463241073704e-06   -1.3173594742826172e-06   1.5974258633027734e-05
-4.819463241073704e-06   -1.3173594742826172e-06   1.5974258633027734e-05
-4.819463241073704e-06   -1.3173594742826172e-06   1.5974258633027734e-05
-3.8833680710707635e-07   2.233763255522509e-07   7.664606429849235e-06
-3.8833680710707635e-07   2.233763255522509e-07   7.664606429849235e-06
-3.8833680710707635e-07   2.233763255522509e-07   7.664606429849235e-06
-3.8833680710707635e-07   2.233763255522509e-07   7.664606429849235e-06
-2.087588965140444e-06   4.7206824963820504e-08   1.0602395060257746e-05
-2.087588965140444e-06   4.7206824963820504e-08   1.0602395060257746e-05
-2.087588965140444e-06   4.7206824963820504e-08   1.0602395060257746e-05
-2.087588965140444e-06   4.7206824963820504e-08   1.0602395060257746e-05
-3.5354704579387354e-06   1.77765620886991e-06   2.693170348573755e-05
-3.5354704579387354e-06   1.77765620886991e-06   2.693170348573755e-05
-3.5354704579387354e-06   1.77765620886991e-06   2.693170348573755e-05
-3.5354704579387354e-06   1.77765620886991e-06   2.693170348573755e-05
-9.130057487985986e-06   2.129504213368343e-06   1.781850057169126e-05
-9.130057487985986e-06   2.129504213368343e-06   1.781850057169126e-05
-9.130057487985986e-06   2.129504213368343e-06   1.781850057169126e-05
-9.130057487985986e-06   2.129504213368343e-06   1.781850057169126e-05
-9.426306867362075e-06   1.0619769721434934e-06   2.6858820732779203e-05
-9.426306867362075e-06   1.0619769721434934e-06   2.6858820732779203e-05
-9.426306867362075e-06   1.0619769721434934e-06   2.6858820732779203e-05
-9.426306867362075e-06   1.0619769721434934e-06   2.6858820732779203e-05
-3.928465456112991e-06   1.4697905779468938e-06   1.7451063550548544e-05
-3.928465456112991e-06   1.4697905779468938e-06   1.7451063550548544e-05
-3.928465456112991e-06   1.4697905779468938e-06   1.7451063550548544e-05
-3.928465456112991e-06   1.4697905779468938e-06   1.7451063550548544e-05
-6.543618116901067e-06   1.5333294470709288e-06   2.17715279970543e-05
-6.543618116901067e-06   1.5333294470709288e-06   2.17715279970543e-05
-6.543618116901067e-06   1.5333294470709288e-06   2.17715279970543e-05
-6.543618116901067e-06   1.5333294470709288e-06   2.17715279970543e-05
-3.928465456112997e-06   1.0619769721434934e-06   2.6614132569296903e-05
-3.928465456112997e-06   1.0619769721434934e-06   2.6614132569296903e-05
-3.928465456112997e-06   1.0619769721434934e-06   2.6614132569296903e-05
-3.928465456112997e-06   1.0619769721434934e-06   2.6614132569296903e-05
-9.426306867362048e-06   1.4697905779468938e-06   1.769575171403073e-05
-9.426306867362048e-06   1.4697905779468938e-06   1.769575171403073e-05
-9.426306867362048e-06   1.4697905779468938e-06   1.769575171403073e-05
-9.426306867362048e-06   1.4697905779468938e-06   1.769575171403073e-05
-9.731852711336727e-06   4.5530188783581005e-07   2.6912082479547744e-05
-9.731852711336727e-06   4.5530188783581005e-07   2.6912082479547744e-05
-9.731852711336727e-06   4.5530188783581005e-07   2.6912082479547744e-05
-9.731852711336727e-06   4.5530188783581005e-07   2.6912082479547744e-05
-4.413878429352241e-06   8.60606676561515e-07   1.7805609136338087e-05
-4.413878429352241e-06   8.60606676561515e-07   1.7805609136338087e-05
-4.413878429352241e-06   8.60606676561515e-07   1.7805609136338087e-05
-4.413878429352241e-06   8.60606676561515e-07   1.7805609136338087e-05
-6.846059671660183e-06   1.0510993216858184e-06   2.1744948953110563e-05
-6.846059671660183e-06   1.0510993216858184e-06   2.1744948953110563e-05
-6.846059671660183e-06   1.0510993216858184e-06   2.1744948953110563e-05
-6.846059671660183e-06   1.0510993216858184e-06   2.1744948953110563e-05
-4.413878429352241e-06   4.5530188783581005e-07   2.666889960631217e-05
-4.413878429352241e-06   4.5530188783581005e-07   2.666889960631217e-05
-4.413878429352241e-06   4.5530188783581005e-07   2.666889960631217e-05
-4.413878429352241e-06   4.5530188783581005e-07   2.666889960631217e-05
-9.731852711336727e-06   8.60606676561515e-07   1.8048792009573702e-05
-9.731852711336727e-06   8.60606676561515e-07   1.8048792009573702e-05
-9.731852711336727e-06   8.60606676561515e-07   1.8048792009573702e-05
-9.731852711336727e-06   8.60606676561515e-07   1.8048792009573702e-05
-1.0031527264675767e-05   -1.6484185009438962e-07   2.743518605941562e-05
-1.0031527264675767e-05   -1.6484185009438962e-07   2.743518605941562e-05
-1.0031527264675767e-05   -1.6484185009438962e-07   2.743518605941562e-05
-1.0031527264675767e-05   -1.6484185009438962e-07   2.743518605941562e-05
-4.8194632410737005e-06   2.0040733736252127e-07   1.8529263174271592e-05
-4.8194632410737005e-06   2.0040733736252127e-07   1.8529263174271592e-05
-4.8194632410737005e-06   2.0040733736252127e-07   1.8529263174271592e-05
-4.8194632410737005e-06   2.0040733736252127e-07   1.8529263174271592e-05
-7.148229209218828e-06   5.769308470257237e-07   2.218462568204867e-05
-7.148229209218828e-06   5.769308470257237e-07   2.218462568204867e-05
-7.148229209218828e-06   5.769308470257237e-07   2.218462568204867e-05
-7.148229209218828e-06   5.769308470257237e-07   2.218462568204867e-05
-9.130057487985986e-06   3.315448726992241e-06   3.0313143487357866e-05
-9.130057487985986e-06   3.315448726992241e-06   3.0313143487357866e-05
-9.130057487985986e-06   3.315448726992241e-06   3.0313143487357866e-05
-9.130057487985986e-06   3.315448726992241e-06   3.0313143487357866e-05
-1.4706627827754104e-05   2.552329235209691e-06   2.056098789267487e-05
-1.4706627827754104e-05   2.552329235209691e-06   2.056098789267487e-05
-1.4706627827754104e-05   2.552329235209691e-06   2.056098789267487e-05
-1.4706627827754104e-05   2.552329235209691e-06   2.056098789267487e-05
-1.4957271722573708e-05   2.6555014845052426e-06   2.9751537121864517e-05
-1.4957271722573708e-05   2.6555014845052426e-06   2.9751537121864517e-05
-1.4957271722573708e-05   2.6555014845052426e-06   2.9751537121864517e-05
-1.4957271722573708e-05   2.6555014845052426e-06   2.9751537121864517e-05
-9.426306867362048e-06   1.9408101307638766e-06   2.0962077175423408e-05
-9.426306867362048e-06   1.9408101307638766e-06   2.0962077175423408e-05
-9.426306867362048e-06   1.9408101307638766e-06   2.0962077175423408e-05
-9.426306867362048e-06   1.9408101307638766e-06   2.0962077175423408e-05
-1.2061034058807768e-05   2.5657182831930695e-06   2.4978344269708814e-05
-1.2061034058807768e-05   2.5657182831930695e-06   2.4978344269708814e-05
-1.2061034058807768e-05   2.5657182831930695e-06   2.4978344269708814e-05
-1.2061034058807768e-05   2.5657182831930695e-06   2.4978344269708814e-05
-9.426306867362048e-06   2.6555014845052426e-06   3.0180351934109445e-05
-9.426306867362048e-06   2.6555014845052426e-06   3.0180351934109445e-05
-9.426306867362048e-06   2.6555014845052426e-06   3.0180351934109445e-05
-9.426306867362048e-06   2.6555014845052426e-06   3.0180351934109445e-05
-1.4957271722573708e-05   1.9408101307638766e-06   2.0533262363178588e-05
-1.4957271722573708e-05   1.9408101307638766e-06   2.0533262363178588e-05
-1.4957271722573708e-05   1.9408101307638766e-06   2.0533262363178588e-05
-1.4957271722573708e-05   1.9408101307638766e-06   2.0533262363178588e-05
-1.5225886662019689e-05   1.9989292082602667e-06   3.0048549627383937e-05
-1.5225886662019689e-05   1.9989292082602667e-06   3.0048549627383937e-05
-1.5225886662019689e-05   1.9989292082602667e-06   3.0048549627383937e-05
-1.5225886662019689e-05   1.9989292082602667e-06   3.0048549627383937e-05
-9.731852711336727e-06   1.3192771287481777e-06   2.129961762395308e-05
-9.731852711336727e-06   1.3192771287481777e-06   2.129961762395308e-05
-9.731852711336727e-06   1.3192771287481777e-06   2.129961762395308e-05
-9.731852711336727e-06   1.3192771287481777e-06   2.129961762395308e-05
-1.2275179194362325e-05   2.075942395421068e-06   2.508449593565846e-05
-1.2275179194362325e-05   2.075942395421068e-06   2.508449593565846e-05
-1.2275179194362325e-05   2.075942395421068e-06   2.508449593565846e-05
-1.2275179194362325e-05   2.075942395421068e-06   2.508449593565846e-05
-9.731852711336727e-06   1.9989292082604835e-06   3.045634087509117e-05
-9.731852711336727e-06   1.9989292082604835e-06   3.045634087509117e-05
-9.731852711336727e-06   1.9989292082604835e-06   3.045634087509117e-05
-9.731852711336727e-06   1.9989292082604835e-06   3.045634087509117e-05
-1.5225886662019635e-05   1.3192771287479609e-06   2.089182637624563e-05
-1.5225886662019635e-05   1.3192771287479609e-06   2.089182637624563e-05
-1.5225886662019635e-05   1.3192771287479609e-06   2.089182637624563e-05
-1.5225886662019635e-05   1.3192771287479609e-06   2.089182637624563e-05
-1.5488953211011504e-05   1.3702035904978628e-06   3.066913045968005e-05
-1.5488953211011504e-05   1.3702035904978628e-06   3.066913045968005e-05
-1.5488953211011504e-05   1.3702035904978628e-06   3.066913045968005e-05
-1.5488953211011504e-05   1.3702035904978628e-06   3.066913045968005e-05
-1.0031527264675794e-05   7.299822422565921e-07   2.195755335806512e-05
-1.0031527264675794e-05   7.299822422565921e-07   2.195755335806512e-05
-1.0031527264675794e-05   7.299822422565921e-07   2.195755335806512e-05
-1.0031527264675794e-05   7.299822422565921e-07   2.195755335806512e-05
-1.2513783679279314e-05   1.5935041590506988e-06   2.5576534232327837e-05
-1.2513783679279314e-05   1.5935041590506988e-06   2.5576534232327837e-05
-1.2513783679279314e-05   1.5935041590506988e-06   2.5576534232327837e-05
-1.2513783679279314e-05   1.5935041590506988e-06   2.5576534232327837e-05
-1.4706627827754159e-05   4.9237984904449816e-06   2.6205060564023805e-05
-1.4706627827754159e-05   4.9237984904449816e-06   2.6205060564023805e-05
-1.4706627827754159e-05   4.9237984904449816e-06   2.6205060564023805e-05
-1.4706627827754159e-05   4.9237984904449816e-06   2.6205060564023805e-05
-2.0190847703620144e-05   3.449614523155656e-06   1.618018372387365e-05
-2.0190847703620144e-05   3.449614523155656e-06   1.618018372387365e-05
-2.0190847703620144e-05   3.449614523155656e-06   1.618018372387365e-05
-2.0190847703620144e-05   3.449614523155656e-06   1.618018372387365e-05
-2.04662202523756e-05   4.2581766578225246e-06   2.5432779869044055e-05
-2.04662202523756e-05   4.2581766578225246e-06   2.5432779869044055e-05
-2.04662202523756e-05   4.2581766578225246e-06   2.5432779869044055e-05
-2.04662202523756e-05   4.2581766578225246e-06   2.5432779869044055e-05
-1.4957271722573708e-05   2.806224866267696e-06   1.712237006097373e-05
-1.4957271722573708e-05   2.806224866267696e-06   1.712237006097373e-05
-1.4957271722573708e-05   2.806224866267696e-06   1.712237006097373e-05
-1.4957271722573708e-05   2.806224866267696e-06   1.712237006097373e-05
-1.7543005978479692e-05   3.826814601691833e-06   2.08195733128959e-05
-1.7543005978479692e-05   3.826814601691833e-06   2.08195733128959e-05
-1.7543005978479692e-05   3.826814601691833e-06   2.08195733128959e-05
-1.7543005978479692e-05   3.826814601691833e-06   2.08195733128959e-05
-1.4957271722573708e-05   4.2581766578225246e-06   2.6303950943976973e-05
-1.4957271722573708e-05   4.2581766578225246e-06   2.6303950943976973e-05
-1.4957271722573708e-05   4.2581766578225246e-06   2.6303950943976973e-05
-1.4957271722573708e-05   4.2581766578225246e-06   2.6303950943976973e-05
-2.0466220252375546e-05   2.806224866267479e-06   1.625119898604081e-05
-2.0466220252375546e-05   2.806224866267479e-06   1.625119898604081e-05
-2.0466220252375546e-05   2.806224866267479e-06   1.625119898604081e-05
-2.0466220252375546e-05   2.806224866267479e-06   1.625119898604081e-05
-2.0846938600979745e-05   3.6531420109910204e-06   2.627771281713898e-05
-2.0846938600979745e-05   3.6531420109910204e-06   2.627771281713898e-05
-2.0846938600979745e-05   3.6531420109910204e-06   2.627771281713898e-05
-2.0846938600979745e-05   3.6531420109910204e-06   2.627771281713898e-05
-1.5225886662019689e-05   2.2339415093727746e-06   1.7760813219843156e-05
-1.5225886662019689e-05   2.2339415093727746e-06   1.7760813219843156e-05
-1.5225886662019689e-05   2.2339415093727746e-06   1.7760813219843156e-05
-1.5225886662019689e-05   2.2339415093727746e-06   1.7760813219843156e-05
-1.7692706690864064e-05   3.3521318095065377e-06   2.120126575450357e-05
-1.7692706690864064e-05   3.3521318095065377e-06   2.120126575450357e-05
-1.7692706690864064e-05   3.3521318095065377e-06   2.120126575450357e-05
-1.7692706690864064e-05   3.3521318095065377e-06   2.120126575450357e-05
-1.5225886662019635e-05   3.6531420109908036e-06   2.7129233118109537e-05
-1.5225886662019635e-05   3.6531420109908036e-06   2.7129233118109537e-05
-1.5225886662019635e-05   3.6531420109908036e-06   2.7129233118109537e-05
-1.5225886662019635e-05   3.6531420109908036e-06   2.7129233118109537e-05
-2.084693860097969e-05   2.2339415093729914e-06   1.6909292918872274e-05
-2.084693860097969e-05   2.2339415093729914e-06   1.6909292918872274e-05
-2.084693860097969e-05   2.2339415093729914e-06   1.6909292918872274e-05
-2.084693860097969e-05   2.2339415093729914e-06   1.6909292918872274e-05
-2.115218849093231e-05   3.006699354195057e-06   2.7217981816456214e-05
-2.115218849093231e-05   3.006699354195057e-06   2.7217981816456214e-05
-2.115218849093231e-05   3.006699354195057e-06   2.7217981816456214e-05
-2.115218849093231e-05   3.006699354195057e-06   2.7217981816456214e-05
-1.5488953211011504e-05   1.6510581543709418e-06   1.8592641069816265e-05
-1.5488953211011504e-05   1.6510581543709418e-06   1.8592641069816265e-05
-1.5488953211011504e-05   1.6510581543709418e-06   1.8592641069816265e-05
-1.5488953211011504e-05   1.6510581543709418e-06   1.8592641069816265e-05
-1.8007952518797593e-05   2.900863882108768e-06   2.2041089812817436e-05
-1.8007952518797593e-05   2.900863882108768e-06   2.2041089812817436e-05
-1.8007952518797593e-05   2.900863882108768e-06   2.2041089812817436e-05
-1.8007952518797593e-05   2.900863882108768e-06   2.2041089812817436e-05
-2.0190847703620144e-05   6.05567425797566e-06   1.155475358226364e-05
-2.0190847703620144e-05   6.05567425797566e-06   1.155475358226364e-05
-2.0190847703620144e-05   6.05567425797566e-06   1.155475358226364e-05
-2.0190847703620144e-05   6.05567425797566e-06   1.155475358226364e-05
-2.4491644444781305e-05   4.074079296322508e-06   3.197802036669829e-06
-2.4491644444781305e-05   4.074079296322508e-06   3.197802036669829e-06
-2.4491644444781305e-05   4.074079296322508e-06   3.197802036669829e-06
-2.4491644444781305e-05   4.074079296322508e-06   3.197802036669829e-06
-2.553715050802451e-05   5.71423725158446e-06   1.3544730065451335e-05
-2.553715050802451e-05   5.71423725158446e-06   1.3544730065451335e-05
-2.553715050802451e-05   5.71423725158446e-06   1.3544730065451335e-05
-2.553715050802451e-05   5.71423725158446e-06   1.3544730065451335e-05
-2.04662202523756e-05   3.645926295194231e-06   6.334166213203991e-06
-2.04662202523756e-05   3.645926295194231e-06   6.334166213203991e-06
-2.04662202523756e-05   3.645926295194231e-06   6.334166213203991e-06
-2.04662202523756e-05   3.645926295194231e-06   6.334166213203991e-06
-2.188496103274867e-05   4.8237192877874716e-06   7.992058384936494e-06
-2.188496103274867e-05   4.8237192877874716e-06   7.992058384936494e-06
-2.188496103274867e-05   4.8237192877874716e-06   7.992058384936494e-06
-2.188496103274867e-05   4.8237192877874716e-06   7.992058384936494e-06
-2.0466220252375546e-05   5.71423725158446e-06   1.4785716639285473e-05
-2.0466220252375546e-05   5.71423725158446e-06   1.4785716639285473e-05
-2.0466220252375546e-05   5.71423725158446e-06   1.4785716639285473e-05
-2.0466220252375546e-05   5.71423725158446e-06   1.4785716639285473e-05
-2.5537150508024564e-05   3.645926295194231e-06   5.093179639369828e-06
-2.5537150508024564e-05   3.645926295194231e-06   5.093179639369828e-06
-2.5537150508024564e-05   3.645926295194231e-06   5.093179639369828e-06
-2.5537150508024564e-05   3.645926295194231e-06   5.093179639369828e-06
-2.6434888154204788e-05   5.429231153170544e-06   1.5952767955824867e-05
-2.6434888154204788e-05   5.429231153170544e-06   1.5952767955824867e-05
-2.6434888154204788e-05   5.429231153170544e-06   1.5952767955824867e-05
-2.6434888154204788e-05   5.429231153170544e-06   1.5952767955824867e-05
-2.084693860097969e-05   3.3520052869549875e-06   7.885854220179194e-06
-2.084693860097969e-05   3.3520052869549875e-06   7.885854220179194e-06
-2.084693860097969e-05   3.3520052869549875e-06   7.885854220179194e-06
-2.084693860097969e-05   3.3520052869549875e-06   7.885854220179194e-06
-2.2770619565925176e-05   4.655569640147012e-06   1.0309850549840315e-05
-2.2770619565925176e-05   4.655569640147012e-06   1.0309850549840315e-05
-2.2770619565925176e-05   4.655569640147012e-06   1.0309850549840315e-05
-2.2770619565925176e-05   4.655569640147012e-06   1.0309850549840315e-05
-2.084693860097969e-05   5.429231153170544e-06   1.7199103475554157e-05
-2.084693860097969e-05   5.429231153170544e-06   1.7199103475554157e-05
-2.084693860097969e-05   5.429231153170544e-06   1.7199103475554157e-05
-2.084693860097969e-05   5.429231153170544e-06   1.7199103475554157e-05
-2.6434888154204896e-05   3.3520052869547706e-06   6.63951870045e-06
-2.6434888154204896e-05   3.3520052869547706e-06   6.63951870045e-06
-2.6434888154204896e-05   3.3520052869547706e-06   6.63951870045e-06
-2.6434888154204896e-05   3.3520052869547706e-06   6.63951870045e-06
-2.757828808413608e-05   4.654486788575364e-06   2.0311100376010742e-05
-2.757828808413608e-05   4.654486788575364e-06   2.0311100376010742e-05
-2.757828808413608e-05   4.654486788575364e-06   2.0311100376010742e-05
-2.757828808413608e-05   4.654486788575364e-06   2.0311100376010742e-05
-2.115218849093231e-05   2.6776818114902703e-06   1.0787017373588845e-05
-2.115218849093231e-05   2.6776818114902703e-06   1.0787017373588845e-05
-2.115218849093231e-05   2.6776818114902703e-06   1.0787017373588845e-05
-2.115218849093231e-05   2.6776818114902703e-06   1.0787017373588845e-05
-2.3024185018662705e-05   4.333999932655368e-06   1.2913220713773677e-05
-2.3024185018662705e-05   4.333999932655368e-06   1.2913220713773677e-05
-2.3024185018662705e-05   4.333999932655368e-06   1.2913220713773677e-05
-2.3024185018662705e-05   4.333999932655368e-06   1.2913220713773677e-05
-1.0077063995211425e-05   1.8296069284162286e-06   1.1964905305553771e-05
-1.0077063995211425e-05   1.8296069284162286e-06   1.1964905305553771e-05
-1.0077063995211425e-05   1.8296069284162286e-06   1.1964905305553771e-05
-1.0077063995211425e-05   1.8296069284162286e-06   1.1964905305553771e-05
-1.0998038711993316e-05   3.451692646806357e-06   1.140319887528462e-05
-1.0998038711993316e-05   3.451692646806357e-06   1.140319887528462e-05
-1.0998038711993316e-05   3.451692646806357e-06   1.140319887528462e-05
-1.0998038711993316e-05   3.451692646806357e-06   1.140319887528462e-05
-1.127977513974552e-05   1.2389627891877617e-06   1.2859005369722889e-05
-1.127977513974552e-05   1.2389627891877617e-06   1.2859005369722889e-05
-1.127977513974552e-05   1.2389627891877617e-06   1.2859005369722889e-05
-1.127977513974552e-05   1.2389627891877617e-06   1.2859005369722889e-05
-1.1264915828840071e-05   2.6974980023719434e-06   1.1959118723636742e-05
-1.1264915828840071e-05   2.6974980023719434e-06   1.1959118723636742e-05
-1.1264915828840071e-05   2.6974980023719434e-06   1.1959118723636742e-05
-1.1264915828840071e-05   2.6974980023719434e-06   1.1959118723636742e-05
-1.0633418647479943e-05   2.1543656900581843e-06   1.1232502808758026e-05
-1.0633418647479943e-05   2.1543656900581843e-06   1.1232502808758026e-05
-1.0633418647479943e-05   2.1543656900581843e-06   1.1232502808758026e-05
-1.0633418647479943e-05   2.1543656900581843e-06   1.1232502808758026e-05
-1.1264915828840084e-05   1.2389627891879786e-06   1.198388424181239e-05
-1.1264915828840084e-05   1.2389627891879786e-06   1.198388424181239e-05
-1.1264915828840084e-05   1.2389627891879786e-06   1.198388424181239e-05
-1.1264915828840084e-05   1.2389627891879786e-06   1.198388424181239e-05
-1.127977513974552e-05   2.6974980023719434e-06   1.2834239851547131e-05
-1.127977513974552e-05   2.6974980023719434e-06   1.2834239851547131e-05
-1.127977513974552e-05   2.6974980023719434e-06   1.2834239851547131e-05
-1.127977513974552e-05   2.6974980023719434e-06   1.2834239851547131e-05
-1.1645483820036045e-05   9.136206553571422e-07   1.3269227291093767e-05
-1.1645483820036045e-05   9.136206553571422e-07   1.3269227291093767e-05
-1.1645483820036045e-05   9.136206553571422e-07   1.3269227291093767e-05
-1.1645483820036045e-05   9.136206553571422e-07   1.3269227291093767e-05
-1.2419954895657084e-05   2.1758094278657557e-06   1.3802699153623465e-05
-1.2419954895657084e-05   2.1758094278657557e-06   1.3802699153623465e-05
-1.2419954895657084e-05   2.1758094278657557e-06   1.3802699153623465e-05
-1.2419954895657084e-05   2.1758094278657557e-06   1.3802699153623465e-05
-1.1340561129998144e-05   1.8289701121173164e-06   1.221181313364048e-05
-1.1340561129998144e-05   1.8289701121173164e-06   1.221181313364048e-05
-1.1340561129998144e-05   1.8289701121173164e-06   1.221181313364048e-05
-1.1340561129998144e-05   1.8289701121173164e-06   1.221181313364048e-05
-1.2419954895657098e-05   9.136206553571422e-07   1.2511914027588198e-05
-1.2419954895657098e-05   9.136206553571422e-07   1.2511914027588198e-05
-1.2419954895657098e-05   9.136206553571422e-07   1.2511914027588198e-05
-1.2419954895657098e-05   9.136206553571422e-07   1.2511914027588198e-05
-1.1645483820036045e-05   2.1758094278657557e-06   1.4560012417128682e-05
-1.1645483820036045e-05   2.1758094278657557e-06   1.4560012417128682e-05
-1.1645483820036045e-05   2.1758094278657557e-06   1.4560012417128682e-05
-1.1645483820036045e-05   2.1758094278657557e-06   1.4560012417128682e-05
-1.1877840772271386e-05   2.233763255522509e-07   1.4589841938105461e-05
-1.1877840772271386e-05   2.233763255522509e-07   1.4589841938105461e-05
-1.1877840772271386e-05   2.233763255522509e-07   1.4589841938105461e-05
-1.1877840772271386e-05   2.233763255522509e-07   1.4589841938105461e-05
-1.364959124833205e-05   8.92494301128516e-07   1.714128861286072e-05
-1.364959124833205e-05   8.92494301128516e-07   1.714128861286072e-05
-1.364959124833205e-05   8.92494301128516e-07   1.714128861286072e-05
-1.364959124833205e-05   8.92494301128516e-07   1.714128861286072e-05
-1.1835379180875017e-05   1.4292199350813802e-06   1.3795566453393508e-05
-1.1835379180875017e-05   1.4292199350813802e-06   1.3795566453393508e-05
-1.1835379180875017e-05   1.4292199350813802e-06   1.3795566453393508e-05
-1.1835379180875017e-05   1.4292199350813802e-06   1.3795566453393508e-05
-1.0998038711993296e-05   2.129504213368343e-06   2.3831882563429005e-05
-1.0998038711993296e-05   2.129504213368343e-06   2.3831882563429005e-05
-1.0998038711993296e-05   2.129504213368343e-06   2.3831882563429005e-05
-1.0998038711993296e-05   2.129504213368343e-06   2.3831882563429005e-05
-1.113448065212134e-05   8.932313093693023e-07   2.286271558748289e-05
-1.113448065212134e-05   8.932313093693023e-07   2.286271558748289e-05
-1.113448065212134e-05   8.932313093693023e-07   2.286271558748289e-05
-1.113448065212134e-05   8.932313093693023e-07   2.286271558748289e-05
-1.1220971519883548e-05   1.4697905779468938e-06   2.293021472139431e-05
-1.1220971519883548e-05   1.4697905779468938e-06   2.293021472139431e-05
-1.1220971519883548e-05   1.4697905779468938e-06   2.293021472139431e-05
-1.1220971519883548e-05   1.4697905779468938e-06   2.293021472139431e-05
-1.127977513974552e-05   4.2869403516431707e-07   2.365287868016705e-05
-1.127977513974552e-05   4.2869403516431707e-07   2.365287868016705e-05
-1.127977513974552e-05   4.2869403516431707e-07   2.365287868016705e-05
-1.127977513974552e-05   4.2869403516431707e-07   2.365287868016705e-05
-1.1123861760790006e-05   1.088137096327455e-06   2.299735721187672e-05
-1.1123861760790006e-05   1.088137096327455e-06   2.299735721187672e-05
-1.1123861760790006e-05   1.088137096327455e-06   2.299735721187672e-05
-1.1123861760790006e-05   1.088137096327455e-06   2.299735721187672e-05
-1.127977513974551e-05   1.4697905779468938e-06   2.355487264706351e-05
-1.127977513974551e-05   1.4697905779468938e-06   2.355487264706351e-05
-1.127977513974551e-05   1.4697905779468938e-06   2.355487264706351e-05
-1.127977513974551e-05   1.4697905779468938e-06   2.355487264706351e-05
-1.1220971519883521e-05   4.2869403516431707e-07   2.302822075449755e-05
-1.1220971519883521e-05   4.2869403516431707e-07   2.302822075449755e-05
-1.1220971519883521e-05   4.2869403516431707e-07   2.302822075449755e-05
-1.1220971519883521e-05   4.2869403516431707e-07   2.302822075449755e-05
-1.1328254047770922e-05   8.60606676561515e-07   2.324717058450616e-05
-1.1328254047770922e-05   8.60606676561515e-07   2.324717058450616e-05
-1.1328254047770922e-05   8.60606676561515e-07   2.324717058450616e-05
-1.1328254047770922e-05   8.60606676561515e-07   2.324717058450616e-05
-1.1645483820036045e-05   -1.1034597585798597e-07   2.435845846306634e-05
-1.1645483820036045e-05   -1.1034597585798597e-07   2.435845846306634e-05
-1.1645483820036045e-05   -1.1034597585798597e-07   2.435845846306634e-05
-1.1645483820036045e-05   -1.1034597585798597e-07   2.435845846306634e-05
-1.1229981617061246e-05   7.031330842972817e-07   2.3177867355348147e-05
-1.1229981617061246e-05   7.031330842972817e-07   2.3177867355348147e-05
-1.1229981617061246e-05   7.031330842972817e-07   2.3177867355348147e-05
-1.1229981617061246e-05   7.031330842972817e-07   2.3177867355348147e-05
-1.1645483820036045e-05   8.60606676561515e-07   2.3829742175957578e-05
-1.1645483820036045e-05   8.60606676561515e-07   2.3829742175957578e-05
-1.1645483820036045e-05   8.60606676561515e-07   2.3829742175957578e-05
-1.1645483820036045e-05   8.60606676561515e-07   2.3829742175957578e-05
-1.1328254047770868e-05   -1.1034597585809439e-07   2.3775886871614527e-05
-1.1328254047770868e-05   -1.1034597585809439e-07   2.3775886871614527e-05
-1.1328254047770868e-05   -1.1034597585809439e-07   2.3775886871614527e-05
-1.1328254047770868e-05   -1.1034597585809439e-07   2.3775886871614527e-05
-1.1405959506498672e-05   2.0040733736230443e-07   2.391846010218763e-05
-1.1405959506498672e-05   2.0040733736230443e-07   2.391846010218763e-05
-1.1405959506498672e-05   2.0040733736230443e-07   2.391846010218763e-05
-1.1405959506498672e-05   2.0040733736230443e-07   2.391846010218763e-05
-1.187784077227138e-05   -8.189211633698439e-07   2.5316525978914516e-05
-1.187784077227138e-05   -8.189211633698439e-07   2.5316525978914516e-05
-1.187784077227138e-05   -8.189211633698439e-07   2.5316525978914516e-05
-1.187784077227138e-05   -8.189211633698439e-07   2.5316525978914516e-05
-1.1398292896280971e-05   2.504698149682124e-07   2.3875644931927223e-05
-1.1398292896280971e-05   2.504698149682124e-07   2.3875644931927223e-05
-1.1398292896280971e-05   2.504698149682124e-07   2.3875644931927223e-05
-1.1398292896280971e-05   2.504698149682124e-07   2.3875644931927223e-05
-1.1134480652121368e-05   2.552329235209691e-06   2.629047783708283e-05
-1.1134480652121368e-05   2.552329235209691e-06   2.629047783708283e-05
-1.1134480652121368e-05   2.552329235209691e-06   2.629047783708283e-05
-1.1134480652121368e-05   2.552329235209691e-06   2.629047783708283e-05
-1.19799880792043e-05   2.482268081440992e-07   2.3498837335705056e-05
-1.19799880792043e-05   2.482268081440992e-07   2.3498837335705056e-05
-1.19799880792043e-05   2.482268081440992e-07   2.3498837335705056e-05
-1.19799880792043e-05   2.482268081440992e-07   2.3498837335705056e-05
-1.200839434527235e-05   1.9408101307638766e-06   2.4945412079009654e-05
-1.200839434527235e-05   1.9408101307638766e-06   2.4945412079009654e-05
-1.200839434527235e-05   1.9408101307638766e-06   2.4945412079009654e-05
-1.200839434527235e-05   1.9408101307638766e-06   2.4945412079009654e-05
-1.1220971519883521e-05   -1.4440337553164352e-07   2.4884168807138814e-05
-1.1220971519883521e-05   -1.4440337553164352e-07   2.4884168807138814e-05
-1.1220971519883521e-05   -1.4440337553164352e-07   2.4884168807138814e-05
-1.1220971519883521e-05   -1.4440337553164352e-07   2.4884168807138814e-05
-1.1566004209946523e-05   1.1105890825084891e-06   2.470622781575323e-05
-1.1566004209946523e-05   1.1105890825084891e-06   2.470622781575323e-05
-1.1566004209946523e-05   1.1105890825084891e-06   2.470622781575323e-05
-1.1566004209946523e-05   1.1105890825084891e-06   2.470622781575323e-05
-1.1220971519883521e-05   1.9408101307638766e-06   2.619654018278688e-05
-1.1220971519883521e-05   1.9408101307638766e-06   2.619654018278688e-05
-1.1220971519883521e-05   1.9408101307638766e-06   2.619654018278688e-05
-1.1220971519883521e-05   1.9408101307638766e-06   2.619654018278688e-05
-1.2008394345272403e-05   -1.444033755315351e-07   2.3633040703361643e-05
-1.2008394345272403e-05   -1.444033755315351e-07   2.3633040703361643e-05
-1.2008394345272403e-05   -1.444033755315351e-07   2.3633040703361643e-05
-1.2008394345272403e-05   -1.444033755315351e-07   2.3633040703361643e-05
-1.2060785640407212e-05   1.3192771287481777e-06   2.533767991069226e-05
-1.2060785640407212e-05   1.3192771287481777e-06   2.533767991069226e-05
-1.2060785640407212e-05   1.3192771287481777e-06   2.533767991069226e-05
-1.2060785640407212e-05   1.3192771287481777e-06   2.533767991069226e-05
-1.1328254047770922e-05   -6.145833515743123e-07   2.5277110211158215e-05
-1.1328254047770922e-05   -6.145833515743123e-07   2.5277110211158215e-05
-1.1328254047770922e-05   -6.145833515743123e-07   2.5277110211158215e-05
-1.1328254047770922e-05   -6.145833515743123e-07   2.5277110211158215e-05
-1.1571495557552447e-05   7.215961180292562e-07   2.4880805045698093e-05
-1.1571495557552447e-05   7.215961180292562e-07   2.4880805045698093e-05
-1.1571495557552447e-05   7.215961180292562e-07   2.4880805045698093e-05
-1.1571495557552447e-05   7.215961180292562e-07   2.4880805045698093e-05
-1.1328254047770922e-05   1.3192771287479609e-06   2.649799619888532e-05
-1.1328254047770922e-05   1.3192771287479609e-06   2.649799619888532e-05
-1.1328254047770922e-05   1.3192771287479609e-06   2.649799619888532e-05
-1.1328254047770922e-05   1.3192771287479609e-06   2.649799619888532e-05
-1.2060785640407212e-05   -6.145833515742039e-07   2.411679392296483e-05
-1.2060785640407212e-05   -6.145833515742039e-07   2.411679392296483e-05
-1.2060785640407212e-05   -6.145833515742039e-07   2.411679392296483e-05
-1.2060785640407212e-05   -6.145833515742039e-07   2.411679392296483e-05
-1.2093933514675521e-05   7.299822422568089e-07   2.603749356888446e-05
-1.2093933514675521e-05   7.299822422568089e-07   2.603749356888446e-05
-1.2093933514675521e-05   7.299822422568089e-07   2.603749356888446e-05
-1.2093933514675521e-05   7.299822422568089e-07   2.603749356888446e-05
-1.1405959506498645e-05   -1.0868630987809994e-06   2.5980977426545563e-05
-1.1405959506498645e-05   -1.0868630987809994e-06   2.5980977426545563e-05
-1.1405959506498645e-05   -1.0868630987809994e-06   2.5980977426545563e-05
-1.1405959506498645e-05   -1.0868630987809994e-06   2.5980977426545563e-05
-1.1596170497154767e-05   3.2164614919942547e-07   2.5452890195516666e-05
-1.1596170497154767e-05   3.2164614919942547e-07   2.5452890195516666e-05
-1.1596170497154767e-05   3.2164614919942547e-07   2.5452890195516666e-05
-1.1596170497154767e-05   3.2164614919942547e-07   2.5452890195516666e-05
-1.19799880792043e-05   3.449614523155656e-06   2.1411722592415416e-05
-1.19799880792043e-05   3.449614523155656e-06   2.1411722592415416e-05
-1.19799880792043e-05   3.449614523155656e-06   2.1411722592415416e-05
-1.19799880792043e-05   3.449614523155656e-06   2.1411722592415416e-05
-1.3206410140074662e-05   1.1323812350706817e-06   1.7977345851447278e-05
-1.3206410140074662e-05   1.1323812350706817e-06   1.7977345851447278e-05
-1.3206410140074662e-05   1.1323812350706817e-06   1.7977345851447278e-05
-1.3206410140074662e-05   1.1323812350706817e-06   1.7977345851447278e-05
-1.3227127071420972e-05   2.806224866267696e-06   2.0219892997842695e-05
-1.3227127071420972e-05   2.806224866267696e-06   2.0219892997842695e-05
-1.3227127071420972e-05   2.806224866267696e-06   2.0219892997842695e-05
-1.3227127071420972e-05   2.806224866267696e-06   2.0219892997842695e-05
-1.200839434527235e-05   6.151802346639245e-07   1.9503298566557416e-05
-1.200839434527235e-05   6.151802346639245e-07   1.9503298566557416e-05
-1.200839434527235e-05   6.151802346639245e-07   1.9503298566557416e-05
-1.200839434527235e-05   6.151802346639245e-07   1.9503298566557416e-05
-1.2572503840695376e-05   2.0484679919642373e-06   1.9583508404548812e-05
-1.2572503840695376e-05   2.0484679919642373e-06   1.9583508404548812e-05
-1.2572503840695376e-05   2.0484679919642373e-06   1.9583508404548812e-05
-1.2572503840695376e-05   2.0484679919642373e-06   1.9583508404548812e-05
-1.200839434527235e-05   2.806224866267696e-06   2.153451977680474e-05
-1.200839434527235e-05   2.806224866267696e-06   2.153451977680474e-05
-1.200839434527235e-05   2.806224866267696e-06   2.153451977680474e-05
-1.200839434527235e-05   2.806224866267696e-06   2.153451977680474e-05
-1.3227127071420972e-05   6.151802346639245e-07   1.8188671787595224e-05
-1.3227127071420972e-05   6.151802346639245e-07   1.8188671787595224e-05
-1.3227127071420972e-05   6.151802346639245e-07   1.8188671787595224e-05
-1.3227127071420972e-05   6.151802346639245e-07   1.8188671787595224e-05
-1.3369765340997934e-05   2.2339415093727746e-06   2.0969718964692274e-05
-1.3369765340997934e-05   2.2339415093727746e-06   2.0969718964692274e-05
-1.3369765340997934e-05   2.2339415093727746e-06   2.0969718964692274e-05
-1.3369765340997934e-05   2.2339415093727746e-06   2.0969718964692274e-05
-1.2060785640407158e-05   1.7236186004377166e-07   2.0025033919971716e-05
-1.2060785640407158e-05   1.7236186004377166e-07   2.0025033919971716e-05
-1.2060785640407158e-05   1.7236186004377166e-07   2.0025033919971716e-05
-1.2060785640407158e-05   1.7236186004377166e-07   2.0025033919971716e-05
-1.2535733076801534e-05   1.623452604576723e-06   1.9945958533908333e-05
-1.2535733076801534e-05   1.623452604576723e-06   1.9945958533908333e-05
-1.2535733076801534e-05   1.623452604576723e-06   1.9945958533908333e-05
-1.2535733076801534e-05   1.623452604576723e-06   1.9945958533908333e-05
-1.2060785640407212e-05   2.2339415093727746e-06   2.2206666754289134e-05
-1.2060785640407212e-05   2.2339415093727746e-06   2.2206666754289134e-05
-1.2060785640407212e-05   2.2339415093727746e-06   2.2206666754289134e-05
-1.2060785640407212e-05   2.2339415093727746e-06   2.2206666754289134e-05
-1.3369765340997934e-05   1.7236186004377166e-07   1.878808613037428e-05
-1.3369765340997934e-05   1.7236186004377166e-07   1.878808613037428e-05
-1.3369765340997934e-05   1.7236186004377166e-07   1.878808613037428e-05
-1.3369765340997934e-05   1.7236186004377166e-07   1.878808613037428e-05
-1.3454534534329001e-05   1.6510581543709418e-06   2.1901682781811727e-05
-1.3454534534329001e-05   1.6510581543709418e-06   2.1901682781811727e-05
-1.3454534534329001e-05   1.6510581543709418e-06   2.1901682781811727e-05
-1.3454534534329001e-05   1.6510581543709418e-06   2.1901682781811727e-05
-1.2093933514675467e-05   -2.739940252431553e-07   2.0789045723490702e-05
-1.2093933514675467e-05   -2.739940252431553e-07   2.0789045723490702e-05
-1.2093933514675467e-05   -2.739940252431553e-07   2.0789045723490702e-05
-1.2093933514675467e-05   -2.739940252431553e-07   2.0789045723490702e-05
-1.2597666700170075e-05   1.2439204459230952e-06   2.0717852349948175e-05
-1.2597666700170075e-05   1.2439204459230952e-06   2.0717852349948175e-05
-1.2597666700170075e-05   1.2439204459230952e-06   2.0717852349948175e-05
-1.2597666700170075e-05   1.2439204459230952e-06   2.0717852349948175e-05
-1.3206410140074662e-05   4.074079296322508e-06   8.227957909352508e-06
-1.3206410140074662e-05   4.074079296322508e-06   8.227957909352508e-06
-1.3206410140074662e-05   4.074079296322508e-06   8.227957909352508e-06
-1.3206410140074662e-05   4.074079296322508e-06   8.227957909352508e-06
-1.3029545845104373e-05   1.8648063990346457e-06   7.197167995930256e-06
-1.3029545845104373e-05   1.8648063990346457e-06   7.197167995930256e-06
-1.3029545845104373e-05   1.8648063990346457e-06   7.197167995930256e-06
-1.3029545845104373e-05   1.8648063990346457e-06   7.197167995930256e-06
-1.369948613173398e-05   3.6459262951944477e-06   9.014693760298889e-06
-1.369948613173398e-05   3.6459262951944477e-06   9.014693760298889e-06
-1.369948613173398e-05   3.6459262951944477e-06   9.014693760298889e-06
-1.369948613173398e-05   3.6459262951944477e-06   9.014693760298889e-06
-1.3227127071420918e-05   1.4989821873493065e-06   9.51559512448396e-06
-1.3227127071420918e-05   1.4989821873493065e-06   9.51559512448396e-06
-1.3227127071420918e-05   1.4989821873493065e-06   9.51559512448396e-06
-1.3227127071420918e-05   1.4989821873493065e-06   9.51559512448396e-06
-1.2858976820074566e-05   2.86569568313101e-06   8.081983274771235e-06
-1.2858976820074566e-05   2.86569568313101e-06   8.081983274771235e-06
-1.2858976820074566e-05   2.86569568313101e-06   8.081983274771235e-06
-1.2858976820074566e-05   2.86569568313101e-06   8.081983274771235e-06
-1.3227127071420864e-05   3.645926295194231e-06   1.0302860225005496e-05
-1.3227127071420864e-05   3.645926295194231e-06   1.0302860225005496e-05
-1.3227127071420864e-05   3.645926295194231e-06   1.0302860225005496e-05
-1.3227127071420864e-05   3.645926295194231e-06   1.0302860225005496e-05
-1.369948613173398e-05   1.4989821873493065e-06   8.227428659777027e-06
-1.369948613173398e-05   1.4989821873493065e-06   8.227428659777027e-06
-1.369948613173398e-05   1.4989821873493065e-06   8.227428659777027e-06
-1.369948613173398e-05   1.4989821873493065e-06   8.227428659777027e-06
-1.4287854828240075e-05   3.3520052869547706e-06   1.0690914329926707e-05
-1.4287854828240075e-05   3.3520052869547706e-06   1.0690914329926707e-05
-1.4287854828240075e-05   3.3520052869547706e-06   1.0690914329926707e-05
-1.4287854828240075e-05   3.3520052869547706e-06   1.0690914329926707e-05
-1.336976534099788e-05   1.2597287268339584e-06   1.0416131120595355e-05
-1.336976534099788e-05   1.2597287268339584e-06   1.0416131120595355e-05
-1.336976534099788e-05   1.2597287268339584e-06   1.0416131120595355e-05
-1.336976534099788e-05   1.2597287268339584e-06   1.0416131120595355e-05
-1.3336065961253545e-05   2.651719243572468e-06   9.524771177644433e-06
-1.3336065961253545e-05   2.651719243572468e-06   9.524771177644433e-06
-1.3336065961253545e-05   2.651719243572468e-06   9.524771177644433e-06
-1.3336065961253545e-05   2.651719243572468e-06   9.524771177644433e-06
-1.3369765340997825e-05   3.3520052869547706e-06   1.1946280265998869e-05
-1.3369765340997825e-05   3.3520052869547706e-06   1.1946280265998869e-05
-1.3369765340997825e-05   3.3520052869547706e-06   1.1946280265998869e-05
-1.3369765340997825e-05   3.3520052869547706e-06   1.1946280265998869e-05
-1.4287854828240075e-05   1.2597287268339584e-06   9.160765184522868e-06
-1.4287854828240075e-05   1.2597287268339584e-06   9.160765184522868e-06
-1.4287854828240075e-05   1.2597287268339584e-06   9.160765184522868e-06
-1.4287854828240075e-05   1.2597287268339584e-06   9.160765184522868e-06
-1.5163507739462023e-05   2.6776818114902703e-06   1.3770294891023898e-05
-1.5163507739462023e-05   2.6776818114902703e-06   1.3770294891023898e-05
-1.5163507739462023e-05   2.6776818114902703e-06   1.3770294891023898e-05
-1.5163507739462023e-05   2.6776818114902703e-06   1.3770294891023898e-05
-1.3454534534328947e-05   7.791002873992758e-07   1.2061155130256682e-05
-1.3454534534328947e-05   7.791002873992758e-07   1.2061155130256682e-05
-1.3454534534328947e-05   7.791002873992758e-07   1.2061155130256682e-05
-1.3454534534328947e-05   7.791002873992758e-07   1.2061155130256682e-05
-1.3497283236324053e-05   2.3977632258929786e-06   1.1161205203818005e-05
-1.3497283236324053e-05   2.3977632258929786e-06   1.1161205203818005e-05
-1.3497283236324053e-05   2.3977632258929786e-06   1.1161205203818005e-05
-1.3497283236324053e-05   2.3977632258929786e-06   1.1161205203818005e-05
-2.606918849494193e-05   3.451692646806357e-06   9.999595072097565e-06
-2.606918849494193e-05   3.451692646806357e-06   9.999595072097565e-06
-2.606918849494193e-05   3.451692646806357e-06   9.999595072097565e-06
-2.606918849494193e-05   3.451692646806357e-06   9.999595072097565e-06
-1.758619304664243e-05   4.7811633300906976e-06   2.4935603229233943e-05
-1.758619304664243e-05   4.7811633300906976e-06   2.4935603229233943e-05
-1.758619304664243e-05   4.7811633300906976e-06   2.4935603229233943e-05
-1.758619304664243e-05   4.7811633300906976e-06   2.4935603229233943e-05
-1.757681432459572e-05   2.6974980023719434e-06   1.1372200377507446e-05
-1.757681432459572e-05   2.6974980023719434e-06   1.1372200377507446e-05
-1.757681432459572e-05   2.6974980023719434e-06   1.1372200377507446e-05
-1.757681432459572e-05   2.6974980023719434e-06   1.1372200377507446e-05
-2.8707534521800528e-05   1.944177172342424e-06   3.0375393204200014e-05
-2.8707534521800528e-05   1.944177172342424e-06   3.0375393204200014e-05
-2.8707534521800528e-05   1.944177172342424e-06   3.0375393204200014e-05
-2.8707534521800528e-05   1.944177172342424e-06   3.0375393204200014e-05
-2.1324942786832108e-05   2.8349369042734085e-06   1.7536617806760736e-05
-2.1324942786832108e-05   2.8349369042734085e-06   1.7536617806760736e-05
-2.1324942786832108e-05   2.8349369042734085e-06   1.7536617806760736e-05
-2.1324942786832108e-05   2.8349369042734085e-06   1.7536617806760736e-05
-2.8707534521800568e-05   2.6974980023719434e-06   1.182419287552519e-05
-2.8707534521800568e-05   2.6974980023719434e-06   1.182419287552519e-05
-2.8707534521800568e-05   2.6974980023719434e-06   1.182419287552519e-05
-2.8707534521800568e-05   2.6974980023719434e-06   1.182419287552519e-05
-1.757681432459572e-05   1.944177172342424e-06   2.992340070618238e-05
-1.757681432459572e-05   1.944177172342424e-06   2.992340070618238e-05
-1.757681432459572e-05   1.944177172342424e-06   2.992340070618238e-05
-1.757681432459572e-05   1.944177172342424e-06   2.992340070618238e-05
-1.7814113698210653e-05   2.1758094278657557e-06   1.272644072288073e-05
-1.7814113698210653e-05   2.1758094278657557e-06   1.272644072288073e-05
-1.7814113698210653e-05   2.1758094278657557e-06   1.272644072288073e-05
-1.7814113698210653e-05   2.1758094278657557e-06   1.272644072288073e-05
-2.8806329071015203e-05   1.3976918656643015e-06   3.151367021487574e-05
-2.8806329071015203e-05   1.3976918656643015e-06   3.151367021487574e-05
-2.8806329071015203e-05   1.3976918656643015e-06   3.151367021487574e-05
-2.8806329071015203e-05   1.3976918656643015e-06   3.151367021487574e-05
-2.2751520222302434e-05   1.7737938998501008e-06   2.1196660913176067e-05
-2.2751520222302434e-05   1.7737938998501008e-06   2.1196660913176067e-05
-2.2751520222302434e-05   1.7737938998501008e-06   2.1196660913176067e-05
-2.2751520222302434e-05   1.7737938998501008e-06   2.1196660913176067e-05
-2.8806329071015244e-05   2.1758094278657557e-06   1.3193311260201635e-05
-2.8806329071015244e-05   2.1758094278657557e-06   1.3193311260201635e-05
-2.8806329071015244e-05   2.1758094278657557e-06   1.3193311260201635e-05
-2.8806329071015244e-05   2.1758094278657557e-06   1.3193311260201635e-05
-1.7814113698210626e-05   1.3976918656643015e-06   3.104679967755482e-05
-1.7814113698210626e-05   1.3976918656643015e-06   3.104679967755482e-05
-1.7814113698210626e-05   1.3976918656643015e-06   3.104679967755482e-05
-1.7814113698210626e-05   1.3976918656643015e-06   3.104679967755482e-05
-1.762151781271502e-05   8.92494301128516e-07   1.5095616019874776e-05
-1.762151781271502e-05   8.92494301128516e-07   1.5095616019874776e-05
-1.762151781271502e-05   8.92494301128516e-07   1.5095616019874776e-05
-1.762151781271502e-05   8.92494301128516e-07   1.5095616019874776e-05
-2.9114225652730198e-05   -9.247742790589658e-07   3.5340490234679115e-05
-2.9114225652730198e-05   -9.247742790589658e-07   3.5340490234679115e-05
-2.9114225652730198e-05   -9.247742790589658e-07   3.5340490234679115e-05
-2.9114225652730198e-05   -9.247742790589658e-07   3.5340490234679115e-05
-2.2401765088556102e-05   8.634104050330186e-07   2.30801451506005e-05
-2.2401765088556102e-05   8.634104050330186e-07   2.30801451506005e-05
-2.2401765088556102e-05   8.634104050330186e-07   2.30801451506005e-05
-2.2401765088556102e-05   8.634104050330186e-07   2.30801451506005e-05
-1.7586193046642457e-05   8.932313093693023e-07   2.299855793666582e-05
-1.7586193046642457e-05   8.932313093693023e-07   2.299855793666582e-05
-1.7586193046642457e-05   8.932313093693023e-07   2.299855793666582e-05
-1.7586193046642457e-05   8.932313093693023e-07   2.299855793666582e-05
-1.0784223132054782e-05   -5.375510332303335e-06   3.057392947597505e-05
-1.0784223132054782e-05   -5.375510332303335e-06   3.057392947597505e-05
-1.0784223132054782e-05   -5.375510332303335e-06   3.057392947597505e-05
-1.0784223132054782e-05   -5.375510332303335e-06   3.057392947597505e-05
-1.0804553010561606e-05   4.2869403516420865e-07   1.929346388889223e-05
-1.0804553010561606e-05   4.2869403516420865e-07   1.929346388889223e-05
-1.0804553010561606e-05   4.2869403516420865e-07   1.929346388889223e-05
-1.0804553010561606e-05   4.2869403516420865e-07   1.929346388889223e-05
-1.757681432459572e-05   -4.400264826894408e-06   3.347794139618459e-05
-1.757681432459572e-05   -4.400264826894408e-06   3.347794139618459e-05
-1.757681432459572e-05   -4.400264826894408e-06   3.347794139618459e-05
-1.757681432459572e-05   -4.400264826894408e-06   3.347794139618459e-05
-1.4112106893458586e-05   -2.6579105207204376e-06   2.665801642725169e-05
-1.4112106893458586e-05   -2.6579105207204376e-06   2.665801642725169e-05
-1.4112106893458586e-05   -2.6579105207204376e-06   2.665801642725169e-05
-1.4112106893458586e-05   -2.6579105207204376e-06   2.665801642725169e-05
-1.7576814324595733e-05   4.2869403516420865e-07   2.219083920612728e-05
-1.7576814324595733e-05   4.2869403516420865e-07   2.219083920612728e-05
-1.7576814324595733e-05   4.2869403516420865e-07   2.219083920612728e-05
-1.7576814324595733e-05   4.2869403516420865e-07   2.219083920612728e-05
-1.0804553010561579e-05   -4.400264826894408e-06   3.058056607894931e-05
-1.0804553010561579e-05   -4.400264826894408e-06   3.058056607894931e-05
-1.0804553010561579e-05   -4.400264826894408e-06   3.058056607894931e-05
-1.0804553010561579e-05   -4.400264826894408e-06   3.058056607894931e-05
-1.0844852978606021e-05   -1.1034597585798597e-07   1.9890793864954352e-05
-1.0844852978606021e-05   -1.1034597585798597e-07   1.9890793864954352e-05
-1.0844852978606021e-05   -1.1034597585798597e-07   1.9890793864954352e-05
-1.0844852978606021e-05   -1.1034597585798597e-07   1.9890793864954352e-05
-1.7814113698210626e-05   -4.500500815631425e-06   3.414032130149253e-05
-1.7814113698210626e-05   -4.500500815631425e-06   3.414032130149253e-05
-1.7814113698210626e-05   -4.500500815631425e-06   3.414032130149253e-05
-1.7814113698210626e-05   -4.500500815631425e-06   3.414032130149253e-05
-1.4007587598702347e-05   -2.322102790487516e-06   2.6489072320558867e-05
-1.4007587598702347e-05   -2.322102790487516e-06   2.6489072320558867e-05
-1.4007587598702347e-05   -2.322102790487516e-06   2.6489072320558867e-05
-1.4007587598702347e-05   -2.322102790487516e-06   2.6489072320558867e-05
-1.7814113698210653e-05   -1.1034597585798597e-07   2.2524886768818318e-05
-1.7814113698210653e-05   -1.1034597585798597e-07   2.2524886768818318e-05
-1.7814113698210653e-05   -1.1034597585798597e-07   2.2524886768818318e-05
-1.7814113698210653e-05   -1.1034597585798597e-07   2.2524886768818318e-05
-1.0844852978606021e-05   -4.500500815631425e-06   3.150622839762855e-05
-1.0844852978606021e-05   -4.500500815631425e-06   3.150622839762855e-05
-1.0844852978606021e-05   -4.500500815631425e-06   3.150622839762855e-05
-1.0844852978606021e-05   -4.500500815631425e-06   3.150622839762855e-05
-1.073642647179748e-05   -8.189211633698439e-07   2.0635168679904593e-05
-1.073642647179748e-05   -8.189211633698439e-07   2.0635168679904593e-05
-1.073642647179748e-05   -8.189211633698439e-07   2.0635168679904593e-05
-1.073642647179748e-05   -8.189211633698439e-07   2.0635168679904593e-05
-1.7621517812714974e-05   -4.542611031166865e-06   3.4344534835445255e-05
-1.7621517812714974e-05   -4.542611031166865e-06   3.4344534835445255e-05
-1.7621517812714974e-05   -4.542611031166865e-06   3.4344534835445255e-05
-1.7621517812714974e-05   -4.542611031166865e-06   3.4344534835445255e-05
-1.4070515571263883e-05   -2.6081611818758697e-06   2.726552785678552e-05
-1.4070515571263883e-05   -2.6081611818758697e-06   2.726552785678552e-05
-1.4070515571263883e-05   -2.6081611818758697e-06   2.726552785678552e-05
-1.4070515571263883e-05   -2.6081611818758697e-06   2.726552785678552e-05
-1.0784223132054782e-05   2.4822680814420763e-07   2.125589615612378e-05
-1.0784223132054782e-05   2.4822680814420763e-07   2.125589615612378e-05
-1.0784223132054782e-05   2.4822680814420763e-07   2.125589615612378e-05
-1.0784223132054782e-05   2.4822680814420763e-07   2.125589615612378e-05
-7.929017542289668e-06   -4.1991768756036055e-06   2.334612992881699e-05
-7.929017542289668e-06   -4.1991768756036055e-06   2.334612992881699e-05
-7.929017542289668e-06   -4.1991768756036055e-06   2.334612992881699e-05
-7.929017542289668e-06   -4.1991768756036055e-06   2.334612992881699e-05
-7.856690979083996e-06   -1.4440337553164352e-07   1.876160862449201e-05
-7.856690979083996e-06   -1.4440337553164352e-07   1.876160862449201e-05
-7.856690979083996e-06   -1.4440337553164352e-07   1.876160862449201e-05
-7.856690979083996e-06   -1.4440337553164352e-07   1.876160862449201e-05
-1.0804553010561579e-05   -4.124075570600819e-06   2.606251532732962e-05
-1.0804553010561579e-05   -4.124075570600819e-06   2.606251532732962e-05
-1.0804553010561579e-05   -4.124075570600819e-06   2.606251532732962e-05
-1.0804553010561579e-05   -4.124075570600819e-06   2.606251532732962e-05
-9.285981465972056e-06   -2.1224267533791804e-06   2.233057346268108e-05
-9.285981465972056e-06   -2.1224267533791804e-06   2.233057346268108e-05
-9.285981465972056e-06   -2.1224267533791804e-06   2.233057346268108e-05
-9.285981465972056e-06   -2.1224267533791804e-06   2.233057346268108e-05
-1.0804553010561579e-05   -1.4440337553164352e-07   2.1149411941533548e-05
-1.0804553010561579e-05   -1.4440337553164352e-07   2.1149411941533548e-05
-1.0804553010561579e-05   -1.4440337553164352e-07   2.1149411941533548e-05
-1.0804553010561579e-05   -1.4440337553164352e-07   2.1149411941533548e-05
-7.856690979084105e-06   -4.124075570600765e-06   2.3674712010288135e-05
-7.856690979084105e-06   -4.124075570600765e-06   2.3674712010288135e-05
-7.856690979084105e-06   -4.124075570600765e-06   2.3674712010288135e-05
-7.856690979084105e-06   -4.124075570600765e-06   2.3674712010288135e-05
-7.794151123520748e-06   -6.145833515743123e-07   1.9210613286896718e-05
-7.794151123520748e-06   -6.145833515743123e-07   1.9210613286896718e-05
-7.794151123520748e-06   -6.145833515743123e-07   1.9210613286896718e-05
-7.794151123520748e-06   -6.145833515743123e-07   1.9210613286896718e-05
-1.0844852978606021e-05   -4.2502565475763905e-06   2.647652029630663e-05
-1.0844852978606021e-05   -4.2502565475763905e-06   2.647652029630663e-05
-1.0844852978606021e-05   -4.2502565475763905e-06   2.647652029630663e-05
-1.0844852978606021e-05   -4.2502565475763905e-06   2.647652029630663e-05
-9.202523428071988e-06   -2.264127350665255e-06   2.254762686060269e-05
-9.202523428071988e-06   -2.264127350665255e-06   2.254762686060269e-05
-9.202523428071988e-06   -2.264127350665255e-06   2.254762686060269e-05
-9.202523428071988e-06   -2.264127350665255e-06   2.254762686060269e-05
-1.0844852978606021e-05   -6.145833515742039e-07   2.139201720449804e-05
-1.0844852978606021e-05   -6.145833515742039e-07   2.139201720449804e-05
-1.0844852978606021e-05   -6.145833515742039e-07   2.139201720449804e-05
-1.0844852978606021e-05   -6.145833515742039e-07   2.139201720449804e-05
-7.794151123520748e-06   -4.2502565475763905e-06   2.4295116378705498e-05
-7.794151123520748e-06   -4.2502565475763905e-06   2.4295116378705498e-05
-7.794151123520748e-06   -4.2502565475763905e-06   2.4295116378705498e-05
-7.794151123520748e-06   -4.2502565475763905e-06   2.4295116378705498e-05
-7.63924524904404e-06   -1.0868630987809994e-06   1.9905678571170357e-05
-7.63924524904404e-06   -1.0868630987809994e-06   1.9905678571170357e-05
-7.63924524904404e-06   -1.0868630987809994e-06   1.9905678571170357e-05
-7.63924524904404e-06   -1.0868630987809994e-06   1.9905678571170357e-05
-1.0736426471797506e-05   -4.429427526788515e-06   2.707318593256374e-05
-1.0736426471797506e-05   -4.429427526788515e-06   2.707318593256374e-05
-1.0736426471797506e-05   -4.429427526788515e-06   2.707318593256374e-05
-1.0736426471797506e-05   -4.429427526788515e-06   2.707318593256374e-05
-9.104847037526924e-06   -2.470455631556649e-06   2.3178503738307036e-05
-9.104847037526924e-06   -2.470455631556649e-06   2.3178503738307036e-05
-9.104847037526924e-06   -2.470455631556649e-06   2.3178503738307036e-05
-9.104847037526924e-06   -2.470455631556649e-06   2.3178503738307036e-05
-7.929017542289668e-06   1.1323812350706817e-06   1.445630243446835e-05
-7.929017542289668e-06   1.1323812350706817e-06   1.445630243446835e-05
-7.929017542289668e-06   1.1323812350706817e-06   1.445630243446835e-05
-7.929017542289668e-06   1.1323812350706817e-06   1.445630243446835e-05
-6.605031508810611e-06   -1.7225713314602859e-06   1.4949974283681559e-05
-6.605031508810611e-06   -1.7225713314602859e-06   1.4949974283681559e-05
-6.605031508810611e-06   -1.7225713314602859e-06   1.4949974283681559e-05
-6.605031508810611e-06   -1.7225713314602859e-06   1.4949974283681559e-05
-6.461456019835965e-06   6.151802346639245e-07   1.3052621101002928e-05
-6.461456019835965e-06   6.151802346639245e-07   1.3052621101002928e-05
-6.461456019835965e-06   6.151802346639245e-07   1.3052621101002928e-05
-6.461456019835965e-06   6.151802346639245e-07   1.3052621101002928e-05
-7.856690979083996e-06   -2.0168954098109424e-06   1.695725808643461e-05
-7.856690979083996e-06   -2.0168954098109424e-06   1.695725808643461e-05
-7.856690979083996e-06   -2.0168954098109424e-06   1.695725808643461e-05
-7.856690979083996e-06   -2.0168954098109424e-06   1.695725808643461e-05
-7.160338379084714e-06   -3.928937151818218e-07   1.4822269402991833e-05
-7.160338379084714e-06   -3.928937151818218e-07   1.4822269402991833e-05
-7.160338379084714e-06   -3.928937151818218e-07   1.4822269402991833e-05
-7.160338379084714e-06   -3.928937151818218e-07   1.4822269402991833e-05
-7.856690979083996e-06   6.151802346639245e-07   1.4631866487687783e-05
-7.856690979083996e-06   6.151802346639245e-07   1.4631866487687783e-05
-7.856690979083996e-06   6.151802346639245e-07   1.4631866487687783e-05
-7.856690979083996e-06   6.151802346639245e-07   1.4631866487687783e-05
-6.461456019835965e-06   -2.0168954098109424e-06   1.5378012699749754e-05
-6.461456019835965e-06   -2.0168954098109424e-06   1.5378012699749754e-05
-6.461456019835965e-06   -2.0168954098109424e-06   1.5378012699749754e-05
-6.461456019835965e-06   -2.0168954098109424e-06   1.5378012699749754e-05
-6.3957998519647945e-06   1.7236186004377166e-07   1.3670211503935049e-05
-6.3957998519647945e-06   1.7236186004377166e-07   1.3670211503935049e-05
-6.3957998519647945e-06   1.7236186004377166e-07   1.3670211503935049e-05
-6.3957998519647945e-06   1.7236186004377166e-07   1.3670211503935049e-05
-7.794151123520694e-06   -2.242041106570577e-06   1.744943873649668e-05
-7.794151123520694e-06   -2.242041106570577e-06   1.744943873649668e-05
-7.794151123520694e-06   -2.242041106570577e-06   1.744943873649668e-05
-7.794151123520694e-06   -2.242041106570577e-06   1.744943873649668e-05
-7.018022136411945e-06   -7.082283255310969e-07   1.5235602756024291e-05
-7.018022136411945e-06   -7.082283255310969e-07   1.5235602756024291e-05
-7.018022136411945e-06   -7.082283255310969e-07   1.5235602756024291e-05
-7.018022136411945e-06   -7.082283255310969e-07   1.5235602756024291e-05
-7.794151123520748e-06   1.7236186004377166e-07   1.5118853283903441e-05
-7.794151123520748e-06   1.7236186004377166e-07   1.5118853283903441e-05
-7.794151123520748e-06   1.7236186004377166e-07   1.5118853283903441e-05
-7.794151123520748e-06   1.7236186004377166e-07   1.5118853283903441e-05
-6.3957998519647945e-06   -2.242041106570577e-06   1.6000796956528016e-05
-6.3957998519647945e-06   -2.242041106570577e-06   1.6000796956528016e-05
-6.3957998519647945e-06   -2.242041106570577e-06   1.6000796956528016e-05
-6.3957998519647945e-06   -2.242041106570577e-06   1.6000796956528016e-05
-6.2884309132182664e-06   -2.739940252432637e-07   1.4445787263872123e-05
-6.2884309132182664e-06   -2.739940252432637e-07   1.4445787263872123e-05
-6.2884309132182664e-06   -2.739940252432637e-07   1.4445787263872123e-05
-6.2884309132182664e-06   -2.739940252432637e-07   1.4445787263872123e-05
-7.63924524904404e-06   -2.5374387066868023e-06   1.8055211299114384e-05
-7.63924524904404e-06   -2.5374387066868023e-06   1.8055211299114384e-05
-7.63924524904404e-06   -2.5374387066868023e-06   1.8055211299114384e-05
-7.63924524904404e-06   -2.5374387066868023e-06   1.8055211299114384e-05
-6.907108290702855e-06   -9.844342316995235e-07   1.590318035022038e-05
-6.907108290702855e-06   -9.844342316995235e-07   1.590318035022038e-05
-6.907108290702855e-06   -9.844342316995235e-07   1.590318035022038e-05
-6.907108290702855e-06   -9.844342316995235e-07   1.590318035022038e-05
-6.605031508810611e-06   1.8648063990346457e-06   3.2887167774054956e-06
-6.605031508810611e-06   1.8648063990346457e-06   3.2887167774054956e-06
-6.605031508810611e-06   1.8648063990346457e-06   3.2887167774054956e-06
-6.605031508810611e-06   1.8648063990346457e-06   3.2887167774054956e-06
-3.8110477743411725e-06   -1.9358968180425724e-07   6.710318686351283e-06
-3.8110477743411725e-06   -1.9358968180425724e-07   6.710318686351283e-06
-3.8110477743411725e-06   -1.9358968180425724e-07   6.710318686351283e-06
-3.8110477743411725e-06   -1.9358968180425724e-07   6.710318686351283e-06
-4.026172185379634e-06   1.4989821873493065e-06   3.318416644697243e-06
-4.026172185379634e-06   1.4989821873493065e-06   3.318416644697243e-06
-4.026172185379634e-06   1.4989821873493065e-06   3.318416644697243e-06
-4.026172185379634e-06   1.4989821873493065e-06   3.318416644697243e-06
-6.461456019835965e-06   -2.695641346412434e-07   8.43835082865263e-06
-6.461456019835965e-06   -2.695641346412434e-07   8.43835082865263e-06
-6.461456019835965e-06   -2.695641346412434e-07   8.43835082865263e-06
-6.461456019835965e-06   -2.695641346412434e-07   8.43835082865263e-06
-5.0462422089070705e-06   9.584229654131414e-07   5.342868883738698e-06
-5.0462422089070705e-06   9.584229654131414e-07   5.342868883738698e-06
-5.0462422089070705e-06   9.584229654131414e-07   5.342868883738698e-06
-5.0462422089070705e-06   9.584229654131414e-07   5.342868883738698e-06
-6.4614560198360195e-06   1.4989821873493065e-06   4.379544437891519e-06
-6.4614560198360195e-06   1.4989821873493065e-06   4.379544437891519e-06
-6.4614560198360195e-06   1.4989821873493065e-06   4.379544437891519e-06
-6.4614560198360195e-06   1.4989821873493065e-06   4.379544437891519e-06
-4.026172185379634e-06   -2.6956413464118917e-07   7.377223035458409e-06
-4.026172185379634e-06   -2.6956413464118917e-07   7.377223035458409e-06
-4.026172185379634e-06   -2.6956413464118917e-07   7.377223035458409e-06
-4.026172185379634e-06   -2.6956413464118917e-07   7.377223035458409e-06
-4.202522553793122e-06   1.2597287268339584e-06   4.318901767782308e-06
-4.202522553793122e-06   1.2597287268339584e-06   4.318901767782308e-06
-4.202522553793122e-06   1.2597287268339584e-06   4.318901767782308e-06
-4.202522553793122e-06   1.2597287268339584e-06   4.318901767782308e-06
-6.3957998519647945e-06   -3.7252915045582263e-07   8.953718657775237e-06
-6.3957998519647945e-06   -3.7252915045582263e-07   8.953718657775237e-06
-6.3957998519647945e-06   -3.7252915045582263e-07   8.953718657775237e-06
-6.3957998519647945e-06   -3.7252915045582263e-07   8.953718657775237e-06
-5.133429511702185e-06   7.772649677992034e-07   6.15989161971745e-06
-5.133429511702185e-06   7.772649677992034e-07   6.15989161971745e-06
-5.133429511702185e-06   7.772649677992034e-07   6.15989161971745e-06
-5.133429511702185e-06   7.772649677992034e-07   6.15989161971745e-06
-6.3957998519647945e-06   1.2597287268339584e-06   5.29825649415609e-06
-6.3957998519647945e-06   1.2597287268339584e-06   5.29825649415609e-06
-6.3957998519647945e-06   1.2597287268339584e-06   5.29825649415609e-06
-6.3957998519647945e-06   1.2597287268339584e-06   5.29825649415609e-06
-4.20252255379323e-06   -3.7252915045582263e-07   7.974363931401455e-06
-4.20252255379323e-06   -3.7252915045582263e-07   7.974363931401455e-06
-4.20252255379323e-06   -3.7252915045582263e-07   7.974363931401455e-06
-4.20252255379323e-06   -3.7252915045582263e-07   7.974363931401455e-06
-4.639403091218574e-06   7.791002873992758e-07   6.107217560083868e-06
-4.639403091218574e-06   7.791002873992758e-07   6.107217560083868e-06
-4.639403091218574e-06   7.791002873992758e-07   6.107217560083868e-06
-4.639403091218574e-06   7.791002873992758e-07   6.107217560083868e-06
-6.2884309132182664e-06   -4.970837431385279e-07   9.621307681739267e-06
-6.2884309132182664e-06   -4.970837431385279e-07   9.621307681739267e-06
-6.2884309132182664e-06   -4.970837431385279e-07   9.621307681739267e-06
-6.2884309132182664e-06   -4.970837431385279e-07   9.621307681739267e-06
-5.143690026631226e-06   6.549058260551122e-07   7.022212462578104e-06
-5.143690026631226e-06   6.549058260551122e-07   7.022212462578104e-06
-5.143690026631226e-06   6.549058260551122e-07   7.022212462578104e-06
-5.143690026631226e-06   6.549058260551122e-07   7.022212462578104e-06
-6.098859511400749e-05   4.7811633300906976e-06   2.603582482354203e-05
-6.098859511400749e-05   4.7811633300906976e-06   2.603582482354203e-05
-6.098859511400749e-05   4.7811633300906976e-06   2.603582482354203e-05
-6.098859511400749e-05   4.7811633300906976e-06   2.603582482354203e-05
-1.4349225814240578e-05   -2.968019292438278e-05   8.309129323713619e-05
-1.4349225814240578e-05   -2.968019292438278e-05   8.309129323713619e-05
-1.4349225814240578e-05   -2.968019292438278e-05   8.309129323713619e-05
-1.4349225814240578e-05   -2.968019292438278e-05   8.309129323713619e-05
-1.6834487238983103e-05   1.944177172342424e-06   1.430190443037323e-05
-1.6834487238983103e-05   1.944177172342424e-06   1.430190443037323e-05
-1.6834487238983103e-05   1.944177172342424e-06   1.430190443037323e-05
-1.6834487238983103e-05   1.944177172342424e-06   1.430190443037323e-05
-5.5623282573629364e-05   -2.3050472471477667e-05   9.394668644107564e-05
-5.5623282573629364e-05   -2.3050472471477667e-05   9.394668644107564e-05
-5.5623282573629364e-05   -2.3050472471477667e-05   9.394668644107564e-05
-5.5623282573629364e-05   -2.3050472471477667e-05   9.394668644107564e-05
-3.7089620179105834e-05   -1.147648840250584e-05   5.6112858675486666e-05
-3.7089620179105834e-05   -1.147648840250584e-05   5.6112858675486666e-05
-3.7089620179105834e-05   -1.147648840250584e-05   5.6112858675486666e-05
-3.7089620179105834e-05   -1.147648840250584e-05   5.6112858675486666e-05
-5.562328257362927e-05   1.944177172342424e-06   2.9298694216665276e-05
-5.562328257362927e-05   1.944177172342424e-06   2.9298694216665276e-05
-5.562328257362927e-05   1.944177172342424e-06   2.9298694216665276e-05
-5.562328257362927e-05   1.944177172342424e-06   2.9298694216665276e-05
-1.6834487238983123e-05   -2.3050472471477667e-05   7.894989665478358e-05
-1.6834487238983123e-05   -2.3050472471477667e-05   7.894989665478358e-05
-1.6834487238983123e-05   -2.3050472471477667e-05   7.894989665478358e-05
-1.6834487238983123e-05   -2.3050472471477667e-05   7.894989665478358e-05
-1.7211229576907067e-05   1.3976918656643015e-06   1.571540290592242e-05
-1.7211229576907067e-05   1.3976918656643015e-06   1.571540290592242e-05
-1.7211229576907067e-05   1.3976918656643015e-06   1.571540290592242e-05
-1.7211229576907067e-05   1.3976918656643015e-06   1.571540290592242e-05
-5.248124340836199e-05   -1.985344678753973e-05   8.724944248360289e-05
-5.248124340836199e-05   -1.985344678753973e-05   8.724944248360289e-05
-5.248124340836199e-05   -1.985344678753973e-05   8.724944248360289e-05
-5.248124340836199e-05   -1.985344678753973e-05   8.724944248360289e-05
-3.5977204599765107e-05   -1.0870840116346427e-05   5.435314713322549e-05
-3.5977204599765107e-05   -1.0870840116346427e-05   5.435314713322549e-05
-3.5977204599765107e-05   -1.0870840116346427e-05   5.435314713322549e-05
-3.5977204599765107e-05   -1.0870840116346427e-05   5.435314713322549e-05
-5.24812434083619e-05   1.3976918656643015e-06   2.8466086097844804e-05
-5.24812434083619e-05   1.3976918656643015e-06   2.8466086097844804e-05
-5.24812434083619e-05   1.3976918656643015e-06   2.8466086097844804e-05
-5.24812434083619e-05   1.3976918656643015e-06   2.8466086097844804e-05
-1.7211229576907095e-05   -1.985344678753973e-05   7.449875929168049e-05
-1.7211229576907095e-05   -1.985344678753973e-05   7.449875929168049e-05
-1.7211229576907095e-05   -1.985344678753973e-05   7.449875929168049e-05
-1.7211229576907095e-05   -1.985344678753973e-05   7.449875929168049e-05
-1.8844991046745928e-05   -9.2477427905902e-07   1.9683011892548843e-05
-1.8844991046745928e-05   -9.2477427905902e-07   1.9683011892548843e-05
-1.8844991046745928e-05   -9.2477427905902e-07   1.9683011892548843e-05
-1.8844991046745928e-05   -9.2477427905902e-07   1.9683011892548843e-05
-4.845496655881209e-05   -1.5609395097528955e-05   7.784374357040763e-05
-4.845496655881209e-05   -1.5609395097528955e-05   7.784374357040763e-05
-4.845496655881209e-05   -1.5609395097528955e-05   7.784374357040763e-05
-4.845496655881209e-05   -1.5609395097528955e-05   7.784374357040763e-05
-3.460071264063956e-05   -1.0033893563650512e-05   5.140801945312641e-05
-3.460071264063956e-05   -1.0033893563650512e-05   5.140801945312641e-05
-3.460071264063956e-05   -1.0033893563650512e-05   5.140801945312641e-05
-3.460071264063956e-05   -1.0033893563650512e-05   5.140801945312641e-05
-1.4349225814240558e-05   -5.375510332303335e-06   1.4758582302602563e-05
-1.4349225814240558e-05   -5.375510332303335e-06   1.4758582302602563e-05
-1.4349225814240558e-05   -5.375510332303335e-06   1.4758582302602563e-05
-1.4349225814240558e-05   -5.375510332303335e-06   1.4758582302602563e-05
-5.0017802967726726e-06   -9.167081577047748e-06   2.806271541820252e-05
-5.0017802967726726e-06   -9.167081577047748e-06   2.806271541820252e-05
-5.0017802967726726e-06   -9.167081577047748e-06   2.806271541820252e-05
-5.0017802967726726e-06   -9.167081577047748e-06   2.806271541820252e-05
-5.582892924764553e-06   -4.400264826894408e-06   1.3195764825106376e-05
-5.582892924764553e-06   -4.400264826894408e-06   1.3195764825106376e-05
-5.582892924764553e-06   -4.400264826894408e-06   1.3195764825106376e-05
-5.582892924764553e-06   -4.400264826894408e-06   1.3195764825106376e-05
-1.6834487238983123e-05   -1.2168065319009573e-05   3.6609102310739634e-05
-1.6834487238983123e-05   -1.2168065319009573e-05   3.6609102310739634e-05
-1.6834487238983123e-05   -1.2168065319009573e-05   3.6609102310739634e-05
-1.6834487238983123e-05   -1.2168065319009573e-05   3.6609102310739634e-05
-9.897647534635877e-06   -6.38026835214216e-06   2.1575024623373676e-05
-9.897647534635877e-06   -6.38026835214216e-06   2.1575024623373676e-05
-9.897647534635877e-06   -6.38026835214216e-06   2.1575024623373676e-05
-9.897647534635877e-06   -6.38026835214216e-06   2.1575024623373676e-05
-1.6834487238983083e-05   -4.400264826894408e-06   1.785644512037525e-05
-1.6834487238983083e-05   -4.400264826894408e-06   1.785644512037525e-05
-1.6834487238983083e-05   -4.400264826894408e-06   1.785644512037525e-05
-1.6834487238983083e-05   -4.400264826894408e-06   1.785644512037525e-05
-5.582892924764553e-06   -1.2168065319009573e-05   3.194842201547054e-05
-5.582892924764553e-06   -1.2168065319009573e-05   3.194842201547054e-05
-5.582892924764553e-06   -1.2168065319009573e-05   3.194842201547054e-05
-5.582892924764553e-06   -1.2168065319009573e-05   3.194842201547054e-05
-6.080407822084828e-06   -4.500500815631425e-06   1.4836764439597457e-05
-6.080407822084828e-06   -4.500500815631425e-06   1.4836764439597457e-05
-6.080407822084828e-06   -4.500500815631425e-06   1.4836764439597457e-05
-6.080407822084828e-06   -4.500500815631425e-06   1.4836764439597457e-05
-1.7211229576907095e-05   -1.1120767632735783e-05   3.736029412123042e-05
-1.7211229576907095e-05   -1.1120767632735783e-05   3.736029412123042e-05
-1.7211229576907095e-05   -1.1120767632735783e-05   3.736029412123042e-05
-1.7211229576907095e-05   -1.1120767632735783e-05   3.736029412123042e-05
-1.115570177485017e-05   -7.804966043254867e-06   2.527826683078053e-05
-1.115570177485017e-05   -7.804966043254867e-06   2.527826683078053e-05
-1.115570177485017e-05   -7.804966043254867e-06   2.527826683078053e-05
-1.115570177485017e-05   -7.804966043254867e-06   2.527826683078053e-05
-1.7211229576907067e-05   -4.500500815631425e-06   1.88089245298601e-05
-1.7211229576907067e-05   -4.500500815631425e-06   1.88089245298601e-05
-1.7211229576907067e-05   -4.500500815631425e-06   1.88089245298601e-05
-1.7211229576907067e-05   -4.500500815631425e-06   1.88089245298601e-05
-6.080407822084828e-06   -1.1120767632735783e-05   3.338813403096784e-05
-6.080407822084828e-06   -1.1120767632735783e-05   3.338813403096784e-05
-6.080407822084828e-06   -1.1120767632735783e-05   3.338813403096784e-05
-6.080407822084828e-06   -1.1120767632735783e-05   3.338813403096784e-05
-6.888929965688094e-06   -4.542611031166865e-06   1.6226365226341673e-05
-6.888929965688094e-06   -4.542611031166865e-06   1.6226365226341673e-05
-6.888929965688094e-06   -4.542611031166865e-06   1.6226365226341673e-05
-6.888929965688094e-06   -4.542611031166865e-06   1.6226365226341673e-05
-1.884499104674594e-05   -1.0461031722976639e-05   3.97041861098571e-05
-1.884499104674594e-05   -1.0461031722976639e-05   3.97041861098571e-05
-1.884499104674594e-05   -1.0461031722976639e-05   3.97041861098571e-05
-1.884499104674594e-05   -1.0461031722976639e-05   3.97041861098571e-05
-1.1887409946900932e-05   -7.1255492996552105e-06   2.610692815612262e-05
-1.1887409946900932e-05   -7.1255492996552105e-06   2.610692815612262e-05
-1.1887409946900932e-05   -7.1255492996552105e-06   2.610692815612262e-05
-1.1887409946900932e-05   -7.1255492996552105e-06   2.610692815612262e-05
-5.001780296772618e-06   -4.199176875603551e-06   7.924282218846465e-06
-5.001780296772618e-06   -4.199176875603551e-06   7.924282218846465e-06
-5.001780296772618e-06   -4.199176875603551e-06   7.924282218846465e-06
-5.001780296772618e-06   -4.199176875603551e-06   7.924282218846465e-06
-2.7885448799167814e-06   -2.5420481605351204e-06   1.2607285142647432e-05
-2.7885448799167814e-06   -2.5420481605351204e-06   1.2607285142647432e-05
-2.7885448799167814e-06   -2.5420481605351204e-06   1.2607285142647432e-05
-2.7885448799167814e-06   -2.5420481605351204e-06   1.2607285142647432e-05
-2.67799589058975e-06   -4.124075570600819e-06   9.151940467469304e-06
-2.67799589058975e-06   -4.124075570600819e-06   9.151940467469304e-06
-2.67799589058975e-06   -4.124075570600819e-06   9.151940467469304e-06
-2.67799589058975e-06   -4.124075570600819e-06   9.151940467469304e-06
-5.582892924764553e-06   -3.333698247296425e-06   1.3519209130444547e-05
-5.582892924764553e-06   -3.333698247296425e-06   1.3519209130444547e-05
-5.582892924764553e-06   -3.333698247296425e-06   1.3519209130444547e-05
-5.582892924764553e-06   -3.333698247296425e-06   1.3519209130444547e-05
-3.759084283227603e-06   -3.3630327116210518e-06   1.0497128739810904e-05
-3.759084283227603e-06   -3.3630327116210518e-06   1.0497128739810904e-05
-3.759084283227603e-06   -3.3630327116210518e-06   1.0497128739810904e-05
-3.759084283227603e-06   -3.3630327116210518e-06   1.0497128739810904e-05
-5.582892924764553e-06   -4.124075570600765e-06   8.677714073486713e-06
-5.582892924764553e-06   -4.124075570600765e-06   8.677714073486713e-06
-5.582892924764553e-06   -4.124075570600765e-06   8.677714073486713e-06
-5.582892924764553e-06   -4.124075570600765e-06   8.677714073486713e-06
-2.67799589058975e-06   -3.333698247296425e-06   1.3993435524427191e-05
-2.67799589058975e-06   -3.333698247296425e-06   1.3993435524427191e-05
-2.67799589058975e-06   -3.333698247296425e-06   1.3993435524427191e-05
-2.67799589058975e-06   -3.333698247296425e-06   1.3993435524427191e-05
-2.6805063541266187e-06   -4.2502565475763905e-06   9.783889768176209e-06
-2.6805063541266187e-06   -4.2502565475763905e-06   9.783889768176209e-06
-2.6805063541266187e-06   -4.2502565475763905e-06   9.783889768176209e-06
-2.6805063541266187e-06   -4.2502565475763905e-06   9.783889768176209e-06
-6.080407822084828e-06   -4.288867497742007e-06   1.547355878487249e-05
-6.080407822084828e-06   -4.288867497742007e-06   1.547355878487249e-05
-6.080407822084828e-06   -4.288867497742007e-06   1.547355878487249e-05
-6.080407822084828e-06   -4.288867497742007e-06   1.547355878487249e-05
-3.983451088672511e-06   -3.677154510105772e-06   1.1611603103270363e-05
-3.983451088672511e-06   -3.677154510105772e-06   1.1611603103270363e-05
-3.983451088672511e-06   -3.677154510105772e-06   1.1611603103270363e-05
-3.983451088672511e-06   -3.677154510105772e-06   1.1611603103270363e-05
-6.080407822084828e-06   -4.2502565475763905e-06   9.807056338275675e-06
-6.080407822084828e-06   -4.2502565475763905e-06   9.807056338275675e-06
-6.080407822084828e-06   -4.2502565475763905e-06   9.807056338275675e-06
-6.080407822084828e-06   -4.2502565475763905e-06   9.807056338275675e-06
-2.6805063541266187e-06   -4.288867497742007e-06   1.545039221477316e-05
-2.6805063541266187e-06   -4.288867497742007e-06   1.545039221477316e-05
-2.6805063541266187e-06   -4.288867497742007e-06   1.545039221477316e-05
-2.6805063541266187e-06   -4.288867497742007e-06   1.545039221477316e-05
-2.7176399650335028e-06   -4.429427526788515e-06   1.0728727171960988e-05
-2.7176399650335028e-06   -4.429427526788515e-06   1.0728727171960988e-05
-2.7176399650335028e-06   -4.429427526788515e-06   1.0728727171960988e-05
-2.7176399650335028e-06   -4.429427526788515e-06   1.0728727171960988e-05
-6.888929965688094e-06   -5.196932647084259e-06   1.8141380245229185e-05
-6.888929965688094e-06   -5.196932647084259e-06   1.8141380245229185e-05
-6.888929965688094e-06   -5.196932647084259e-06   1.8141380245229185e-05
-6.888929965688094e-06   -5.196932647084259e-06   1.8141380245229185e-05
-4.238582133426962e-06   -4.017454565034172e-06   1.3016447008897371e-05
-4.238582133426962e-06   -4.017454565034172e-06   1.3016447008897371e-05
-4.238582133426962e-06   -4.017454565034172e-06   1.3016447008897371e-05
-4.238582133426962e-06   -4.017454565034172e-06   1.3016447008897371e-05
-2.7885448799167814e-06   -1.7225713314602317e-06   2.2353753426706895e-06
-2.7885448799167814e-06   -1.7225713314602317e-06   2.2353753426706895e-06
-2.7885448799167814e-06   -1.7225713314602317e-06   2.2353753426706895e-06
-2.7885448799167814e-06   -1.7225713314602317e-06   2.2353753426706895e-06
-2.0668766648917255e-06   4.591959372171451e-07   4.747216062252115e-06
-2.0668766648917255e-06   4.591959372171451e-07   4.747216062252115e-06
-2.0668766648917255e-06   4.591959372171451e-07   4.747216062252115e-06
-2.0668766648917255e-06   4.591959372171451e-07   4.747216062252115e-06
-1.670955937699281e-06   -2.0168954098109967e-06   3.7508846087461276e-06
-1.670955937699281e-06   -2.0168954098109967e-06   3.7508846087461276e-06
-1.670955937699281e-06   -2.0168954098109967e-06   3.7508846087461276e-06
-1.670955937699281e-06   -2.0168954098109967e-06   3.7508846087461276e-06
-2.67799589058975e-06   1.7710136540584413e-07   4.1128864650999105e-06
-2.67799589058975e-06   1.7710136540584413e-07   4.1128864650999105e-06
-2.67799589058975e-06   1.7710136540584413e-07   4.1128864650999105e-06
-2.67799589058975e-06   1.7710136540584413e-07   4.1128864650999105e-06
-2.15922754394536e-06   -8.027058290803197e-07   3.836156870717271e-06
-2.15922754394536e-06   -8.027058290803197e-07   3.836156870717271e-06
-2.15922754394536e-06   -8.027058290803197e-07   3.836156870717271e-06
-2.15922754394536e-06   -8.027058290803197e-07   3.836156870717271e-06
-2.67799589058975e-06   -2.0168954098109967e-06   2.4344865436159676e-06
-2.67799589058975e-06   -2.0168954098109967e-06   2.4344865436159676e-06
-2.67799589058975e-06   -2.0168954098109967e-06   2.4344865436159676e-06
-2.67799589058975e-06   -2.0168954098109967e-06   2.4344865436159676e-06
-1.670955937699281e-06   1.7710136540584413e-07   5.429284530229935e-06
-1.670955937699281e-06   1.7710136540584413e-07   5.429284530229935e-06
-1.670955937699281e-06   1.7710136540584413e-07   5.429284530229935e-06
-1.670955937699281e-06   1.7710136540584413e-07   5.429284530229935e-06
-1.4530992035725497e-06   -2.242041106570523e-06   4.120364308644376e-06
-1.4530992035725497e-06   -2.242041106570523e-06   4.120364308644376e-06
-1.4530992035725497e-06   -2.242041106570523e-06   4.120364308644376e-06
-1.4530992035725497e-06   -2.242041106570523e-06   4.120364308644376e-06
-2.6805063541266187e-06   -2.7178746877588763e-07   4.983890710224181e-06
-2.6805063541266187e-06   -2.7178746877588763e-07   4.983890710224181e-06
-2.6805063541266187e-06   -2.7178746877588763e-07   4.983890710224181e-06
-2.6805063541266187e-06   -2.7178746877588763e-07   4.983890710224181e-06
-1.9557661118147114e-06   -1.0295185519628098e-06   4.230628956283246e-06
-1.9557661118147114e-06   -1.0295185519628098e-06   4.230628956283246e-06
-1.9557661118147114e-06   -1.0295185519628098e-06   4.230628956283246e-06
-1.9557661118147114e-06   -1.0295185519628098e-06   4.230628956283246e-06
-2.6805063541266187e-06   -2.242041106570523e-06   2.938212125967336e-06
-2.6805063541266187e-06   -2.242041106570523e-06   2.938212125967336e-06
-2.6805063541266187e-06   -2.242041106570523e-06   2.938212125967336e-06
-2.6805063541266187e-06   -2.242041106570523e-06   2.938212125967336e-06
-1.4530992035725497e-06   -2.7178746877588763e-07   6.166042892900977e-06
-1.4530992035725497e-06   -2.7178746877588763e-07   6.166042892900977e-06
-1.4530992035725497e-06   -2.7178746877588763e-07   6.166042892900977e-06
-1.4530992035725497e-06   -2.7178746877588763e-07   6.166042892900977e-06
-1.1188457767568835e-06   -2.5374387066868023e-06   4.521230939398958e-06
-1.1188457767568835e-06   -2.5374387066868023e-06   4.521230939398958e-06
-1.1188457767568835e-06   -2.5374387066868023e-06   4.521230939398958e-06
-1.1188457767568835e-06   -2.5374387066868023e-06   4.521230939398958e-06
-2.7176399650335028e-06   -1.195872466548861e-06   6.380948175776992e-06
-2.7176399650335028e-06   -1.195872466548861e-06   6.380948175776992e-06
-2.7176399650335028e-06   -1.195872466548861e-06   6.380948175776992e-06
-2.7176399650335028e-06   -1.195872466548861e-06   6.380948175776992e-06
-1.7892618056401886e-06   -1.377263839328637e-06   4.942486067123042e-06
-1.7892618056401886e-06   -1.377263839328637e-06   4.942486067123042e-06
-1.7892618056401886e-06   -1.377263839328637e-06   4.942486067123042e-06
-1.7892618056401886e-06   -1.377263839328637e-06   4.942486067123042e-06
-2.0668766648917255e-06   -1.9358968180431145e-07   -3.46018224494976e-06
-2.0668766648917255e-06   -1.9358968180431145e-07   -3.46018224494976e-06
-2.0668766648917255e-06   -1.9358968180431145e-07   -3.46018224494976e-06
-2.0668766648917255e-06   -1.9358968180431145e-07   -3.46018224494976e-06
-3.803452612752105e-07   2.9760647033939624e-07   -3.5457888096935425e-07
-3.803452612752105e-07   2.9760647033939624e-07   -3.5457888096935425e-07
-3.803452612752105e-07   2.9760647033939624e-07   -3.5457888096935425e-07
-3.803452612752105e-07   2.9760647033939624e-07   -3.5457888096935425e-07
8.59090241978576e-09   -2.6956413464118917e-07   -2.717724796126716e-06
8.59090241978576e-09   -2.6956413464118917e-07   -2.717724796126716e-06
8.59090241978576e-09   -2.6956413464118917e-07   -2.717724796126716e-06
8.59090241978576e-09   -2.6956413464118917e-07   -2.717724796126716e-06
-1.670955937699281e-06   5.155233090659594e-07   -3.895325288194888e-07
-1.670955937699281e-06   5.155233090659594e-07   -3.895325288194888e-07
-1.670955937699281e-06   5.155233090659594e-07   -3.895325288194888e-07
-1.670955937699281e-06   5.155233090659594e-07   -3.895325288194888e-07
-9.391331930544444e-07   1.3711072084743683e-07   -1.3821895502967585e-06
-9.391331930544444e-07   1.3711072084743683e-07   -1.3821895502967585e-06
-9.391331930544444e-07   1.3711072084743683e-07   -1.3821895502967585e-06
-9.391331930544444e-07   1.3711072084743683e-07   -1.3821895502967585e-06
-1.670955937699281e-06   -2.695641346412434e-07   -3.188777262351294e-06
-1.670955937699281e-06   -2.695641346412434e-07   -3.188777262351294e-06
-1.670955937699281e-06   -2.695641346412434e-07   -3.188777262351294e-06
-1.670955937699281e-06   -2.695641346412434e-07   -3.188777262351294e-06
8.59090241978576e-09   5.155233090659594e-07   8.15199374048451e-08
8.59090241978576e-09   5.155233090659594e-07   8.15199374048451e-08
8.59090241978576e-09   5.155233090659594e-07   8.15199374048451e-08
8.59090241978576e-09   5.155233090659594e-07   8.15199374048451e-08
2.1295177070638702e-07   -3.7252915045587684e-07   -2.437385520819794e-06
2.1295177070638702e-07   -3.7252915045587684e-07   -2.437385520819794e-06
2.1295177070638702e-07   -3.7252915045587684e-07   -2.437385520819794e-06
2.1295177070638702e-07   -3.7252915045587684e-07   -2.437385520819794e-06
-1.4530992035725497e-06   4.4301829835847697e-07   -1.499623663104091e-07
-1.4530992035725497e-06   4.4301829835847697e-07   -1.499623663104091e-07
-1.4530992035725497e-06   4.4301829835847697e-07   -1.499623663104091e-07
-1.4530992035725497e-06   4.4301829835847697e-07   -1.499623663104091e-07
-6.514455765264178e-07   8.967840047817356e-08   -1.2740478059919142e-06
-6.514455765264178e-07   8.967840047817356e-08   -1.2740478059919142e-06
-6.514455765264178e-07   8.967840047817356e-08   -1.2740478059919142e-06
-6.514455765264178e-07   8.967840047817356e-08   -1.2740478059919142e-06
-1.4530992035725497e-06   -3.7252915045587684e-07   -2.926713990108429e-06
-1.4530992035725497e-06   -3.7252915045587684e-07   -2.926713990108429e-06
-1.4530992035725497e-06   -3.7252915045587684e-07   -2.926713990108429e-06
-1.4530992035725497e-06   -3.7252915045587684e-07   -2.926713990108429e-06
2.1295177070638702e-07   4.4301829835847697e-07   3.3936610297825333e-07
2.1295177070638702e-07   4.4301829835847697e-07   3.3936610297825333e-07
2.1295177070638702e-07   4.4301829835847697e-07   3.3936610297825333e-07
2.1295177070638702e-07   4.4301829835847697e-07   3.3936610297825333e-07
4.6766721401221047e-07   -4.970837431384737e-07   -2.026553092068697e-06
4.6766721401221047e-07   -4.970837431384737e-07   -2.026553092068697e-06
4.6766721401221047e-07   -4.970837431384737e-07   -2.026553092068697e-06
4.6766721401221047e-07   -4.970837431384737e-07   -2.026553092068697e-06
-1.1188457767568835e-06   3.83004218596934e-07   8.95824488385006e-08
-1.1188457767568835e-06   3.83004218596934e-07   8.95824488385006e-08
-1.1188457767568835e-06   3.83004218596934e-07   8.95824488385006e-08
-1.1188457767568835e-06   3.83004218596934e-07   8.95824488385006e-08
-3.909292879056205e-07   3.258678247326698e-08   -9.13361237573013e-07
-3.909292879056205e-07   3.258678247326698e-08   -9.13361237573013e-07
-3.909292879056205e-07   3.258678247326698e-08   -9.13361237573013e-07
-3.909292879056205e-07   3.258678247326698e-08   -9.13361237573013e-07
              </DataArray>   
             <DataArray type="Float64" NumberOfComponents="3" Name="Stress" format="ascii">   
-3.164314113411982   -0.7910785283529955   -0.7910785283529955
-3.164314113411982   -0.7910785283529955   -0.7910785283529955
-3.164314113411982   -0.7910785283529955   -0.7910785283529955
-3.164314113411982   -0.7910785283529955   -0.7910785283529955
-1.8311574830630863   -0.05802038219709915   -0.036715740036446814
-1.8311574830630863   -0.05802038219709915   -0.036715740036446814
-1.8311574830630863   -0.05802038219709915   -0.036715740036446814
-1.8311574830630863   -0.05802038219709915   -0.036715740036446814
-1.9737872631292255   -0.49344681578230637   -0.49344681578230637
-1.9737872631292255   -0.49344681578230637   -0.49344681578230637
-1.9737872631292255   -0.49344681578230637   -0.49344681578230637
-1.9737872631292255   -0.49344681578230637   -0.49344681578230637
-3.0497379718377218   -0.25045310551776984   -0.09578207696291006
-3.0497379718377218   -0.25045310551776984   -0.09578207696291006
-3.0497379718377218   -0.25045310551776984   -0.09578207696291006
-3.0497379718377218   -0.25045310551776984   -0.09578207696291006
-2.391894472241544   -0.39213923860388156   -0.006605025386141196
-2.391894472241544   -0.39213923860388156   -0.006605025386141196
-2.391894472241544   -0.39213923860388156   -0.006605025386141196
-2.391894472241544   -0.39213923860388156   -0.006605025386141196
-3.31165659482399   -0.8279141487059976   -0.8279141487059976
-3.31165659482399   -0.8279141487059976   -0.8279141487059976
-3.31165659482399   -0.8279141487059976   -0.8279141487059976
-3.31165659482399   -0.8279141487059976   -0.8279141487059976
-1.773983544086518   0.021899323462365228   -0.009774359813439937
-1.773983544086518   0.021899323462365228   -0.009774359813439937
-1.773983544086518   0.021899323462365228   -0.009774359813439937
-1.773983544086518   0.021899323462365228   -0.009774359813439937
-1.979399267494526   -0.4948498168736315   -0.4948498168736315
-1.979399267494526   -0.4948498168736315   -0.4948498168736315
-1.979399267494526   -0.4948498168736315   -0.4948498168736315
-1.979399267494526   -0.4948498168736315   -0.4948498168736315
-3.152285019260136   -0.2528697364301377   -0.14035921707226057
-3.152285019260136   -0.2528697364301377   -0.14035921707226057
-3.152285019260136   -0.2528697364301377   -0.14035921707226057
-3.152285019260136   -0.2528697364301377   -0.14035921707226057
-2.4811555670029017   -0.36922160090152834   -0.13168054389634148
-2.4811555670029017   -0.36922160090152834   -0.13168054389634148
-2.4811555670029017   -0.36922160090152834   -0.13168054389634148
-2.4811555670029017   -0.36922160090152834   -0.13168054389634148
-3.4151546983996237   -0.8537886745999059   -0.8537886745999059
-3.4151546983996237   -0.8537886745999059   -0.8537886745999059
-3.4151546983996237   -0.8537886745999059   -0.8537886745999059
-3.4151546983996237   -0.8537886745999059   -0.8537886745999059
-1.768869978736983   0.0537287309141965   0.009218079126254303
-1.768869978736983   0.0537287309141965   0.009218079126254303
-1.768869978736983   0.0537287309141965   0.009218079126254303
-1.768869978736983   0.0537287309141965   0.009218079126254303
-1.978410227288119   -0.49460255682202975   -0.49460255682202975
-1.978410227288119   -0.49460255682202975   -0.49460255682202975
-1.978410227288119   -0.49460255682202975   -0.49460255682202975
-1.978410227288119   -0.49460255682202975   -0.49460255682202975
-3.33546831170503   -0.22182775190813264   -0.084185764484065
-3.33546831170503   -0.22182775190813264   -0.084185764484065
-3.33546831170503   -0.22182775190813264   -0.084185764484065
-3.33546831170503   -0.22182775190813264   -0.084185764484065
-2.547401420930763   -0.3634899372227624   -0.23799608463365202
-2.547401420930763   -0.3634899372227624   -0.23799608463365202
-2.547401420930763   -0.3634899372227624   -0.23799608463365202
-2.547401420930763   -0.3634899372227624   -0.23799608463365202
-2.0135669540182004   -0.5033917385045501   -0.5033917385045501
-2.0135669540182004   -0.5033917385045501   -0.5033917385045501
-2.0135669540182004   -0.5033917385045501   -0.5033917385045501
-2.0135669540182004   -0.5033917385045501   -0.5033917385045501
-0.8400561150157095   -0.05589939881092226   -0.018166587798449603
-0.8400561150157095   -0.05589939881092226   -0.018166587798449603
-0.8400561150157095   -0.05589939881092226   -0.018166587798449603
-0.8400561150157095   -0.05589939881092226   -0.018166587798449603
-0.8819410450650457   -0.22048526126626142   -0.22048526126626142
-0.8819410450650457   -0.22048526126626142   -0.22048526126626142
-0.8819410450650457   -0.22048526126626142   -0.22048526126626142
-0.8819410450650457   -0.22048526126626142   -0.22048526126626142
-1.833263887614247   -0.21561984123538502   -0.06865691275433573
-1.833263887614247   -0.21561984123538502   -0.06865691275433573
-1.833263887614247   -0.21561984123538502   -0.06865691275433573
-1.833263887614247   -0.21561984123538502   -0.06865691275433573
-1.3520916366048403   -0.2561380626741105   0.010572877587200848
-1.3520916366048403   -0.2561380626741105   0.010572877587200848
-1.3520916366048403   -0.2561380626741105   0.010572877587200848
-1.3520916366048403   -0.2561380626741105   0.010572877587200848
-1.9737872631292237   -0.4934468157823059   -0.4934468157823059
-1.9737872631292237   -0.4934468157823059   -0.4934468157823059
-1.9737872631292237   -0.4934468157823059   -0.4934468157823059
-1.9737872631292237   -0.4934468157823059   -0.4934468157823059
-0.7926083832727777   0.006150999557949538   -0.00045821312913242596
-0.7926083832727777   0.006150999557949538   -0.00045821312913242596
-0.7926083832727777   0.006150999557949538   -0.00045821312913242596
-0.7926083832727777   0.006150999557949538   -0.00045821312913242596
-0.8623051077511538   -0.21557627693778844   -0.21557627693778844
-0.8623051077511538   -0.21557627693778844   -0.21557627693778844
-0.8623051077511538   -0.21557627693778844   -0.21557627693778844
-0.8623051077511538   -0.21557627693778844   -0.21557627693778844
-1.828697687308733   -0.17591223305661904   -0.06027949976167985
-1.828697687308733   -0.17591223305661904   -0.06027949976167985
-1.828697687308733   -0.17591223305661904   -0.06027949976167985
-1.828697687308733   -0.17591223305661904   -0.06027949976167985
-1.3333136009740796   -0.21564415244737792   -0.06971601794217872
-1.3333136009740796   -0.21564415244737792   -0.06971601794217872
-1.3333136009740796   -0.21564415244737792   -0.06971601794217872
-1.3333136009740796   -0.21564415244737792   -0.06971601794217872
-1.979399267494526   -0.4948498168736315   -0.4948498168736315
-1.979399267494526   -0.4948498168736315   -0.4948498168736315
-1.979399267494526   -0.4948498168736315   -0.4948498168736315
-1.979399267494526   -0.4948498168736315   -0.4948498168736315
-0.7611843435870895   0.05378049085749548   0.020670776087249036
-0.7611843435870895   0.05378049085749548   0.020670776087249036
-0.7611843435870895   0.05378049085749548   0.020670776087249036
-0.7611843435870895   0.05378049085749548   0.020670776087249036
-0.8444325775148309   -0.21110814437870773   -0.21110814437870773
-0.8444325775148309   -0.21110814437870773   -0.21110814437870773
-0.8444325775148309   -0.21110814437870773   -0.21110814437870773
-0.8444325775148309   -0.21110814437870773   -0.21110814437870773
-1.8153126524184169   -0.13575086458558355   -0.03796637470998886
-1.8153126524184169   -0.13575086458558355   -0.03796637470998886
-1.8153126524184169   -0.13575086458558355   -0.03796637470998886
-1.8153126524184169   -0.13575086458558355   -0.03796637470998886
-1.3399596606171775   -0.19084565299533696   -0.15533099881950094
-1.3399596606171775   -0.19084565299533696   -0.15533099881950094
-1.3399596606171775   -0.19084565299533696   -0.15533099881950094
-1.3399596606171775   -0.19084565299533696   -0.15533099881950094
-0.9169365752153741   -0.22923414380384352   -0.22923414380384352
-0.9169365752153741   -0.22923414380384352   -0.22923414380384352
-0.9169365752153741   -0.22923414380384352   -0.22923414380384352
-0.9169365752153741   -0.22923414380384352   -0.22923414380384352
0.10889658196221129   0.00713799601497659   0.0008905788196183024
0.10889658196221129   0.00713799601497659   0.0008905788196183024
0.10889658196221129   0.00713799601497659   0.0008905788196183024
0.10889658196221129   0.00713799601497659   0.0008905788196183024
0.14152853705663962   0.035382134264159905   0.035382134264159905
0.14152853705663962   0.035382134264159905   0.035382134264159905
0.14152853705663962   0.035382134264159905   0.035382134264159905
0.14152853705663962   0.035382134264159905   0.035382134264159905
-0.8290991469101674   -0.14330476445248533   -0.033456267305653396
-0.8290991469101674   -0.14330476445248533   -0.033456267305653396
-0.8290991469101674   -0.14330476445248533   -0.033456267305653396
-0.8290991469101674   -0.14330476445248533   -0.033456267305653396
-0.3548870021705284   -0.09002875665366913   0.060261831658172636
-0.3548870021705284   -0.09002875665366913   0.060261831658172636
-0.3548870021705284   -0.09002875665366913   0.060261831658172636
-0.3548870021705284   -0.09002875665366913   0.060261831658172636
-0.8819410450650457   -0.22048526126626142   -0.22048526126626142
-0.8819410450650457   -0.22048526126626142   -0.22048526126626142
-0.8819410450650457   -0.22048526126626142   -0.22048526126626142
-0.8819410450650457   -0.22048526126626142   -0.22048526126626142
0.14404521494135245   0.062237410807771586   0.02111024714411127
0.14404521494135245   0.062237410807771586   0.02111024714411127
0.14404521494135245   0.062237410807771586   0.02111024714411127
0.14404521494135245   0.062237410807771586   0.02111024714411127
0.1591360801019923   0.03978402002549807   0.03978402002549807
0.1591360801019923   0.03978402002549807   0.03978402002549807
0.1591360801019923   0.03978402002549807   0.03978402002549807
0.1591360801019923   0.03978402002549807   0.03978402002549807
-0.7998599490162295   -0.0964900283429636   -0.022436731858005623
-0.7998599490162295   -0.0964900283429636   -0.022436731858005623
-0.7998599490162295   -0.0964900283429636   -0.022436731858005623
-0.7998599490162295   -0.0964900283429636   -0.022436731858005623
-0.3405069678233684   -0.05565155110168256   -0.02057211684829292
-0.3405069678233684   -0.05565155110168256   -0.02057211684829292
-0.3405069678233684   -0.05565155110168256   -0.02057211684829292
-0.3405069678233684   -0.05565155110168256   -0.02057211684829292
-0.8623051077511538   -0.21557627693778844   -0.21557627693778844
-0.8623051077511538   -0.21557627693778844   -0.21557627693778844
-0.8623051077511538   -0.21557627693778844   -0.21557627693778844
-0.8623051077511538   -0.21557627693778844   -0.21557627693778844
0.17226882377977926   0.10955785356318772   0.035673904876742164
0.17226882377977926   0.10955785356318772   0.035673904876742164
0.17226882377977926   0.10955785356318772   0.035673904876742164
0.17226882377977926   0.10955785356318772   0.035673904876742164
0.18284224229727827   0.04571056057431957   0.04571056057431957
0.18284224229727827   0.04571056057431957   0.04571056057431957
0.18284224229727827   0.04571056057431957   0.04571056057431957
0.18284224229727827   0.04571056057431957   0.04571056057431957
-0.7680379346929866   -0.04065586195231208   0.00041278730410770903
-0.7680379346929866   -0.04065586195231208   0.00041278730410770903
-0.7680379346929866   -0.04065586195231208   0.00041278730410770903
-0.7680379346929866   -0.04065586195231208   0.00041278730410770903
-0.33039734930752757   -0.02251089103232562   -0.10068440823409558
-0.33039734930752757   -0.02251089103232562   -0.10068440823409558
-0.33039734930752757   -0.02251089103232562   -0.10068440823409558
-0.33039734930752757   -0.02251089103232562   -0.10068440823409558
0.11921207443921389   0.029803018609803472   0.029803018609803472
0.11921207443921389   0.029803018609803472   0.029803018609803472
0.11921207443921389   0.029803018609803472   0.029803018609803472
0.11921207443921389   0.029803018609803472   0.029803018609803472
1.1476365923468084   0.1052917280648781   0.035354815527191476
1.1476365923468084   0.1052917280648781   0.035354815527191476
1.1476365923468084   0.1052917280648781   0.035354815527191476
1.1476365923468084   0.1052917280648781   0.035354815527191476
1.2460325791907276   0.3115081447976819   0.3115081447976819
1.2460325791907276   0.3115081447976819   0.3115081447976819
1.2460325791907276   0.3115081447976819   0.3115081447976819
1.2460325791907276   0.3115081447976819   0.3115081447976819
0.10782974159038679   -0.08081610028767058   -0.016913608515276034
0.10782974159038679   -0.08081610028767058   -0.016913608515276034
0.10782974159038679   -0.08081610028767058   -0.016913608515276034
0.10782974159038679   -0.08081610028767058   -0.016913608515276034
0.6544349404943893   0.08147347210661966   0.1189007596979584
0.6544349404943893   0.08147347210661966   0.1189007596979584
0.6544349404943893   0.08147347210661966   0.1189007596979584
0.6544349404943893   0.08147347210661966   0.1189007596979584
0.14152853705664012   0.03538213426416003   0.03538213426416003
0.14152853705664012   0.03538213426416003   0.03538213426416003
0.14152853705664012   0.03538213426416003   0.03538213426416003
0.14152853705664012   0.03538213426416003   0.03538213426416003
1.1611809986455257   0.14415712516690266   0.05460126170245129
1.1611809986455257   0.14415712516690266   0.05460126170245129
1.1611809986455257   0.14415712516690266   0.05460126170245129
1.1611809986455257   0.14415712516690266   0.05460126170245129
1.2406302823142454   0.31015757057856136   0.31015757057856136
1.2406302823142454   0.31015757057856136   0.31015757057856136
1.2406302823142454   0.31015757057856136   0.31015757057856136
1.2406302823142454   0.31015757057856136   0.31015757057856136
0.13623260706319476   -0.035041307124931684   9.198198193908005e-05
0.13623260706319476   -0.035041307124931684   9.198198193908005e-05
0.13623260706319476   -0.035041307124931684   9.198198193908005e-05
0.13623260706319476   -0.035041307124931684   9.198198193908005e-05
0.6495383147426594   0.10690208595385323   0.03093214417495141
0.6495383147426594   0.10690208595385323   0.03093214417495141
0.6495383147426594   0.10690208595385323   0.03093214417495141
0.6495383147426594   0.10690208595385323   0.03093214417495141
0.1591360801019924   0.0397840200254981   0.0397840200254981
0.1591360801019924   0.0397840200254981   0.0397840200254981
0.1591360801019924   0.0397840200254981   0.0397840200254981
0.1591360801019924   0.0397840200254981   0.0397840200254981
1.167065246676491   0.18467068082917493   0.06781928213917601
1.167065246676491   0.18467068082917493   0.06781928213917601
1.167065246676491   0.18467068082917493   0.06781928213917601
1.167065246676491   0.18467068082917493   0.06781928213917601
1.2645944095365937   0.31614860238414844   0.31614860238414844
1.2645944095365937   0.31614860238414844   0.31614860238414844
1.2645944095365937   0.31614860238414844   0.31614860238414844
1.2645944095365937   0.31614860238414844   0.31614860238414844
0.17348482147147992   0.025523736097667747   0.01911028092197811
0.17348482147147992   0.025523736097667747   0.01911028092197811
0.17348482147147992   0.025523736097667747   0.01911028092197811
0.17348482147147992   0.025523736097667747   0.01911028092197811
0.6595531380768127   0.14500684143696455   -0.0506347527397177
0.6595531380768127   0.14500684143696455   -0.0506347527397177
0.6595531380768127   0.14500684143696455   -0.0506347527397177
0.6595531380768127   0.14500684143696455   -0.0506347527397177
1.2438969818093273   0.3109742454523318   0.3109742454523318
1.2438969818093273   0.3109742454523318   0.3109742454523318
1.2438969818093273   0.3109742454523318   0.3109742454523318
1.2438969818093273   0.3109742454523318   0.3109742454523318
2.579883825628627   0.19663383265109302   0.06736200700837738
2.579883825628627   0.19663383265109302   0.06736200700837738
2.579883825628627   0.19663383265109302   0.06736200700837738
2.579883825628627   0.19663383265109302   0.06736200700837738
2.636945732681895   0.6592364331704738   0.6592364331704738
2.636945732681895   0.6592364331704738   0.6592364331704738
2.636945732681895   0.6592364331704738   0.6592364331704738
2.636945732681895   0.6592364331704738   0.6592364331704738
1.1075770267314409   -0.0629550245768431   -0.006306448124226441
1.1075770267314409   -0.0629550245768431   -0.006306448124226441
1.1075770267314409   -0.0629550245768431   -0.006306448124226441
1.1075770267314409   -0.0629550245768431   -0.006306448124226441
1.840006088452013   0.2604026027461116   0.2077317319087044
1.840006088452013   0.2604026027461116   0.2077317319087044
1.840006088452013   0.2604026027461116   0.2077317319087044
1.840006088452013   0.2604026027461116   0.2077317319087044
1.2460325791907265   0.31150814479768163   0.31150814479768163
1.2460325791907265   0.31150814479768163   0.31150814479768163
1.2460325791907265   0.31150814479768163   0.31150814479768163
1.2460325791907265   0.31150814479768163   0.31150814479768163
2.4436625335466857   0.22994561712003336   0.12211125354490726
2.4436625335466857   0.22994561712003336   0.12211125354490726
2.4436625335466857   0.22994561712003336   0.12211125354490726
2.4436625335466857   0.22994561712003336   0.12211125354490726
2.5580951842456354   0.6395237960614089   0.6395237960614089
2.5580951842456354   0.6395237960614089   0.6395237960614089
2.5580951842456354   0.6395237960614089   0.6395237960614089
2.5580951842456354   0.6395237960614089   0.6395237960614089
1.111388999714138   -0.034752257271840004   0.008860985428425214
1.111388999714138   -0.034752257271840004   0.008860985428425214
1.111388999714138   -0.034752257271840004   0.008860985428425214
1.111388999714138   -0.034752257271840004   0.008860985428425214
1.785360203974829   0.26790106807911124   0.0996124840632215
1.785360203974829   0.26790106807911124   0.0996124840632215
1.785360203974829   0.26790106807911124   0.0996124840632215
1.785360203974829   0.26790106807911124   0.0996124840632215
1.2406302823142454   0.31015757057856136   0.31015757057856136
1.2406302823142454   0.31015757057856136   0.31015757057856136
1.2406302823142454   0.31015757057856136   0.31015757057856136
1.2406302823142454   0.31015757057856136   0.31015757057856136
2.3649232284189843   0.23068329498447127   0.0825045180051294
2.3649232284189843   0.23068329498447127   0.0825045180051294
2.3649232284189843   0.23068329498447127   0.0825045180051294
2.3649232284189843   0.23068329498447127   0.0825045180051294
2.440754831332254   0.6101887078330634   0.6101887078330634
2.440754831332254   0.6101887078330634   0.6101887078330634
2.440754831332254   0.6101887078330634   0.6101887078330634
2.440754831332254   0.6101887078330634   0.6101887078330634
1.1524505590427099   0.03634645321024399   0.035231499088632975
1.1524505590427099   0.03634645321024399   0.035231499088632975
1.1524505590427099   0.03634645321024399   0.035231499088632975
1.1524505590427099   0.03634645321024399   0.035231499088632975
1.709488755565802   0.2904537526387902   -0.026126480514412548
1.709488755565802   0.2904537526387902   -0.026126480514412548
1.709488755565802   0.2904537526387902   -0.026126480514412548
1.709488755565802   0.2904537526387902   -0.026126480514412548
-2.501493896281079   -0.17911775519064   0.028133808213843675
-2.501493896281079   -0.17911775519064   0.028133808213843675
-2.501493896281079   -0.17911775519064   0.028133808213843675
-2.501493896281079   -0.17911775519064   0.028133808213843675
-1.5922125482062595   -0.03670607849667079   -0.01028772138440466
-1.5922125482062595   -0.03670607849667079   -0.01028772138440466
-1.5922125482062595   -0.03670607849667079   -0.01028772138440466
-1.5922125482062595   -0.03670607849667079   -0.01028772138440466
-1.6030259179681903   0.06473817763865447   0.033462284949682355
-1.6030259179681903   0.06473817763865447   0.033462284949682355
-1.6030259179681903   0.06473817763865447   0.033462284949682355
-1.6030259179681903   0.06473817763865447   0.033462284949682355
-2.538750140074122   -0.17316223861013524   -0.030049916989741243
-2.538750140074122   -0.17316223861013524   -0.030049916989741243
-2.538750140074122   -0.17316223861013524   -0.030049916989741243
-2.538750140074122   -0.17316223861013524   -0.030049916989741243
-1.9778492878655916   -0.06753689644468741   -0.00782663713151878
-1.9778492878655916   -0.06753689644468741   -0.00782663713151878
-1.9778492878655916   -0.06753689644468741   -0.00782663713151878
-1.9778492878655916   -0.06753689644468741   -0.00782663713151878
-2.5203078326412323   -0.1230089883108138   0.012008369875383354
-2.5203078326412323   -0.1230089883108138   0.012008369875383354
-2.5203078326412323   -0.1230089883108138   0.012008369875383354
-2.5203078326412323   -0.1230089883108138   0.012008369875383354
-1.6241333498938553   0.011919802846562133   -0.01925649988652095
-1.6241333498938553   0.011919802846562133   -0.01925649988652095
-1.6241333498938553   0.011919802846562133   -0.01925649988652095
-1.6241333498938553   0.011919802846562133   -0.01925649988652095
-1.60496579369315   0.09228730959610731   0.038106787491981084
-1.60496579369315   0.09228730959610731   0.038106787491981084
-1.60496579369315   0.09228730959610731   0.038106787491981084
-1.60496579369315   0.09228730959610731   0.038106787491981084
-2.5541807577542928   -0.15253642701238213   -0.039672029881622245
-2.5541807577542928   -0.15253642701238213   -0.039672029881622245
-2.5541807577542928   -0.15253642701238213   -0.039672029881622245
-2.5541807577542928   -0.15253642701238213   -0.039672029881622245
-2.0334277279042254   -0.04522448970398335   -0.01927706787809
-2.0334277279042254   -0.04522448970398335   -0.01927706787809
-2.0334277279042254   -0.04522448970398335   -0.01927706787809
-2.0334277279042254   -0.04522448970398335   -0.01927706787809
-2.5083399184519566   -0.07384143744209898   0.11083717705975575
-2.5083399184519566   -0.07384143744209898   0.11083717705975575
-2.5083399184519566   -0.07384143744209898   0.11083717705975575
-2.5083399184519566   -0.07384143744209898   0.11083717705975575
-1.6317067327545938   0.03269222026671603   -0.03600281848583051
-1.6317067327545938   0.03269222026671603   -0.03600281848583051
-1.6317067327545938   0.03269222026671603   -0.03600281848583051
-1.6317067327545938   0.03269222026671603   -0.03600281848583051
-1.57580520726858   0.16079070762852976   0.06924342876280082
-1.57580520726858   0.16079070762852976   0.06924342876280082
-1.57580520726858   0.16079070762852976   0.06924342876280082
-1.57580520726858   0.16079070762852976   0.06924342876280082
-2.4836537109342633   -0.12310322273320523   -0.06490716154526839
-2.4836537109342633   -0.12310322273320523   -0.06490716154526839
-2.4836537109342633   -0.12310322273320523   -0.06490716154526839
-2.4836537109342633   -0.12310322273320523   -0.06490716154526839
-1.9557077070373385   0.018213560264766893   0.043334366722642584
-1.9557077070373385   0.018213560264766893   0.043334366722642584
-1.9557077070373385   0.018213560264766893   0.043334366722642584
-1.9557077070373385   0.018213560264766893   0.043334366722642584
-1.6317750494868553   -0.21630927450189397   -0.028497031782160315
-1.6317750494868553   -0.21630927450189397   -0.028497031782160315
-1.6317750494868553   -0.21630927450189397   -0.028497031782160315
-1.6317750494868553   -0.21630927450189397   -0.028497031782160315
-0.7517120161776594   -0.016692749010067787   0.007983095904456353
-0.7517120161776594   -0.016692749010067787   0.007983095904456353
-0.7517120161776594   -0.016692749010067787   0.007983095904456353
-0.7517120161776594   -0.016692749010067787   0.007983095904456353
-0.7627454159601054   0.014489918751334596   0.011373415525122596
-0.7627454159601054   0.014489918751334596   0.011373415525122596
-0.7627454159601054   0.014489918751334596   0.011373415525122596
-0.7627454159601054   0.014489918751334596   0.011373415525122596
-1.6641332675598368   -0.15833802984509107   -0.04899825552480414
-1.6641332675598368   -0.15833802984509107   -0.04899825552480414
-1.6641332675598368   -0.15833802984509107   -0.04899825552480414
-1.6641332675598368   -0.15833802984509107   -0.04899825552480414
-1.2025567578281038   -0.09763062046159368   -0.027559129403355455
-1.2025567578281038   -0.09763062046159368   -0.027559129403355455
-1.2025567578281038   -0.09763062046159368   -0.027559129403355455
-1.2025567578281038   -0.09763062046159368   -0.027559129403355455
-1.6625714552204736   -0.17304618078365064   -0.026481042889435216
-1.6625714552204736   -0.17304618078365064   -0.026481042889435216
-1.6625714552204736   -0.17304618078365064   -0.026481042889435216
-1.6625714552204736   -0.17304618078365064   -0.026481042889435216
-0.761341021653548   0.03216427633581473   0.0007210294734359898
-0.761341021653548   0.03216427633581473   0.0007210294734359898
-0.761341021653548   0.03216427633581473   0.0007210294734359898
-0.761341021653548   0.03216427633581473   0.0007210294734359898
-0.7599003698227976   0.052993508669539946   0.015451891383181475
-0.7599003698227976   0.052993508669539946   0.015451891383181475
-0.7599003698227976   0.052993508669539946   0.015451891383181475
-0.7599003698227976   0.052993508669539946   0.015451891383181475
-1.664852729607341   -0.1160468717369455   -0.0529937107459208
-1.664852729607341   -0.1160468717369455   -0.0529937107459208
-1.664852729607341   -0.1160468717369455   -0.0529937107459208
-1.664852729607341   -0.1160468717369455   -0.0529937107459208
-1.200254364494336   -0.05433973814185786   -0.013101302309998057
-1.200254364494336   -0.05433973814185786   -0.013101302309998057
-1.200254364494336   -0.05433973814185786   -0.013101302309998057
-1.200254364494336   -0.05433973814185786   -0.013101302309998057
-1.6583469220541103   -0.13090707416391786   -0.005604470552794734
-1.6583469220541103   -0.13090707416391786   -0.005604470552794734
-1.6583469220541103   -0.13090707416391786   -0.005604470552794734
-1.6583469220541103   -0.13090707416391786   -0.005604470552794734
-0.7608986568708015   0.0733612316017413   -0.009907266789026176
-0.7608986568708015   0.0733612316017413   -0.009907266789026176
-0.7608986568708015   0.0733612316017413   -0.009907266789026176
-0.7608986568708015   0.0733612316017413   -0.009907266789026176
-0.747202230536507   0.09167366128955148   0.03104583278377636
-0.747202230536507   0.09167366128955148   0.03104583278377636
-0.747202230536507   0.09167366128955148   0.03104583278377636
-0.747202230536507   0.09167366128955148   0.03104583278377636
-1.647058263198941   -0.06718297886036423   -0.059048164400116426
-1.647058263198941   -0.06718297886036423   -0.059048164400116426
-1.647058263198941   -0.06718297886036423   -0.059048164400116426
-1.647058263198941   -0.06718297886036423   -0.059048164400116426
-1.1952721557859627   -0.013373666093105085   0.006001890750840316
-1.1952721557859627   -0.013373666093105085   0.006001890750840316
-1.1952721557859627   -0.013373666093105085   0.006001890750840316
-1.1952721557859627   -0.013373666093105085   0.006001890750840316
-0.7926875731668487   -0.18006203198756007   -0.033525406064004996
-0.7926875731668487   -0.18006203198756007   -0.033525406064004996
-0.7926875731668487   -0.18006203198756007   -0.033525406064004996
-0.7926875731668487   -0.18006203198756007   -0.033525406064004996
0.0822904627056385   0.018706701291683912   0.030880706559981968
0.0822904627056385   0.018706701291683912   0.030880706559981968
0.0822904627056385   0.018706701291683912   0.030880706559981968
0.0822904627056385   0.018706701291683912   0.030880706559981968
0.07852257605788067   0.045404655509798275   0.002469109537716516
0.07852257605788067   0.045404655509798275   0.002469109537716516
0.07852257605788067   0.045404655509798275   0.002469109537716516
0.07852257605788067   0.045404655509798275   0.002469109537716516
-0.7960582603333457   -0.11929440372089728   -0.021406483868846825
-0.7960582603333457   -0.11929440372089728   -0.021406483868846825
-0.7960582603333457   -0.11929440372089728   -0.021406483868846825
-0.7960582603333457   -0.11929440372089728   -0.021406483868846825
-0.3604351760817333   -0.05969338760156103   -0.011398934587680617
-0.3604351760817333   -0.05969338760156103   -0.011398934587680617
-0.3604351760817333   -0.05969338760156103   -0.011398934587680617
-0.3604351760817333   -0.05969338760156103   -0.011398934587680617
-0.8015646525714101   -0.13729431823301394   -0.030938530547051965
-0.8015646525714101   -0.13729431823301394   -0.030938530547051965
-0.8015646525714101   -0.13729431823301394   -0.030938530547051965
-0.8015646525714101   -0.13729431823301394   -0.030938530547051965
0.08708990795409322   0.0664655096800628   0.024244914848514744
0.08708990795409322   0.0664655096800628   0.024244914848514744
0.08708990795409322   0.0664655096800628   0.024244914848514744
0.08708990795409322   0.0664655096800628   0.024244914848514744
0.08472554541053735   0.08778560742632263   0.014355952561658655
0.08472554541053735   0.08778560742632263   0.014355952561658655
0.08472554541053735   0.08778560742632263   0.014355952561658655
0.08472554541053735   0.08778560742632263   0.014355952561658655
-0.7934947397337031   -0.07281990007670724   -0.026706549425099056
-0.7934947397337031   -0.07281990007670724   -0.026706549425099056
-0.7934947397337031   -0.07281990007670724   -0.026706549425099056
-0.7934947397337031   -0.07281990007670724   -0.026706549425099056
-0.35480481811872566   -0.014652988244312944   0.004244908261037942
-0.35480481811872566   -0.014652988244312944   0.004244908261037942
-0.35480481811872566   -0.014652988244312944   0.004244908261037942
-0.35480481811872566   -0.014652988244312944   0.004244908261037942
-0.7956213735745323   -0.09432240885351136   -0.015837209852441494
-0.7956213735745323   -0.09432240885351136   -0.015837209852441494
-0.7956213735745323   -0.09432240885351136   -0.015837209852441494
-0.7956213735745323   -0.09432240885351136   -0.015837209852441494
0.09014566198705297   0.11258159893881425   0.01666054393174465
0.09014566198705297   0.11258159893881425   0.01666054393174465
0.09014566198705297   0.11258159893881425   0.01666054393174465
0.09014566198705297   0.11258159893881425   0.01666054393174465
0.08669011035922328   0.13493386238886151   0.023633363957765725
0.08669011035922328   0.13493386238886151   0.023633363957765725
0.08669011035922328   0.13493386238886151   0.023633363957765725
0.08669011035922328   0.13493386238886151   0.023633363957765725
-0.7831029669170113   -0.023136510592144305   -0.03364767723704564
-0.7831029669170113   -0.023136510592144305   -0.03364767723704564
-0.7831029669170113   -0.023136510592144305   -0.03364767723704564
-0.7831029669170113   -0.023136510592144305   -0.03364767723704564
-0.3459172561501612   0.03244893497690621   0.021371074223229237
-0.3459172561501612   0.03244893497690621   0.021371074223229237
-0.3459172561501612   0.03244893497690621   0.021371074223229237
-0.3459172561501612   0.03244893497690621   0.021371074223229237
0.037741398404300255   -0.13199154713338843   -0.04116636652163691
0.037741398404300255   -0.13199154713338843   -0.04116636652163691
0.037741398404300255   -0.13199154713338843   -0.04116636652163691
0.037741398404300255   -0.13199154713338843   -0.04116636652163691
0.9441803340469284   0.06517205220886088   0.056671984449819156
0.9441803340469284   0.06517205220886088   0.056671984449819156
0.9441803340469284   0.06517205220886088   0.056671984449819156
0.9441803340469284   0.06517205220886088   0.056671984449819156
0.9430481017320308   0.08779796646038154   -0.009061634916663168
0.9430481017320308   0.08779796646038154   -0.009061634916663168
0.9430481017320308   0.08779796646038154   -0.009061634916663168
0.9430481017320308   0.08779796646038154   -0.009061634916663168
0.05422173434071017   -0.0792967201391647   0.0056662766008269624
0.05422173434071017   -0.0792967201391647   0.0056662766008269624
0.05422173434071017   -0.0792967201391647   0.0056662766008269624
0.05422173434071017   -0.0792967201391647   0.0056662766008269624
0.4887009087110023   -0.011309020642397027   0.0010359695819816689
0.4887009087110023   -0.011309020642397027   0.0010359695819816689
0.4887009087110023   -0.011309020642397027   0.0010359695819816689
0.4887009087110023   -0.011309020642397027   0.0010359695819816689
0.04351269091252918   -0.09644326738002879   -0.030732393299213265
0.04351269091252918   -0.09644326738002879   -0.030732393299213265
0.04351269091252918   -0.09644326738002879   -0.030732393299213265
0.04351269091252918   -0.09644326738002879   -0.030732393299213265
0.9592583299621631   0.11044569850319566   0.04934177419117589
0.9592583299621631   0.11044569850319566   0.04934177419117589
0.9592583299621631   0.11044569850319566   0.04934177419117589
0.9592583299621631   0.11044569850319566   0.04934177419117589
0.950523147675827   0.12971464364190996   0.009581195203513193
0.950523147675827   0.12971464364190996   0.009581195203513193
0.950523147675827   0.12971464364190996   0.009581195203513193
0.950523147675827   0.12971464364190996   0.009581195203513193
0.05618898770019701   -0.03776071452120316   -0.0027805140425173087
0.05618898770019701   -0.03776071452120316   -0.0027805140425173087
0.05618898770019701   -0.03776071452120316   -0.0027805140425173087
0.05618898770019701   -0.03776071452120316   -0.0027805140425173087
0.49525550495458526   0.02875777633880333   0.020262380870447745
0.49525550495458526   0.02875777633880333   0.020262380870447745
0.49525550495458526   0.02875777633880333   0.020262380870447745
0.49525550495458526   0.02875777633880333   0.020262380870447745
0.04838646614609847   -0.057116415809651114   -0.022437420524561758
0.04838646614609847   -0.057116415809651114   -0.022437420524561758
0.04838646614609847   -0.057116415809651114   -0.022437420524561758
0.04838646614609847   -0.057116415809651114   -0.022437420524561758
0.9623065303386681   0.15305120603909786   0.04516154612051679
0.9623065303386681   0.15305120603909786   0.04516154612051679
0.9623065303386681   0.15305120603909786   0.04516154612051679
0.9623065303386681   0.15305120603909786   0.04516154612051679
0.9352894128519773   0.17809228544902006   0.020148436298242277
0.9352894128519773   0.17809228544902006   0.020148436298242277
0.9352894128519773   0.17809228544902006   0.020148436298242277
0.9352894128519773   0.17809228544902006   0.020148436298242277
0.05571101472426351   0.01367871123367045   -0.010006963061842003
0.05571101472426351   0.01367871123367045   -0.010006963061842003
0.05571101472426351   0.01367871123367045   -0.010006963061842003
0.05571101472426351   0.01367871123367045   -0.010006963061842003
0.5026099617202209   0.07456322129166665   0.03805991120987913
0.5026099617202209   0.07456322129166665   0.03805991120987913
0.5026099617202209   0.07456322129166665   0.03805991120987913
0.5026099617202209   0.07456322129166665   0.03805991120987913
0.8697777567859212   -0.1740779603736623   -0.07609088927269367
0.8697777567859212   -0.1740779603736623   -0.07609088927269367
0.8697777567859212   -0.1740779603736623   -0.07609088927269367
0.8697777567859212   -0.1740779603736623   -0.07609088927269367
1.7909667876805   0.11829648141477439   0.05520432934310644
1.7909667876805   0.11829648141477439   0.05520432934310644
1.7909667876805   0.11829648141477439   0.05520432934310644
1.7909667876805   0.11829648141477439   0.05520432934310644
1.811256563080099   0.05615013532440033   -0.11446018496666736
1.811256563080099   0.05615013532440033   -0.11446018496666736
1.811256563080099   0.05615013532440033   -0.11446018496666736
1.811256563080099   0.05615013532440033   -0.11446018496666736
0.9267591336134625   -0.035718202475409966   0.03300969342627143
0.9267591336134625   -0.035718202475409966   0.03300969342627143
0.9267591336134625   -0.035718202475409966   0.03300969342627143
0.9267591336134625   -0.035718202475409966   0.03300969342627143
1.2825909791339778   -0.022399404101823783   -0.032082109721912985
1.2825909791339778   -0.022399404101823783   -0.032082109721912985
1.2825909791339778   -0.022399404101823783   -0.032082109721912985
1.2825909791339778   -0.022399404101823783   -0.032082109721912985
0.8943132884263421   -0.11444502467496911   -0.05049271030975941
0.8943132884263421   -0.11444502467496911   -0.05049271030975941
0.8943132884263421   -0.11444502467496911   -0.05049271030975941
0.8943132884263421   -0.11444502467496911   -0.05049271030975941
1.8601480751845243   0.1513226244412666   0.03482488643859245
1.8601480751845243   0.1513226244412666   0.03482488643859245
1.8601480751845243   0.1513226244412666   0.03482488643859245
1.8601480751845243   0.1513226244412666   0.03482488643859245
1.8312461654124381   0.10226536466765151   -0.025908070572419353
1.8312461654124381   0.10226536466765151   -0.025908070572419353
1.8312461654124381   0.10226536466765151   -0.025908070572419353
1.8312461654124381   0.10226536466765151   -0.025908070572419353
0.9230650510171284   -0.01500718595801101   0.01701254150992764
0.9230650510171284   -0.01500718595801101   0.01701254150992764
0.9230650510171284   -0.01500718595801101   0.01701254150992764
0.9230650510171284   -0.01500718595801101   0.01701254150992764
1.3497651548256182   0.0337172320066349   0.022178253089260122
1.3497651548256182   0.0337172320066349   0.022178253089260122
1.3497651548256182   0.0337172320066349   0.022178253089260122
1.3497651548256182   0.0337172320066349   0.022178253089260122
0.897034933879074   -0.08752026129350568   -0.040624968844843165
0.897034933879074   -0.08752026129350568   -0.040624968844843165
0.897034933879074   -0.08752026129350568   -0.040624968844843165
0.897034933879074   -0.08752026129350568   -0.040624968844843165
1.8550989028551892   0.17260106030784425   0.02301992100114305
1.8550989028551892   0.17260106030784425   0.02301992100114305
1.8550989028551892   0.17260106030784425   0.02301992100114305
1.8550989028551892   0.17260106030784425   0.02301992100114305
1.8282235937500722   0.15652119453008356   -0.03966782901953135
1.8282235937500722   0.15652119453008356   -0.03966782901953135
1.8282235937500722   0.15652119453008356   -0.03966782901953135
1.8282235937500722   0.15652119453008356   -0.03966782901953135
0.9040773914050624   0.032729281155581075   0.0094513333570923
0.9040773914050624   0.032729281155581075   0.0094513333570923
0.9040773914050624   0.032729281155581075   0.0094513333570923
0.9040773914050624   0.032729281155581075   0.0094513333570923
1.3152797121139725   0.05910246232868149   0.016438927159796654
1.3152797121139725   0.05910246232868149   0.016438927159796654
1.3152797121139725   0.05910246232868149   0.016438927159796654
1.3152797121139725   0.05910246232868149   0.016438927159796654
-1.9665240816930332   -0.08927634628691905   0.10117247315112002
-1.9665240816930332   -0.08927634628691905   0.10117247315112002
-1.9665240816930332   -0.08927634628691905   0.10117247315112002
-1.9665240816930332   -0.08927634628691905   0.10117247315112002
-1.3059055857839559   -0.049574058953783834   -0.02632547789257824
-1.3059055857839559   -0.049574058953783834   -0.02632547789257824
-1.3059055857839559   -0.049574058953783834   -0.02632547789257824
-1.3059055857839559   -0.049574058953783834   -0.02632547789257824
-1.2588494893114452   0.10580530849909042   0.08488716779371047
-1.2588494893114452   0.10580530849909042   0.08488716779371047
-1.2588494893114452   0.10580530849909042   0.08488716779371047
-1.2588494893114452   0.10580530849909042   0.08488716779371047
-1.9755915474431895   -0.1410293955612078   -0.04125372816801727
-1.9755915474431895   -0.1410293955612078   -0.04125372816801727
-1.9755915474431895   -0.1410293955612078   -0.04125372816801727
-1.9755915474431895   -0.1410293955612078   -0.04125372816801727
-1.5606580147518023   -0.02413174146659741   -0.0028509404114481635
-1.5606580147518023   -0.02413174146659741   -0.0028509404114481635
-1.5606580147518023   -0.02413174146659741   -0.0028509404114481635
-1.5606580147518023   -0.02413174146659741   -0.0028509404114481635
-1.9206306974763967   -0.0208534512264118   0.11337457733115064
-1.9206306974763967   -0.0208534512264118   0.11337457733115064
-1.9206306974763967   -0.0208534512264118   0.11337457733115064
-1.9206306974763967   -0.0208534512264118   0.11337457733115064
-1.3051533820768   -0.005713678634264974   -0.03511330889970814
-1.3051533820768   -0.005713678634264974   -0.03511330889970814
-1.3051533820768   -0.005713678634264974   -0.03511330889970814
-1.3051533820768   -0.005713678634264974   -0.03511330889970814
-1.2537143116595155   0.13122910168865043   0.07868916752876351
-1.2537143116595155   0.13122910168865043   0.07868916752876351
-1.2537143116595155   0.13122910168865043   0.07868916752876351
-1.2537143116595155   0.13122910168865043   0.07868916752876351
-1.9450006477182946   -0.11798370738781533   -0.056487626286681525
-1.9450006477182946   -0.11798370738781533   -0.056487626286681525
-1.9450006477182946   -0.11798370738781533   -0.056487626286681525
-1.9450006477182946   -0.11798370738781533   -0.056487626286681525
-1.5639854586033106   0.005739062663182581   0.018040254606792594
-1.5639854586033106   0.005739062663182581   0.018040254606792594
-1.5639854586033106   0.005739062663182581   0.018040254606792594
-1.5639854586033106   0.005739062663182581   0.018040254606792594
-1.8938186578418208   0.0031317684066758944   0.07830684730119594
-1.8938186578418208   0.0031317684066758944   0.07830684730119594
-1.8938186578418208   0.0031317684066758944   0.07830684730119594
-1.8938186578418208   0.0031317684066758944   0.07830684730119594
-1.3020431377749462   0.012966789655203925   -0.04469265101493361
-1.3020431377749462   0.012966789655203925   -0.04469265101493361
-1.3020431377749462   0.012966789655203925   -0.04469265101493361
-1.3020431377749462   0.012966789655203925   -0.04469265101493361
-1.2549265290486533   0.14811104332643055   0.06243698686730008
-1.2549265290486533   0.14811104332643055   0.06243698686730008
-1.2549265290486533   0.14811104332643055   0.06243698686730008
-1.2549265290486533   0.14811104332643055   0.06243698686730008
-1.9052908045026957   -0.09349822538432079   -0.07203751632701862
-1.9052908045026957   -0.09349822538432079   -0.07203751632701862
-1.9052908045026957   -0.09349822538432079   -0.07203751632701862
-1.9052908045026957   -0.09349822538432079   -0.07203751632701862
-1.519040023988589   0.03248732555650863   0.03751468887828331
-1.519040023988589   0.03248732555650863   0.03751468887828331
-1.519040023988589   0.03248732555650863   0.03751468887828331
-1.519040023988589   0.03248732555650863   0.03751468887828331
-1.309820465182772   -0.12417153730005853   0.028697603459615292
-1.309820465182772   -0.12417153730005853   0.028697603459615292
-1.309820465182772   -0.12417153730005853   0.028697603459615292
-1.309820465182772   -0.12417153730005853   0.028697603459615292
-0.6613806050584891   -0.023891926464929894   0.0012720231453729018
-0.6613806050584891   -0.023891926464929894   0.0012720231453729018
-0.6613806050584891   -0.023891926464929894   0.0012720231453729018
-0.6613806050584891   -0.023891926464929894   0.0012720231453729018
-0.6426296897892986   0.06498954063625609   0.04613601911139328
-0.6426296897892986   0.06498954063625609   0.04613601911139328
-0.6426296897892986   0.06498954063625609   0.04613601911139328
-0.6426296897892986   0.06498954063625609   0.04613601911139328
-1.3306490984783659   -0.12245516741759255   -0.04585040212422198
-1.3306490984783659   -0.12245516741759255   -0.04585040212422198
-1.3306490984783659   -0.12245516741759255   -0.04585040212422198
-1.3306490984783659   -0.12245516741759255   -0.04585040212422198
-0.982614318222134   -0.048218509840139145   -0.019898081717176642
-0.982614318222134   -0.048218509840139145   -0.019898081717176642
-0.982614318222134   -0.048218509840139145   -0.019898081717176642
-0.982614318222134   -0.048218509840139145   -0.019898081717176642
-1.305688181662568   -0.07129129887769983   0.027790313414882965
-1.305688181662568   -0.07129129887769983   0.027790313414882965
-1.305688181662568   -0.07129129887769983   0.027790313414882965
-1.305688181662568   -0.07129129887769983   0.027790313414882965
-0.6625313307046528   0.01888494799680951   -0.0072675928259249845
-0.6625313307046528   0.01888494799680951   -0.0072675928259249845
-0.6625313307046528   0.01888494799680951   -0.0072675928259249845
-0.6625313307046528   0.01888494799680951   -0.0072675928259249845
-0.6405874626354938   0.10738823021727598   0.03991653205333945
-0.6405874626354938   0.10738823021727598   0.03991653205333945
-0.6405874626354938   0.10738823021727598   0.03991653205333945
-0.6405874626354938   0.10738823021727598   0.03991653205333945
-1.3231011831354251   -0.08287996231462821   -0.054136125847505816
-1.3231011831354251   -0.08287996231462821   -0.054136125847505816
-1.3231011831354251   -0.08287996231462821   -0.054136125847505816
-1.3231011831354251   -0.08287996231462821   -0.054136125847505816
-0.9718799325042274   -0.005319845985762156   -6.477518191595755e-05
-0.9718799325042274   -0.005319845985762156   -6.477518191595755e-05
-0.9718799325042274   -0.005319845985762156   -6.477518191595755e-05
-0.9718799325042274   -0.005319845985762156   -6.477518191595755e-05
-1.2976303782407064   -0.02828006004345346   0.01861799635491264
-1.2976303782407064   -0.02828006004345346   0.01861799635491264
-1.2976303782407064   -0.02828006004345346   0.01861799635491264
-1.2976303782407064   -0.02828006004345346   0.01861799635491264
-0.6619385697261575   0.056908025750156854   -0.016358798932848022
-0.6619385697261575   0.056908025750156854   -0.016358798932848022
-0.6619385697261575   0.056908025750156854   -0.016358798932848022
-0.6619385697261575   0.056908025750156854   -0.016358798932848022
-0.6403908640617663   0.15194223222664796   0.029910491897762195
-0.6403908640617663   0.15194223222664796   0.029910491897762195
-0.6403908640617663   0.15194223222664796   0.029910491897762195
-0.6403908640617663   0.15194223222664796   0.029910491897762195
-1.3167228331128986   -0.04017628509494647   -0.05825720503255419
-1.3167228331128986   -0.04017628509494647   -0.05825720503255419
-1.3167228331128986   -0.04017628509494647   -0.05825720503255419
-1.3167228331128986   -0.04017628509494647   -0.05825720503255419
-0.9725039816391668   0.03401998348316071   0.015093836932185134
-0.9725039816391668   0.03401998348316071   0.015093836932185134
-0.9725039816391668   0.03401998348316071   0.015093836932185134
-0.9725039816391668   0.03401998348316071   0.015093836932185134
-0.6860249947771513   -0.14191741824953763   -0.003924433663335999
-0.6860249947771513   -0.14191741824953763   -0.003924433663335999
-0.6860249947771513   -0.14191741824953763   -0.003924433663335999
-0.6860249947771513   -0.14191741824953763   -0.003924433663335999
-0.02283113562467272   0.007048155874453587   0.029296867194784394
-0.02283113562467272   0.007048155874453587   0.029296867194784394
-0.02283113562467272   0.007048155874453587   0.029296867194784394
-0.02283113562467272   0.007048155874453587   0.029296867194784394
-0.025333562971596044   0.04193202579006423   0.01400096632421112
-0.025333562971596044   0.04193202579006423   0.01400096632421112
-0.025333562971596044   0.04193202579006423   0.01400096632421112
-0.025333562971596044   0.04193202579006423   0.01400096632421112
-0.6864790993621053   -0.0909601647450165   -0.01716132337136765
-0.6864790993621053   -0.0909601647450165   -0.01716132337136765
-0.6864790993621053   -0.0909601647450165   -0.01716132337136765
-0.6864790993621053   -0.0909601647450165   -0.01716132337136765
-0.35625619049733637   -0.04448311956281097   -0.01113506443210576
-0.35625619049733637   -0.04448311956281097   -0.01113506443210576
-0.35625619049733637   -0.04448311956281097   -0.01113506443210576
-0.35625619049733637   -0.04448311956281097   -0.01113506443210576
-0.6857400786941082   -0.09486228964546692   -0.009564095130932392
-0.6857400786941082   -0.09486228964546692   -0.009564095130932392
-0.6857400786941082   -0.09486228964546692   -0.009564095130932392
-0.6857400786941082   -0.09486228964546692   -0.009564095130932392
-0.022300907915208903   0.04960582641489879   0.021490440981312482
-0.022300907915208903   0.04960582641489879   0.021490440981312482
-0.022300907915208903   0.04960582641489879   0.021490440981312482
-0.022300907915208903   0.04960582641489879   0.021490440981312482
-0.022197381601474837   0.08812474211982918   0.006719303425354789
-0.022197381601474837   0.08812474211982918   0.006719303425354789
-0.022197381601474837   0.08812474211982918   0.006719303425354789
-0.022197381601474837   0.08812474211982918   0.006719303425354789
-0.6847451569353692   -0.04833030129777116   -0.025153407930984424
-0.6847451569353692   -0.04833030129777116   -0.025153407930984424
-0.6847451569353692   -0.04833030129777116   -0.025153407930984424
-0.6847451569353692   -0.04833030129777116   -0.025153407930984424
-0.35278895180626385   -0.0017702981521571654   0.004889963892130807
-0.35278895180626385   -0.0017702981521571654   0.004889963892130807
-0.35278895180626385   -0.0017702981521571654   0.004889963892130807
-0.35278895180626385   -0.0017702981521571654   0.004889963892130807
-0.6837147456496199   -0.049324101612392604   -0.01900755118761664
-0.6837147456496199   -0.049324101612392604   -0.01900755118761664
-0.6837147456496199   -0.049324101612392604   -0.01900755118761664
-0.6837147456496199   -0.049324101612392604   -0.01900755118761664
-0.020113430201693733   0.09223290511998232   0.013030897424107502
-0.020113430201693733   0.09223290511998232   0.013030897424107502
-0.020113430201693733   0.09223290511998232   0.013030897424107502
-0.020113430201693733   0.09223290511998232   0.013030897424107502
-0.02152485111446121   0.1356986170005319   -0.0010501550762146566
-0.02152485111446121   0.1356986170005319   -0.0010501550762146566
-0.02152485111446121   0.1356986170005319   -0.0010501550762146566
-0.02152485111446121   0.1356986170005319   -0.0010501550762146566
-0.6844019588476632   -0.0049747232482471315   -0.03322802655682995
-0.6844019588476632   -0.0049747232482471315   -0.03322802655682995
-0.6844019588476632   -0.0049747232482471315   -0.03322802655682995
-0.6844019588476632   -0.0049747232482471315   -0.03322802655682995
-0.3500946014990834   0.04098307722029064   0.01958536186201029
-0.3500946014990834   0.04098307722029064   0.01958536186201029
-0.3500946014990834   0.04098307722029064   0.01958536186201029
-0.3500946014990834   0.04098307722029064   0.01958536186201029
-0.06797713852334826   -0.1553923645666564   -0.03399262685748307
-0.06797713852334826   -0.1553923645666564   -0.03399262685748307
-0.06797713852334826   -0.1553923645666564   -0.03399262685748307
-0.06797713852334826   -0.1553923645666564   -0.03399262685748307
0.6133106911954382   0.04326655537361325   0.05569646218964887
0.6133106911954382   0.04326655537361325   0.05569646218964887
0.6133106911954382   0.04326655537361325   0.05569646218964887
0.6133106911954382   0.04326655537361325   0.05569646218964887
0.5932493497830454   0.022985232354365642   -0.021951576373856495
0.5932493497830454   0.022985232354365642   -0.021951576373856495
0.5932493497830454   0.022985232354365642   -0.021951576373856495
0.5932493497830454   0.022985232354365642   -0.021951576373856495
-0.0455060494960563   -0.05690141146136858   0.011971970953342858
-0.0455060494960563   -0.05690141146136858   0.011971970953342858
-0.0455060494960563   -0.05690141146136858   0.011971970953342858
-0.0455060494960563   -0.05690141146136858   0.011971970953342858
0.26940012495108595   -0.03595423567731398   -0.006280555644814154
0.26940012495108595   -0.03595423567731398   -0.006280555644814154
0.26940012495108595   -0.03595423567731398   -0.006280555644814154
0.26940012495108595   -0.03595423567731398   -0.006280555644814154
-0.06772809349544245   -0.1133565609396266   -0.04268309956532988
-0.06772809349544245   -0.1133565609396266   -0.04268309956532988
-0.06772809349544245   -0.1133565609396266   -0.04268309956532988
-0.06772809349544245   -0.1133565609396266   -0.04268309956532988
0.6197610316875412   0.08373001973773331   0.04986204576525486
0.6197610316875412   0.08373001973773331   0.04986204576525486
0.6197610316875412   0.08373001973773331   0.04986204576525486
0.6197610316875412   0.08373001973773331   0.04986204576525486
0.6028427219135377   0.06595837261055129   -0.030838812597078054
0.6028427219135377   0.06595837261055129   -0.030838812597078054
0.6028427219135377   0.06595837261055129   -0.030838812597078054
0.6028427219135377   0.06595837261055129   -0.030838812597078054
-0.044218829021475704   -0.01870740252658243   0.003444210971762879
-0.044218829021475704   -0.01870740252658243   0.003444210971762879
-0.044218829021475704   -0.01870740252658243   0.003444210971762879
-0.044218829021475704   -0.01870740252658243   0.003444210971762879
0.27176684115865024   0.0026836717231775026   0.009641717305994366
0.27176684115865024   0.0026836717231775026   0.009641717305994366
0.27176684115865024   0.0026836717231775026   0.009641717305994366
0.27176684115865024   0.0026836717231775026   0.009641717305994366
-0.06583113343005971   -0.0718946488819159   -0.0514300647158243
-0.06583113343005971   -0.0718946488819159   -0.0514300647158243
-0.06583113343005971   -0.0718946488819159   -0.0514300647158243
-0.06583113343005971   -0.0718946488819159   -0.0514300647158243
0.6291296616991531   0.12382025434291731   0.04273400459863285
0.6291296616991531   0.12382025434291731   0.04273400459863285
0.6291296616991531   0.12382025434291731   0.04273400459863285
0.6291296616991531   0.12382025434291731   0.04273400459863285
0.6087540269028803   0.11985090325715647   -0.032189015123028644
0.6087540269028803   0.11985090325715647   -0.032189015123028644
0.6087540269028803   0.11985090325715647   -0.032189015123028644
0.6087540269028803   0.11985090325715647   -0.032189015123028644
-0.04428063301766766   0.025932230476141023   -0.005062678067855543
-0.04428063301766766   0.025932230476141023   -0.005062678067855543
-0.04428063301766766   0.025932230476141023   -0.005062678067855543
-0.04428063301766766   0.025932230476141023   -0.005062678067855543
0.28115821620461234   0.045774807793374006   0.02855256320788157
0.28115821620461234   0.045774807793374006   0.02855256320788157
0.28115821620461234   0.045774807793374006   0.02855256320788157
0.28115821620461234   0.045774807793374006   0.02855256320788157
0.5494266988721819   -0.15428649252175985   -0.06617045153125431
0.5494266988721819   -0.15428649252175985   -0.06617045153125431
0.5494266988721819   -0.15428649252175985   -0.06617045153125431
0.5494266988721819   -0.15428649252175985   -0.06617045153125431
1.2078773036459163   0.08974030661637045   0.06191851260748099
1.2078773036459163   0.08974030661637045   0.06191851260748099
1.2078773036459163   0.08974030661637045   0.06191851260748099
1.2078773036459163   0.08974030661637045   0.06191851260748099
1.1984587971450082   -0.005595334858065348   -0.08807563201855874
1.1984587971450082   -0.005595334858065348   -0.08807563201855874
1.1984587971450082   -0.005595334858065348   -0.08807563201855874
1.1984587971450082   -0.005595334858065348   -0.08807563201855874
0.5987706913094633   -0.01291232293760719   0.041552686550209786
0.5987706913094633   -0.01291232293760719   0.041552686550209786
0.5987706913094633   -0.01291232293760719   0.041552686550209786
0.5987706913094633   -0.01291232293760719   0.041552686550209786
0.8454990114371884   -0.030075998143685945   -0.02772439729125331
0.8454990114371884   -0.030075998143685945   -0.02772439729125331
0.8454990114371884   -0.030075998143685945   -0.02772439729125331
0.8454990114371884   -0.030075998143685945   -0.02772439729125331
0.5499720763784766   -0.13395674568010577   -0.0813959653622217
0.5499720763784766   -0.13395674568010577   -0.0813959653622217
0.5499720763784766   -0.13395674568010577   -0.0813959653622217
0.5499720763784766   -0.13395674568010577   -0.0813959653622217
1.250763779971891   0.11895545578032868   0.04889849147746127
1.250763779971891   0.11895545578032868   0.04889849147746127
1.250763779971891   0.11895545578032868   0.04889849147746127
1.250763779971891   0.11895545578032868   0.04889849147746127
1.2278159593114488   0.018915911535429653   -0.11812287931718926
1.2278159593114488   0.018915911535429653   -0.11812287931718926
1.2278159593114488   0.018915911535429653   -0.11812287931718926
1.2278159593114488   0.018915911535429653   -0.11812287931718926
0.6031667134923497   0.005785283107394207   0.03095423480014916
0.6031667134923497   0.005785283107394207   0.03095423480014916
0.6031667134923497   0.005785283107394207   0.03095423480014916
0.6031667134923497   0.005785283107394207   0.03095423480014916
0.8837351544119739   -0.0035812970549946033   -0.00846676626594283
0.8837351544119739   -0.0035812970549946033   -0.00846676626594283
0.8837351544119739   -0.0035812970549946033   -0.00846676626594283
0.8837351544119739   -0.0035812970549946033   -0.00846676626594283
0.5562062594513643   -0.1094950025271895   -0.08856774977020065
0.5562062594513643   -0.1094950025271895   -0.08856774977020065
0.5562062594513643   -0.1094950025271895   -0.08856774977020065
0.5562062594513643   -0.1094950025271895   -0.08856774977020065
1.282521007968112   0.1419407917856901   0.03237748371588176
1.282521007968112   0.1419407917856901   0.03237748371588176
1.282521007968112   0.1419407917856901   0.03237748371588176
1.282521007968112   0.1419407917856901   0.03237748371588176
1.274432602460589   0.08269098590354054   -0.11109535395863696
1.274432602460589   0.08269098590354054   -0.11109535395863696
1.274432602460589   0.08269098590354054   -0.11109535395863696
1.274432602460589   0.08269098590354054   -0.11109535395863696
0.6051628619604655   0.047107891366457516   0.022598172055603757
0.6051628619604655   0.047107891366457516   0.022598172055603757
0.6051628619604655   0.047107891366457516   0.022598172055603757
0.6051628619604655   0.047107891366457516   0.022598172055603757
0.8902409783826578   0.026721679473465904   0.012835264142111433
0.8902409783826578   0.026721679473465904   0.012835264142111433
0.8902409783826578   0.026721679473465904   0.012835264142111433
0.8902409783826578   0.026721679473465904   0.012835264142111433
-1.4059470124096072   -0.04598024698980249   0.0916850085529802
-1.4059470124096072   -0.04598024698980249   0.0916850085529802
-1.4059470124096072   -0.04598024698980249   0.0916850085529802
-1.4059470124096072   -0.04598024698980249   0.0916850085529802
-0.9835159333761324   -0.06565136742407193   -0.03463924308500593
-0.9835159333761324   -0.06565136742407193   -0.03463924308500593
-0.9835159333761324   -0.06565136742407193   -0.03463924308500593
-0.9835159333761324   -0.06565136742407193   -0.03463924308500593
-0.9257496137570745   0.09282691923992667   0.07818591215154012
-0.9257496137570745   0.09282691923992667   0.07818591215154012
-0.9257496137570745   0.09282691923992667   0.07818591215154012
-0.9257496137570745   0.09282691923992667   0.07818591215154012
-1.406058537380003   -0.11572600884383927   -0.05066669157245335
-1.406058537380003   -0.11572600884383927   -0.05066669157245335
-1.406058537380003   -0.11572600884383927   -0.05066669157245335
-1.406058537380003   -0.11572600884383927   -0.05066669157245335
-1.1319530786172498   -0.018050962858074532   -0.00245817923326367
-1.1319530786172498   -0.018050962858074532   -0.00245817923326367
-1.1319530786172498   -0.018050962858074532   -0.00245817923326367
-1.1319530786172498   -0.018050962858074532   -0.00245817923326367
-1.3535197458031676   0.00907996824498064   0.08722128922290305
-1.3535197458031676   0.00907996824498064   0.08722128922290305
-1.3535197458031676   0.00907996824498064   0.08722128922290305
-1.3535197458031676   0.00907996824498064   0.08722128922290305
-0.974014770360057   -0.027705422875039132   -0.04260752874839857
-0.974014770360057   -0.027705422875039132   -0.04260752874839857
-0.974014770360057   -0.027705422875039132   -0.04260752874839857
-0.974014770360057   -0.027705422875039132   -0.04260752874839857
-0.9170328471372777   0.11212300494659488   0.06607813480436828
-0.9170328471372777   0.11212300494659488   0.06607813480436828
-0.9170328471372777   0.11212300494659488   0.06607813480436828
-0.9170328471372777   0.11212300494659488   0.06607813480436828
-1.3728059115785853   -0.09421802791544162   -0.06405698947316249
-1.3728059115785853   -0.09421802791544162   -0.06405698947316249
-1.3728059115785853   -0.09421802791544162   -0.06405698947316249
-1.3728059115785853   -0.09421802791544162   -0.06405698947316249
-1.1240594171005105   0.007402502721985338   0.01190378913903467
-1.1240594171005105   0.007402502721985338   0.01190378913903467
-1.1240594171005105   0.007402502721985338   0.01190378913903467
-1.1240594171005105   0.007402502721985338   0.01190378913903467
-1.3207137209277493   0.032173658667285165   0.07001227719829109
-1.3207137209277493   0.032173658667285165   0.07001227719829109
-1.3207137209277493   0.032173658667285165   0.07001227719829109
-1.3207137209277493   0.032173658667285165   0.07001227719829109
-0.9652606728996874   -0.010404316747700815   -0.05253367231337186
-0.9652606728996874   -0.010404316747700815   -0.05253367231337186
-0.9652606728996874   -0.010404316747700815   -0.05253367231337186
-0.9652606728996874   -0.010404316747700815   -0.05253367231337186
-0.9122054658298391   0.13089859448360786   0.05686124433976823
-0.9122054658298391   0.13089859448360786   0.05686124433976823
-0.9122054658298391   0.13089859448360786   0.05686124433976823
-0.9122054658298391   0.13089859448360786   0.05686124433976823
-1.328261125351421   -0.06578918807204345   -0.07669804294337654
-1.328261125351421   -0.06578918807204345   -0.07669804294337654
-1.328261125351421   -0.06578918807204345   -0.07669804294337654
-1.328261125351421   -0.06578918807204345   -0.07669804294337654
-1.0818925992082626   0.03124452453671417   0.03206141387960022
-1.0818925992082626   0.03124452453671417   0.03206141387960022
-1.0818925992082626   0.03124452453671417   0.03206141387960022
-1.0818925992082626   0.03124452453671417   0.03206141387960022
-0.9724808344790561   -0.0794911668190481   0.034376050795348875
-0.9724808344790561   -0.0794911668190481   0.034376050795348875
-0.9724808344790561   -0.0794911668190481   0.034376050795348875
-0.9724808344790561   -0.0794911668190481   0.034376050795348875
-0.5637452901139542   -0.042542117742572536   -0.005589995448970483
-0.5637452901139542   -0.042542117742572536   -0.005589995448970483
-0.5637452901139542   -0.042542117742572536   -0.005589995448970483
-0.5637452901139542   -0.042542117742572536   -0.005589995448970483
-0.5351050409772576   0.05425502995666426   0.04215652724593842
-0.5351050409772576   0.05425502995666426   0.04215652724593842
-0.5351050409772576   0.05425502995666426   0.04215652724593842
-0.5351050409772576   0.05425502995666426   0.04215652724593842
-0.9870982607285377   -0.094587473662646   -0.041142929803202576
-0.9870982607285377   -0.094587473662646   -0.041142929803202576
-0.9870982607285377   -0.094587473662646   -0.041142929803202576
-0.9870982607285377   -0.094587473662646   -0.041142929803202576
-0.761526729407034   -0.03714491319656979   -0.015532347466463085
-0.761526729407034   -0.03714491319656979   -0.015532347466463085
-0.761526729407034   -0.03714491319656979   -0.015532347466463085
-0.761526729407034   -0.03714491319656979   -0.015532347466463085
-0.9610844122766773   -0.0337536516614339   0.0280924904548826
-0.9610844122766773   -0.0337536516614339   0.0280924904548826
-0.9610844122766773   -0.0337536516614339   0.0280924904548826
-0.9610844122766773   -0.0337536516614339   0.0280924904548826
-0.5577823695541899   -0.0032422721696231394   -0.013732813512435875
-0.5577823695541899   -0.0032422721696231394   -0.013732813512435875
-0.5577823695541899   -0.0032422721696231394   -0.013732813512435875
-0.5577823695541899   -0.0032422721696231394   -0.013732813512435875
-0.5282984197641397   0.0938210577934303   0.0345662113215014
-0.5282984197641397   0.0938210577934303   0.0345662113215014
-0.5282984197641397   0.0938210577934303   0.0345662113215014
-0.5282984197641397   0.0938210577934303   0.0345662113215014
-0.9738165910065899   -0.05724230941074948   -0.04847527018484796
-0.9738165910065899   -0.05724230941074948   -0.04847527018484796
-0.9738165910065899   -0.05724230941074948   -0.04847527018484796
-0.9738165910065899   -0.05724230941074948   -0.04847527018484796
-0.746904820865382   0.001752000268470305   0.0011771527097451315
-0.746904820865382   0.001752000268470305   0.0011771527097451315
-0.746904820865382   0.001752000268470305   0.0011771527097451315
-0.746904820865382   0.001752000268470305   0.0011771527097451315
-0.9458339395163636   0.008533205958160012   0.025662471897373758
-0.9458339395163636   0.008533205958160012   0.025662471897373758
-0.9458339395163636   0.008533205958160012   0.025662471897373758
-0.9458339395163636   0.008533205958160012   0.025662471897373758
-0.5521376642354576   0.03218894944343009   -0.022997902685082408
-0.5521376642354576   0.03218894944343009   -0.022997902685082408
-0.5521376642354576   0.03218894944343009   -0.022997902685082408
-0.5521376642354576   0.03218894944343009   -0.022997902685082408
-0.5217221730552344   0.13597485726391484   0.027497846704088197
-0.5217221730552344   0.13597485726391484   0.027497846704088197
-0.5217221730552344   0.13597485726391484   0.027497846704088197
-0.5217221730552344   0.13597485726391484   0.027497846704088197
-0.9638732279580507   -0.017003043201811258   -0.05357592861586662
-0.9638732279580507   -0.017003043201811258   -0.05357592861586662
-0.9638732279580507   -0.017003043201811258   -0.05357592861586662
-0.9638732279580507   -0.017003043201811258   -0.05357592861586662
-0.7412429725229747   0.03834558994663256   0.01708637294789586
-0.7412429725229747   0.03834558994663256   0.01708637294789586
-0.7412429725229747   0.03834558994663256   0.01708637294789586
-0.7412429725229747   0.03834558994663256   0.01708637294789586
-0.5756649808033587   -0.10910341660662864   0.0013728499680592178
-0.5756649808033587   -0.10910341660662864   0.0013728499680592178
-0.5756649808033587   -0.10910341660662864   0.0013728499680592178
-0.5756649808033587   -0.10910341660662864   0.0013728499680592178
-0.14832222574896983   -0.012696738421249649   0.023474481107779832
-0.14832222574896983   -0.012696738421249649   0.023474481107779832
-0.14832222574896983   -0.012696738421249649   0.023474481107779832
-0.14832222574896983   -0.012696738421249649   0.023474481107779832
-0.14467440312076812   0.022434120501728425   0.00800540662101989
-0.14467440312076812   0.022434120501728425   0.00800540662101989
-0.14467440312076812   0.022434120501728425   0.00800540662101989
-0.14467440312076812   0.022434120501728425   0.00800540662101989
-0.569349831022242   -0.06384159411684288   -0.010970798905482092
-0.569349831022242   -0.06384159411684288   -0.010970798905482092
-0.569349831022242   -0.06384159411684288   -0.010970798905482092
-0.569349831022242   -0.06384159411684288   -0.010970798905482092
-0.36011502821865377   -0.03905960523833208   -0.011037182254136491
-0.36011502821865377   -0.03905960523833208   -0.011037182254136491
-0.36011502821865377   -0.03905960523833208   -0.011037182254136491
-0.36011502821865377   -0.03905960523833208   -0.011037182254136491
-0.5684221683760519   -0.06495944152650596   -0.005214638264868272
-0.5684221683760519   -0.06495944152650596   -0.005214638264868272
-0.5684221683760519   -0.06495944152650596   -0.005214638264868272
-0.5684221683760519   -0.06495944152650596   -0.005214638264868272
-0.1422571687204616   0.026896864957888185   0.01562883416639285
-0.1422571687204616   0.026896864957888185   0.01562883416639285
-0.1422571687204616   0.026896864957888185   0.01562883416639285
-0.1422571687204616   0.026896864957888185   0.01562883416639285
-0.136455576642266   0.06677704660169849   0.0020937512732606134
-0.136455576642266   0.06677704660169849   0.0020937512732606134
-0.136455576642266   0.06677704660169849   0.0020937512732606134
-0.136455576642266   0.06677704660169849   0.0020937512732606134
-0.5625365109789625   -0.023973332996430008   -0.018829853962752538
-0.5625365109789625   -0.023973332996430008   -0.018829853962752538
-0.5625365109789625   -0.023973332996430008   -0.018829853962752538
-0.5625365109789625   -0.023973332996430008   -0.018829853962752538
-0.35133685365679146   0.0007918737292944844   0.004709563135455515
-0.35133685365679146   0.0007918737292944844   0.004709563135455515
-0.35133685365679146   0.0007918737292944844   0.004709563135455515
-0.35133685365679146   0.0007918737292944844   0.004709563135455515
-0.5604463257807367   -0.020758588061882133   -0.011593672906171672
-0.5604463257807367   -0.020758588061882133   -0.011593672906171672
-0.5604463257807367   -0.020758588061882133   -0.011593672906171672
-0.5604463257807367   -0.020758588061882133   -0.011593672906171672
-0.13545745056440078   0.06665061294324184   0.007210815321044964
-0.13545745056440078   0.06665061294324184   0.007210815321044964
-0.13545745056440078   0.06665061294324184   0.007210815321044964
-0.13545745056440078   0.06665061294324184   0.007210815321044964
-0.1290837848313961   0.11176308954292333   -0.004857136617244774
-0.1290837848313961   0.11176308954292333   -0.004857136617244774
-0.1290837848313961   0.11176308954292333   -0.004857136617244774
-0.1290837848313961   0.11176308954292333   -0.004857136617244774
-0.5565547090006403   0.01635760480648049   -0.02704758056550887
-0.5565547090006403   0.01635760480648049   -0.02704758056550887
-0.5565547090006403   0.01635760480648049   -0.02704758056550887
-0.5565547090006403   0.01635760480648049   -0.02704758056550887
-0.3433220506330114   0.04083433969799137   0.019879977230915096
-0.3433220506330114   0.04083433969799137   0.019879977230915096
-0.3433220506330114   0.04083433969799137   0.019879977230915096
-0.3433220506330114   0.04083433969799137   0.019879977230915096
-0.1833312525843552   -0.1333788367652957   -0.03088855472510235
-0.1833312525843552   -0.1333788367652957   -0.03088855472510235
-0.1833312525843552   -0.1333788367652957   -0.03088855472510235
-0.1833312525843552   -0.1333788367652957   -0.03088855472510235
0.2616393426127067   0.020774382251312534   0.05090724535624645
0.2616393426127067   0.020774382251312534   0.05090724535624645
0.2616393426127067   0.020774382251312534   0.05090724535624645
0.2616393426127067   0.020774382251312534   0.05090724535624645
0.24344219993061125   -0.0071794429107411226   -0.028366435720187398
0.24344219993061125   -0.0071794429107411226   -0.028366435720187398
0.24344219993061125   -0.0071794429107411226   -0.028366435720187398
0.24344219993061125   -0.0071794429107411226   -0.028366435720187398
-0.1531886232140202   -0.03097676886877636   0.01884519552526442
-0.1531886232140202   -0.03097676886877636   0.01884519552526442
-0.1531886232140202   -0.03097676886877636   0.01884519552526442
-0.1531886232140202   -0.03097676886877636   0.01884519552526442
0.04048495224033514   -0.036644988069603444   -0.007854854511750385
0.04048495224033514   -0.036644988069603444   -0.007854854511750385
0.04048495224033514   -0.036644988069603444   -0.007854854511750385
0.04048495224033514   -0.036644988069603444   -0.007854854511750385
-0.17700399240353415   -0.09319756507645757   -0.038010854214624225
-0.17700399240353415   -0.09319756507645757   -0.038010854214624225
-0.17700399240353415   -0.09319756507645757   -0.038010854214624225
-0.17700399240353415   -0.09319756507645757   -0.038010854214624225
0.27123845258880047   0.05902223676561696   0.044413147894394954
0.27123845258880047   0.05902223676561696   0.044413147894394954
0.27123845258880047   0.05902223676561696   0.044413147894394954
0.27123845258880047   0.05902223676561696   0.044413147894394954
0.2587297807389265   0.03476607870494018   -0.0321369926310263
0.2587297807389265   0.03476607870494018   -0.0321369926310263
0.2587297807389265   0.03476607870494018   -0.0321369926310263
0.2587297807389265   0.03476607870494018   -0.0321369926310263
-0.1472572545807256   0.004677470149916846   0.010184938032745781
-0.1472572545807256   0.004677470149916846   0.010184938032745781
-0.1472572545807256   0.004677470149916846   0.010184938032745781
-0.1472572545807256   0.004677470149916846   0.010184938032745781
0.0486139665079374   -0.0005146568164022154   0.00816260483602196
0.0486139665079374   -0.0005146568164022154   0.00816260483602196
0.0486139665079374   -0.0005146568164022154   0.00816260483602196
0.0486139665079374   -0.0005146568164022154   0.00816260483602196
-0.17024011704033945   -0.05384240262315769   -0.046209501492249644
-0.17024011704033945   -0.05384240262315769   -0.046209501492249644
-0.17024011704033945   -0.05384240262315769   -0.046209501492249644
-0.17024011704033945   -0.05384240262315769   -0.046209501492249644
0.28516489348830243   0.09673820176777596   0.03806644805301335
0.28516489348830243   0.09673820176777596   0.03806644805301335
0.28516489348830243   0.09673820176777596   0.03806644805301335
0.28516489348830243   0.09673820176777596   0.03806644805301335
0.2710385292719775   0.08258223332975426   -0.03713182608943449
0.2710385292719775   0.08258223332975426   -0.03713182608943449
0.2710385292719775   0.08258223332975426   -0.03713182608943449
0.2710385292719775   0.08258223332975426   -0.03713182608943449
-0.14091767614101527   0.04578987396708992   0.0019466224104916774
-0.14091767614101527   0.04578987396708992   0.0019466224104916774
-0.14091767614101527   0.04578987396708992   0.0019466224104916774
-0.14091767614101527   0.04578987396708992   0.0019466224104916774
0.061180445053169455   0.0387995998552311   0.024752802400965012
0.061180445053169455   0.0387995998552311   0.024752802400965012
0.061180445053169455   0.0387995998552311   0.024752802400965012
0.061180445053169455   0.0387995998552311   0.024752802400965012
0.2081595068350855   -0.13477538793616745   -0.06094216334437781
0.2081595068350855   -0.13477538793616745   -0.06094216334437781
0.2081595068350855   -0.13477538793616745   -0.06094216334437781
0.2081595068350855   -0.13477538793616745   -0.06094216334437781
0.6261596727280442   0.06171157325156491   0.0659033698628359
0.6261596727280442   0.06171157325156491   0.0659033698628359
0.6261596727280442   0.06171157325156491   0.0659033698628359
0.6261596727280442   0.06171157325156491   0.0659033698628359
0.6199350880318052   -0.033034978407191565   -0.08022498752005401
0.6199350880318052   -0.033034978407191565   -0.08022498752005401
0.6199350880318052   -0.033034978407191565   -0.08022498752005401
0.6199350880318052   -0.033034978407191565   -0.08022498752005401
0.26261447394953136   0.01114008024193272   0.04917541122173541
0.26261447394953136   0.01114008024193272   0.04917541122173541
0.26261447394953136   0.01114008024193272   0.04917541122173541
0.26261447394953136   0.01114008024193272   0.04917541122173541
0.40684621845426505   -0.027849347600184426   -0.02146986255027116
0.40684621845426505   -0.027849347600184426   -0.02146986255027116
0.40684621845426505   -0.027849347600184426   -0.02146986255027116
0.40684621845426505   -0.027849347600184426   -0.02146986255027116
0.21399787211051335   -0.11227577302810264   -0.07049174470331751
0.21399787211051335   -0.11227577302810264   -0.07049174470331751
0.21399787211051335   -0.11227577302810264   -0.07049174470331751
0.21399787211051335   -0.11227577302810264   -0.07049174470331751
0.6726104865627294   0.09443967155475028   0.055677355172640566
0.6726104865627294   0.09443967155475028   0.055677355172640566
0.6726104865627294   0.09443967155475028   0.055677355172640566
0.6726104865627294   0.09443967155475028   0.055677355172640566
0.6537272396415688   -0.009534833512217455   -0.09620687444711282
0.6537272396415688   -0.009534833512217455   -0.09620687444711282
0.6537272396415688   -0.009534833512217455   -0.09620687444711282
0.6537272396415688   -0.009534833512217455   -0.09620687444711282
0.2715427227663011   0.028353534695008967   0.03834026151577347
0.2715427227663011   0.028353534695008967   0.03834026151577347
0.2715427227663011   0.028353534695008967   0.03834026151577347
0.2715427227663011   0.028353534695008967   0.03834026151577347
0.4410017384028526   -0.00415831626591863   -0.0025947182482609354
0.4410017384028526   -0.00415831626591863   -0.0025947182482609354
0.4410017384028526   -0.00415831626591863   -0.0025947182482609354
0.4410017384028526   -0.00415831626591863   -0.0025947182482609354
0.22331138025991312   -0.09272434480279756   -0.08173857151835773
0.22331138025991312   -0.09272434480279756   -0.08173857151835773
0.22331138025991312   -0.09272434480279756   -0.08173857151835773
0.22331138025991312   -0.09272434480279756   -0.08173857151835773
0.7061871564988855   0.11577162033652025   0.04078625599074543
0.7061871564988855   0.11577162033652025   0.04078625599074543
0.7061871564988855   0.11577162033652025   0.04078625599074543
0.7061871564988855   0.11577162033652025   0.04078625599074543
0.705603893645321   0.04208087894910917   -0.10297792171599338
0.705603893645321   0.04208087894910917   -0.10297792171599338
0.705603893645321   0.04208087894910917   -0.10297792171599338
0.705603893645321   0.04208087894910917   -0.10297792171599338
0.2806803710721246   0.06319809418735764   0.030461522053694134
0.2806803710721246   0.06319809418735764   0.030461522053694134
0.2806803710721246   0.06319809418735764   0.030461522053694134
0.2806803710721246   0.06319809418735764   0.030461522053694134
0.4580041274293724   0.02196097771648045   0.013641052185199565
0.4580041274293724   0.02196097771648045   0.013641052185199565
0.4580041274293724   0.02196097771648045   0.013641052185199565
0.4580041274293724   0.02196097771648045   0.013641052185199565
-0.843117670158487   -0.014198468161897265   0.08222699000823747
-0.843117670158487   -0.014198468161897265   0.08222699000823747
-0.843117670158487   -0.014198468161897265   0.08222699000823747
-0.843117670158487   -0.014198468161897265   0.08222699000823747
-0.6573700034382776   -0.08339113476888735   -0.04070254980515565
-0.6573700034382776   -0.08339113476888735   -0.04070254980515565
-0.6573700034382776   -0.08339113476888735   -0.04070254980515565
-0.6573700034382776   -0.08339113476888735   -0.04070254980515565
-0.5950471917772215   0.07067349409908999   0.07031947753941167
-0.5950471917772215   0.07067349409908999   0.07031947753941167
-0.5950471917772215   0.07067349409908999   0.07031947753941167
-0.5950471917772215   0.07067349409908999   0.07031947753941167
-0.8395427912600232   -0.09144251314596497   -0.055392204322405866
-0.8395427912600232   -0.09144251314596497   -0.055392204322405866
-0.8395427912600232   -0.09144251314596497   -0.055392204322405866
-0.8395427912600232   -0.09144251314596497   -0.055392204322405866
-0.7056729929588605   -0.01943669333815093   -0.010343640307192113
-0.7056729929588605   -0.01943669333815093   -0.010343640307192113
-0.7056729929588605   -0.01943669333815093   -0.010343640307192113
-0.7056729929588605   -0.01943669333815093   -0.010343640307192113
-0.7877045988036391   0.03379113845719511   0.07856510635635486
-0.7877045988036391   0.03379113845719511   0.07856510635635486
-0.7877045988036391   0.03379113845719511   0.07856510635635486
-0.7877045988036391   0.03379113845719511   0.07856510635635486
-0.6432863529613371   -0.05096112623180021   -0.04924170805026826
-0.6432863529613371   -0.05096112623180021   -0.04924170805026826
-0.6432863529613371   -0.05096112623180021   -0.04924170805026826
-0.6432863529613371   -0.05096112623180021   -0.04924170805026826
-0.580269454767305   0.08899706784424946   0.059482032514012635
-0.580269454767305   0.08899706784424946   0.059482032514012635
-0.580269454767305   0.08899706784424946   0.059482032514012635
-0.580269454767305   0.08899706784424946   0.059482032514012635
-0.8010238928349299   -0.07067923166703831   -0.06921580199755839
-0.8010238928349299   -0.07067923166703831   -0.06921580199755839
-0.8010238928349299   -0.07067923166703831   -0.06921580199755839
-0.8010238928349299   -0.07067923166703831   -0.06921580199755839
-0.6855375830553652   0.004551259690174975   0.0049592885692602146
-0.6855375830553652   0.004551259690174975   0.0049592885692602146
-0.6855375830553652   0.004551259690174975   0.0049592885692602146
-0.6855375830553652   0.004551259690174975   0.0049592885692602146
-0.7491424923255036   0.05602370633859394   0.06348826254393361
-0.7491424923255036   0.05602370633859394   0.06348826254393361
-0.7491424923255036   0.05602370633859394   0.06348826254393361
-0.7491424923255036   0.05602370633859394   0.06348826254393361
-0.6287431600538634   -0.03429817493851488   -0.059591251136007634
-0.6287431600538634   -0.03429817493851488   -0.059591251136007634
-0.6287431600538634   -0.03429817493851488   -0.059591251136007634
-0.6287431600538634   -0.03429817493851488   -0.059591251136007634
-0.5682949495195678   0.11180387794316501   0.051301111300828275
-0.5682949495195678   0.11180387794316501   0.051301111300828275
-0.5682949495195678   0.11180387794316501   0.051301111300828275
-0.5682949495195678   0.11180387794316501   0.051301111300828275
-0.7492726065567724   -0.037440823170117016   -0.08010456571647653
-0.7492726065567724   -0.037440823170117016   -0.08010456571647653
-0.7492726065567724   -0.037440823170117016   -0.08010456571647653
-0.7492726065567724   -0.037440823170117016   -0.08010456571647653
-0.6448862182670496   0.028195733515628374   0.023952307693178215
-0.6448862182670496   0.028195733515628374   0.023952307693178215
-0.6448862182670496   0.028195733515628374   0.023952307693178215
-0.6448862182670496   0.028195733515628374   0.023952307693178215
-0.6343571971246739   -0.047793692213436906   0.038764039207412
-0.6343571971246739   -0.047793692213436906   0.038764039207412
-0.6343571971246739   -0.047793692213436906   0.038764039207412
-0.6343571971246739   -0.047793692213436906   0.038764039207412
-0.4654683892918347   -0.06322956158863796   -0.012052427604368027
-0.4654683892918347   -0.06322956158863796   -0.012052427604368027
-0.4654683892918347   -0.06322956158863796   -0.012052427604368027
-0.4654683892918347   -0.06322956158863796   -0.012052427604368027
-0.43070650022214824   0.03210906418213881   0.03594799891433221
-0.43070650022214824   0.03210906418213881   0.03594799891433221
-0.43070650022214824   0.03210906418213881   0.03594799891433221
-0.43070650022214824   0.03210906418213881   0.03594799891433221
-0.6437068794890254   -0.0675114740491514   -0.03479399287135802
-0.6437068794890254   -0.0675114740491514   -0.03479399287135802
-0.6437068794890254   -0.0675114740491514   -0.03479399287135802
-0.6437068794890254   -0.0675114740491514   -0.03479399287135802
-0.5420523502693408   -0.03372519193627492   -0.014584843403547779
-0.5420523502693408   -0.03372519193627492   -0.014584843403547779
-0.5420523502693408   -0.03372519193627492   -0.014584843403547779
-0.5420523502693408   -0.03372519193627492   -0.014584843403547779
-0.6178294083548238   -0.0059072828976372005   0.03298917164812771
-0.6178294083548238   -0.0059072828976372005   0.03298917164812771
-0.6178294083548238   -0.0059072828976372005   0.03298917164812771
-0.6178294083548238   -0.0059072828976372005   0.03298917164812771
-0.45368111355037394   -0.026592269163400795   -0.02022373438125645
-0.45368111355037394   -0.026592269163400795   -0.02022373438125645
-0.45368111355037394   -0.026592269163400795   -0.02022373438125645
-0.45368111355037394   -0.026592269163400795   -0.02022373438125645
-0.41796186383113265   0.06937462341097042   0.0287546667482943
-0.41796186383113265   0.06937462341097042   0.0287546667482943
-0.41796186383113265   0.06937462341097042   0.0287546667482943
-0.41796186383113265   0.06937462341097042   0.0287546667482943
-0.624630776935927   -0.03167428573834198   -0.04165322474649459
-0.624630776935927   -0.03167428573834198   -0.04165322474649459
-0.624630776935927   -0.03167428573834198   -0.04165322474649459
-0.624630776935927   -0.03167428573834198   -0.04165322474649459
-0.523631644084863   0.002215214805092375   0.0015125232323751105
-0.523631644084863   0.002215214805092375   0.0015125232323751105
-0.523631644084863   0.002215214805092375   0.0015125232323751105
-0.523631644084863   0.002215214805092375   0.0015125232323751105
-0.5972349196978294   0.03374952835758355   0.029902247348056604
-0.5972349196978294   0.03374952835758355   0.029902247348056604
-0.5972349196978294   0.03374952835758355   0.029902247348056604
-0.5972349196978294   0.03374952835758355   0.029902247348056604
-0.4420064596287159   0.007302070755551976   -0.029395759584205254
-0.4420064596287159   0.007302070755551976   -0.029395759584205254
-0.4420064596287159   0.007302070755551976   -0.029395759584205254
-0.4420064596287159   0.007302070755551976   -0.029395759584205254
-0.405258142523286   0.10981583537713033   0.021903378844091957
-0.405258142523286   0.10981583537713033   0.021903378844091957
-0.405258142523286   0.10981583537713033   0.021903378844091957
-0.405258142523286   0.10981583537713033   0.021903378844091957
-0.6088773982745385   0.007459341051323037   -0.04726659558217503
-0.6088773982745385   0.007459341051323037   -0.04726659558217503
-0.6088773982745385   0.007459341051323037   -0.04726659558217503
-0.6088773982745385   0.007459341051323037   -0.04726659558217503
-0.5103078739621246   0.037438194476726555   0.017254143784172914
-0.5103078739621246   0.037438194476726555   0.017254143784172914
-0.5103078739621246   0.037438194476726555   0.017254143784172914
-0.5103078739621246   0.037438194476726555   0.017254143784172914
-0.46491879699544597   -0.07934812869526235   0.0068141009841924316
-0.46491879699544597   -0.07934812869526235   0.0068141009841924316
-0.46491879699544597   -0.07934812869526235   0.0068141009841924316
-0.46491879699544597   -0.07934812869526235   0.0068141009841924316
-0.2761758950359935   -0.03332315286567135   0.017087822703400753
-0.2761758950359935   -0.03332315286567135   0.017087822703400753
-0.2761758950359935   -0.03332315286567135   0.017087822703400753
-0.2761758950359935   -0.03332315286567135   0.017087822703400753
-0.2666824904391004   -0.0006725115086671715   0.0022072735522702166
-0.2666824904391004   -0.0006725115086671715   0.0022072735522702166
-0.2666824904391004   -0.0006725115086671715   0.0022072735522702166
-0.2666824904391004   -0.0006725115086671715   0.0022072735522702166
-0.4523643332198609   -0.03620533151653876   -0.004026770375553426
-0.4523643332198609   -0.03620533151653876   -0.004026770375553426
-0.4523643332198609   -0.03620533151653876   -0.004026770375553426
-0.4523643332198609   -0.03620533151653876   -0.004026770375553426
-0.36561550321131797   -0.03563947149916875   -0.010618921964117062
-0.36561550321131797   -0.03563947149916875   -0.010618921964117062
-0.36561550321131797   -0.03563947149916875   -0.010618921964117062
-0.36561550321131797   -0.03563947149916875   -0.010618921964117062
-0.4518269457402051   -0.03804324181508535   0.0004980773212686675
-0.4518269457402051   -0.03804324181508535   0.0004980773212686675
-0.4518269457402051   -0.03804324181508535   0.0004980773212686675
-0.4518269457402051   -0.03804324181508535   0.0004980773212686675
-0.26433325857641077   0.004052018132226845   0.009228903224824456
-0.26433325857641077   0.004052018132226845   0.009228903224824456
-0.26433325857641077   0.004052018132226845   0.009228903224824456
-0.26433325857641077   0.004052018132226845   0.009228903224824456
-0.2528414237081968   0.04099810133929608   -0.003667769554872604
-0.2528414237081968   0.04099810133929608   -0.003667769554872604
-0.2528414237081968   0.04099810133929608   -0.003667769554872604
-0.2528414237081968   0.04099810133929608   -0.003667769554872604
-0.4395967085228671   0.0017028885363879337   -0.011747821835797336
-0.4395967085228671   0.0017028885363879337   -0.011747821835797336
-0.4395967085228671   0.0017028885363879337   -0.011747821835797336
-0.4395967085228671   0.0017028885363879337   -0.011747821835797336
-0.3510169992455969   0.001828477425703398   0.004990283430219674
-0.3510169992455969   0.001828477425703398   0.004990283430219674
-0.3510169992455969   0.001828477425703398   0.004990283430219674
-0.3510169992455969   0.001828477425703398   0.004990283430219674
-0.4380719742185289   0.0035010773272161344   -0.0059223391049402115
-0.4380719742185289   0.0035010773272161344   -0.0059223391049402115
-0.4380719742185289   0.0035010773272161344   -0.0059223391049402115
-0.4380719742185289   0.0035010773272161344   -0.0059223391049402115
-0.25175575557936886   0.04181031498163332   0.0009483574469314228
-0.25175575557936886   0.04181031498163332   0.0009483574469314228
-0.25175575557936886   0.04181031498163332   0.0009483574469314228
-0.25175575557936886   0.04181031498163332   0.0009483574469314228
-0.23976846273479568   0.08305007107543215   -0.01037149548659519
-0.23976846273479568   0.08305007107543215   -0.01037149548659519
-0.23976846273479568   0.08305007107543215   -0.01037149548659519
-0.23976846273479568   0.08305007107543215   -0.01037149548659519
-0.42762091646983935   0.03990367465999603   -0.019998330171540367
-0.42762091646983935   0.03990367465999603   -0.019998330171540367
-0.42762091646983935   0.03990367465999603   -0.019998330171540367
-0.42762091646983935   0.03990367465999603   -0.019998330171540367
-0.3372071727925919   0.039430877199386274   0.019971453055255054
-0.3372071727925919   0.039430877199386274   0.019971453055255054
-0.3372071727925919   0.039430877199386274   0.019971453055255054
-0.3372071727925919   0.039430877199386274   0.019971453055255054
-0.2993811048374466   -0.10671952678656307   -0.025541852382978205
-0.2993811048374466   -0.10671952678656307   -0.025541852382978205
-0.2993811048374466   -0.10671952678656307   -0.025541852382978205
-0.2993811048374466   -0.10671952678656307   -0.025541852382978205
-0.0921528470332702   -0.0015686004170347365   0.044806830271674356
-0.0921528470332702   -0.0015686004170347365   0.044806830271674356
-0.0921528470332702   -0.0015686004170347365   0.044806830271674356
-0.0921528470332702   -0.0015686004170347365   0.044806830271674356
-0.10483088740506723   -0.03164853774119766   -0.03287138464581038
-0.10483088740506723   -0.03164853774119766   -0.03287138464581038
-0.10483088740506723   -0.03164853774119766   -0.03287138464581038
-0.10483088740506723   -0.03164853774119766   -0.03287138464581038
-0.2626772006068271   -0.0040758174645006   0.02563702866946819
-0.2626772006068271   -0.0040758174645006   0.02563702866946819
-0.2626772006068271   -0.0040758174645006   0.02563702866946819
-0.2626772006068271   -0.0040758174645006   0.02563702866946819
-0.18973212957937835   -0.03443141535161139   -0.007662735135606747
-0.18973212957937835   -0.03443141535161139   -0.007662735135606747
-0.18973212957937835   -0.03443141535161139   -0.007662735135606747
-0.18973212957937835   -0.03443141535161139   -0.007662735135606747
-0.28704582216761054   -0.06797802257028149   -0.032303874028670874
-0.28704582216761054   -0.06797802257028149   -0.032303874028670874
-0.28704582216761054   -0.06797802257028149   -0.032303874028670874
-0.28704582216761054   -0.06797802257028149   -0.032303874028670874
-0.07722754843835697   0.03548838477050735   0.03800838767603788
-0.07722754843835697   0.03548838477050735   0.03800838767603788
-0.07722754843835697   0.03548838477050735   0.03800838767603788
-0.07722754843835697   0.03548838477050735   0.03800838767603788
-0.08459999064563031   0.007770976780483316   -0.03700479274951716
-0.08459999064563031   0.007770976780483316   -0.03700479274951716
-0.08459999064563031   0.007770976780483316   -0.03700479274951716
-0.08459999064563031   0.007770976780483316   -0.03700479274951716
-0.25089527727909805   0.029962473393396118   0.01709859053652085
-0.25089527727909805   0.029962473393396118   0.01709859053652085
-0.25089527727909805   0.029962473393396118   0.01709859053652085
-0.25089527727909805   0.029962473393396118   0.01709859053652085
-0.1742067713844621   0.00046160166767869604   0.00824343123790365
-0.1742067713844621   0.00046160166767869604   0.00824343123790365
-0.1742067713844621   0.00046160166767869604   0.00824343123790365
-0.1742067713844621   0.00046160166767869604   0.00824343123790365
-0.27449051220987036   -0.030824325939375764   -0.04009078478457249
-0.27449051220987036   -0.030824325939375764   -0.04009078478457249
-0.27449051220987036   -0.030824325939375764   -0.04009078478457249
-0.27449051220987036   -0.030824325939375764   -0.04009078478457249
-0.0579936968373231   0.07156883499078981   0.03222881808171435
-0.0579936968373231   0.07156883499078981   0.03222881808171435
-0.0579936968373231   0.07156883499078981   0.03222881808171435
-0.0579936968373231   0.07156883499078981   0.03222881808171435
-0.06748636324849577   0.051796378472828315   -0.04145216795333582
-0.06748636324849577   0.051796378472828315   -0.04145216795333582
-0.06748636324849577   0.051796378472828315   -0.04145216795333582
-0.06748636324849577   0.051796378472828315   -0.04145216795333582
-0.23883386560226283   0.06848407400456256   0.008867487246938484
-0.23883386560226283   0.06848407400456256   0.008867487246938484
-0.23883386560226283   0.06848407400456256   0.008867487246938484
-0.23883386560226283   0.06848407400456256   0.008867487246938484
-0.1581315009530908   0.036842341722843175   0.024154539314773325
-0.1581315009530908   0.036842341722843175   0.024154539314773325
-0.1581315009530908   0.036842341722843175   0.024154539314773325
-0.1581315009530908   0.036842341722843175   0.024154539314773325
-0.13485514080554495   -0.11477225935755575   -0.055500979649178314
-0.13485514080554495   -0.11477225935755575   -0.055500979649178314
-0.13485514080554495   -0.11477225935755575   -0.055500979649178314
-0.13485514080554495   -0.11477225935755575   -0.055500979649178314
0.04699307609876753   0.0340085035998908   0.0682976807848449
0.04699307609876753   0.0340085035998908   0.0682976807848449
0.04699307609876753   0.0340085035998908   0.0682976807848449
0.04699307609876753   0.0340085035998908   0.0682976807848449
0.04736026208306081   -0.05644334349896489   -0.07348749561626672
0.04736026208306081   -0.05644334349896489   -0.07348749561626672
0.04736026208306081   -0.05644334349896489   -0.07348749561626672
0.04736026208306081   -0.05644334349896489   -0.07348749561626672
-0.07366727783398679   0.035400384394546874   0.05589774107384736
-0.07366727783398679   0.035400384394546874   0.05589774107384736
-0.07366727783398679   0.035400384394546874   0.05589774107384736
-0.07366727783398679   0.035400384394546874   0.05589774107384736
-0.030080268969539473   -0.02433949649044498   -0.013006843628897632
-0.030080268969539473   -0.02433949649044498   -0.013006843628897632
-0.030080268969539473   -0.02433949649044498   -0.013006843628897632
-0.030080268969539473   -0.02433949649044498   -0.013006843628897632
-0.12237902735540816   -0.08845485557595432   -0.06380576656276025
-0.12237902735540816   -0.08845485557595432   -0.06380576656276025
-0.12237902735540816   -0.08845485557595432   -0.06380576656276025
-0.12237902735540816   -0.08845485557595432   -0.06380576656276025
0.0995306311337442   0.07087051600079546   0.06005049013738996
0.0995306311337442   0.07087051600079546   0.06005049013738996
0.0995306311337442   0.07087051600079546   0.06005049013738996
0.0995306311337442   0.07087051600079546   0.06005049013738996
0.08607997345914035   -0.033865003980611   -0.08728968255515025
0.08607997345914035   -0.033865003980611   -0.08728968255515025
0.08607997345914035   -0.033865003980611   -0.08728968255515025
0.08607997345914035   -0.033865003980611   -0.08728968255515025
-0.05943123566406656   0.05178332138499426   0.044826637553792584
-0.05943123566406656   0.05178332138499426   0.044826637553792584
-0.05943123566406656   0.05178332138499426   0.044826637553792584
-0.05943123566406656   0.05178332138499426   0.044826637553792584
0.0017731385128047505   -0.0011130783548556034   0.004234636647361873
0.0017731385128047505   -0.0011130783548556034   0.004234636647361873
0.0017731385128047505   -0.0011130783548556034   0.004234636647361873
0.0017731385128047505   -0.0011130783548556034   0.004234636647361873
-0.10748615082414041   -0.06987767974879498   -0.0737869371127894
-0.10748615082414041   -0.06987767974879498   -0.0737869371127894
-0.10748615082414041   -0.06987767974879498   -0.0737869371127894
-0.10748615082414041   -0.06987767974879498   -0.0737869371127894
0.1375960619473668   0.09125717048132537   0.04516858542404551
0.1375960619473668   0.09125717048132537   0.04516858542404551
0.1375960619473668   0.09125717048132537   0.04516858542404551
0.1375960619473668   0.09125717048132537   0.04516858542404551
0.14032507827989504   0.010340244243855785   -0.09347243487158556
0.14032507827989504   0.010340244243855785   -0.09347243487158556
0.14032507827989504   0.010340244243855785   -0.09347243487158556
0.14032507827989504   0.010340244243855785   -0.09347243487158556
-0.04613041661730344   0.08069686378991157   0.03642707988554264
-0.04613041661730344   0.08069686378991157   0.03642707988554264
-0.04613041661730344   0.08069686378991157   0.03642707988554264
-0.04613041661730344   0.08069686378991157   0.03642707988554264
0.030446711945973655   0.023297686456978807   0.021081616287038696
0.030446711945973655   0.023297686456978807   0.021081616287038696
0.030446711945973655   0.023297686456978807   0.021081616287038696
0.030446711945973655   0.023297686456978807   0.021081616287038696
-0.27977353553060985   0.01587364444188675   0.07802487834104715
-0.27977353553060985   0.01587364444188675   0.07802487834104715
-0.27977353553060985   0.01587364444188675   0.07802487834104715
-0.27977353553060985   0.01587364444188675   0.07802487834104715
-0.3320326364214511   -0.10174488964263276   -0.0460105438028817
-0.3320326364214511   -0.10174488964263276   -0.0460105438028817
-0.3320326364214511   -0.10174488964263276   -0.0460105438028817
-0.3320326364214511   -0.10174488964263276   -0.0460105438028817
-0.26508586831152375   0.04730605535730272   0.06389371524543311
-0.26508586831152375   0.04730605535730272   0.06389371524543311
-0.26508586831152375   0.04730605535730272   0.06389371524543311
-0.26508586831152375   0.04730605535730272   0.06389371524543311
-0.2716648233618534   -0.06698577302881162   -0.05927884309698222
-0.2716648233618534   -0.06698577302881162   -0.05927884309698222
-0.2716648233618534   -0.06698577302881162   -0.05927884309698222
-0.2716648233618534   -0.06698577302881162   -0.05927884309698222
-0.27986215766551376   -0.021529942984381656   -0.021316343620607546
-0.27986215766551376   -0.021529942984381656   -0.021316343620607546
-0.27986215766551376   -0.021529942984381656   -0.021316343620607546
-0.27986215766551376   -0.021529942984381656   -0.021316343620607546
-0.22027174768706154   0.05802524073561801   0.07267552151254733
-0.22027174768706154   0.05802524073561801   0.07267552151254733
-0.22027174768706154   0.05802524073561801   0.07267552151254733
-0.22027174768706154   0.05802524073561801   0.07267552151254733
-0.31326210185460057   -0.07448811627541127   -0.055193280837233245
-0.31326210185460057   -0.07448811627541127   -0.055193280837233245
-0.31326210185460057   -0.07448811627541127   -0.055193280837233245
-0.31326210185460057   -0.07448811627541127   -0.055193280837233245
-0.24440514890944579   0.06524273866547714   0.05377530573956548
-0.24440514890944579   0.06524273866547714   0.05377530573956548
-0.24440514890944579   0.06524273866547714   0.05377530573956548
-0.24440514890944579   0.06524273866547714   0.05377530573956548
-0.22740416944128408   -0.046714991237122486   -0.07385133841616383
-0.22740416944128408   -0.046714991237122486   -0.07385133841616383
-0.22740416944128408   -0.046714991237122486   -0.07385133841616383
-0.22740416944128408   -0.046714991237122486   -0.07385133841616383
-0.24720880617819363   0.0013906381958422934   -0.004411241250010207
-0.24720880617819363   0.0013906381958422934   -0.004411241250010207
-0.24720880617819363   0.0013906381958422934   -0.004411241250010207
-0.24720880617819363   0.0013906381958422934   -0.004411241250010207
-0.17571021847615353   0.07983945719891315   0.058063967973453263
-0.17571021847615353   0.07983945719891315   0.058063967973453263
-0.17571021847615353   0.07983945719891315   0.058063967973453263
-0.17571021847615353   0.07983945719891315   0.058063967973453263
-0.2930642470390608   -0.05827685693504239   -0.06600058930798652
-0.2930642470390608   -0.05827685693504239   -0.06600058930798652
-0.2930642470390608   -0.05827685693504239   -0.06600058930798652
-0.2930642470390608   -0.05827685693504239   -0.06600058930798652
-0.22548100421134698   0.09262768067323861   0.0464463511548456
-0.22548100421134698   0.09262768067323861   0.0464463511548456
-0.22548100421134698   0.09262768067323861   0.0464463511548456
-0.22548100421134698   0.09262768067323861   0.0464463511548456
-0.1683263743860698   -0.008181976758615601   -0.08319826651059035
-0.1683263743860698   -0.008181976758615601   -0.08319826651059035
-0.1683263743860698   -0.008181976758615601   -0.08319826651059035
-0.1683263743860698   -0.008181976758615601   -0.08319826651059035
-0.20793993640922684   0.0253309054186028   0.013693321252264634
-0.20793993640922684   0.0253309054186028   0.013693321252264634
-0.20793993640922684   0.0253309054186028   0.013693321252264634
-0.20793993640922684   0.0253309054186028   0.013693321252264634
-0.297278310917363   -0.018314851314905303   0.04433104538982365
-0.297278310917363   -0.018314851314905303   0.04433104538982365
-0.297278310917363   -0.018314851314905303   0.04433104538982365
-0.297278310917363   -0.018314851314905303   0.04433104538982365
-0.36864823611435127   -0.08298980416878701   -0.01797715735250863
-0.36864823611435127   -0.08298980416878701   -0.01797715735250863
-0.36864823611435127   -0.08298980416878701   -0.01797715735250863
-0.36864823611435127   -0.08298980416878701   -0.01797715735250863
-0.32859870286865767   0.008398379425825775   0.029647097883160126
-0.32859870286865767   0.008398379425825775   0.029647097883160126
-0.32859870286865767   0.008398379425825775   0.029647097883160126
-0.32859870286865767   0.008398379425825775   0.029647097883160126
-0.3006255515242055   -0.03926541380480252   -0.02723323165586653
-0.3006255515242055   -0.03926541380480252   -0.02723323165586653
-0.3006255515242055   -0.03926541380480252   -0.02723323165586653
-0.3006255515242055   -0.03926541380480252   -0.02723323165586653
-0.32401225154158353   -0.030513716665697965   -0.015016898773722795
-0.32401225154158353   -0.030513716665697965   -0.015016898773722795
-0.32401225154158353   -0.030513716665697965   -0.015016898773722795
-0.32401225154158353   -0.030513716665697965   -0.015016898773722795
-0.2754185559769442   0.020843546402219276   0.03869278587341422
-0.2754185559769442   0.020843546402219276   0.03869278587341422
-0.2754185559769442   0.020843546402219276   0.03869278587341422
-0.2754185559769442   0.020843546402219276   0.03869278587341422
-0.3512866130204763   -0.049191495385754326   -0.026202578064354803
-0.3512866130204763   -0.049191495385754326   -0.026202578064354803
-0.3512866130204763   -0.049191495385754326   -0.026202578064354803
-0.3512866130204763   -0.049191495385754326   -0.026202578064354803
-0.3101300964722131   0.044080708205317454   0.02262106450811937
-0.3101300964722131   0.044080708205317454   0.02262106450811937
-0.3101300964722131   0.044080708205317454   0.02262106450811937
-0.3101300964722131   0.044080708205317454   0.02262106450811937
-0.275942090225654   -0.004862505766357578   -0.0338041564096332
-0.275942090225654   -0.004862505766357578   -0.0338041564096332
-0.275942090225654   -0.004862505766357578   -0.0338041564096332
-0.275942090225654   -0.004862505766357578   -0.0338041564096332
-0.301957153841928   0.0027930715478512863   0.0005898321207126397
-0.301957153841928   0.0027930715478512863   0.0005898321207126397
-0.301957153841928   0.0027930715478512863   0.0005898321207126397
-0.301957153841928   0.0027930715478512863   0.0005898321207126397
-0.24950986130589103   0.05864953235127285   0.03484495007154363
-0.24950986130589103   0.05864953235127285   0.03484495007154363
-0.24950986130589103   0.05864953235127285   0.03484495007154363
-0.24950986130589103   0.05864953235127285   0.03484495007154363
-0.3338773619305054   -0.016746366450839448   -0.035288188127191145
-0.3338773619305054   -0.016746366450839448   -0.035288188127191145
-0.3338773619305054   -0.016746366450839448   -0.035288188127191145
-0.3338773619305054   -0.016746366450839448   -0.035288188127191145
-0.2915725866320039   0.08356223194694821   0.01594304725341638
-0.2915725866320039   0.08356223194694821   0.01594304725341638
-0.2915725866320039   0.08356223194694821   0.01594304725341638
-0.2915725866320039   0.08356223194694821   0.01594304725341638
-0.2546337745951013   0.03330775278458492   -0.03999757287526838
-0.2546337745951013   0.03330775278458492   -0.03999757287526838
-0.2546337745951013   0.03330775278458492   -0.03999757287526838
-0.2546337745951013   0.03330775278458492   -0.03999757287526838
-0.28110669711957453   0.03717567222112329   0.016469377830476865
-0.28110669711957453   0.03717567222112329   0.016469377830476865
-0.28110669711957453   0.03717567222112329   0.016469377830476865
-0.28110669711957453   0.03717567222112329   0.016469377830476865
-0.3560104864077195   -0.05021939856527104   0.012441185577128405
-0.3560104864077195   -0.05021939856527104   0.012441185577128405
-0.3560104864077195   -0.05021939856527104   0.012441185577128405
-0.3560104864077195   -0.05021939856527104   0.012441185577128405
-0.4051677318969778   -0.052348748372065296   0.010879386301462811
-0.4051677318969778   -0.052348748372065296   0.010879386301462811
-0.4051677318969778   -0.052348748372065296   0.010879386301462811
-0.4051677318969778   -0.052348748372065296   0.010879386301462811
-0.3903582839121278   -0.023766221332937314   -0.0038372687652792944
-0.3903582839121278   -0.023766221332937314   -0.0038372687652792944
-0.3903582839121278   -0.023766221332937314   -0.0038372687652792944
-0.3903582839121278   -0.023766221332937314   -0.0038372687652792944
-0.3369244049562808   -0.007123835701661918   0.0035408025725304874
-0.3369244049562808   -0.007123835701661918   0.0035408025725304874
-0.3369244049562808   -0.007123835701661918   0.0035408025725304874
-0.3369244049562808   -0.007123835701661918   0.0035408025725304874
-0.37267323889019777   -0.031472849257659634   -0.009960002956041053
-0.37267323889019777   -0.031472849257659634   -0.009960002956041053
-0.37267323889019777   -0.031472849257659634   -0.009960002956041053
-0.37267323889019777   -0.031472849257659634   -0.009960002956041053
-0.33720204498827006   -0.011134805377438557   0.006163572088356767
-0.33720204498827006   -0.011134805377438557   0.006163572088356767
-0.33720204498827006   -0.011134805377438557   0.006163572088356767
-0.33720204498827006   -0.011134805377438557   0.006163572088356767
-0.3877061518579875   -0.017380759635009735   0.0030379298074981707
-0.3877061518579875   -0.017380759635009735   0.0030379298074981707
-0.3877061518579875   -0.017380759635009735   0.0030379298074981707
-0.3877061518579875   -0.017380759635009735   0.0030379298074981707
-0.3709604147734424   0.015831588880451095   -0.009740613864937017
-0.3709604147734424   0.015831588880451095   -0.009740613864937017
-0.3709604147734424   0.015831588880451095   -0.009740613864937017
-0.3709604147734424   0.015831588880451095   -0.009740613864937017
-0.3185181603562037   0.028810034789860356   -0.004048581496376578
-0.3185181603562037   0.028810034789860356   -0.004048581496376578
-0.3185181603562037   0.028810034789860356   -0.004048581496376578
-0.3185181603562037   0.028810034789860356   -0.004048581496376578
-0.3524105413297882   0.0039274723983395154   0.005446686527113533
-0.3524105413297882   0.0039274723983395154   0.005446686527113533
-0.3524105413297882   0.0039274723983395154   0.005446686527113533
-0.3524105413297882   0.0039274723983395154   0.005446686527113533
-0.3178791364614024   0.02832273489111431   -0.0003661621236301059
-0.3178791364614024   0.02832273489111431   -0.0003661621236301059
-0.3178791364614024   0.02832273489111431   -0.0003661621236301059
-0.3178791364614024   0.02832273489111431   -0.0003661621236301059
-0.36952859297642604   0.018389734471008612   -0.005139650470412937
-0.36952859297642604   0.018389734471008612   -0.005139650470412937
-0.36952859297642604   0.018389734471008612   -0.005139650470412937
-0.36952859297642604   0.018389734471008612   -0.005139650470412937
-0.35238679378361226   0.05566894020155687   -0.01640612514993254
-0.35238679378361226   0.05566894020155687   -0.01640612514993254
-0.35238679378361226   0.05566894020155687   -0.01640612514993254
-0.35238679378361226   0.05566894020155687   -0.01640612514993254
-0.30097133976861845   0.06489101993494974   -0.012379506417655922
-0.30097133976861845   0.06489101993494974   -0.012379506417655922
-0.30097133976861845   0.06489101993494974   -0.012379506417655922
-0.30097133976861845   0.06489101993494974   -0.012379506417655922
-0.3330828364695658   0.03939215628797822   0.02013268652235849
-0.3330828364695658   0.03939215628797822   0.02013268652235849
-0.3330828364695658   0.03939215628797822   0.02013268652235849
-0.3330828364695658   0.03939215628797822   0.02013268652235849
-0.41683533408677925   -0.07952328207166233   -0.020284090947954598
-0.41683533408677925   -0.07952328207166233   -0.020284090947954598
-0.41683533408677925   -0.07952328207166233   -0.020284090947954598
-0.41683533408677925   -0.07952328207166233   -0.020284090947954598
-0.44477162980265045   -0.022340966508526128   0.03846189930696982
-0.44477162980265045   -0.022340966508526128   0.03846189930696982
-0.44477162980265045   -0.022340966508526128   0.03846189930696982
-0.44477162980265045   -0.022340966508526128   0.03846189930696982
-0.45190243923802687   -0.054598067231050214   -0.03774898153208007
-0.45190243923802687   -0.054598067231050214   -0.03774898153208007
-0.45190243923802687   -0.054598067231050214   -0.03774898153208007
-0.45190243923802687   -0.054598067231050214   -0.03774898153208007
-0.37358099333328026   0.023847065922838376   0.032435896873182275
-0.37358099333328026   0.023847065922838376   0.032435896873182275
-0.37358099333328026   0.023847065922838376   0.032435896873182275
-0.37358099333328026   0.023847065922838376   0.032435896873182275
-0.4200243237776522   -0.03100514523438807   -0.0062575934535996445
-0.4200243237776522   -0.03100514523438807   -0.0062575934535996445
-0.4200243237776522   -0.03100514523438807   -0.0062575934535996445
-0.4200243237776522   -0.03100514523438807   -0.0062575934535996445
-0.39853693759258413   -0.04172876857970497   -0.026767989920796577
-0.39853693759258413   -0.04172876857970497   -0.026767989920796577
-0.39853693759258413   -0.04172876857970497   -0.026767989920796577
-0.39853693759258413   -0.04172876857970497   -0.026767989920796577
-0.42445661028390747   0.013467651966313332   0.0314144440411535
-0.42445661028390747   0.013467651966313332   0.0314144440411535
-0.42445661028390747   0.013467651966313332   0.0314144440411535
-0.42445661028390747   0.013467651966313332   0.0314144440411535
-0.4264953323963847   -0.017047734324270022   -0.04235239293452314
-0.4264953323963847   -0.017047734324270022   -0.04235239293452314
-0.4264953323963847   -0.017047734324270022   -0.04235239293452314
-0.4264953323963847   -0.017047734324270022   -0.04235239293452314
-0.3561101083619489   0.05625768053272609   0.024084826540252284
-0.3561101083619489   0.05625768053272609   0.024084826540252284
-0.3561101083619489   0.05625768053272609   0.024084826540252284
-0.3561101083619489   0.05625768053272609   0.024084826540252284
-0.3970118439373003   0.0030818297835734643   0.00964408996872643
-0.3970118439373003   0.0030818297835734643   0.00964408996872643
-0.3970118439373003   0.0030818297835734643   0.00964408996872643
-0.3970118439373003   0.0030818297835734643   0.00964408996872643
-0.38029310633271773   -0.006209422567338543   -0.03436306021353272
-0.38029310633271773   -0.006209422567338543   -0.03436306021353272
-0.38029310633271773   -0.006209422567338543   -0.03436306021353272
-0.38029310633271773   -0.006209422567338543   -0.03436306021353272
-0.39979598258775007   0.04793572061365542   0.02616090117073077
-0.39979598258775007   0.04793572061365542   0.02616090117073077
-0.39979598258775007   0.04793572061365542   0.02616090117073077
-0.39979598258775007   0.04793572061365542   0.02616090117073077
-0.40425996933164465   0.0243309532564968   -0.04647201276400855
-0.40425996933164465   0.0243309532564968   -0.04647201276400855
-0.40425996933164465   0.0243309532564968   -0.04647201276400855
-0.40425996933164465   0.0243309532564968   -0.04647201276400855
-0.33859096167563746   0.0923933722466296   0.015848603344868983
-0.33859096167563746   0.0923933722466296   0.015848603344868983
-0.33859096167563746   0.0923933722466296   0.015848603344868983
-0.33859096167563746   0.0923933722466296   0.015848603344868983
-0.3774531517524956   0.03691844669933808   0.024852585097002097
-0.3774531517524956   0.03691844669933808   0.024852585097002097
-0.3774531517524956   0.03691844669933808   0.024852585097002097
-0.3774531517524956   0.03691844669933808   0.024852585097002097
-0.47707827596234614   -0.09462313547442483   -0.0507891625256196
-0.47707827596234614   -0.09462313547442483   -0.0507891625256196
-0.47707827596234614   -0.09462313547442483   -0.0507891625256196
-0.47707827596234614   -0.09462313547442483   -0.0507891625256196
-0.5272238758229506   0.007396378735085168   0.06915880815508346
-0.5272238758229506   0.007396378735085168   0.06915880815508346
-0.5272238758229506   0.007396378735085168   0.06915880815508346
-0.5272238758229506   0.007396378735085168   0.06915880815508346
-0.5200673947850426   -0.07858584378417986   -0.06763328286873051
-0.5200673947850426   -0.07858584378417986   -0.06763328286873051
-0.5200673947850426   -0.07858584378417986   -0.06763328286873051
-0.5200673947850426   -0.07858584378417986   -0.06763328286873051
-0.4091057782480777   0.059644161055852296   0.061992095130759275
-0.4091057782480777   0.059644161055852296   0.061992095130759275
-0.4091057782480777   0.059644161055852296   0.061992095130759275
-0.4091057782480777   0.059644161055852296   0.061992095130759275
-0.46400785746247153   -0.020294168372925248   -0.00312930893369337
-0.46400785746247153   -0.020294168372925248   -0.00312930893369337
-0.46400785746247153   -0.020294168372925248   -0.00312930893369337
-0.46400785746247153   -0.020294168372925248   -0.00312930893369337
-0.45789489049594806   -0.06423878946930335   -0.05807051558344248
-0.45789489049594806   -0.06423878946930335   -0.05807051558344248
-0.45789489049594806   -0.06423878946930335   -0.05807051558344248
-0.45789489049594806   -0.06423878946930335   -0.05807051558344248
-0.4686460440203042   0.04792934525784234   0.06295828191293595
-0.4686460440203042   0.04792934525784234   0.06295828191293595
-0.4686460440203042   0.04792934525784234   0.06295828191293595
-0.4686460440203042   0.04792934525784234   0.06295828191293595
-0.4762166655427499   -0.056660111022000685   -0.08060509460246809
-0.4762166655427499   -0.056660111022000685   -0.08060509460246809
-0.4762166655427499   -0.056660111022000685   -0.08060509460246809
-0.4762166655427499   -0.056660111022000685   -0.08060509460246809
-0.38944987926231744   0.0750873987994455   0.050739739612097934
-0.38944987926231744   0.0750873987994455   0.050739739612097934
-0.38944987926231744   0.0750873987994455   0.050739739612097934
-0.38944987926231744   0.0750873987994455   0.050739739612097934
-0.4342963855269966   0.0026156087741689704   0.012132970213178967
-0.4342963855269966   0.0026156087741689704   0.012132970213178967
-0.4342963855269966   0.0026156087741689704   0.012132970213178967
-0.4342963855269966   0.0026156087741689704   0.012132970213178967
-0.4372897767556775   -0.046190153462620294   -0.06718219559263854
-0.4372897767556775   -0.046190153462620294   -0.06718219559263854
-0.4372897767556775   -0.046190153462620294   -0.06718219559263854
-0.4372897767556775   -0.046190153462620294   -0.06718219559263854
-0.42561849710497623   0.06737571218448352   0.048349924379916115
-0.42561849710497623   0.06737571218448352   0.048349924379916115
-0.42561849710497623   0.06737571218448352   0.048349924379916115
-0.42561849710497623   0.06737571218448352   0.048349924379916115
-0.41868341289733496   -0.018715521011911707   -0.08808184784354227
-0.41868341289733496   -0.018715521011911707   -0.08808184784354227
-0.41868341289733496   -0.018715521011911707   -0.08808184784354227
-0.41868341289733496   -0.018715521011911707   -0.08808184784354227
-0.37184367480897346   0.09814682875173786   0.041793584354102575
-0.37184367480897346   0.09814682875173786   0.041793584354102575
-0.37184367480897346   0.09814682875173786   0.041793584354102575
-0.37184367480897346   0.09814682875173786   0.041793584354102575
-0.39371483984672023   0.025514897665105438   0.029794024827362185
-0.39371483984672023   0.025514897665105438   0.029794024827362185
-0.39371483984672023   0.025514897665105438   0.029794024827362185
-0.39371483984672023   0.025514897665105438   0.029794024827362185
0.28861652558418255   0.04668954976944575   0.07551249125187721
0.28861652558418255   0.04668954976944575   0.07551249125187721
0.28861652558418255   0.04668954976944575   0.07551249125187721
0.28861652558418255   0.04668954976944575   0.07551249125187721
-0.007165882981780829   -0.12138377224906544   -0.04989549441646736
-0.007165882981780829   -0.12138377224906544   -0.04989549441646736
-0.007165882981780829   -0.12138377224906544   -0.04989549441646736
-0.007165882981780829   -0.12138377224906544   -0.04989549441646736
0.06428467257589403   0.023729452044955284   0.05834778633410493
0.06428467257589403   0.023729452044955284   0.05834778633410493
0.06428467257589403   0.023729452044955284   0.05834778633410493
0.06428467257589403   0.023729452044955284   0.05834778633410493
0.30119779763155535   -0.0426186521977644   -0.06243698376814655
0.30119779763155535   -0.0426186521977644   -0.06243698376814655
0.30119779763155535   -0.0426186521977644   -0.06243698376814655
0.30119779763155535   -0.0426186521977644   -0.06243698376814655
0.14726207158864107   -0.023619647206154778   -0.035952473500665355
0.14726207158864107   -0.023619647206154778   -0.035952473500665355
0.14726207158864107   -0.023619647206154778   -0.035952473500665355
0.14726207158864107   -0.023619647206154778   -0.035952473500665355
0.3525030981337287   0.08333146099891028   0.06813940554604528
0.3525030981337287   0.08333146099891028   0.06813940554604528
0.3525030981337287   0.08333146099891028   0.06813940554604528
0.3525030981337287   0.08333146099891028   0.06813940554604528
0.016129931996449885   -0.09907010122899537   -0.059626363289165166
0.016129931996449885   -0.09907010122899537   -0.059626363289165166
0.016129931996449885   -0.09907010122899537   -0.059626363289165166
0.016129931996449885   -0.09907010122899537   -0.059626363289165166
0.09037436401621327   0.041351364850012604   0.0487019085620143
0.09037436401621327   0.041351364850012604   0.0487019085620143
0.09037436401621327   0.041351364850012604   0.0487019085620143
0.09037436401621327   0.041351364850012604   0.0487019085620143
0.35109718815611424   -0.02271034609099115   -0.07812543143492237
0.35109718815611424   -0.02271034609099115   -0.07812543143492237
0.35109718815611424   -0.02271034609099115   -0.07812543143492237
0.35109718815611424   -0.02271034609099115   -0.07812543143492237
0.1922851369146183   -0.0016428039249102924   -0.01688148391830584
0.1922851369146183   -0.0016428039249102924   -0.01688148391830584
0.1922851369146183   -0.0016428039249102924   -0.01688148391830584
0.1922851369146183   -0.0016428039249102924   -0.01688148391830584
0.4029713579716411   0.10486449686586488   0.05367057468584791
0.4029713579716411   0.10486449686586488   0.05367057468584791
0.4029713579716411   0.10486449686586488   0.05367057468584791
0.4029713579716411   0.10486449686586488   0.05367057468584791
0.04158435680690501   -0.08313931550063065   -0.07075744713387988
0.04158435680690501   -0.08313931550063065   -0.07075744713387988
0.04158435680690501   -0.08313931550063065   -0.07075744713387988
0.04158435680690501   -0.08313931550063065   -0.07075744713387988
0.11569675534316637   0.07369135312546164   0.04214525318055973
0.11569675534316637   0.07369135312546164   0.04214525318055973
0.11569675534316637   0.07369135312546164   0.04214525318055973
0.11569675534316637   0.07369135312546164   0.04214525318055973
0.4173297172687519   0.021852992033678   -0.08616443748829349
0.4173297172687519   0.021852992033678   -0.08616443748829349
0.4173297172687519   0.021852992033678   -0.08616443748829349
0.4173297172687519   0.021852992033678   -0.08616443748829349
0.23010884924627628   0.02297724146610758   0.0011587603174242483
0.23010884924627628   0.02297724146610758   0.0011587603174242483
0.23010884924627628   0.02297724146610758   0.0011587603174242483
0.23010884924627628   0.02297724146610758   0.0011587603174242483
0.03984447703884141   0.012548897183229213   0.05122363625434919
0.03984447703884141   0.012548897183229213   0.05122363625434919
0.03984447703884141   0.012548897183229213   0.05122363625434919
0.03984447703884141   0.012548897183229213   0.05122363625434919
-0.2748000057113098   -0.1030419243992883   -0.022886648997401025
-0.2748000057113098   -0.1030419243992883   -0.022886648997401025
-0.2748000057113098   -0.1030419243992883   -0.022886648997401025
-0.2748000057113098   -0.1030419243992883   -0.022886648997401025
-0.22969079889512414   -0.014947248711237458   0.023422841182846706
-0.22969079889512414   -0.014947248711237458   0.023422841182846706
-0.22969079889512414   -0.014947248711237458   0.023422841182846706
-0.22969079889512414   -0.014947248711237458   0.023422841182846706
0.04184953718020604   -0.011902318887602419   -0.018196119711777387
0.04184953718020604   -0.011902318887602419   -0.018196119711777387
0.04184953718020604   -0.011902318887602419   -0.018196119711777387
0.04184953718020604   -0.011902318887602419   -0.018196119711777387
-0.10796138545165208   -0.02669671349098786   -0.017291369508884373
-0.10796138545165208   -0.02669671349098786   -0.017291369508884373
-0.10796138545165208   -0.02669671349098786   -0.017291369508884373
-0.10796138545165208   -0.02669671349098786   -0.017291369508884373
0.06670555700564139   0.04873648861491629   0.045445171912880666
0.06670555700564139   0.04873648861491629   0.045445171912880666
0.06670555700564139   0.04873648861491629   0.045445171912880666
0.06670555700564139   0.04873648861491629   0.045445171912880666
-0.252254966231719   -0.07329420372492078   -0.031051040486444206
-0.252254966231719   -0.07329420372492078   -0.031051040486444206
-0.252254966231719   -0.07329420372492078   -0.031051040486444206
-0.252254966231719   -0.07329420372492078   -0.031051040486444206
-0.2058985414855891   0.019218439924517446   0.01655702330467699
-0.2058985414855891   0.019218439924517446   0.01655702330467699
-0.2058985414855891   0.019218439924517446   0.01655702330467699
-0.2058985414855891   0.019218439924517446   0.01655702330467699
0.0715469072592522   0.020537448015022695   -0.02462145838780109
0.0715469072592522   0.020537448015022695   -0.02462145838780109
0.0715469072592522   0.020537448015022695   -0.02462145838780109
0.0715469072592522   0.020537448015022695   -0.02462145838780109
-0.0827449698427867   0.0034557213744636633   -0.002092264934105012
-0.0827449698427867   0.0034557213744636633   -0.002092264934105012
-0.0827449698427867   0.0034557213744636633   -0.002092264934105012
-0.0827449698427867   0.0034557213744636633   -0.002092264934105012
0.09744700343965709   0.08471619862873375   0.040700271900512286
0.09744700343965709   0.08471619862873375   0.040700271900512286
0.09744700343965709   0.08471619862873375   0.040700271900512286
0.09744700343965709   0.08471619862873375   0.040700271900512286
-0.22959377800268418   -0.0427554510258838   -0.03994526833039718
-0.22959377800268418   -0.0427554510258838   -0.03994526833039718
-0.22959377800268418   -0.0427554510258838   -0.03994526833039718
-0.22959377800268418   -0.0427554510258838   -0.03994526833039718
-0.18196610174947853   0.05784319725895788   0.010011976650973697
-0.18196610174947853   0.05784319725895788   0.010011976650973697
-0.18196610174947853   0.05784319725895788   0.010011976650973697
-0.18196610174947853   0.05784319725895788   0.010011976650973697
0.09770218432651008   0.057308141460480425   -0.03144439023773666
0.09770218432651008   0.057308141460480425   -0.03144439023773666
0.09770218432651008   0.057308141460480425   -0.03144439023773666
0.09770218432651008   0.057308141460480425   -0.03144439023773666
-0.05487126997647382   0.0367333513528017   0.014106748428782814
-0.05487126997647382   0.0367333513528017   0.014106748428782814
-0.05487126997647382   0.0367333513528017   0.014106748428782814
-0.05487126997647382   0.0367333513528017   0.014106748428782814
-0.24988827574353925   -0.01978559926103564   0.018415675703203287
-0.24988827574353925   -0.01978559926103564   0.018415675703203287
-0.24988827574353925   -0.01978559926103564   0.018415675703203287
-0.24988827574353925   -0.01978559926103564   0.018415675703203287
-0.53759548570234   -0.07314960787997926   0.004763389587289573
-0.53759548570234   -0.07314960787997926   0.004763389587289573
-0.53759548570234   -0.07314960787997926   0.004763389587289573
-0.53759548570234   -0.07314960787997926   0.004763389587289573
-0.516751332864676   -0.04582385275143748   -0.010132354767952035
-0.516751332864676   -0.04582385275143748   -0.010132354767952035
-0.516751332864676   -0.04582385275143748   -0.010132354767952035
-0.516751332864676   -0.04582385275143748   -0.010132354767952035
-0.22528203359589744   0.019078407218506357   0.011441011749240386
-0.22528203359589744   0.019078407218506357   0.011441011749240386
-0.22528203359589744   0.019078407218506357   0.011441011749240386
-0.22528203359589744   0.019078407218506357   0.011441011749240386
-0.382938474994507   -0.027468675228741808   -0.010058546057854096
-0.382938474994507   -0.027468675228741808   -0.010058546057854096
-0.382938474994507   -0.027468675228741808   -0.010058546057854096
-0.382938474994507   -0.027468675228741808   -0.010058546057854096
-0.2255827058793891   0.01686629592439512   0.012149761625893294
-0.2255827058793891   0.01686629592439512   0.012149761625893294
-0.2255827058793891   0.01686629592439512   0.012149761625893294
-0.2255827058793891   0.01686629592439512   0.012149761625893294
-0.5144863072716823   -0.04164738814781907   -0.0029836914066019016
-0.5144863072716823   -0.04164738814781907   -0.0029836914066019016
-0.5144863072716823   -0.04164738814781907   -0.0029836914066019016
-0.5144863072716823   -0.04164738814781907   -0.0029836914066019016
-0.49173626772614953   -0.008210686117374966   -0.01593407866260729
-0.49173626772614953   -0.008210686117374966   -0.01593407866260729
-0.49173626772614953   -0.008210686117374966   -0.01593407866260729
-0.49173626772614953   -0.008210686117374966   -0.01593407866260729
-0.20172483524079063   0.052441806663720864   0.004202187789469795
-0.20172483524079063   0.052441806663720864   0.004202187789469795
-0.20172483524079063   0.052441806663720864   0.004202187789469795
-0.20172483524079063   0.052441806663720864   0.004202187789469795
-0.3571131263376034   0.005573439450448081   0.005250782566464829
-0.3571131263376034   0.005573439450448081   0.005250782566464829
-0.3571131263376034   0.005573439450448081   0.005250782566464829
-0.3571131263376034   0.005573439450448081   0.005250782566464829
-0.20112627661562799   0.05418790446087631   0.005448883118127492
-0.20112627661562799   0.05418790446087631   0.005448883118127492
-0.20112627661562799   0.05418790446087631   0.005448883118127492
-0.20112627661562799   0.05418790446087631   0.005448883118127492
-0.4907661407876237   -0.008388098350842588   -0.010906031736514363
-0.4907661407876237   -0.008388098350842588   -0.010906031736514363
-0.4907661407876237   -0.008388098350842588   -0.010906031736514363
-0.4907661407876237   -0.008388098350842588   -0.010906031736514363
-0.46773154371768777   0.029503378048014228   -0.022557511903264167
-0.46773154371768777   0.029503378048014228   -0.022557511903264167
-0.46773154371768777   0.029503378048014228   -0.022557511903264167
-0.46773154371768777   0.029503378048014228   -0.022557511903264167
-0.17918269262883912   0.08590348380298328   -0.004131264289854747
-0.17918269262883912   0.08590348380298328   -0.004131264289854747
-0.17918269262883912   0.08590348380298328   -0.004131264289854747
-0.17918269262883912   0.08590348380298328   -0.004131264289854747
-0.332631991458526   0.03852363272693128   0.01956068221221501
-0.332631991458526   0.03852363272693128   0.01956068221221501
-0.332631991458526   0.03852363272693128   0.01956068221221501
-0.332631991458526   0.03852363272693128   0.01956068221221501
-0.5373248072859229   -0.05162545592390738   -0.015407370286694644
-0.5373248072859229   -0.05162545592390738   -0.015407370286694644
-0.5373248072859229   -0.05162545592390738   -0.015407370286694644
-0.5373248072859229   -0.05162545592390738   -0.015407370286694644
-0.7975780366647554   -0.0450583982875557   0.03191762565887095
-0.7975780366647554   -0.0450583982875557   0.03191762565887095
-0.7975780366647554   -0.0450583982875557   0.03191762565887095
-0.7975780366647554   -0.0450583982875557   0.03191762565887095
-0.7977603403030891   -0.07605157577504429   -0.042877964646422316
-0.7977603403030891   -0.07605157577504429   -0.042877964646422316
-0.7977603403030891   -0.07605157577504429   -0.042877964646422316
-0.7977603403030891   -0.07605157577504429   -0.042877964646422316
-0.4880300813709583   0.048619714933031744   0.03903033501616732
-0.4880300813709583   0.048619714933031744   0.03903033501616732
-0.4880300813709583   0.048619714933031744   0.03903033501616732
-0.4880300813709583   0.048619714933031744   0.03903033501616732
-0.6515134151054705   -0.027832069385546332   -0.004227945922100559
-0.6515134151054705   -0.027832069385546332   -0.004227945922100559
-0.6515134151054705   -0.027832069385546332   -0.004227945922100559
-0.6515134151054705   -0.027832069385546332   -0.004227945922100559
-0.5128080467006221   -0.014777899554241455   -0.021461877144875095
-0.5128080467006221   -0.014777899554241455   -0.021461877144875095
-0.5128080467006221   -0.014777899554241455   -0.021461877144875095
-0.5128080467006221   -0.014777899554241455   -0.021461877144875095
-0.771360556741642   -0.011032143055981353   0.0241015204417548
-0.771360556741642   -0.011032143055981353   0.0241015204417548
-0.771360556741642   -0.011032143055981353   0.0241015204417548
-0.771360556741642   -0.011032143055981353   0.0241015204417548
-0.7664368713194188   -0.04016631779027788   -0.04770840211726702
-0.7664368713194188   -0.04016631779027788   -0.04770840211726702
-0.7664368713194188   -0.04016631779027788   -0.04770840211726702
-0.7664368713194188   -0.04016631779027788   -0.04770840211726702
-0.46489771434144567   0.0789870811121069   0.031060921031430627
-0.46489771434144567   0.0789870811121069   0.031060921031430627
-0.46489771434144567   0.0789870811121069   0.031060921031430627
-0.46489771434144567   0.0789870811121069   0.031060921031430627
-0.62055896480728   0.005473027635380018   0.011543236358932063
-0.62055896480728   0.005473027635380018   0.011543236358932063
-0.62055896480728   0.005473027635380018   0.011543236358932063
-0.62055896480728   0.005473027635380018   0.011543236358932063
-0.4888551113758004   0.019119931680209673   -0.0288589147084476
-0.4888551113758004   0.019119931680209673   -0.0288589147084476
-0.4888551113758004   0.019119931680209673   -0.0288589147084476
-0.4888551113758004   0.019119931680209673   -0.0288589147084476
-0.7406551073965395   0.021525198530138484   0.019508901176713105
-0.7406551073965395   0.021525198530138484   0.019508901176713105
-0.7406551073965395   0.021525198530138484   0.019508901176713105
-0.7406551073965395   0.021525198530138484   0.019508901176713105
-0.7384121527984013   -0.0010109187976282408   -0.05135166075365624
-0.7384121527984013   -0.0010109187976282408   -0.05135166075365624
-0.7384121527984013   -0.0010109187976282408   -0.05135166075365624
-0.7384121527984013   -0.0010109187976282408   -0.05135166075365624
-0.4420053331231668   0.11254430804234138   0.023032611075013816
-0.4420053331231668   0.11254430804234138   0.023032611075013816
-0.4420053331231668   0.11254430804234138   0.023032611075013816
-0.4420053331231668   0.11254430804234138   0.023032611075013816
-0.5973568881961805   0.03655013568652363   0.025682933690727237
-0.5973568881961805   0.03655013568652363   0.025682933690727237
-0.5973568881961805   0.03655013568652363   0.025682933690727237
-0.5973568881961805   0.03655013568652363   0.025682933690727237
-0.8191404771439471   -0.07417441513754969   -0.04677855988709423
-0.8191404771439471   -0.07417441513754969   -0.04677855988709423
-0.8191404771439471   -0.07417441513754969   -0.04677855988709423
-0.8191404771439471   -0.07417441513754969   -0.04677855988709423
-1.0938528103776988   -0.019153469892672248   0.06906730991462524
-1.0938528103776988   -0.019153469892672248   0.06906730991462524
-1.0938528103776988   -0.019153469892672248   0.06906730991462524
-1.0938528103776988   -0.019153469892672248   0.06906730991462524
-1.078503991234785   -0.0991137486484385   -0.062399240403987394
-1.078503991234785   -0.0991137486484385   -0.062399240403987394
-1.078503991234785   -0.0991137486484385   -0.062399240403987394
-1.078503991234785   -0.0991137486484385   -0.062399240403987394
-0.7439289926928531   0.08214006959912593   0.06808712803058772
-0.7439289926928531   0.08214006959912593   0.06808712803058772
-0.7439289926928531   0.08214006959912593   0.06808712803058772
-0.7439289926928531   0.08214006959912593   0.06808712803058772
-0.8936069256145542   -0.015844372201667373   0.007383886326966897
-0.8936069256145542   -0.015844372201667373   0.007383886326966897
-0.8936069256145542   -0.015844372201667373   0.007383886326966897
-0.8936069256145542   -0.015844372201667373   0.007383886326966897
-0.7925607209697769   -0.04002627938801667   -0.05290516436688639
-0.7925607209697769   -0.04002627938801667   -0.05290516436688639
-0.7925607209697769   -0.04002627938801667   -0.05290516436688639
-0.7925607209697769   -0.04002627938801667   -0.05290516436688639
-1.0284018400103034   0.0245230232862583   0.06447474378370016
-1.0284018400103034   0.0245230232862583   0.06447474378370016
-1.0284018400103034   0.0245230232862583   0.06447474378370016
-1.0284018400103034   0.0245230232862583   0.06447474378370016
-1.0289815749068145   -0.07781856970318793   -0.07425840725657215
-1.0289815749068145   -0.07781856970318793   -0.07425840725657215
-1.0289815749068145   -0.07781856970318793   -0.07425840725657215
-1.0289815749068145   -0.07781856970318793   -0.07425840725657215
-0.7184085900854533   0.0961402865650744   0.0561263996972029
-0.7184085900854533   0.0961402865650744   0.0561263996972029
-0.7184085900854533   0.0961402865650744   0.0561263996972029
-0.7184085900854533   0.0961402865650744   0.0561263996972029
-0.8654722735654607   0.006497520540617641   0.020125956590838177
-0.8654722735654607   0.006497520540617641   0.020125956590838177
-0.8654722735654607   0.006497520540617641   0.020125956590838177
-0.8654722735654607   0.006497520540617641   0.020125956590838177
-0.7655792580712761   -0.02250312968177165   -0.06108352398505987
-0.7655792580712761   -0.02250312968177165   -0.06108352398505987
-0.7655792580712761   -0.02250312968177165   -0.06108352398505987
-0.7655792580712761   -0.02250312968177165   -0.06108352398505987
-0.9800110296580489   0.042624723806605536   0.05015102547745412
-0.9800110296580489   0.042624723806605536   0.05015102547745412
-0.9800110296580489   0.042624723806605536   0.05015102547745412
-0.9800110296580489   0.042624723806605536   0.05015102547745412
-0.9679955025332372   -0.04600247655464773   -0.08280111445356156
-0.9679955025332372   -0.04600247655464773   -0.08280111445356156
-0.9679955025332372   -0.04600247655464773   -0.08280111445356156
-0.9679955025332372   -0.04600247655464773   -0.08280111445356156
-0.695974698325692   0.11307062460617298   0.0467540682060895
-0.695974698325692   0.11307062460617298   0.0467540682060895
-0.695974698325692   0.11307062460617298   0.0467540682060895
-0.695974698325692   0.11307062460617298   0.0467540682060895
-0.8129276659252219   0.02743580297472073   0.0380623136789993
-0.8129276659252219   0.02743580297472073   0.0380623136789993
-0.8129276659252219   0.02743580297472073   0.0380623136789993
-0.8129276659252219   0.02743580297472073   0.0380623136789993
0.8691952989360512   0.07896334625443269   0.07547891618319125
0.8691952989360512   0.07896334625443269   0.07547891618319125
0.8691952989360512   0.07896334625443269   0.07547891618319125
0.8691952989360512   0.07896334625443269   0.07547891618319125
0.31843609901258924   -0.14464848726206006   -0.04968683950073508
0.31843609901258924   -0.14464848726206006   -0.04968683950073508
0.31843609901258924   -0.14464848726206006   -0.04968683950073508
0.31843609901258924   -0.14464848726206006   -0.04968683950073508
0.3933436657589908   -0.0008390081899522367   0.054315368143509596
0.3933436657589908   -0.0008390081899522367   0.054315368143509596
0.3933436657589908   -0.0008390081899522367   0.054315368143509596
0.3933436657589908   -0.0008390081899522367   0.054315368143509596
0.8850432185224172   -0.020185599502016538   -0.06342872301866771
0.8850432185224172   -0.020185599502016538   -0.06342872301866771
0.8850432185224172   -0.020185599502016538   -0.06342872301866771
0.8850432185224172   -0.020185599502016538   -0.06342872301866771
0.5785824540896681   -0.02621197030902546   -0.05589910049450955
0.5785824540896681   -0.02621197030902546   -0.05589910049450955
0.5785824540896681   -0.02621197030902546   -0.05589910049450955
0.5785824540896681   -0.02621197030902546   -0.05589910049450955
0.9369140881355064   0.11013333980466648   0.06560668574008757
0.9369140881355064   0.11013333980466648   0.06560668574008757
0.9369140881355064   0.11013333980466648   0.06560668574008757
0.9369140881355064   0.11013333980466648   0.06560668574008757
0.34514132386845237   -0.12748941977408518   -0.060045929725046035
0.34514132386845237   -0.12748941977408518   -0.060045929725046035
0.34514132386845237   -0.12748941977408518   -0.060045929725046035
0.34514132386845237   -0.12748941977408518   -0.060045929725046035
0.42293132422699553   0.016240785927831444   0.044796092588309334
0.42293132422699553   0.016240785927831444   0.044796092588309334
0.42293132422699553   0.016240785927831444   0.044796092588309334
0.42293132422699553   0.016240785927831444   0.044796092588309334
0.9389437718438526   -0.0007707695962240746   -0.07991816196428428
0.9389437718438526   -0.0007707695962240746   -0.07991816196428428
0.9389437718438526   -0.0007707695962240746   -0.07991816196428428
0.9389437718438526   -0.0007707695962240746   -0.07991816196428428
0.6348515483954993   -0.005236541866849326   -0.03384684604431798
0.6348515483954993   -0.005236541866849326   -0.03384684604431798
0.6348515483954993   -0.005236541866849326   -0.03384684604431798
0.6348515483954993   -0.005236541866849326   -0.03384684604431798
0.9913945988443927   0.1310727191850717   0.05049248425711344
0.9913945988443927   0.1310727191850717   0.05049248425711344
0.9913945988443927   0.1310727191850717   0.05049248425711344
0.9913945988443927   0.1310727191850717   0.05049248425711344
0.37438646572915674   -0.11169673435076419   -0.06999067962228911
0.37438646572915674   -0.11169673435076419   -0.06999067962228911
0.37438646572915674   -0.11169673435076419   -0.06999067962228911
0.37438646572915674   -0.11169673435076419   -0.06999067962228911
0.4524772464352362   0.053880400148975056   0.03882507392170749
0.4524772464352362   0.053880400148975056   0.03882507392170749
0.4524772464352362   0.053880400148975056   0.03882507392170749
0.4524772464352362   0.053880400148975056   0.03882507392170749
1.0097159404249663   0.04986512133129825   -0.08621498008708935
1.0097159404249663   0.04986512133129825   -0.08621498008708935
1.0097159404249663   0.04986512133129825   -0.08621498008708935
1.0097159404249663   0.04986512133129825   -0.08621498008708935
0.6696150061773083   0.02027325336623792   -0.014761452136478878
0.6696150061773083   0.02027325336623792   -0.014761452136478878
0.6696150061773083   0.02027325336623792   -0.014761452136478878
0.6696150061773083   0.02027325336623792   -0.014761452136478878
0.3782006946202089   0.044194229767962896   0.06029342150733624
0.3782006946202089   0.044194229767962896   0.06029342150733624
0.3782006946202089   0.044194229767962896   0.06029342150733624
0.3782006946202089   0.044194229767962896   0.06029342150733624
-0.18409420245122246   -0.13495814332171158   -0.026022742836966355
-0.18409420245122246   -0.13495814332171158   -0.026022742836966355
-0.18409420245122246   -0.13495814332171158   -0.026022742836966355
-0.18409420245122246   -0.13495814332171158   -0.026022742836966355
-0.1325562934615057   -0.03948975563240187   0.01827252720593709
-0.1325562934615057   -0.03948975563240187   0.01827252720593709
-0.1325562934615057   -0.03948975563240187   0.01827252720593709
-0.1325562934615057   -0.03948975563240187   0.01827252720593709
0.38125007631470686   0.001002299433367479   -0.007993886701226045
0.38125007631470686   0.001002299433367479   -0.007993886701226045
0.38125007631470686   0.001002299433367479   -0.007993886701226045
0.38125007631470686   0.001002299433367479   -0.007993886701226045
0.10572564284706162   -0.02856165085526948   -0.023829747453098096
0.10572564284706162   -0.02856165085526948   -0.023829747453098096
0.10572564284706162   -0.02856165085526948   -0.023829747453098096
0.10572564284706162   -0.02856165085526948   -0.023829747453098096
0.4085895120136592   0.07585501522235297   0.05385057600454637
0.4085895120136592   0.07585501522235297   0.05385057600454637
0.4085895120136592   0.07585501522235297   0.05385057600454637
0.4085895120136592   0.07585501522235297   0.05385057600454637
-0.15768836449256152   -0.11213510675349148   -0.03474247682825248
-0.15768836449256152   -0.11213510675349148   -0.03474247682825248
-0.15768836449256152   -0.11213510675349148   -0.03474247682825248
-0.15768836449256152   -0.11213510675349148   -0.03474247682825248
-0.10498995498471908   -0.00753486693189933   0.011553829121560062
-0.10498995498471908   -0.00753486693189933   0.011553829121560062
-0.10498995498471908   -0.00753486693189933   0.011553829121560062
-0.10498995498471908   -0.00753486693189933   0.011553829121560062
0.4136792843175165   0.029680943874301306   -0.01490426490555591
0.4136792843175165   0.029680943874301306   -0.01490426490555591
0.4136792843175165   0.029680943874301306   -0.01490426490555591
0.4136792843175165   0.029680943874301306   -0.01490426490555591
0.1323637109214142   -0.003307273730702359   -0.009478002011101976
0.1323637109214142   -0.003307273730702359   -0.009478002011101976
0.1323637109214142   -0.003307273730702359   -0.009478002011101976
0.1323637109214142   -0.003307273730702359   -0.009478002011101976
0.4421115824835187   0.10913525724765626   0.04780291255110023
0.4421115824835187   0.10913525724765626   0.04780291255110023
0.4421115824835187   0.10913525724765626   0.04780291255110023
0.4421115824835187   0.10913525724765626   0.04780291255110023
-0.13120951827157307   -0.08477644542610605   -0.042302408818503105
-0.13120951827157307   -0.08477644542610605   -0.042302408818503105
-0.13120951827157307   -0.08477644542610605   -0.042302408818503105
-0.13120951827157307   -0.08477644542610605   -0.042302408818503105
-0.07777219392368939   0.029475178745941213   0.004865174439766784
-0.07777219392368939   0.029475178745941213   0.004865174439766784
-0.07777219392368939   0.029475178745941213   0.004865174439766784
-0.07777219392368939   0.029475178745941213   0.004865174439766784
0.44244531295319445   0.06382114163983531   -0.02127533497936168
0.44244531295319445   0.06382114163983531   -0.02127533497936168
0.44244531295319445   0.06382114163983531   -0.02127533497936168
0.44244531295319445   0.06382114163983531   -0.02127533497936168
0.16525069835419495   0.027655381999885868   0.00727484940403866
0.16525069835419495   0.027655381999885868   0.00727484940403866
0.16525069835419495   0.027655381999885868   0.00727484940403866
0.16525069835419495   0.027655381999885868   0.00727484940403866
-0.1448593201417217   0.00956971032704304   0.025623815061782865
-0.1448593201417217   0.00956971032704304   0.025623815061782865
-0.1448593201417217   0.00956971032704304   0.025623815061782865
-0.1448593201417217   0.00956971032704304   0.025623815061782865
-0.6766448296957202   -0.11914510239831691   -0.003426923317569724
-0.6766448296957202   -0.11914510239831691   -0.003426923317569724
-0.6766448296957202   -0.11914510239831691   -0.003426923317569724
-0.6766448296957202   -0.11914510239831691   -0.003426923317569724
-0.643949258798432   -0.07012367589899504   -0.01590217863573201
-0.643949258798432   -0.07012367589899504   -0.01590217863573201
-0.643949258798432   -0.07012367589899504   -0.01590217863573201
-0.643949258798432   -0.07012367589899504   -0.01590217863573201
-0.1213707543594234   0.017664076365175654   0.0170463907187709
-0.1213707543594234   0.017664076365175654   0.0170463907187709
-0.1213707543594234   0.017664076365175654   0.0170463907187709
-0.1213707543594234   0.017664076365175654   0.0170463907187709
-0.3974048646061667   -0.036639917787133165   -0.014874367363450812
-0.3974048646061667   -0.036639917787133165   -0.014874367363450812
-0.3974048646061667   -0.036639917787133165   -0.014874367363450812
-0.3974048646061667   -0.036639917787133165   -0.014874367363450812
-0.11592944055892462   0.04253677557778412   0.019380260508656405
-0.11592944055892462   0.04253677557778412   0.019380260508656405
-0.11592944055892462   0.04253677557778412   0.019380260508656405
-0.11592944055892462   0.04253677557778412   0.019380260508656405
-0.6479184140146304   -0.09352421652730308   -0.012347414088415802
-0.6479184140146304   -0.09352421652730308   -0.012347414088415802
-0.6479184140146304   -0.09352421652730308   -0.012347414088415802
-0.6479184140146304   -0.09352421652730308   -0.012347414088415802
-0.6135685539649117   -0.035064070064723216   -0.02148347712862939
-0.6135685539649117   -0.035064070064723216   -0.02148347712862939
-0.6135685539649117   -0.035064070064723216   -0.02148347712862939
-0.6135685539649117   -0.035064070064723216   -0.02148347712862939
-0.09453881068894412   0.04663352365446859   0.00964116001406301
-0.09453881068894412   0.04663352365446859   0.00964116001406301
-0.09453881068894412   0.04663352365446859   0.00964116001406301
-0.09453881068894412   0.04663352365446859   0.00964116001406301
-0.36676389853257646   -0.007304930660684203   -0.00022929127170219152
-0.36676389853257646   -0.007304930660684203   -0.00022929127170219152
-0.36676389853257646   -0.007304930660684203   -0.00022929127170219152
-0.36676389853257646   -0.007304930660684203   -0.00022929127170219152
-0.08797335446147253   0.07681004851905703   0.01229191628683255
-0.08797335446147253   0.07681004851905703   0.01229191628683255
-0.08797335446147253   0.07681004851905703   0.01229191628683255
-0.08797335446147253   0.07681004851905703   0.01229191628683255
-0.6187661487680686   -0.06387273350499682   -0.01866278770413964
-0.6187661487680686   -0.06387273350499682   -0.01866278770413964
-0.6187661487680686   -0.06387273350499682   -0.01866278770413964
-0.6187661487680686   -0.06387273350499682   -0.01866278770413964
-0.5852896460040842   -0.0001232048291898158   -0.028157754075475133
-0.5852896460040842   -0.0001232048291898158   -0.028157754075475133
-0.5852896460040842   -0.0001232048291898158   -0.028157754075475133
-0.5852896460040842   -0.0001232048291898158   -0.028157754075475133
-0.06892480578710354   0.07622289258752425   0.002354401281116858
-0.06892480578710354   0.07622289258752425   0.002354401281116858
-0.06892480578710354   0.07622289258752425   0.002354401281116858
-0.06892480578710354   0.07622289258752425   0.002354401281116858
-0.33861489649744525   0.02191918314481804   0.013707482460191187
-0.33861489649744525   0.02191918314481804   0.013707482460191187
-0.33861489649744525   0.02191918314481804   0.013707482460191187
-0.33861489649744525   0.02191918314481804   0.013707482460191187
-0.6593154461091114   -0.025812022387307176   -0.01011308539553031
-0.6593154461091114   -0.025812022387307176   -0.01011308539553031
-0.6593154461091114   -0.025812022387307176   -0.01011308539553031
-0.6593154461091114   -0.025812022387307176   -0.01011308539553031
-1.1578938377594212   -0.0964993386793937   0.0223906544582506
-1.1578938377594212   -0.0964993386793937   0.0223906544582506
-1.1578938377594212   -0.0964993386793937   0.0223906544582506
-1.1578938377594212   -0.0964993386793937   0.0223906544582506
-1.141954432068189   -0.09954210100261335   -0.047854393964827324
-1.141954432068189   -0.09954210100261335   -0.047854393964827324
-1.141954432068189   -0.09954210100261335   -0.047854393964827324
-1.141954432068189   -0.09954210100261335   -0.047854393964827324
-0.6092045556363284   0.04483959108485455   0.04285807019094214
-0.6092045556363284   0.04483959108485455   0.04285807019094214
-0.6092045556363284   0.04483959108485455   0.04285807019094214
-0.6092045556363284   0.04483959108485455   0.04285807019094214
-0.8859199941549017   -0.03867125343645397   -0.005182696799770396
-0.8859199941549017   -0.03867125343645397   -0.005182696799770396
-0.8859199941549017   -0.03867125343645397   -0.005182696799770396
-0.8859199941549017   -0.03867125343645397   -0.005182696799770396
-0.6278648999124046   0.009771560167165294   -0.015375620271749477
-0.6278648999124046   0.009771560167165294   -0.015375620271749477
-0.6278648999124046   0.009771560167165294   -0.015375620271749477
-0.6278648999124046   0.009771560167165294   -0.015375620271749477
-1.1232246413672193   -0.06440462366002378   0.010657082197441485
-1.1232246413672193   -0.06440462366002378   0.010657082197441485
-1.1232246413672193   -0.06440462366002378   0.010657082197441485
-1.1232246413672193   -0.06440462366002378   0.010657082197441485
-1.1022642930847963   -0.06528435258956802   -0.052929668733593366
-1.1022642930847963   -0.06528435258956802   -0.052929668733593366
-1.1022642930847963   -0.06528435258956802   -0.052929668733593366
-1.1022642930847963   -0.06528435258956802   -0.052929668733593366
-0.5809156502248984   0.07246582460977316   0.03425114689694659
-0.5809156502248984   0.07246582460977316   0.03425114689694659
-0.5809156502248984   0.07246582460977316   0.03425114689694659
-0.5809156502248984   0.07246582460977316   0.03425114689694659
-0.845552976158463   -0.006245149588721549   0.00950093113387264
-0.845552976158463   -0.006245149588721549   0.00950093113387264
-0.845552976158463   -0.006245149588721549   0.00950093113387264
-0.845552976158463   -0.006245149588721549   0.00950093113387264
-0.5984324783999105   0.04157875851704926   -0.022445927885392583
-0.5984324783999105   0.04157875851704926   -0.022445927885392583
-0.5984324783999105   0.04157875851704926   -0.022445927885392583
-0.5984324783999105   0.04157875851704926   -0.022445927885392583
-1.0838271247298854   -0.033476946316946005   0.007448766768337729
-1.0838271247298854   -0.033476946316946005   0.007448766768337729
-1.0838271247298854   -0.033476946316946005   0.007448766768337729
-1.0838271247298854   -0.033476946316946005   0.007448766768337729
-1.0667732345162046   -0.028145570043665136   -0.05564887796198068
-1.0667732345162046   -0.028145570043665136   -0.05564887796198068
-1.0667732345162046   -0.028145570043665136   -0.05564887796198068
-1.0667732345162046   -0.028145570043665136   -0.05564887796198068
-0.5535168808707522   0.10285104515473126   0.02773182160726846
-0.5535168808707522   0.10285104515473126   0.02773182160726846
-0.5535168808707522   0.10285104515473126   0.02773182160726846
-0.5535168808707522   0.10285104515473126   0.02773182160726846
-0.8182183555938796   0.021482581493608183   0.02217001378707195
-0.8182183555938796   0.021482581493608183   0.02217001378707195
-0.8182183555938796   0.021482581493608183   0.02217001378707195
-0.8182183555938796   0.021482581493608183   0.02217001378707195
-1.1627888502254142   -0.05539240762946829   -0.043191338921639524
-1.1627888502254142   -0.05539240762946829   -0.043191338921639524
-1.1627888502254142   -0.05539240762946829   -0.043191338921639524
-1.1627888502254142   -0.05539240762946829   -0.043191338921639524
-1.6571328724225618   -0.059738255511182725   0.07485498597663673
-1.6571328724225618   -0.059738255511182725   0.07485498597663673
-1.6571328724225618   -0.059738255511182725   0.07485498597663673
-1.6571328724225618   -0.059738255511182725   0.07485498597663673
-1.6251747148100193   -0.11916643315529787   -0.05719966362436479
-1.6251747148100193   -0.11916643315529787   -0.05719966362436479
-1.6251747148100193   -0.11916643315529787   -0.05719966362436479
-1.6251747148100193   -0.11916643315529787   -0.05719966362436479
-1.0787126406777712   0.09273808364515745   0.07607437833949084
-1.0787126406777712   0.09273808364515745   0.07607437833949084
-1.0787126406777712   0.09273808364515745   0.07607437833949084
-1.0787126406777712   0.09273808364515745   0.07607437833949084
-1.3197078916006073   -0.01631613481539057   0.015259783431392115
-1.3197078916006073   -0.01631613481539057   0.015259783431392115
-1.3197078916006073   -0.01631613481539057   0.015259783431392115
-1.3197078916006073   -0.01631613481539057   0.015259783431392115
-1.125558897046096   -0.017405917374195196   -0.04801290248277495
-1.125558897046096   -0.017405917374195196   -0.04801290248277495
-1.125558897046096   -0.017405917374195196   -0.04801290248277495
-1.125558897046096   -0.017405917374195196   -0.04801290248277495
-1.577561207177736   -0.008255180871987622   0.06995662225373035
-1.577561207177736   -0.008255180871987622   0.06995662225373035
-1.577561207177736   -0.008255180871987622   0.06995662225373035
-1.577561207177736   -0.008255180871987622   0.06995662225373035
-1.5651413683776705   -0.09790323160647973   -0.06735841286832002
-1.5651413683776705   -0.09790323160647973   -0.06735841286832002
-1.5651413683776705   -0.09790323160647973   -0.06735841286832002
-1.5651413683776705   -0.09790323160647973   -0.06735841286832002
-1.045395783855353   0.10585395532686209   0.06027456949719193
-1.045395783855353   0.10585395532686209   0.06027456949719193
-1.045395783855353   0.10585395532686209   0.06027456949719193
-1.045395783855353   0.10585395532686209   0.06027456949719193
-1.2886713952112452   0.00689053036923476   0.02748946802131151
-1.2886713952112452   0.00689053036923476   0.02748946802131151
-1.2886713952112452   0.00689053036923476   0.02748946802131151
-1.2886713952112452   0.00689053036923476   0.02748946802131151
-1.089598429913317   -0.0002499186942483411   -0.05463478677151666
-1.089598429913317   -0.0002499186942483411   -0.05463478677151666
-1.089598429913317   -0.0002499186942483411   -0.05463478677151666
-1.089598429913317   -0.0002499186942483411   -0.05463478677151666
-1.5201751575618931   0.008964207172429961   0.0506052024316328
-1.5201751575618931   0.008964207172429961   0.0506052024316328
-1.5201751575618931   0.008964207172429961   0.0506052024316328
-1.5201751575618931   0.008964207172429961   0.0506052024316328
-1.4995431206524727   -0.07234368853849088   -0.07674907519044911
-1.4995431206524727   -0.07234368853849088   -0.07674907519044911
-1.4995431206524727   -0.07234368853849088   -0.07674907519044911
-1.4995431206524727   -0.07234368853849088   -0.07674907519044911
-1.0161067759205242   0.11820801598263103   0.051329828990125365
-1.0161067759205242   0.11820801598263103   0.051329828990125365
-1.0161067759205242   0.11820801598263103   0.051329828990125365
-1.0161067759205242   0.11820801598263103   0.051329828990125365
-1.2225183483668762   0.02619076447887919   0.04595454077617388
-1.2225183483668762   0.02619076447887919   0.04595454077617388
-1.2225183483668762   0.02619076447887919   0.04595454077617388
-1.2225183483668762   0.02619076447887919   0.04595454077617388
1.4600116952484152   0.10908793576108236   0.07741967937915095
1.4600116952484152   0.10908793576108236   0.07741967937915095
1.4600116952484152   0.10908793576108236   0.07741967937915095
1.4600116952484152   0.10908793576108236   0.07741967937915095
0.644150207485734   -0.17208338514843302   -0.0355457053371661
0.644150207485734   -0.17208338514843302   -0.0355457053371661
0.644150207485734   -0.17208338514843302   -0.0355457053371661
0.644150207485734   -0.17208338514843302   -0.0355457053371661
0.718364696292466   -0.030197754023690404   0.053189026602914205
0.718364696292466   -0.030197754023690404   0.053189026602914205
0.718364696292466   -0.030197754023690404   0.053189026602914205
0.718364696292466   -0.030197754023690404   0.053189026602914205
1.4761861498686801   -0.0028487087854737747   -0.055735648676359426
1.4761861498686801   -0.0028487087854737747   -0.055735648676359426
1.4761861498686801   -0.0028487087854737747   -0.055735648676359426
1.4761861498686801   -0.0028487087854737747   -0.055735648676359426
1.0117252199182611   -0.03073046737043547   -0.07918519080334069
1.0117252199182611   -0.03073046737043547   -0.07918519080334069
1.0117252199182611   -0.03073046737043547   -0.07918519080334069
1.0117252199182611   -0.03073046737043547   -0.07918519080334069
1.5276530067854506   0.13397674014893718   0.0647731869730676
1.5276530067854506   0.13397674014893718   0.0647731869730676
1.5276530067854506   0.13397674014893718   0.0647731869730676
1.5276530067854506   0.13397674014893718   0.0647731869730676
0.6718389535149034   -0.16208208881889452   -0.04755535248968658
0.6718389535149034   -0.16208208881889452   -0.04755535248968658
0.6718389535149034   -0.16208208881889452   -0.04755535248968658
0.6718389535149034   -0.16208208881889452   -0.04755535248968658
0.7474130000669394   -0.014491701734225176   0.043007949122623367
0.7474130000669394   -0.014491701734225176   0.043007949122623367
0.7474130000669394   -0.014491701734225176   0.043007949122623367
0.7474130000669394   -0.014491701734225176   0.043007949122623367
1.526909924403736   0.014472211602267138   -0.0696564137611503
1.526909924403736   0.014472211602267138   -0.0696564137611503
1.526909924403736   0.014472211602267138   -0.0696564137611503
1.526909924403736   0.014472211602267138   -0.0696564137611503
1.075396256502666   -0.01221334406560301   -0.05385355337492242
1.075396256502666   -0.01221334406560301   -0.05385355337492242
1.075396256502666   -0.01221334406560301   -0.05385355337492242
1.075396256502666   -0.01221334406560301   -0.05385355337492242
1.5780777709254366   0.152642223919061   0.04801280653055725
1.5780777709254366   0.152642223919061   0.04801280653055725
1.5780777709254366   0.152642223919061   0.04801280653055725
1.5780777709254366   0.152642223919061   0.04801280653055725
0.7005712515639291   -0.14833561603231882   -0.05735687909433407
0.7005712515639291   -0.14833561603231882   -0.05735687909433407
0.7005712515639291   -0.14833561603231882   -0.05735687909433407
0.7005712515639291   -0.14833561603231882   -0.05735687909433407
0.7737240593507114   0.027451019091979445   0.037706389790571324
0.7737240593507114   0.027451019091979445   0.037706389790571324
0.7737240593507114   0.027451019091979445   0.037706389790571324
0.7737240593507114   0.027451019091979445   0.037706389790571324
1.5893029189666603   0.06514700337195722   -0.07295020133424661
1.5893029189666603   0.06514700337195722   -0.07295020133424661
1.5893029189666603   0.06514700337195722   -0.07295020133424661
1.5893029189666603   0.06514700337195722   -0.07295020133424661
1.0992565552403102   0.012706408875702457   -0.03631056660549643
1.0992565552403102   0.012706408875702457   -0.03631056660549643
1.0992565552403102   0.012706408875702457   -0.03631056660549643
1.0992565552403102   0.012706408875702457   -0.03631056660549643
0.7125902739490297   0.06374795740992202   0.07082328442094943
0.7125902739490297   0.06374795740992202   0.07082328442094943
0.7125902739490297   0.06374795740992202   0.07082328442094943
0.7125902739490297   0.06374795740992202   0.07082328442094943
-0.08785532363344914   -0.21208574884851686   -0.020233173203363763
-0.08785532363344914   -0.21208574884851686   -0.020233173203363763
-0.08785532363344914   -0.21208574884851686   -0.020233173203363763
-0.08785532363344914   -0.21208574884851686   -0.020233173203363763
-0.02391092681045448   -0.0748229329795062   0.018040954359628318
-0.02391092681045448   -0.0748229329795062   0.018040954359628318
-0.02391092681045448   -0.0748229329795062   0.018040954359628318
-0.02391092681045448   -0.0748229329795062   0.018040954359628318
0.7065964538263483   -0.03934180059334014   0.003491860841975336
0.7065964538263483   -0.03934180059334014   0.003491860841975336
0.7065964538263483   -0.03934180059334014   0.003491860841975336
0.7065964538263483   -0.03934180059334014   0.003491860841975336
0.317999587233375   -0.05918264233416527   -0.03776684891159733
0.317999587233375   -0.05918264233416527   -0.03776684891159733
0.317999587233375   -0.05918264233416527   -0.03776684891159733
0.317999587233375   -0.05918264233416527   -0.03776684891159733
0.7438445883536726   0.08766510479870476   0.062725628086556
0.7438445883536726   0.08766510479870476   0.062725628086556
0.7438445883536726   0.08766510479870476   0.062725628086556
0.7438445883536726   0.08766510479870476   0.062725628086556
-0.05855784233357571   -0.19922861936734731   -0.030787936868136686
-0.05855784233357571   -0.19922861936734731   -0.030787936868136686
-0.05855784233357571   -0.19922861936734731   -0.030787936868136686
-0.05855784233357571   -0.19922861936734731   -0.030787936868136686
0.005711789653106236   -0.0467279031324516   0.01101899472508981
0.005711789653106236   -0.0467279031324516   0.01101899472508981
0.005711789653106236   -0.0467279031324516   0.01101899472508981
0.005711789653106236   -0.0467279031324516   0.01101899472508981
0.7369272994936957   -0.018159158289725807   -0.005753097188094386
0.7369272994936957   -0.018159158289725807   -0.005753097188094386
0.7369272994936957   -0.018159158289725807   -0.005753097188094386
0.7369272994936957   -0.018159158289725807   -0.005753097188094386
0.343740789530368   -0.04193523152361979   -0.024486932082522093
0.343740789530368   -0.04193523152361979   -0.024486932082522093
0.343740789530368   -0.04193523152361979   -0.024486932082522093
0.343740789530368   -0.04193523152361979   -0.024486932082522093
0.7761767545697168   0.11635691240525803   0.055978107497027335
0.7761767545697168   0.11635691240525803   0.055978107497027335
0.7761767545697168   0.11635691240525803   0.055978107497027335
0.7761767545697168   0.11635691240525803   0.055978107497027335
-0.03199274813965969   -0.17969905654418022   -0.04453254082701116
-0.03199274813965969   -0.17969905654418022   -0.04453254082701116
-0.03199274813965969   -0.17969905654418022   -0.04453254082701116
-0.03199274813965969   -0.17969905654418022   -0.04453254082701116
0.02896314823139327   -0.013836189161656735   0.003920175734979253
0.02896314823139327   -0.013836189161656735   0.003920175734979253
0.02896314823139327   -0.013836189161656735   0.003920175734979253
0.02896314823139327   -0.013836189161656735   0.003920175734979253
0.7596415990989708   0.008850661670584486   -0.01410555404674508
0.7596415990989708   0.008850661670584486   -0.01410555404674508
0.7596415990989708   0.008850661670584486   -0.01410555404674508
0.7596415990989708   0.008850661670584486   -0.01410555404674508
0.3752437495668702   -0.01614192761742289   -0.01024682818412257
0.3752437495668702   -0.01614192761742289   -0.01024682818412257
0.3752437495668702   -0.01614192761742289   -0.01024682818412257
0.3752437495668702   -0.01614192761742289   -0.01024682818412257
-0.030808106213980703   0.017742549975531027   0.03517461506993052
-0.030808106213980703   0.017742549975531027   0.03517461506993052
-0.030808106213980703   0.017742549975531027   0.03517461506993052
-0.030808106213980703   0.017742549975531027   0.03517461506993052
-0.8142216597917467   -0.26622896503546356   -0.01628782450957693
-0.8142216597917467   -0.26622896503546356   -0.01628782450957693
-0.8142216597917467   -0.26622896503546356   -0.01628782450957693
-0.8142216597917467   -0.26622896503546356   -0.01628782450957693
-0.7495058080828254   -0.11479815856907515   -0.01712973022914244
-0.7495058080828254   -0.11479815856907515   -0.01712973022914244
-0.7495058080828254   -0.11479815856907515   -0.01712973022914244
-0.7495058080828254   -0.11479815856907515   -0.01712973022914244
-0.02773919024287965   -0.09177541585538102   0.015852120073377295
-0.02773919024287965   -0.09177541585538102   0.015852120073377295
-0.02773919024287965   -0.09177541585538102   0.015852120073377295
-0.02773919024287965   -0.09177541585538102   0.015852120073377295
-0.4074188279404003   -0.10766784180460366   -0.033745016973403305
-0.4074188279404003   -0.10766784180460366   -0.033745016973403305
-0.4074188279404003   -0.10766784180460366   -0.033745016973403305
-0.4074188279404003   -0.10766784180460366   -0.033745016973403305
0.0020925117134335917   0.04466207852993137   0.02857313546963111
0.0020925117134335917   0.04466207852993137   0.02857313546963111
0.0020925117134335917   0.04466207852993137   0.02857313546963111
0.0020925117134335917   0.04466207852993137   0.02857313546963111
-0.7774600171981739   -0.24935816011341255   -0.02234077426154756
-0.7774600171981739   -0.24935816011341255   -0.02234077426154756
-0.7774600171981739   -0.24935816011341255   -0.02234077426154756
-0.7774600171981739   -0.24935816011341255   -0.02234077426154756
-0.7127662381967372   -0.08360689684767242   -0.02333351498891028
-0.7127662381967372   -0.08360689684767242   -0.02333351498891028
-0.7127662381967372   -0.08360689684767242   -0.02333351498891028
-0.7127662381967372   -0.08360689684767242   -0.02333351498891028
-0.00013923858848517365   -0.07142129780805748   0.006457248192738626
-0.00013923858848517365   -0.07142129780805748   0.006457248192738626
-0.00013923858848517365   -0.07142129780805748   0.006457248192738626
-0.00013923858848517365   -0.07142129780805748   0.006457248192738626
-0.3717537034061223   -0.08524765058651251   -0.018748466709198712
-0.3717537034061223   -0.08524765058651251   -0.018748466709198712
-0.3717537034061223   -0.08524765058651251   -0.018748466709198712
-0.3717537034061223   -0.08524765058651251   -0.018748466709198712
0.03220058973577894   0.07450015844817769   0.02223493355782404
0.03220058973577894   0.07450015844817769   0.02223493355782404
0.03220058973577894   0.07450015844817769   0.02223493355782404
0.03220058973577894   0.07450015844817769   0.02223493355782404
-0.7451234900569679   -0.2295457766398629   -0.03918089449786717
-0.7451234900569679   -0.2295457766398629   -0.03918089449786717
-0.7451234900569679   -0.2295457766398629   -0.03918089449786717
-0.7451234900569679   -0.2295457766398629   -0.03918089449786717
-0.686805033185924   -0.05387837158938087   -0.030271692204588304
-0.686805033185924   -0.05387837158938087   -0.030271692204588304
-0.686805033185924   -0.05387837158938087   -0.030271692204588304
-0.686805033185924   -0.05387837158938087   -0.030271692204588304
0.017987145600103702   -0.05516606317741905   -0.00962996340570625
0.017987145600103702   -0.05516606317741905   -0.00962996340570625
0.017987145600103702   -0.05516606317741905   -0.00962996340570625
0.017987145600103702   -0.05516606317741905   -0.00962996340570625
-0.3455930181151832   -0.06434202547627653   -0.009366566993707645
-0.3455930181151832   -0.06434202547627653   -0.009366566993707645
-0.3455930181151832   -0.06434202547627653   -0.009366566993707645
-0.3455930181151832   -0.06434202547627653   -0.009366566993707645
-0.7623724573469117   -0.022106124127274113   -0.0011646531935994991
-0.7623724573469117   -0.022106124127274113   -0.0011646531935994991
-0.7623724573469117   -0.022106124127274113   -0.0011646531935994991
-0.7623724573469117   -0.022106124127274113   -0.0011646531935994991
-1.5438862431761695   -0.2862280187750834   -0.013113632327192315
-1.5438862431761695   -0.2862280187750834   -0.013113632327192315
-1.5438862431761695   -0.2862280187750834   -0.013113632327192315
-1.5438862431761695   -0.2862280187750834   -0.013113632327192315
-1.4743558992601433   -0.14696111427010403   -0.05099411296003587
-1.4743558992601433   -0.14696111427010403   -0.05099411296003587
-1.4743558992601433   -0.14696111427010403   -0.05099411296003587
-1.4743558992601433   -0.14696111427010403   -0.05099411296003587
-0.7354588918436405   -0.09533652474119719   0.033643217138896786
-0.7354588918436405   -0.09533652474119719   0.033643217138896786
-0.7354588918436405   -0.09533652474119719   0.033643217138896786
-0.7354588918436405   -0.09533652474119719   0.033643217138896786
-1.1191213141774932   -0.12940412387571276   -0.023789009248036955
-1.1191213141774932   -0.12940412387571276   -0.023789009248036955
-1.1191213141774932   -0.12940412387571276   -0.023789009248036955
-1.1191213141774932   -0.12940412387571276   -0.023789009248036955
-0.7217863669718941   0.012571231775699354   -0.005901915019268074
-0.7217863669718941   0.012571231775699354   -0.005901915019268074
-0.7217863669718941   0.012571231775699354   -0.005901915019268074
-0.7217863669718941   0.012571231775699354   -0.005901915019268074
-1.4886320522979715   -0.25547249895309054   -0.013863493466177622
-1.4886320522979715   -0.25547249895309054   -0.013863493466177622
-1.4886320522979715   -0.25547249895309054   -0.013863493466177622
-1.4886320522979715   -0.25547249895309054   -0.013863493466177622
-1.42184646677739   -0.11438316636524173   -0.05906299142563625
-1.42184646677739   -0.11438316636524173   -0.05906299142563625
-1.42184646677739   -0.11438316636524173   -0.05906299142563625
-1.42184646677739   -0.11438316636524173   -0.05906299142563625
-0.6997733442229828   -0.07087011193664838   0.028894169968843503
-0.6997733442229828   -0.07087011193664838   0.028894169968843503
-0.6997733442229828   -0.07087011193664838   0.028894169968843503
-0.6997733442229828   -0.07087011193664838   0.028894169968843503
-1.0651724986368274   -0.0981488824411246   -0.00783472855192189
-1.0651724986368274   -0.0981488824411246   -0.00783472855192189
-1.0651724986368274   -0.0981488824411246   -0.00783472855192189
-1.0651724986368274   -0.0981488824411246   -0.00783472855192189
-0.6849580303588452   0.04268937056180769   -0.010588743208934069
-0.6849580303588452   0.04268937056180769   -0.010588743208934069
-0.6849580303588452   0.04268937056180769   -0.010588743208934069
-0.6849580303588452   0.04268937056180769   -0.010588743208934069
-1.4391996360509718   -0.23048050427315173   -0.029731499885623007
-1.4391996360509718   -0.23048050427315173   -0.029731499885623007
-1.4391996360509718   -0.23048050427315173   -0.029731499885623007
-1.4391996360509718   -0.23048050427315173   -0.029731499885623007
-1.3792297866611232   -0.08002622457885511   -0.06094162127029239
-1.3792297866611232   -0.08002622457885511   -0.06094162127029239
-1.3792297866611232   -0.08002622457885511   -0.06094162127029239
-1.3792297866611232   -0.08002622457885511   -0.06094162127029239
-0.679271016708827   -0.0553156140901753   0.008835632681698541
-0.679271016708827   -0.0553156140901753   0.008835632681698541
-0.679271016708827   -0.0553156140901753   0.008835632681698541
-0.679271016708827   -0.0553156140901753   0.008835632681698541
-1.0353733340464666   -0.0790920520051197   -0.00263166928364153
-1.0353733340464666   -0.0790920520051197   -0.00263166928364153
-1.0353733340464666   -0.0790920520051197   -0.00263166928364153
-1.0353733340464666   -0.0790920520051197   -0.00263166928364153
-1.5016902889718982   -0.05107759336046774   -0.03728428672045189
-1.5016902889718982   -0.05107759336046774   -0.03728428672045189
-1.5016902889718982   -0.05107759336046774   -0.03728428672045189
-1.5016902889718982   -0.05107759336046774   -0.03728428672045189
-2.264334210011965   -0.19340231169284972   0.08574941691935976
-2.264334210011965   -0.19340231169284972   0.08574941691935976
-2.264334210011965   -0.19340231169284972   0.08574941691935976
-2.264334210011965   -0.19340231169284972   0.08574941691935976
-2.1864505129034573   -0.15399640069931148   -0.04986017115716811
-2.1864505129034573   -0.15399640069931148   -0.04986017115716811
-2.1864505129034573   -0.15399640069931148   -0.04986017115716811
-2.1864505129034573   -0.15399640069931148   -0.04986017115716811
-1.4109267135685468   0.04038901989873589   0.07880168132909535
-1.4109267135685468   0.04038901989873589   0.07880168132909535
-1.4109267135685468   0.04038901989873589   0.07880168132909535
-1.4109267135685468   0.04038901989873589   0.07880168132909535
-1.7585066145763055   -0.06072936966420456   0.008343803145516651
-1.7585066145763055   -0.06072936966420456   0.008343803145516651
-1.7585066145763055   -0.06072936966420456   0.008343803145516651
-1.7585066145763055   -0.06072936966420456   0.008343803145516651
-1.4437807622057657   -0.0037552705999904235   -0.041324271358254214
-1.4437807622057657   -0.0037552705999904235   -0.041324271358254214
-1.4437807622057657   -0.0037552705999904235   -0.041324271358254214
-1.4437807622057657   -0.0037552705999904235   -0.041324271358254214
-2.1482971760055833   -0.10455282193992743   0.09146293457281532
-2.1482971760055833   -0.10455282193992743   0.09146293457281532
-2.1482971760055833   -0.10455282193992743   0.09146293457281532
-2.1482971760055833   -0.10455282193992743   0.09146293457281532
-2.102910394030867   -0.1295794962460322   -0.05937807819170404
-2.102910394030867   -0.1295794962460322   -0.05937807819170404
-2.102910394030867   -0.1295794962460322   -0.05937807819170404
-2.102910394030867   -0.1295794962460322   -0.05937807819170404
-1.3589901902173567   0.06472987189060492   0.07610535311868363
-1.3589901902173567   0.06472987189060492   0.07610535311868363
-1.3589901902173567   0.06472987189060492   0.07610535311868363
-1.3589901902173567   0.06472987189060492   0.07610535311868363
-1.7091264375250927   -0.024498144023768653   0.03500480255302828
-1.7091264375250927   -0.024498144023768653   0.03500480255302828
-1.7091264375250927   -0.024498144023768653   0.03500480255302828
-1.7091264375250927   -0.024498144023768653   0.03500480255302828
-1.3930114338057396   0.015351427375686288   -0.044622420308300464
-1.3930114338057396   0.015351427375686288   -0.044622420308300464
-1.3930114338057396   0.015351427375686288   -0.044622420308300464
-1.3930114338057396   0.015351427375686288   -0.044622420308300464
-2.067821662294852   -0.07913356358348222   0.06561964782580428
-2.067821662294852   -0.07913356358348222   0.06561964782580428
-2.067821662294852   -0.07913356358348222   0.06561964782580428
-2.067821662294852   -0.07913356358348222   0.06561964782580428
-2.016519937729174   -0.10649156373373508   -0.07175490778305563
-2.016519937729174   -0.10649156373373508   -0.07175490778305563
-2.016519937729174   -0.10649156373373508   -0.07175490778305563
-2.016519937729174   -0.10649156373373508   -0.07175490778305563
-1.3204791149967976   0.09389733941053136   0.05888817306194838
-1.3204791149967976   0.09389733941053136   0.05888817306194838
-1.3204791149967976   0.09389733941053136   0.05888817306194838
-1.3204791149967976   0.09389733941053136   0.05888817306194838
-1.6162745852609532   0.006482563272036834   0.06169279313074995
-1.6162745852609532   0.006482563272036834   0.06169279313074995
-1.6162745852609532   0.006482563272036834   0.06169279313074995
-1.6162745852609532   0.006482563272036834   0.06169279313074995
1.9943316949889007   0.11953613941726793   0.07237042998823306
1.9943316949889007   0.11953613941726793   0.07237042998823306
1.9943316949889007   0.11953613941726793   0.07237042998823306
1.9943316949889007   0.11953613941726793   0.07237042998823306
0.9508568837607664   -0.17816577919927612   0.01626673027704191
0.9508568837607664   -0.17816577919927612   0.01626673027704191
0.9508568837607664   -0.17816577919927612   0.01626673027704191
0.9508568837607664   -0.17816577919927612   0.01626673027704191
1.003394811774146   -0.07512069599902926   0.05569575335039707
1.003394811774146   -0.07512069599902926   0.05569575335039707
1.003394811774146   -0.07512069599902926   0.05569575335039707
1.003394811774146   -0.07512069599902926   0.05569575335039707
2.0048841201482825   0.016882480201869   -0.016041535212884928
2.0048841201482825   0.016882480201869   -0.016041535212884928
2.0048841201482825   0.016882480201869   -0.016041535212884928
2.0048841201482825   0.016882480201869   -0.016041535212884928
1.4022252875906316   -0.03831527352486985   -0.09322788245648699
1.4022252875906316   -0.03831527352486985   -0.09322788245648699
1.4022252875906316   -0.03831527352486985   -0.09322788245648699
1.4022252875906316   -0.03831527352486985   -0.09322788245648699
2.0427755762821262   0.13306329280343981   0.057234932854762235
2.0427755762821262   0.13306329280343981   0.057234932854762235
2.0427755762821262   0.13306329280343981   0.057234932854762235
2.0427755762821262   0.13306329280343981   0.057234932854762235
0.9746002485165333   -0.1822046157243693   0.018806856787672938
0.9746002485165333   -0.1822046157243693   0.018806856787672938
0.9746002485165333   -0.1822046157243693   0.018806856787672938
0.9746002485165333   -0.1822046157243693   0.018806856787672938
1.0233125718548282   -0.06383835246547576   0.04238811844898213
1.0233125718548282   -0.06383835246547576   0.04238811844898213
1.0233125718548282   -0.06383835246547576   0.04238811844898213
1.0233125718548282   -0.06383835246547576   0.04238811844898213
2.040062319819879   0.0296053167597205   -0.004839328203356169
2.040062319819879   0.0296053167597205   -0.004839328203356169
2.040062319819879   0.0296053167597205   -0.004839328203356169
2.040062319819879   0.0296053167597205   -0.004839328203356169
1.460115254443053   -0.03031069877164483   -0.06367456695814236
1.460115254443053   -0.03031069877164483   -0.06367456695814236
1.460115254443053   -0.03031069877164483   -0.06367456695814236
1.460115254443053   -0.03031069877164483   -0.06367456695814236
2.072116058918393   0.14537638172269013   0.039658302326246564
2.072116058918393   0.14537638172269013   0.039658302326246564
2.072116058918393   0.14537638172269013   0.039658302326246564
2.072116058918393   0.14537638172269013   0.039658302326246564
0.9975870174798959   -0.1732812327048632   0.023203226813708094
0.9975870174798959   -0.1732812327048632   0.023203226813708094
0.9975870174798959   -0.1732812327048632   0.023203226813708094
0.9975870174798959   -0.1732812327048632   0.023203226813708094
1.0526181140534239   -0.019849993772757535   0.03874961785547715
1.0526181140534239   -0.019849993772757535   0.03874961785547715
1.0526181140534239   -0.019849993772757535   0.03874961785547715
1.0526181140534239   -0.019849993772757535   0.03874961785547715
2.0766376896823244   0.05873026715427054   -0.0007204097294311318
2.0766376896823244   0.05873026715427054   -0.0007204097294311318
2.0766376896823244   0.05873026715427054   -0.0007204097294311318
2.0766376896823244   0.05873026715427054   -0.0007204097294311318
1.4673475827357236   -0.014007330585544375   -0.047576695159940174
1.4673475827357236   -0.014007330585544375   -0.047576695159940174
1.4673475827357236   -0.014007330585544375   -0.047576695159940174
1.4673475827357236   -0.014007330585544375   -0.047576695159940174
1.0034776819152977   0.025390396059991605   0.07581454579043159
1.0034776819152977   0.025390396059991605   0.07581454579043159
1.0034776819152977   0.025390396059991605   0.07581454579043159
1.0034776819152977   0.025390396059991605   0.07581454579043159
0.053119635752879354   -0.3550517914812851   0.03651463717662447
0.053119635752879354   -0.3550517914812851   0.03651463717662447
0.053119635752879354   -0.3550517914812851   0.03651463717662447
0.053119635752879354   -0.3550517914812851   0.03651463717662447
0.12161117067490101   -0.15023101490253643   0.03403107244750234
0.12161117067490101   -0.15023101490253643   0.03403107244750234
0.12161117067490101   -0.15023101490253643   0.03403107244750234
0.12161117067490101   -0.15023101490253643   0.03403107244750234
0.9777162699616618   -0.17090784589011798   0.023090194179053378
0.9777162699616618   -0.17090784589011798   0.023090194179053378
0.9777162699616618   -0.17090784589011798   0.023090194179053378
0.9777162699616618   -0.17090784589011798   0.023090194179053378
0.5214640628112073   -0.15925648193656952   -0.05965300681396188
0.5214640628112073   -0.15925648193656952   -0.05965300681396188
0.5214640628112073   -0.15925648193656952   -0.05965300681396188
0.5214640628112073   -0.15925648193656952   -0.05965300681396188
1.0272925034054392   0.03675978354636525   0.06330373196147254
1.0272925034054392   0.03675978354636525   0.06330373196147254
1.0272925034054392   0.03675978354636525   0.06330373196147254
1.0272925034054392   0.03675978354636525   0.06330373196147254
0.08512276538440693   -0.34481081618573317   0.04616884727823238
0.08512276538440693   -0.34481081618573317   0.04616884727823238
0.08512276538440693   -0.34481081618573317   0.04616884727823238
0.08512276538440693   -0.34481081618573317   0.04616884727823238
0.14915734095108496   -0.12962746440435008   0.02467533078139489
0.14915734095108496   -0.12962746440435008   0.02467533078139489
0.14915734095108496   -0.12962746440435008   0.02467533078139489
0.14915734095108496   -0.12962746440435008   0.02467533078139489
1.0012902061190705   -0.16012319512361334   0.028561132428331595
1.0012902061190705   -0.16012319512361334   0.028561132428331595
1.0012902061190705   -0.16012319512361334   0.028561132428331595
1.0012902061190705   -0.16012319512361334   0.028561132428331595
0.5449211438483328   -0.15137421638745086   -0.029827046820796205
0.5449211438483328   -0.15137421638745086   -0.029827046820796205
0.5449211438483328   -0.15137421638745086   -0.029827046820796205
0.5449211438483328   -0.15137421638745086   -0.029827046820796205
1.0495034638002794   0.05617294929280181   0.053331276417960094
1.0495034638002794   0.05617294929280181   0.053331276417960094
1.0495034638002794   0.05617294929280181   0.053331276417960094
1.0495034638002794   0.05617294929280181   0.053331276417960094
0.11353624208461295   -0.33333145000602854   0.05027382205071328
0.11353624208461295   -0.33333145000602854   0.05027382205071328
0.11353624208461295   -0.33333145000602854   0.05027382205071328
0.11353624208461295   -0.33333145000602854   0.05027382205071328
0.19143110015324416   -0.09869991591784447   0.01635205695683676
0.19143110015324416   -0.09869991591784447   0.01635205695683676
0.19143110015324416   -0.09869991591784447   0.01635205695683676
0.19143110015324416   -0.09869991591784447   0.01635205695683676
1.0270959365132932   -0.14372710064940808   0.03501583703147859
1.0270959365132932   -0.14372710064940808   0.03501583703147859
1.0270959365132932   -0.14372710064940808   0.03501583703147859
1.0270959365132932   -0.14372710064940808   0.03501583703147859
0.5860216432098893   -0.13227160334913798   0.004879461525704551
0.5860216432098893   -0.13227160334913798   0.004879461525704551
0.5860216432098893   -0.13227160334913798   0.004879461525704551
0.5860216432098893   -0.13227160334913798   0.004879461525704551
0.11303784432585118   -0.06775726799833429   0.048811156558532805
0.11303784432585118   -0.06775726799833429   0.048811156558532805
0.11303784432585118   -0.06775726799833429   0.048811156558532805
0.11303784432585118   -0.06775726799833429   0.048811156558532805
-0.852056715229343   -0.6099872947336726   0.05285824945887452
-0.852056715229343   -0.6099872947336726   0.05285824945887452
-0.852056715229343   -0.6099872947336726   0.05285824945887452
-0.852056715229343   -0.6099872947336726   0.05285824945887452
-0.7437541289772686   -0.23743597154670815   0.003564280351068993
-0.7437541289772686   -0.23743597154670815   0.003564280351068993
-0.7437541289772686   -0.23743597154670815   0.003564280351068993
-0.7437541289772686   -0.23743597154670815   0.003564280351068993
0.06005411419497572   -0.444080930013298   0.020095705158641147
0.06005411419497572   -0.444080930013298   0.020095705158641147
0.06005411419497572   -0.444080930013298   0.020095705158641147
0.06005411419497572   -0.444080930013298   0.020095705158641147
-0.3668433427377846   -0.3422536907429328   -0.07158201413421272
-0.3668433427377846   -0.3422536907429328   -0.07158201413421272
-0.3668433427377846   -0.3422536907429328   -0.07158201413421272
-0.3668433427377846   -0.3422536907429328   -0.07158201413421272
0.14188221953172422   -0.053325414624421905   0.03848071645350763
0.14188221953172422   -0.053325414624421905   0.03848071645350763
0.14188221953172422   -0.053325414624421905   0.03848071645350763
0.14188221953172422   -0.053325414624421905   0.03848071645350763
-0.8066479535184312   -0.6092572061399978   0.06091639223854903
-0.8066479535184312   -0.6092572061399978   0.06091639223854903
-0.8066479535184312   -0.6092572061399978   0.06091639223854903
-0.8066479535184312   -0.6092572061399978   0.06091639223854903
-0.7019802065658028   -0.21307872610890316   1.1074665827798952e-05
-0.7019802065658028   -0.21307872610890316   1.1074665827798952e-05
-0.7019802065658028   -0.21307872610890316   1.1074665827798952e-05
-0.7019802065658028   -0.21307872610890316   1.1074665827798952e-05
0.08909147092931474   -0.43433852946347173   0.029057045731665454
0.08909147092931474   -0.43433852946347173   0.029057045731665454
0.08909147092931474   -0.43433852946347173   0.029057045731665454
0.08909147092931474   -0.43433852946347173   0.029057045731665454
-0.324539200668405   -0.3305939301339442   -0.026707528166483432
-0.324539200668405   -0.3305939301339442   -0.026707528166483432
-0.324539200668405   -0.3305939301339442   -0.026707528166483432
-0.324539200668405   -0.3305939301339442   -0.026707528166483432
0.1682533308565424   -0.0341072253139444   0.024635041218276418
0.1682533308565424   -0.0341072253139444   0.024635041218276418
0.1682533308565424   -0.0341072253139444   0.024635041218276418
0.1682533308565424   -0.0341072253139444   0.024635041218276418
-0.7640460749628333   -0.5962140387282314   0.07281704530001507
-0.7640460749628333   -0.5962140387282314   0.07281704530001507
-0.7640460749628333   -0.5962140387282314   0.07281704530001507
-0.7640460749628333   -0.5962140387282314   0.07281704530001507
-0.6330473960347567   -0.18501904468368802   -0.007860329302190733
-0.6330473960347567   -0.18501904468368802   -0.007860329302190733
-0.6330473960347567   -0.18501904468368802   -0.007860329302190733
-0.6330473960347567   -0.18501904468368802   -0.007860329302190733
0.13442072316001577   -0.407097293495125   0.039697549567975304
0.13442072316001577   -0.407097293495125   0.039697549567975304
0.13442072316001577   -0.407097293495125   0.039697549567975304
0.13442072316001577   -0.407097293495125   0.039697549567975304
-0.2696324878137273   -0.30445121210439036   0.02027514276472124
-0.2696324878137273   -0.30445121210439036   0.02027514276472124
-0.2696324878137273   -0.30445121210439036   0.02027514276472124
-0.2696324878137273   -0.30445121210439036   0.02027514276472124
-0.7604303799766878   -0.1222613278933784   0.023263958881851093
-0.7604303799766878   -0.1222613278933784   0.023263958881851093
-0.7604303799766878   -0.1222613278933784   0.023263958881851093
-0.7604303799766878   -0.1222613278933784   0.023263958881851093
-1.8962603466159884   -0.9496837106036837   -0.04482897056852472
-1.8962603466159884   -0.9496837106036837   -0.04482897056852472
-1.8962603466159884   -0.9496837106036837   -0.04482897056852472
-1.8962603466159884   -0.9496837106036837   -0.04482897056852472
-1.7175096142351935   -0.30895193042093283   -0.052383088868167026
-1.7175096142351935   -0.30895193042093283   -0.052383088868167026
-1.7175096142351935   -0.30895193042093283   -0.052383088868167026
-1.7175096142351935   -0.30895193042093283   -0.052383088868167026
-0.852639834376981   -0.7941994189752354   0.015899200781033573
-0.852639834376981   -0.7941994189752354   0.015899200781033573
-0.852639834376981   -0.7941994189752354   0.015899200781033573
-0.852639834376981   -0.7941994189752354   0.015899200781033573
-1.305230559153416   -0.5617181520234649   -0.07518277279774753
-1.305230559153416   -0.5617181520234649   -0.07518277279774753
-1.305230559153416   -0.5617181520234649   -0.07518277279774753
-1.305230559153416   -0.5617181520234649   -0.07518277279774753
-0.7110749143200149   -0.09273624687178161   0.02226062896241044
-0.7110749143200149   -0.09273624687178161   0.02226062896241044
-0.7110749143200149   -0.09273624687178161   0.02226062896241044
-0.7110749143200149   -0.09273624687178161   0.02226062896241044
-1.8547897339347708   -1.0061303021669976   -0.04160531561998809
-1.8547897339347708   -1.0061303021669976   -0.04160531561998809
-1.8547897339347708   -1.0061303021669976   -0.04160531561998809
-1.8547897339347708   -1.0061303021669976   -0.04160531561998809
-1.6619088328278748   -0.2797509516746915   -0.05337454011647999
-1.6619088328278748   -0.2797509516746915   -0.05337454011647999
-1.6619088328278748   -0.2797509516746915   -0.05337454011647999
-1.6619088328278748   -0.2797509516746915   -0.05337454011647999
-0.8121466868099281   -0.7879734495599531   0.02407339689625712
-0.8121466868099281   -0.7879734495599531   0.02407339689625712
-0.8121466868099281   -0.7879734495599531   0.02407339689625712
-0.8121466868099281   -0.7879734495599531   0.02407339689625712
-1.2468992514026875   -0.5465465380934384   -0.05276954781829689
-1.2468992514026875   -0.5465465380934384   -0.05276954781829689
-1.2468992514026875   -0.5465465380934384   -0.05276954781829689
-1.2468992514026875   -0.5465465380934384   -0.05276954781829689
-0.6717800064869656   -0.06955300716082566   0.007486356111939957
-0.6717800064869656   -0.06955300716082566   0.007486356111939957
-0.6717800064869656   -0.06955300716082566   0.007486356111939957
-0.6717800064869656   -0.06955300716082566   0.007486356111939957
-1.8022023785268144   -0.998098259449794   -0.03649496083606113
-1.8022023785268144   -0.998098259449794   -0.03649496083606113
-1.8022023785268144   -0.998098259449794   -0.03649496083606113
-1.8022023785268144   -0.998098259449794   -0.03649496083606113
-1.575182052682699   -0.24836596280495526   -0.06050507491832918
-1.575182052682699   -0.24836596280495526   -0.06050507491832918
-1.575182052682699   -0.24836596280495526   -0.06050507491832918
-1.575182052682699   -0.24836596280495526   -0.06050507491832918
-0.7245414519577205   -0.7085920260394749   0.058242372438788576
-0.7245414519577205   -0.7085920260394749   0.058242372438788576
-0.7245414519577205   -0.7085920260394749   0.058242372438788576
-0.7245414519577205   -0.7085920260394749   0.058242372438788576
-1.1818160441077243   -0.4954330422962222   -0.029398564876614866
-1.1818160441077243   -0.4954330422962222   -0.029398564876614866
-1.1818160441077243   -0.4954330422962222   -0.029398564876614866
-1.1818160441077243   -0.4954330422962222   -0.029398564876614866
-1.7206131595937384   -0.10421944517105652   -0.012057300889900716
-1.7206131595937384   -0.10421944517105652   -0.012057300889900716
-1.7206131595937384   -0.10421944517105652   -0.012057300889900716
-1.7206131595937384   -0.10421944517105652   -0.012057300889900716
-3.0367837051911013   -0.601161102113547   0.03097819462336615
-3.0367837051911013   -0.601161102113547   0.03097819462336615
-3.0367837051911013   -0.601161102113547   0.03097819462336615
-3.0367837051911013   -0.601161102113547   0.03097819462336615
-2.917170791415934   -0.28942460348034726   -0.0640223577189328
-2.917170791415934   -0.28942460348034726   -0.0640223577189328
-2.917170791415934   -0.28942460348034726   -0.0640223577189328
-2.917170791415934   -0.28942460348034726   -0.0640223577189328
-1.6823918335094648   -0.311356324861656   0.12561020920118487
-1.6823918335094648   -0.311356324861656   0.12561020920118487
-1.6823918335094648   -0.311356324861656   0.12561020920118487
-1.6823918335094648   -0.311356324861656   0.12561020920118487
-2.244472466184641   -0.3487171995772996   0.03217918673252143
-2.244472466184641   -0.3487171995772996   0.03217918673252143
-2.244472466184641   -0.3487171995772996   0.03217918673252143
-2.244472466184641   -0.3487171995772996   0.03217918673252143
-1.6497774995496741   -0.023063635613009004   0.00038918975149818125
-1.6497774995496741   -0.023063635613009004   0.00038918975149818125
-1.6497774995496741   -0.023063635613009004   0.00038918975149818125
-1.6497774995496741   -0.023063635613009004   0.00038918975149818125
-2.9611833309764295   -0.5891154983297017   0.015605839327921145
-2.9611833309764295   -0.5891154983297017   0.015605839327921145
-2.9611833309764295   -0.5891154983297017   0.015605839327921145
-2.9611833309764295   -0.5891154983297017   0.015605839327921145
-2.851262632332432   -0.2651975058511173   -0.08125909347479081
-2.851262632332432   -0.2651975058511173   -0.08125909347479081
-2.851262632332432   -0.2651975058511173   -0.08125909347479081
-2.851262632332432   -0.2651975058511173   -0.08125909347479081
-1.6251545128550577   -0.29575140079702156   0.14639750886994973
-1.6251545128550577   -0.29575140079702156   0.14639750886994973
-1.6251545128550577   -0.29575140079702156   0.14639750886994973
-1.6251545128550577   -0.29575140079702156   0.14639750886994973
-2.2096663015865636   -0.28718002377609986   0.030931084731101725
-2.2096663015865636   -0.28718002377609986   0.030931084731101725
-2.2096663015865636   -0.28718002377609986   0.030931084731101725
-2.2096663015865636   -0.28718002377609986   0.030931084731101725
-1.5987843251080642   -0.0016255136247453894   -0.01587743956736029
-1.5987843251080642   -0.0016255136247453894   -0.01587743956736029
-1.5987843251080642   -0.0016255136247453894   -0.01587743956736029
-1.5987843251080642   -0.0016255136247453894   -0.01587743956736029
-2.881823362897201   -0.5635139358411632   0.06425368369138518
-2.881823362897201   -0.5635139358411632   0.06425368369138518
-2.881823362897201   -0.5635139358411632   0.06425368369138518
-2.881823362897201   -0.5635139358411632   0.06425368369138518
-2.7144011786444353   -0.21483189216339232   -0.09083592116009369
-2.7144011786444353   -0.21483189216339232   -0.09083592116009369
-2.7144011786444353   -0.21483189216339232   -0.09083592116009369
-2.7144011786444353   -0.21483189216339232   -0.09083592116009369
-1.5361295038313663   -0.2749562995496622   0.16134800608305522
-1.5361295038313663   -0.2749562995496622   0.16134800608305522
-1.5361295038313663   -0.2749562995496622   0.16134800608305522
-1.5361295038313663   -0.2749562995496622   0.16134800608305522
-2.077337999299206   -0.2195340434361242   0.06338296418455623
-2.077337999299206   -0.2195340434361242   0.06338296418455623
-2.077337999299206   -0.2195340434361242   0.06338296418455623
-2.077337999299206   -0.2195340434361242   0.06338296418455623
2.184391984446137   0.07144229500380422   0.030772000607072983
2.184391984446137   0.07144229500380422   0.030772000607072983
2.184391984446137   0.07144229500380422   0.030772000607072983
2.184391984446137   0.07144229500380422   0.030772000607072983
1.1155630851752834   -0.058669186059227274   0.022702579819643673
1.1155630851752834   -0.058669186059227274   0.022702579819643673
1.1155630851752834   -0.058669186059227274   0.022702579819643673
1.1155630851752834   -0.058669186059227274   0.022702579819643673
1.0719066205162915   -0.15758619373786648   0.04459259472042887
1.0719066205162915   -0.15758619373786648   0.04459259472042887
1.0719066205162915   -0.15758619373786648   0.04459259472042887
1.0719066205162915   -0.15758619373786648   0.04459259472042887
2.168526281895626   0.12219139897746784   0.016451431380833326
2.168526281895626   0.12219139897746784   0.016451431380833326
2.168526281895626   0.12219139897746784   0.016451431380833326
2.168526281895626   0.12219139897746784   0.016451431380833326
1.5479513515979058   -0.022019656397946397   -0.057147781917144216
1.5479513515979058   -0.022019656397946397   -0.057147781917144216
1.5479513515979058   -0.022019656397946397   -0.057147781917144216
1.5479513515979058   -0.022019656397946397   -0.057147781917144216
2.1565366586087156   0.05513353143440208   0.02356118248934752
2.1565366586087156   0.05513353143440208   0.02356118248934752
2.1565366586087156   0.05513353143440208   0.02356118248934752
2.1565366586087156   0.05513353143440208   0.02356118248934752
1.0803200829634787   -0.09410448703452384   0.023178200253022307
1.0803200829634787   -0.09410448703452384   0.023178200253022307
1.0803200829634787   -0.09410448703452384   0.023178200253022307
1.0803200829634787   -0.09410448703452384   0.023178200253022307
1.0440792094870086   -0.1612445054592228   0.03689467103479732
1.0440792094870086   -0.1612445054592228   0.03689467103479732
1.0440792094870086   -0.1612445054592228   0.03689467103479732
1.0440792094870086   -0.1612445054592228   0.03689467103479732
2.143086322454947   0.1168781777155482   0.02843291096834598
2.143086322454947   0.1168781777155482   0.02843291096834598
2.143086322454947   0.1168781777155482   0.02843291096834598
2.143086322454947   0.1168781777155482   0.02843291096834598
1.5432772992364923   -0.03037851299975347   -0.06619145322128989
1.5432772992364923   -0.03037851299975347   -0.06619145322128989
1.5432772992364923   -0.03037851299975347   -0.06619145322128989
1.5432772992364923   -0.03037851299975347   -0.06619145322128989
2.125239760058986   0.04902027149085686   0.0070580052132183935
2.125239760058986   0.04902027149085686   0.0070580052132183935
2.125239760058986   0.04902027149085686   0.0070580052132183935
2.125239760058986   0.04902027149085686   0.0070580052132183935
1.0555079942370331   -0.09980437688047039   0.0325984662061667
1.0555079942370331   -0.09980437688047039   0.0325984662061667
1.0555079942370331   -0.09980437688047039   0.0325984662061667
1.0555079942370331   -0.09980437688047039   0.0325984662061667
1.0147138019369866   -0.14713902333301168   0.03185702557949577
1.0147138019369866   -0.14713902333301168   0.03185702557949577
1.0147138019369866   -0.14713902333301168   0.03185702557949577
1.0147138019369866   -0.14713902333301168   0.03185702557949577
2.1038750794073127   0.11814216256319143   0.040859555563376324
2.1038750794073127   0.11814216256319143   0.040859555563376324
2.1038750794073127   0.11814216256319143   0.040859555563376324
2.1038750794073127   0.11814216256319143   0.040859555563376324
1.4852350941358605   -0.030633500597152086   -0.08940289152358677
1.4852350941358605   -0.030633500597152086   -0.08940289152358677
1.4852350941358605   -0.030633500597152086   -0.08940289152358677
1.4852350941358605   -0.030633500597152086   -0.08940289152358677
1.1054931913862107   -0.14095268568911073   0.054636610504164615
1.1054931913862107   -0.14095268568911073   0.054636610504164615
1.1054931913862107   -0.14095268568911073   0.054636610504164615
1.1054931913862107   -0.14095268568911073   0.054636610504164615
0.21524363355089482   -0.13165744437944157   0.011765039130265803
0.21524363355089482   -0.13165744437944157   0.011765039130265803
0.21524363355089482   -0.13165744437944157   0.011765039130265803
0.21524363355089482   -0.13165744437944157   0.011765039130265803
0.13996537127740322   -0.33135128744502407   0.05862388508878143
0.13996537127740322   -0.33135128744502407   0.05862388508878143
0.13996537127740322   -0.33135128744502407   0.05862388508878143
0.13996537127740322   -0.33135128744502407   0.05862388508878143
1.1115410330418074   0.04295538083778988   0.04222308277235193
1.1115410330418074   0.04295538083778988   0.04222308277235193
1.1115410330418074   0.04295538083778988   0.04222308277235193
1.1115410330418074   0.04295538083778988   0.04222308277235193
0.6331794727487107   -0.14081252124870988   -0.002420895949724472
0.6331794727487107   -0.14081252124870988   -0.002420895949724472
0.6331794727487107   -0.14081252124870988   -0.002420895949724472
0.6331794727487107   -0.14081252124870988   -0.002420895949724472
1.0742444313305826   -0.14706763453445137   0.04576308958846566
1.0742444313305826   -0.14706763453445137   0.04576308958846566
1.0742444313305826   -0.14706763453445137   0.04576308958846566
1.0742444313305826   -0.14706763453445137   0.04576308958846566
0.16784362561293203   -0.1507466194484794   0.017410488769880952
0.16784362561293203   -0.1507466194484794   0.017410488769880952
0.16784362561293203   -0.1507466194484794   0.017410488769880952
0.16784362561293203   -0.1507466194484794   0.017410488769880952
0.10625634159373672   -0.3343444264196848   0.052488840473308
0.10625634159373672   -0.3343444264196848   0.052488840473308
0.10625634159373672   -0.3343444264196848   0.052488840473308
0.10625634159373672   -0.3343444264196848   0.052488840473308
1.085877486373809   0.034609143056319125   0.05003240695325696
1.085877486373809   0.034609143056319125   0.05003240695325696
1.085877486373809   0.034609143056319125   0.05003240695325696
1.085877486373809   0.034609143056319125   0.05003240695325696
0.5874059334015846   -0.1500906198276776   -0.03038424881119696
0.5874059334015846   -0.1500906198276776   -0.03038424881119696
0.5874059334015846   -0.1500906198276776   -0.03038424881119696
0.5874059334015846   -0.1500906198276776   -0.03038424881119696
1.0466792534758866   -0.1491896125282715   0.03783999804822462
1.0466792534758866   -0.1491896125282715   0.03783999804822462
1.0466792534758866   -0.1491896125282715   0.03783999804822462
1.0466792534758866   -0.1491896125282715   0.03783999804822462
0.1352201390004128   -0.16078010632634232   0.023743507413345896
0.1352201390004128   -0.16078010632634232   0.023743507413345896
0.1352201390004128   -0.16078010632634232   0.023743507413345896
0.1352201390004128   -0.16078010632634232   0.023743507413345896
0.0685342451146051   -0.3342236081290186   0.041094991032114475
0.0685342451146051   -0.3342236081290186   0.041094991032114475
0.0685342451146051   -0.3342236081290186   0.041094991032114475
0.0685342451146051   -0.3342236081290186   0.041094991032114475
1.0567519941487111   0.03508401811709683   0.05982494518801576
1.0567519941487111   0.03508401811709683   0.05982494518801576
1.0567519941487111   0.03508401811709683   0.05982494518801576
1.0567519941487111   0.03508401811709683   0.05982494518801576
0.5594317884350476   -0.14897203996478153   -0.054177345716172956
0.5594317884350476   -0.14897203996478153   -0.054177345716172956
0.5594317884350476   -0.14897203996478153   -0.054177345716172956
0.5594317884350476   -0.14897203996478153   -0.054177345716172956
0.16767831254045829   -0.4067964509431331   0.04907744064177064
0.16767831254045829   -0.4067964509431331   0.04907744064177064
0.16767831254045829   -0.4067964509431331   0.04907744064177064
0.16767831254045829   -0.4067964509431331   0.04907744064177064
-0.6502364708501563   -0.2043738985391394   0.0007869792592322261
-0.6502364708501563   -0.2043738985391394   0.0007869792592322261
-0.6502364708501563   -0.2043738985391394   0.0007869792592322261
-0.6502364708501563   -0.2043738985391394   0.0007869792592322261
-0.7864268369573052   -0.6039582546494574   0.06719003313012514
-0.7864268369573052   -0.6039582546494574   0.06719003313012514
-0.7864268369573052   -0.6039582546494574   0.06719003313012514
-0.7864268369573052   -0.6039582546494574   0.06719003313012514
0.19289978005857336   -0.03473592979840135   0.026680571348009552
0.19289978005857336   -0.03473592979840135   0.026680571348009552
0.19289978005857336   -0.03473592979840135   0.026680571348009552
0.19289978005857336   -0.03473592979840135   0.026680571348009552
-0.26541123306180103   -0.30806790917573673   0.011571080289088764
-0.26541123306180103   -0.30806790917573673   0.011571080289088764
-0.26541123306180103   -0.30806790917573673   0.011571080289088764
-0.26541123306180103   -0.30806790917573673   0.011571080289088764
0.11556638070807843   -0.4299517406524825   0.03522938544961604
0.11556638070807843   -0.4299517406524825   0.03522938544961604
0.11556638070807843   -0.4299517406524825   0.03522938544961604
0.11556638070807843   -0.4299517406524825   0.03522938544961604
-0.7222680519810099   -0.22191705816957719   0.0059427615317136015
-0.7222680519810099   -0.22191705816957719   0.0059427615317136015
-0.7222680519810099   -0.22191705816957719   0.0059427615317136015
-0.7222680519810099   -0.22191705816957719   0.0059427615317136015
-0.8333908746153206   -0.6137109977805185   0.054677049691067015
-0.8333908746153206   -0.6137109977805185   0.054677049691067015
-0.8333908746153206   -0.6137109977805185   0.054677049691067015
-0.8333908746153206   -0.6137109977805185   0.054677049691067015
0.16131778189105397   -0.04400252364582643   0.03745413918603592
0.16131778189105397   -0.04400252364582643   0.03745413918603592
0.16131778189105397   -0.04400252364582643   0.03745413918603592
0.16131778189105397   -0.04400252364582643   0.03745413918603592
-0.32409134960616415   -0.3268279253877008   -0.027631252135738735
-0.32409134960616415   -0.3268279253877008   -0.027631252135738735
-0.32409134960616415   -0.3268279253877008   -0.027631252135738735
-0.32409134960616415   -0.3268279253877008   -0.027631252135738735
0.0796595738809372   -0.4375035024346287   0.02266407792425809
0.0796595738809372   -0.4375035024346287   0.02266407792425809
0.0796595738809372   -0.4375035024346287   0.02266407792425809
0.0796595738809372   -0.4375035024346287   0.02266407792425809
-0.7673950192733293   -0.23587237165984226   0.006817700280339987
-0.7673950192733293   -0.23587237165984226   0.006817700280339987
-0.7673950192733293   -0.23587237165984226   0.006817700280339987
-0.7673950192733293   -0.23587237165984226   0.006817700280339987
-0.8842744701029247   -0.6095552158935204   0.046103130838938994
-0.8842744701029247   -0.6095552158935204   0.046103130838938994
-0.8842744701029247   -0.6095552158935204   0.046103130838938994
-0.8842744701029247   -0.6095552158935204   0.046103130838938994
0.12617545987801349   -0.04917761344499722   0.044255070165135066
0.12617545987801349   -0.04917761344499722   0.044255070165135066
0.12617545987801349   -0.04917761344499722   0.044255070165135066
0.12617545987801349   -0.04917761344499722   0.044255070165135066
-0.3716910185629867   -0.3339703437422051   -0.06677190440063023
-0.3716910185629867   -0.3339703437422051   -0.06677190440063023
-0.3716910185629867   -0.3339703437422051   -0.06677190440063023
-0.3716910185629867   -0.3339703437422051   -0.06677190440063023
-0.7372986510255577   -0.6972542845027285   0.058356464345820425
-0.7372986510255577   -0.6972542845027285   0.058356464345820425
-0.7372986510255577   -0.6972542845027285   0.058356464345820425
-0.7372986510255577   -0.6972542845027285   0.058356464345820425
-1.6345137769716347   -0.2544710236073804   -0.03789991766530415
-1.6345137769716347   -0.2544710236073804   -0.03789991766530415
-1.6345137769716347   -0.2544710236073804   -0.03789991766530415
-1.6345137769716347   -0.2544710236073804   -0.03789991766530415
-1.8724901415799553   -1.0118509979793262   -0.05250838703644661
-1.8724901415799553   -1.0118509979793262   -0.05250838703644661
-1.8724901415799553   -1.0118509979793262   -0.05250838703644661
-1.8724901415799553   -1.0118509979793262   -0.05250838703644661
-0.6859324909780994   -0.057349205470652434   0.023052713847341016
-0.6859324909780994   -0.057349205470652434   0.023052713847341016
-0.6859324909780994   -0.057349205470652434   0.023052713847341016
-0.6859324909780994   -0.057349205470652434   0.023052713847341016
-1.2207663829586632   -0.4856594919249159   -0.04192117579430313
-1.2207663829586632   -0.4856594919249159   -0.04192117579430313
-1.2207663829586632   -0.4856594919249159   -0.04192117579430313
-1.2207663829586632   -0.4856594919249159   -0.04192117579430313
-0.8330685107498796   -0.7895502604187189   0.019573669936514382
-0.8330685107498796   -0.7895502604187189   0.019573669936514382
-0.8330685107498796   -0.7895502604187189   0.019573669936514382
-0.8330685107498796   -0.7895502604187189   0.019573669936514382
-1.7215730618226568   -0.2758688830457398   -0.03390510318353891
-1.7215730618226568   -0.2758688830457398   -0.03390510318353891
-1.7215730618226568   -0.2758688830457398   -0.03390510318353891
-1.7215730618226568   -0.2758688830457398   -0.03390510318353891
-1.9283401074604825   -1.0281715406746474   -0.060723638026660365
-1.9283401074604825   -1.0281715406746474   -0.060723638026660365
-1.9283401074604825   -1.0281715406746474   -0.060723638026660365
-1.9283401074604825   -1.0281715406746474   -0.060723638026660365
-0.7292068616674875   -0.07254357881552213   0.03442969546522909
-0.7292068616674875   -0.07254357881552213   0.03442969546522909
-0.7292068616674875   -0.07254357881552213   0.03442969546522909
-0.7292068616674875   -0.07254357881552213   0.03442969546522909
-1.2890047757445577   -0.5380418461089875   -0.059239417214360435
-1.2890047757445577   -0.5380418461089875   -0.059239417214360435
-1.2890047757445577   -0.5380418461089875   -0.059239417214360435
-1.2890047757445577   -0.5380418461089875   -0.059239417214360435
-0.8810627954246404   -0.8050417175744657   0.007648165438406046
-0.8810627954246404   -0.8050417175744657   0.007648165438406046
-0.8810627954246404   -0.8050417175744657   0.007648165438406046
-0.8810627954246404   -0.8050417175744657   0.007648165438406046
-1.776701001718167   -0.2958902299305447   -0.03480942005920415
-1.776701001718167   -0.2958902299305447   -0.03480942005920415
-1.776701001718167   -0.2958902299305447   -0.03480942005920415
-1.776701001718167   -0.2958902299305447   -0.03480942005920415
-1.9759895708768513   -0.9842257018690425   -0.0684778877899182
-1.9759895708768513   -0.9842257018690425   -0.0684778877899182
-1.9759895708768513   -0.9842257018690425   -0.0684778877899182
-1.9759895708768513   -0.9842257018690425   -0.0684778877899182
-0.7840091342621485   -0.09399563122104587   0.0318702253703362
-0.7840091342621485   -0.09399563122104587   0.0318702253703362
-0.7840091342621485   -0.09399563122104587   0.0318702253703362
-0.7840091342621485   -0.09399563122104587   0.0318702253703362
-1.3518268861505474   -0.5559215427486041   -0.0757700690501972
-1.3518268861505474   -0.5559215427486041   -0.0757700690501972
-1.3518268861505474   -0.5559215427486041   -0.0757700690501972
-1.3518268861505474   -0.5559215427486041   -0.0757700690501972
-1.6054995872202669   -0.2921332632893567   0.1448332707734835
-1.6054995872202669   -0.2921332632893567   0.1448332707734835
-1.6054995872202669   -0.2921332632893567   0.1448332707734835
-1.6054995872202669   -0.2921332632893567   0.1448332707734835
-2.8282661142031684   -0.21176580148853164   -0.050352622927287455
-2.8282661142031684   -0.21176580148853164   -0.050352622927287455
-2.8282661142031684   -0.21176580148853164   -0.050352622927287455
-2.8282661142031684   -0.21176580148853164   -0.050352622927287455
-3.001634679805333   -0.592373845767105   0.039765450969808214
-3.001634679805333   -0.592373845767105   0.039765450969808214
-3.001634679805333   -0.592373845767105   0.039765450969808214
-3.001634679805333   -0.592373845767105   0.039765450969808214
-1.6520291740589446   0.02371187079213055   0.014233581797135297
-1.6520291740589446   0.02371187079213055   0.014233581797135297
-1.6520291740589446   0.02371187079213055   0.014233581797135297
-1.6520291740589446   0.02371187079213055   0.014233581797135297
-2.1636627823256647   -0.20809645376076175   0.043513998942202994
-2.1636627823256647   -0.20809645376076175   0.043513998942202994
-2.1636627823256647   -0.20809645376076175   0.043513998942202994
-2.1636627823256647   -0.20809645376076175   0.043513998942202994
-1.6966373240852277   -0.3136221036045641   0.12852680606240724
-1.6966373240852277   -0.3136221036045641   0.12852680606240724
-1.6966373240852277   -0.3136221036045641   0.12852680606240724
-1.6966373240852277   -0.3136221036045641   0.12852680606240724
-2.949418679300521   -0.24743202089187843   -0.04409637138133299
-2.949418679300521   -0.24743202089187843   -0.04409637138133299
-2.949418679300521   -0.24743202089187843   -0.04409637138133299
-2.949418679300521   -0.24743202089187843   -0.04409637138133299
-3.0752793173216944   -0.6176394949160179   -0.012918157258395069
-3.0752793173216944   -0.6176394949160179   -0.012918157258395069
-3.0752793173216944   -0.6176394949160179   -0.012918157258395069
-3.0752793173216944   -0.6176394949160179   -0.012918157258395069
-1.7040002206969214   0.006684177888103937   0.026120077228376143
-1.7040002206969214   0.006684177888103937   0.026120077228376143
-1.7040002206969214   0.006684177888103937   0.026120077228376143
-1.7040002206969214   0.006684177888103937   0.026120077228376143
-2.293290221427956   -0.2747651470353998   0.017948903328175912
-2.293290221427956   -0.2747651470353998   0.017948903328175912
-2.293290221427956   -0.2747651470353998   0.017948903328175912
-2.293290221427956   -0.2747651470353998   0.017948903328175912
-1.755188644478225   -0.3297210847113772   0.10658322092133898
-1.755188644478225   -0.3297210847113772   0.10658322092133898
-1.755188644478225   -0.3297210847113772   0.10658322092133898
-1.755188644478225   -0.3297210847113772   0.10658322092133898
-3.0088359249421788   -0.26597926371831615   -0.03236142655846683
-3.0088359249421788   -0.26597926371831615   -0.03236142655846683
-3.0088359249421788   -0.26597926371831615   -0.03236142655846683
-3.0088359249421788   -0.26597926371831615   -0.03236142655846683
-3.139431468899536   -0.627915962341747   -0.00014834280919862053
-3.139431468899536   -0.627915962341747   -0.00014834280919862053
-3.139431468899536   -0.627915962341747   -0.00014834280919862053
-3.139431468899536   -0.627915962341747   -0.00014834280919862053
-1.7769642255455094   -0.068244036803073   0.010667173800821772
-1.7769642255455094   -0.068244036803073   0.010667173800821772
-1.7769642255455094   -0.068244036803073   0.010667173800821772
-1.7769642255455094   -0.068244036803073   0.010667173800821772
-2.321346540096282   -0.33203507562887014   0.028342597352617634
-2.321346540096282   -0.33203507562887014   0.028342597352617634
-2.321346540096282   -0.33203507562887014   0.028342597352617634
-2.321346540096282   -0.33203507562887014   0.028342597352617634
1.9124752586878686   0.08784721048762356   -0.04162761095868743
1.9124752586878686   0.08784721048762356   -0.04162761095868743
1.9124752586878686   0.08784721048762356   -0.04162761095868743
1.9124752586878686   0.08784721048762356   -0.04162761095868743
0.962844986722156   -0.01925754681328279   0.020520430406374558
0.962844986722156   -0.01925754681328279   0.020520430406374558
0.962844986722156   -0.01925754681328279   0.020520430406374558
0.962844986722156   -0.01925754681328279   0.020520430406374558
0.9014612800873208   -0.14186320464331298   -0.03675658491476558
0.9014612800873208   -0.14186320464331298   -0.03675658491476558
0.9014612800873208   -0.14186320464331298   -0.03675658491476558
0.9014612800873208   -0.14186320464331298   -0.03675658491476558
1.8902950246035615   0.13812447704343833   0.024008686118337452
1.8902950246035615   0.13812447704343833   0.024008686118337452
1.8902950246035615   0.13812447704343833   0.024008686118337452
1.8902950246035615   0.13812447704343833   0.024008686118337452
1.3425018327093607   0.0032906311539112054   -0.051861800246360154
1.3425018327093607   0.0032906311539112054   -0.051861800246360154
1.3425018327093607   0.0032906311539112054   -0.051861800246360154
1.3425018327093607   0.0032906311539112054   -0.051861800246360154
1.8591970653170098   0.048636618942820564   -0.04199325221378658
1.8591970653170098   0.048636618942820564   -0.04199325221378658
1.8591970653170098   0.048636618942820564   -0.04199325221378658
1.8591970653170098   0.048636618942820564   -0.04199325221378658
0.9308286097936791   -0.0541059761228872   0.022322835096591942
0.9308286097936791   -0.0541059761228872   0.022322835096591942
0.9308286097936791   -0.0541059761228872   0.022322835096591942
0.9308286097936791   -0.0541059761228872   0.022322835096591942
0.8684153555310274   -0.14981142440439335   -0.030344132707442587
0.8684153555310274   -0.14981142440439335   -0.030344132707442587
0.8684153555310274   -0.14981142440439335   -0.030344132707442587
0.8684153555310274   -0.14981142440439335   -0.030344132707442587
1.8443786819442216   0.12687046756222048   0.035069247619134325
1.8443786819442216   0.12687046756222048   0.035069247619134325
1.8443786819442216   0.12687046756222048   0.035069247619134325
1.8443786819442216   0.12687046756222048   0.035069247619134325
1.324398474761319   -0.013476576668699669   -0.061951046644835264
1.324398474761319   -0.013476576668699669   -0.061951046644835264
1.324398474761319   -0.013476576668699669   -0.061951046644835264
1.324398474761319   -0.013476576668699669   -0.061951046644835264
1.81305372050888   0.03854004727799576   -0.03322513927334937
1.81305372050888   0.03854004727799576   -0.03322513927334937
1.81305372050888   0.03854004727799576   -0.03322513927334937
1.81305372050888   0.03854004727799576   -0.03322513927334937
0.897343434810574   -0.06387788627596386   0.02836272556186037
0.897343434810574   -0.06387788627596386   0.02836272556186037
0.897343434810574   -0.06387788627596386   0.02836272556186037
0.897343434810574   -0.06387788627596386   0.02836272556186037
0.8364014156063293   -0.14768424597754606   -0.02079882333938919
0.8364014156063293   -0.14768424597754606   -0.02079882333938919
0.8364014156063293   -0.14768424597754606   -0.02079882333938919
0.8364014156063293   -0.14768424597754606   -0.02079882333938919
1.7875179819267797   0.11917524993421236   0.04560456795481259
1.7875179819267797   0.11917524993421236   0.04560456795481259
1.7875179819267797   0.11917524993421236   0.04560456795481259
1.7875179819267797   0.11917524993421236   0.04560456795481259
1.2587899745051894   -0.023526926325657838   -0.08139720450788446
1.2587899745051894   -0.023526926325657838   -0.08139720450788446
1.2587899745051894   -0.023526926325657838   -0.08139720450788446
1.2587899745051894   -0.023526926325657838   -0.08139720450788446
0.9679539614152542   0.01824430398257687   0.008563453075998692
0.9679539614152542   0.01824430398257687   0.008563453075998692
0.9679539614152542   0.01824430398257687   0.008563453075998692
0.9679539614152542   0.01824430398257687   0.008563453075998692
0.09356051232140872   -0.05791275151751774   -0.0021518731811015837
0.09356051232140872   -0.05791275151751774   -0.0021518731811015837
0.09356051232140872   -0.05791275151751774   -0.0021518731811015837
0.09356051232140872   -0.05791275151751774   -0.0021518731811015837
0.035719296107865145   -0.1877242197916243   -0.03535318344077668
0.035719296107865145   -0.1877242197916243   -0.03535318344077668
0.035719296107865145   -0.1877242197916243   -0.03535318344077668
0.035719296107865145   -0.1877242197916243   -0.03535318344077668
0.9691303491281947   0.11174711949670338   0.04797843614957953
0.9691303491281947   0.11174711949670338   0.04797843614957953
0.9691303491281947   0.11174711949670338   0.04797843614957953
0.9691303491281947   0.11174711949670338   0.04797843614957953
0.5071099856001385   -0.02644244667039028   -0.020137735864334108
0.5071099856001385   -0.02644244667039028   -0.020137735864334108
0.5071099856001385   -0.02644244667039028   -0.020137735864334108
0.5071099856001385   -0.02644244667039028   -0.020137735864334108
0.9407996085383168   0.003314041601666984   0.014757811095228085
0.9407996085383168   0.003314041601666984   0.014757811095228085
0.9407996085383168   0.003314041601666984   0.014757811095228085
0.9407996085383168   0.003314041601666984   0.014757811095228085
0.06512135130223745   -0.07821982729209322   0.0021527000315537947
0.06512135130223745   -0.07821982729209322   0.0021527000315537947
0.06512135130223745   -0.07821982729209322   0.0021527000315537947
0.06512135130223745   -0.07821982729209322   0.0021527000315537947
0.0038565646589515737   -0.1967177526911954   -0.024581150069458352
0.0038565646589515737   -0.1967177526911954   -0.024581150069458352
0.0038565646589515737   -0.1967177526911954   -0.024581150069458352
0.0038565646589515737   -0.1967177526911954   -0.024581150069458352
0.9341493189520567   0.09558840653372074   0.05292585345958904
0.9341493189520567   0.09558840653372074   0.05292585345958904
0.9341493189520567   0.09558840653372074   0.05292585345958904
0.9341493189520567   0.09558840653372074   0.05292585345958904
0.4704574252612215   -0.04130825396202227   -0.028513043102354092
0.4704574252612215   -0.04130825396202227   -0.028513043102354092
0.4704574252612215   -0.04130825396202227   -0.028513043102354092
0.4704574252612215   -0.04130825396202227   -0.028513043102354092
0.907408548594259   -0.006774203541146939   0.021584611745476587
0.907408548594259   -0.006774203541146939   0.021584611745476587
0.907408548594259   -0.006774203541146939   0.021584611745476587
0.907408548594259   -0.006774203541146939   0.021584611745476587
0.030443962078307702   -0.09450851555476789   0.006146599890894781
0.030443962078307702   -0.09450851555476789   0.006146599890894781
0.030443962078307702   -0.09450851555476789   0.006146599890894781
0.030443962078307702   -0.09450851555476789   0.006146599890894781
-0.030354395667918452   -0.19765137972379454   -0.016745654199811562
-0.030354395667918452   -0.19765137972379454   -0.016745654199811562
-0.030354395667918452   -0.19765137972379454   -0.016745654199811562
-0.030354395667918452   -0.19765137972379454   -0.016745654199811562
0.898856777503756   0.08529397401209525   0.05849976615810895
0.898856777503756   0.08529397401209525   0.05849976615810895
0.898856777503756   0.08529397401209525   0.05849976615810895
0.898856777503756   0.08529397401209525   0.05849976615810895
0.4417518680926272   -0.04726246404911105   -0.03572106784268218
0.4417518680926272   -0.04726246404911105   -0.03572106784268218
0.4417518680926272   -0.04726246404911105   -0.03572106784268218
0.4417518680926272   -0.04726246404911105   -0.03572106784268218
0.09523820836654191   -0.054809656201864024   0.003133511728910722
0.09523820836654191   -0.054809656201864024   0.003133511728910722
0.09523820836654191   -0.054809656201864024   0.003133511728910722
0.09523820836654191   -0.054809656201864024   0.003133511728910722
-0.7466515049307633   -0.0863221716808702   -0.023501239616060564
-0.7466515049307633   -0.0863221716808702   -0.023501239616060564
-0.7466515049307633   -0.0863221716808702   -0.023501239616060564
-0.7466515049307633   -0.0863221716808702   -0.023501239616060564
-0.8109547013606686   -0.24889512268631278   -0.040260911672305645
-0.8109547013606686   -0.24889512268631278   -0.040260911672305645
-0.8109547013606686   -0.24889512268631278   -0.040260911672305645
-0.8109547013606686   -0.24889512268631278   -0.040260911672305645
0.1021994423218704   0.08180405392927588   0.02751927390834948
0.1021994423218704   0.08180405392927588   0.02751927390834948
0.1021994423218704   0.08180405392927588   0.02751927390834948
0.1021994423218704   0.08180405392927588   0.02751927390834948
-0.3410552851529195   -0.07336362038248148   -0.01999891400403966
-0.3410552851529195   -0.07336362038248148   -0.01999891400403966
-0.3410552851529195   -0.07336362038248148   -0.01999891400403966
-0.3410552851529195   -0.07336362038248148   -0.01999891400403966
0.07129949846518163   -0.06118948222987111   0.016013090784052518
0.07129949846518163   -0.06118948222987111   0.016013090784052518
0.07129949846518163   -0.06118948222987111   0.016013090784052518
0.07129949846518163   -0.06118948222987111   0.016013090784052518
-0.7776927106396998   -0.1035395396628756   -0.019306541090899076
-0.7776927106396998   -0.1035395396628756   -0.019306541090899076
-0.7776927106396998   -0.1035395396628756   -0.019306541090899076
-0.7776927106396998   -0.1035395396628756   -0.019306541090899076
-0.8483245452408813   -0.2587487937569683   -0.02663488423773813
-0.8483245452408813   -0.2587487937569683   -0.02663488423773813
-0.8483245452408813   -0.2587487937569683   -0.02663488423773813
-0.8483245452408813   -0.2587487937569683   -0.02663488423773813
0.06724135958457343   0.06450367060084658   0.03112140126660895
0.06724135958457343   0.06450367060084658   0.03112140126660895
0.06724135958457343   0.06450367060084658   0.03112140126660895
0.06724135958457343   0.06450367060084658   0.03112140126660895
-0.37196664933774826   -0.08367554185802195   -0.023991886780415715
-0.37196664933774826   -0.08367554185802195   -0.023991886780415715
-0.37196664933774826   -0.08367554185802195   -0.023991886780415715
-0.37196664933774826   -0.08367554185802195   -0.023991886780415715
0.0382122149615602   -0.07168216259871209   0.022161511351101424
0.0382122149615602   -0.07168216259871209   0.022161511351101424
0.0382122149615602   -0.07168216259871209   0.022161511351101424
0.0382122149615602   -0.07168216259871209   0.022161511351101424
-0.818801855426693   -0.12206941536623533   -0.01570081355753407
-0.818801855426693   -0.12206941536623533   -0.01570081355753407
-0.818801855426693   -0.12206941536623533   -0.01570081355753407
-0.818801855426693   -0.12206941536623533   -0.01570081355753407
-0.8897940772450059   -0.2659583982281597   -0.023679316627658056
-0.8897940772450059   -0.2659583982281597   -0.023679316627658056
-0.8897940772450059   -0.2659583982281597   -0.023679316627658056
-0.8897940772450059   -0.2659583982281597   -0.023679316627658056
0.029429572492278563   0.04973115149394895   0.03479165538343194
0.029429572492278563   0.04973115149394895   0.03479165538343194
0.029429572492278563   0.04973115149394895   0.03479165538343194
0.029429572492278563   0.04973115149394895   0.03479165538343194
-0.4121311428762093   -0.09602199369855864   -0.033605694512101526
-0.4121311428762093   -0.09602199369855864   -0.033605694512101526
-0.4121311428762093   -0.09602199369855864   -0.033605694512101526
-0.4121311428762093   -0.09602199369855864   -0.033605694512101526
-0.7352851450634451   -0.0647030300706265   0.01171141811027554
-0.7352851450634451   -0.0647030300706265   0.01171141811027554
-0.7352851450634451   -0.0647030300706265   0.01171141811027554
-0.7352851450634451   -0.0647030300706265   0.01171141811027554
-1.566555399077785   -0.10101748933610155   -0.04144950153174504
-1.566555399077785   -0.10101748933610155   -0.04144950153174504
-1.566555399077785   -0.10101748933610155   -0.04144950153174504
-1.566555399077785   -0.10101748933610155   -0.04144950153174504
-1.6396645990675673   -0.2607430680527262   -0.04018449097355982
-1.6396645990675673   -0.2607430680527262   -0.04018449097355982
-1.6396645990675673   -0.2607430680527262   -0.04018449097355982
-1.6396645990675673   -0.2607430680527262   -0.04018449097355982
-0.7390818762483319   0.062442475622044   0.0077656155810093275
-0.7390818762483319   0.062442475622044   0.0077656155810093275
-0.7390818762483319   0.062442475622044   0.0077656155810093275
-0.7390818762483319   0.062442475622044   0.0077656155810093275
-1.1604990845014866   -0.08678694607760254   -0.016824407947864432
-1.1604990845014866   -0.08678694607760254   -0.016824407947864432
-1.1604990845014866   -0.08678694607760254   -0.016824407947864432
-1.1604990845014866   -0.08678694607760254   -0.016824407947864432
-0.7618020678995675   -0.0715101975291987   0.028117330476077767
-0.7618020678995675   -0.0715101975291987   0.028117330476077767
-0.7618020678995675   -0.0715101975291987   0.028117330476077767
-0.7618020678995675   -0.0715101975291987   0.028117330476077767
-1.6123091472924607   -0.1221551347776138   -0.04199516537315098
-1.6123091472924607   -0.1221551347776138   -0.04199516537315098
-1.6123091472924607   -0.1221551347776138   -0.04199516537315098
-1.6123091472924607   -0.1221551347776138   -0.04199516537315098
-1.691374216075783   -0.2775013544533649   -0.028191828315689196
-1.691374216075783   -0.2775013544533649   -0.028191828315689196
-1.691374216075783   -0.2775013544533649   -0.028191828315689196
-1.691374216075783   -0.2775013544533649   -0.028191828315689196
-0.7806474472538122   0.04349282701815094   0.009508984922483754
-0.7806474472538122   0.04349282701815094   0.009508984922483754
-0.7806474472538122   0.04349282701815094   0.009508984922483754
-0.7806474472538122   0.04349282701815094   0.009508984922483754
-1.193220326702068   -0.09608284005806625   -0.016884366961107698
-1.193220326702068   -0.09608284005806625   -0.016884366961107698
-1.193220326702068   -0.09608284005806625   -0.016884366961107698
-1.193220326702068   -0.09608284005806625   -0.016884366961107698
-0.8030856126877359   -0.0883692259653459   0.02918021073635871
-0.8030856126877359   -0.0883692259653459   0.02918021073635871
-0.8030856126877359   -0.0883692259653459   0.02918021073635871
-0.8030856126877359   -0.0883692259653459   0.02918021073635871
-1.665830371722369   -0.1425336225503887   -0.03544033845159619
-1.665830371722369   -0.1425336225503887   -0.03544033845159619
-1.665830371722369   -0.1425336225503887   -0.03544033845159619
-1.665830371722369   -0.1425336225503887   -0.03544033845159619
-1.7498948064154278   -0.2995842059669567   -0.030186976205938694
-1.7498948064154278   -0.2995842059669567   -0.030186976205938694
-1.7498948064154278   -0.2995842059669567   -0.030186976205938694
-1.7498948064154278   -0.2995842059669567   -0.030186976205938694
-0.8255666027284697   0.02011628139290808   0.011383376333939654
-0.8255666027284697   0.02011628139290808   0.011383376333939654
-0.8255666027284697   0.02011628139290808   0.011383376333939654
-0.8255666027284697   0.02011628139290808   0.011383376333939654
-1.2512361698609127   -0.11870762316503561   -0.027422270159184255
-1.2512361698609127   -0.11870762316503561   -0.027422270159184255
-1.2512361698609127   -0.11870762316503561   -0.027422270159184255
-1.2512361698609127   -0.11870762316503561   -0.027422270159184255
-1.5134425042302233   0.07157411813792236   0.051523365232037904
-1.5134425042302233   0.07157411813792236   0.051523365232037904
-1.5134425042302233   0.07157411813792236   0.051523365232037904
-1.5134425042302233   0.07157411813792236   0.051523365232037904
-2.346741923930091   -0.11693366938415717   -0.03162776016995464
-2.346741923930091   -0.11693366938415717   -0.03162776016995464
-2.346741923930091   -0.11693366938415717   -0.03162776016995464
-2.346741923930091   -0.11693366938415717   -0.03162776016995464
-2.4046069550749447   -0.11906659159508726   0.052919050877046125
-2.4046069550749447   -0.11906659159508726   0.052919050877046125
-2.4046069550749447   -0.11906659159508726   0.052919050877046125
-2.4046069550749447   -0.11906659159508726   0.052919050877046125
-1.5722857893409992   0.048632142769758746   -0.012665653163215065
-1.5722857893409992   0.048632142769758746   -0.012665653163215065
-1.5722857893409992   0.048632142769758746   -0.012665653163215065
-1.5722857893409992   0.048632142769758746   -0.012665653163215065
-1.8679673115781057   0.00144809590275774   0.04739368786335099
-1.8679673115781057   0.00144809590275774   0.04739368786335099
-1.8679673115781057   0.00144809590275774   0.04739368786335099
-1.8679673115781057   0.00144809590275774   0.04739368786335099
-1.5558505761151644   0.053107820973834374   0.06503473476187438
-1.5558505761151644   0.053107820973834374   0.06503473476187438
-1.5558505761151644   0.053107820973834374   0.06503473476187438
-1.5558505761151644   0.053107820973834374   0.06503473476187438
-2.419965167410843   -0.12246526890923837   -0.02047333348829547
-2.419965167410843   -0.12246526890923837   -0.02047333348829547
-2.419965167410843   -0.12246526890923837   -0.02047333348829547
-2.419965167410843   -0.12246526890923837   -0.02047333348829547
-2.477670190494631   -0.13888113063068458   0.07196350443208231
-2.477670190494631   -0.13888113063068458   0.07196350443208231
-2.477670190494631   -0.13888113063068458   0.07196350443208231
-2.477670190494631   -0.13888113063068458   0.07196350443208231
-1.6258489214306513   0.03517115308488172   -0.013237862628289243
-1.6258489214306513   0.03517115308488172   -0.013237862628289243
-1.6258489214306513   0.03517115308488172   -0.013237862628289243
-1.6258489214306513   0.03517115308488172   -0.013237862628289243
-1.9621516835814024   -0.021750125400560205   0.025855770803915573
-1.9621516835814024   -0.021750125400560205   0.025855770803915573
-1.9621516835814024   -0.021750125400560205   0.025855770803915573
-1.9621516835814024   -0.021750125400560205   0.025855770803915573
-1.6108259125654243   0.03292057585439456   0.06412775892833225
-1.6108259125654243   0.03292057585439456   0.06412775892833225
-1.6108259125654243   0.03292057585439456   0.06412775892833225
-1.6108259125654243   0.03292057585439456   0.06412775892833225
-2.4955222464314555   -0.13945960047180506   -0.016718305410918954
-2.4955222464314555   -0.13945960047180506   -0.016718305410918954
-2.4955222464314555   -0.13945960047180506   -0.016718305410918954
-2.4955222464314555   -0.13945960047180506   -0.016718305410918954
-2.581520188515064   -0.21878036402398415   0.06254150066582054
-2.581520188515064   -0.21878036402398415   0.06254150066582054
-2.581520188515064   -0.21878036402398415   0.06254150066582054
-2.581520188515064   -0.21878036402398415   0.06254150066582054
-1.6876038303674001   -0.0058566635518857435   -0.012459638380902568
-1.6876038303674001   -0.0058566635518857435   -0.012459638380902568
-1.6876038303674001   -0.0058566635518857435   -0.012459638380902568
-1.6876038303674001   -0.0058566635518857435   -0.012459638380902568
-2.0023653313199556   -0.050940689306865294   0.006882643746074293
-2.0023653313199556   -0.050940689306865294   0.006882643746074293
-2.0023653313199556   -0.050940689306865294   0.006882643746074293
-2.0023653313199556   -0.050940689306865294   0.006882643746074293
1.548968857835848   0.08279880499938999   -0.05532168164401521
1.548968857835848   0.08279880499938999   -0.05532168164401521
1.548968857835848   0.08279880499938999   -0.05532168164401521
1.548968857835848   0.08279880499938999   -0.05532168164401521
0.7680579198518016   -0.0006755667578539071   0.020073580240031044
0.7680579198518016   -0.0006755667578539071   0.020073580240031044
0.7680579198518016   -0.0006755667578539071   0.020073580240031044
0.7680579198518016   -0.0006755667578539071   0.020073580240031044
0.701864795584039   -0.11450846424567923   -0.05072579130772814
0.701864795584039   -0.11450846424567923   -0.05072579130772814
0.701864795584039   -0.11450846424567923   -0.05072579130772814
0.701864795584039   -0.11450846424567923   -0.05072579130772814
1.5197431339893757   0.12530444201712546   0.02517128901439091
1.5197431339893757   0.12530444201712546   0.02517128901439091
1.5197431339893757   0.12530444201712546   0.02517128901439091
1.5197431339893757   0.12530444201712546   0.02517128901439091
1.0759982941016255   0.009509217025333944   -0.03540877386832902
1.0759982941016255   0.009509217025333944   -0.03540877386832902
1.0759982941016255   0.009509217025333944   -0.03540877386832902
1.0759982941016255   0.009509217025333944   -0.03540877386832902
1.4874097510414401   0.04208954030476403   -0.053280724012912895
1.4874097510414401   0.04208954030476403   -0.053280724012912895
1.4874097510414401   0.04208954030476403   -0.053280724012912895
1.4874097510414401   0.04208954030476403   -0.053280724012912895
0.7328102567423854   -0.03268148432290671   0.022174534561220254
0.7328102567423854   -0.03268148432290671   0.022174534561220254
0.7328102567423854   -0.03268148432290671   0.022174534561220254
0.7328102567423854   -0.03268148432290671   0.022174534561220254
0.6687568607549095   -0.1240852188508057   -0.044087363256745685
0.6687568607549095   -0.1240852188508057   -0.044087363256745685
0.6687568607549095   -0.1240852188508057   -0.044087363256745685
0.6687568607549095   -0.1240852188508057   -0.044087363256745685
1.4702182223647629   0.11214642834016475   0.03440180539176302
1.4702182223647629   0.11214642834016475   0.03440180539176302
1.4702182223647629   0.11214642834016475   0.03440180539176302
1.4702182223647629   0.11214642834016475   0.03440180539176302
1.0500587378621604   -0.007739991831908738   -0.04654478610893063
1.0500587378621604   -0.007739991831908738   -0.04654478610893063
1.0500587378621604   -0.007739991831908738   -0.04654478610893063
1.0500587378621604   -0.007739991831908738   -0.04654478610893063
1.4385780849182401   0.030305006610898022   -0.04195746011155781
1.4385780849182401   0.030305006610898022   -0.04195746011155781
1.4385780849182401   0.030305006610898022   -0.04195746011155781
1.4385780849182401   0.030305006610898022   -0.04195746011155781
0.6991536166581531   -0.043487178664814385   0.02729837607347682
0.6991536166581531   -0.043487178664814385   0.02729837607347682
0.6991536166581531   -0.043487178664814385   0.02729837607347682
0.6991536166581531   -0.043487178664814385   0.02729837607347682
0.6385211273916419   -0.12694819405950447   -0.0360157974786338
0.6385211273916419   -0.12694819405950447   -0.0360157974786338
0.6385211273916419   -0.12694819405950447   -0.0360157974786338
0.6385211273916419   -0.12694819405950447   -0.0360157974786338
1.4143866635243483   0.10059284320132228   0.0427990165539658
1.4143866635243483   0.10059284320132228   0.0427990165539658
1.4143866635243483   0.10059284320132228   0.0427990165539658
1.4143866635243483   0.10059284320132228   0.0427990165539658
0.9897106064980656   -0.019626258428400434   -0.06322975247894219
0.9897106064980656   -0.019626258428400434   -0.06322975247894219
0.9897106064980656   -0.019626258428400434   -0.06322975247894219
0.9897106064980656   -0.019626258428400434   -0.06322975247894219
0.7812004810279092   0.0808898172771112   0.004221002085603984
0.7812004810279092   0.0808898172771112   0.004221002085603984
0.7812004810279092   0.0808898172771112   0.004221002085603984
0.7812004810279092   0.0808898172771112   0.004221002085603984
0.02695814807903336   -0.025515918465983833   -0.003157560926432096
0.02695814807903336   -0.025515918465983833   -0.003157560926432096
0.02695814807903336   -0.025515918465983833   -0.003157560926432096
0.02695814807903336   -0.025515918465983833   -0.003157560926432096
-0.02293411814866403   -0.10316157394052806   -0.034500563759718966
-0.02293411814866403   -0.10316157394052806   -0.034500563759718966
-0.02293411814866403   -0.10316157394052806   -0.034500563759718966
-0.02293411814866403   -0.10316157394052806   -0.034500563759718966
0.7661033405456981   0.11345057627041294   0.04250789298446372
0.7661033405456981   0.11345057627041294   0.04250789298446372
0.7661033405456981   0.11345057627041294   0.04250789298446372
0.7661033405456981   0.11345057627041294   0.04250789298446372
0.3817904544894028   0.016159043052939692   -0.004381759358047077
0.3817904544894028   0.016159043052939692   -0.004381759358047077
0.3817904544894028   0.016159043052939692   -0.004381759358047077
0.3817904544894028   0.016159043052939692   -0.004381759358047077
0.7485972937729085   0.059775390228263836   0.008652845162668038
0.7485972937729085   0.059775390228263836   0.008652845162668038
0.7485972937729085   0.059775390228263836   0.008652845162668038
0.7485972937729085   0.059775390228263836   0.008652845162668038
-0.005118168681326503   -0.04917648520383051   0.0005940948402710956
-0.005118168681326503   -0.04917648520383051   0.0005940948402710956
-0.005118168681326503   -0.04917648520383051   0.0005940948402710956
-0.005118168681326503   -0.04917648520383051   0.0005940948402710956
-0.054297426554231566   -0.1186495117455406   -0.029816992430429484
-0.054297426554231566   -0.1186495117455406   -0.029816992430429484
-0.054297426554231566   -0.1186495117455406   -0.029816992430429484
-0.054297426554231566   -0.1186495117455406   -0.029816992430429484
0.7305758095197459   0.09388184977946028   0.047040311937165735
0.7305758095197459   0.09388184977946028   0.047040311937165735
0.7305758095197459   0.09388184977946028   0.047040311937165735
0.7305758095197459   0.09388184977946028   0.047040311937165735
0.3434926254069569   -0.003121400475518926   -0.015339589030040623
0.3434926254069569   -0.003121400475518926   -0.015339589030040623
0.3434926254069569   -0.003121400475518926   -0.015339589030040623
0.3434926254069569   -0.003121400475518926   -0.015339589030040623
0.7137245823922248   0.04354291145470128   0.013123114624323539
0.7137245823922248   0.04354291145470128   0.013123114624323539
0.7137245823922248   0.04354291145470128   0.013123114624323539
0.7137245823922248   0.04354291145470128   0.013123114624323539
-0.03741564695431009   -0.0682800209483805   0.004222414772017777
-0.03741564695431009   -0.0682800209483805   0.004222414772017777
-0.03741564695431009   -0.0682800209483805   0.004222414772017777
-0.03741564695431009   -0.0682800209483805   0.004222414772017777
-0.08534482703733406   -0.12798769905418   -0.023706994632115994
-0.08534482703733406   -0.12798769905418   -0.023706994632115994
-0.08534482703733406   -0.12798769905418   -0.023706994632115994
-0.08534482703733406   -0.12798769905418   -0.023706994632115994
0.6967862982573454   0.07736626222007766   0.050995600570293675
0.6967862982573454   0.07736626222007766   0.050995600570293675
0.6967862982573454   0.07736626222007766   0.050995600570293675
0.6967862982573454   0.07736626222007766   0.050995600570293675
0.31515563982122435   -0.015470622613256518   -0.02342183612441246
0.31515563982122435   -0.015470622613256518   -0.02342183612441246
0.31515563982122435   -0.015470622613256518   -0.02342183612441246
0.31515563982122435   -0.015470622613256518   -0.02342183612441246
0.05255509103241139   0.08173470209155975   0.01757653328291445
0.05255509103241139   0.08173470209155975   0.01757653328291445
0.05255509103241139   0.08173470209155975   0.01757653328291445
0.05255509103241139   0.08173470209155975   0.01757653328291445
-0.6911173837087727   -0.044686875539219545   -0.023784876601022048
-0.6911173837087727   -0.044686875539219545   -0.023784876601022048
-0.6911173837087727   -0.044686875539219545   -0.023784876601022048
-0.6911173837087727   -0.044686875539219545   -0.023784876601022048
-0.7300429584201322   -0.09451177103786104   -0.02181745018533251
-0.7300429584201322   -0.09451177103786104   -0.02181745018533251
-0.7300429584201322   -0.09451177103786104   -0.02181745018533251
-0.7300429584201322   -0.09451177103786104   -0.02181745018533251
0.027295640341687164   0.09289461127684427   0.020592043474664666
0.027295640341687164   0.09289461127684427   0.020592043474664666
0.027295640341687164   0.09289461127684427   0.020592043474664666
0.027295640341687164   0.09289461127684427   0.020592043474664666
-0.33490805629635234   0.010437157913199852   0.0012670127354794773
-0.33490805629635234   0.010437157913199852   0.0012670127354794773
-0.33490805629635234   0.010437157913199852   0.0012670127354794773
-0.33490805629635234   0.010437157913199852   0.0012670127354794773
0.02195165096619399   0.0646699853760661   0.022096722497976964
0.02195165096619399   0.0646699853760661   0.022096722497976964
0.02195165096619399   0.0646699853760661   0.022096722497976964
0.02195165096619399   0.0646699853760661   0.022096722497976964
-0.7238441067222161   -0.06543228281465993   -0.019902679918953024
-0.7238441067222161   -0.06543228281465993   -0.019902679918953024
-0.7238441067222161   -0.06543228281465993   -0.019902679918953024
-0.7238441067222161   -0.06543228281465993   -0.019902679918953024
-0.7637021583079157   -0.11153064350975672   -0.01810665139391847
-0.7637021583079157   -0.11153064350975672   -0.01810665139391847
-0.7637021583079157   -0.11153064350975672   -0.01810665139391847
-0.7637021583079157   -0.11153064350975672   -0.01810665139391847
-0.005052405345964888   0.07276338109771181   0.0249952207676515
-0.005052405345964888   0.07276338109771181   0.0249952207676515
-0.005052405345964888   0.07276338109771181   0.0249952207676515
-0.005052405345964888   0.07276338109771181   0.0249952207676515
-0.36715457927058864   -0.006210837830131252   -0.006973138827672903
-0.36715457927058864   -0.006210837830131252   -0.006973138827672903
-0.36715457927058864   -0.006210837830131252   -0.006973138827672903
-0.36715457927058864   -0.006210837830131252   -0.006973138827672903
-0.009618298294264796   0.048244405163774914   0.026684731960088845
-0.009618298294264796   0.048244405163774914   0.026684731960088845
-0.009618298294264796   0.048244405163774914   0.026684731960088845
-0.009618298294264796   0.048244405163774914   0.026684731960088845
-0.7584010693229779   -0.08627647153918062   -0.01685537843979772
-0.7584010693229779   -0.08627647153918062   -0.01685537843979772
-0.7584010693229779   -0.08627647153918062   -0.01685537843979772
-0.7584010693229779   -0.08627647153918062   -0.01685537843979772
-0.7971352953532117   -0.12492799671431384   -0.01193921781245313
-0.7971352953532117   -0.12492799671431384   -0.01193921781245313
-0.7971352953532117   -0.12492799671431384   -0.01193921781245313
-0.7971352953532117   -0.12492799671431384   -0.01193921781245313
-0.038564347323941456   0.05379918832741617   0.028408516553250836
-0.038564347323941456   0.05379918832741617   0.028408516553250836
-0.038564347323941456   0.05379918832741617   0.028408516553250836
-0.038564347323941456   0.05379918832741617   0.028408516553250836
-0.40185077084495874   -0.023142518532863143   -0.01597536041714214
-0.40185077084495874   -0.023142518532863143   -0.01597536041714214
-0.40185077084495874   -0.023142518532863143   -0.01597536041714214
-0.40185077084495874   -0.023142518532863143   -0.01597536041714214
-0.6516708740641252   0.09666789599130779   0.03209290009170343
-0.6516708740641252   0.09666789599130779   0.03209290009170343
-0.6516708740641252   0.09666789599130779   0.03209290009170343
-0.6516708740641252   0.09666789599130779   0.03209290009170343
-1.3852463908488706   -0.061472411916865394   -0.038990216121094205
-1.3852463908488706   -0.061472411916865394   -0.038990216121094205
-1.3852463908488706   -0.061472411916865394   -0.038990216121094205
-1.3852463908488706   -0.061472411916865394   -0.038990216121094205
-1.4155994672249517   -0.075651176196118   -0.00618505253318094
-1.4155994672249517   -0.075651176196118   -0.00618505253318094
-1.4155994672249517   -0.075651176196118   -0.00618505253318094
-1.4155994672249517   -0.075651176196118   -0.00618505253318094
-0.692961367661642   0.07024585904417782   -0.0011671264749160554
-0.692961367661642   0.07024585904417782   -0.0011671264749160554
-0.692961367661642   0.07024585904417782   -0.0011671264749160554
-0.692961367661642   0.07024585904417782   -0.0011671264749160554
-1.028885645894053   0.01063738804823866   0.0074928493800983514
-1.028885645894053   0.01063738804823866   0.0074928493800983514
-1.028885645894053   0.01063738804823866   0.0074928493800983514
-1.028885645894053   0.01063738804823866   0.0074928493800983514
-0.6837396722157923   0.07916269606004328   0.036024513738466185
-0.6837396722157923   0.07916269606004328   0.036024513738466185
-0.6837396722157923   0.07916269606004328   0.036024513738466185
-0.6837396722157923   0.07916269606004328   0.036024513738466185
-1.4236571881603823   -0.08340403870157662   -0.0387207947048866
-1.4236571881603823   -0.08340403870157662   -0.0387207947048866
-1.4236571881603823   -0.08340403870157662   -0.0387207947048866
-1.4236571881603823   -0.08340403870157662   -0.0387207947048866
-1.4570534886492916   -0.09478414539922164   -0.0054698357688379995
-1.4570534886492916   -0.09478414539922164   -0.0054698357688379995
-1.4570534886492916   -0.09478414539922164   -0.0054698357688379995
-1.4570534886492916   -0.09478414539922164   -0.0054698357688379995
-0.7270164072616802   0.05103511982618672   0.0027563405013238743
-0.7270164072616802   0.05103511982618672   0.0027563405013238743
-0.7270164072616802   0.05103511982618672   0.0027563405013238743
-0.7270164072616802   0.05103511982618672   0.0027563405013238743
-1.057927407142903   -0.004602090537896786   0.0007317555318574892
-1.057927407142903   -0.004602090537896786   0.0007317555318574892
-1.057927407142903   -0.004602090537896786   0.0007317555318574892
-1.057927407142903   -0.004602090537896786   0.0007317555318574892
-0.7169180103397972   0.06266133866985762   0.0416221062670637
-0.7169180103397972   0.06266133866985762   0.0416221062670637
-0.7169180103397972   0.06266133866985762   0.0416221062670637
-0.7169180103397972   0.06266133866985762   0.0416221062670637
-1.4647916238120378   -0.10405010248375943   -0.034894554498049284
-1.4647916238120378   -0.10405010248375943   -0.034894554498049284
-1.4647916238120378   -0.10405010248375943   -0.034894554498049284
-1.4647916238120378   -0.10405010248375943   -0.034894554498049284
-1.4952264178072763   -0.11526554325139704   0.004134068191220391
-1.4952264178072763   -0.11526554325139704   0.004134068191220391
-1.4952264178072763   -0.11526554325139704   0.004134068191220391
-1.4952264178072763   -0.11526554325139704   0.004134068191220391
-0.7631055251579252   0.02818550979052667   0.005096126659154286
-0.7631055251579252   0.02818550979052667   0.005096126659154286
-0.7631055251579252   0.02818550979052667   0.005096126659154286
-0.7631055251579252   0.02818550979052667   0.005096126659154286
-1.1032095152672843   -0.02596589393380022   -0.00834895560576162
-1.1032095152672843   -0.02596589393380022   -0.00834895560576162
-1.1032095152672843   -0.02596589393380022   -0.00834895560576162
-1.1032095152672843   -0.02596589393380022   -0.00834895560576162
-1.3360583659383958   0.10052007795921192   0.04495741855519622
-1.3360583659383958   0.10052007795921192   0.04495741855519622
-1.3360583659383958   0.10052007795921192   0.04495741855519622
-1.3360583659383958   0.10052007795921192   0.04495741855519622
-2.0447156842110195   -0.09456164683758894   -0.03601190382745739
-2.0447156842110195   -0.09456164683758894   -0.03601190382745739
-2.0447156842110195   -0.09456164683758894   -0.03601190382745739
-2.0447156842110195   -0.09456164683758894   -0.03601190382745739
-2.0728708588598646   -0.041296982455402975   0.03827379022984144
-2.0728708588598646   -0.041296982455402975   0.03827379022984144
-2.0728708588598646   -0.041296982455402975   0.03827379022984144
-2.0728708588598646   -0.041296982455402975   0.03827379022984144
-1.3948856320981309   0.041963774076981264   -0.020230827172176932
-1.3948856320981309   0.041963774076981264   -0.020230827172176932
-1.3948856320981309   0.041963774076981264   -0.020230827172176932
-1.3948856320981309   0.041963774076981264   -0.020230827172176932
-1.6364877329879781   0.020954470292621152   0.03756360736025906
-1.6364877329879781   0.020954470292621152   0.03756360736025906
-1.6364877329879781   0.020954470292621152   0.03756360736025906
-1.6364877329879781   0.020954470292621152   0.03756360736025906
-1.3684468787791377   0.10226533184559278   0.05166138165415493
-1.3684468787791377   0.10226533184559278   0.05166138165415493
-1.3684468787791377   0.10226533184559278   0.05166138165415493
-1.3684468787791377   0.10226533184559278   0.05166138165415493
-2.0977486941965187   -0.10003762224168328   -0.027374746667112024
-2.0977486941965187   -0.10003762224168328   -0.027374746667112024
-2.0977486941965187   -0.10003762224168328   -0.027374746667112024
-2.0977486941965187   -0.10003762224168328   -0.027374746667112024
-2.1243539503323965   -0.05130613273745971   0.05288073716174885
-2.1243539503323965   -0.05130613273745971   0.05288073716174885
-2.1243539503323965   -0.05130613273745971   0.05288073716174885
-2.1243539503323965   -0.05130613273745971   0.05288073716174885
-1.4344198032502384   0.030922463174789583   -0.018008017347583102
-1.4344198032502384   0.030922463174789583   -0.018008017347583102
-1.4344198032502384   0.030922463174789583   -0.018008017347583102
-1.4344198032502384   0.030922463174789583   -0.018008017347583102
-1.7072309001327732   0.010329996677579   0.024099731576513822
-1.7072309001327732   0.010329996677579   0.024099731576513822
-1.7072309001327732   0.010329996677579   0.024099731576513822
-1.7072309001327732   0.010329996677579   0.024099731576513822
-1.4052193887119708   0.09477327988165402   0.0641432386368917
-1.4052193887119708   0.09477327988165402   0.0641432386368917
-1.4052193887119708   0.09477327988165402   0.0641432386368917
-1.4052193887119708   0.09477327988165402   0.0641432386368917
-2.1520481190048373   -0.11365070357849105   -0.02324553535938738
-2.1520481190048373   -0.11365070357849105   -0.02324553535938738
-2.1520481190048373   -0.11365070357849105   -0.02324553535938738
-2.1520481190048373   -0.11365070357849105   -0.02324553535938738
-2.194179602585647   -0.09415777253003516   0.05261058894659677
-2.194179602585647   -0.09415777253003516   0.05261058894659677
-2.194179602585647   -0.09415777253003516   0.05261058894659677
-2.194179602585647   -0.09415777253003516   0.05261058894659677
-1.4768075829142788   -0.002124645644537848   -0.016912654950652445
-1.4768075829142788   -0.002124645644537848   -0.016912654950652445
-1.4768075829142788   -0.002124645644537848   -0.016912654950652445
-1.4768075829142788   -0.002124645644537848   -0.016912654950652445
-1.7279403482984874   -0.00493513166468762   0.01961605883341963
-1.7279403482984874   -0.00493513166468762   0.01961605883341963
-1.7279403482984874   -0.00493513166468762   0.01961605883341963
-1.7279403482984874   -0.00493513166468762   0.01961605883341963
1.1733557130295245   0.06514151990987882   -0.05613877959902823
1.1733557130295245   0.06514151990987882   -0.05613877959902823
1.1733557130295245   0.06514151990987882   -0.05613877959902823
1.1733557130295245   0.06514151990987882   -0.05613877959902823
0.5581025502296458   0.011308986006867625   0.021431491259215656
0.5581025502296458   0.011308986006867625   0.021431491259215656
0.5581025502296458   0.011308986006867625   0.021431491259215656
0.5581025502296458   0.011308986006867625   0.021431491259215656
0.4957184866209488   -0.09519435819828308   -0.05329806469422497
0.4957184866209488   -0.09519435819828308   -0.05329806469422497
0.4957184866209488   -0.09519435819828308   -0.05329806469422497
0.4957184866209488   -0.09519435819828308   -0.05329806469422497
1.147867821463545   0.10791103884945205   0.026497337266918025
1.147867821463545   0.10791103884945205   0.026497337266918025
1.147867821463545   0.10791103884945205   0.026497337266918025
1.147867821463545   0.10791103884945205   0.026497337266918025
0.8001846010818091   0.010826165357462586   -0.023658765370468134
0.8001846010818091   0.010826165357462586   -0.023658765370468134
0.8001846010818091   0.010826165357462586   -0.023658765370468134
0.8001846010818091   0.010826165357462586   -0.023658765370468134
1.1161652826745057   0.028944791987913276   -0.05304910981673869
1.1161652826745057   0.028944791987913276   -0.05304910981673869
1.1161652826745057   0.028944791987913276   -0.05304910981673869
1.1161652826745057   0.028944791987913276   -0.05304910981673869
0.5267954369374351   -0.016853699809308037   0.023746028499227245
0.5267954369374351   -0.016853699809308037   0.023746028499227245
0.5267954369374351   -0.016853699809308037   0.023746028499227245
0.5267954369374351   -0.016853699809308037   0.023746028499227245
0.4665690983072874   -0.10455337250200679   -0.045448074761619384
0.4665690983072874   -0.10455337250200679   -0.045448074761619384
0.4665690983072874   -0.10455337250200679   -0.045448074761619384
0.4665690983072874   -0.10455337250200679   -0.045448074761619384
1.1025449777665455   0.0945383421568615   0.03483620577564061
1.1025449777665455   0.0945383421568615   0.03483620577564061
1.1025449777665455   0.0945383421568615   0.03483620577564061
1.1025449777665455   0.0945383421568615   0.03483620577564061
0.7740540229475839   -0.00539204867690854   -0.03325458305477725
0.7740540229475839   -0.00539204867690854   -0.03325458305477725
0.7740540229475839   -0.00539204867690854   -0.03325458305477725
0.7740540229475839   -0.00539204867690854   -0.03325458305477725
1.071584947421633   0.01704524292898993   -0.04247084672104293
1.071584947421633   0.01704524292898993   -0.04247084672104293
1.071584947421633   0.01704524292898993   -0.04247084672104293
1.071584947421633   0.01704524292898993   -0.04247084672104293
0.496741465512301   -0.027847936414023333   0.028708325175461062
0.496741465512301   -0.027847936414023333   0.028708325175461062
0.496741465512301   -0.027847936414023333   0.028708325175461062
0.496741465512301   -0.027847936414023333   0.028708325175461062
0.4402930635753995   -0.11035514568883634   -0.037847327947878304
0.4402930635753995   -0.11035514568883634   -0.037847327947878304
0.4402930635753995   -0.11035514568883634   -0.037847327947878304
0.4402930635753995   -0.11035514568883634   -0.037847327947878304
1.0514404547785174   0.08003358719652867   0.041372088733365814
1.0514404547785174   0.08003358719652867   0.041372088733365814
1.0514404547785174   0.08003358719652867   0.041372088733365814
1.0514404547785174   0.08003358719652867   0.041372088733365814
0.7225149674082736   -0.017660268841597854   -0.04743383184740021
0.7225149674082736   -0.017660268841597854   -0.04743383184740021
0.7225149674082736   -0.017660268841597854   -0.04743383184740021
0.7225149674082736   -0.017660268841597854   -0.04743383184740021
0.5673719146751239   0.08251317244768139   -0.0034258729541966383
0.5673719146751239   0.08251317244768139   -0.0034258729541966383
0.5673719146751239   0.08251317244768139   -0.0034258729541966383
0.5673719146751239   0.08251317244768139   -0.0034258729541966383
-0.03694090187237695   -0.007964457108344692   -0.0002571511353224598
-0.03694090187237695   -0.007964457108344692   -0.0002571511353224598
-0.03694090187237695   -0.007964457108344692   -0.0002571511353224598
-0.03694090187237695   -0.007964457108344692   -0.0002571511353224598
-0.08088650424985468   -0.07122253419311758   -0.03386781453763607
-0.08088650424985468   -0.07122253419311758   -0.03386781453763607
-0.08088650424985468   -0.07122253419311758   -0.03386781453763607
-0.08088650424985468   -0.07122253419311758   -0.03386781453763607
0.5525657762243583   0.09806807155645852   0.037675953568076334
0.5525657762243583   0.09806807155645852   0.037675953568076334
0.5525657762243583   0.09806807155645852   0.037675953568076334
0.5525657762243583   0.09806807155645852   0.037675953568076334
0.24666874862654398   0.02421475941198336   0.0017501709174008173
0.24666874862654398   0.02421475941198336   0.0017501709174008173
0.24666874862654398   0.02421475941198336   0.0017501709174008173
0.24666874862654398   0.02421475941198336   0.0017501709174008173
0.5376513873443104   0.059577519315096084   0.001594561409205792
0.5376513873443104   0.059577519315096084   0.001594561409205792
0.5376513873443104   0.059577519315096084   0.001594561409205792
0.5376513873443104   0.059577519315096084   0.001594561409205792
-0.06571612537837998   -0.03247599196031702   0.0032375375869368485
-0.06571612537837998   -0.03247599196031702   0.0032375375869368485
-0.06571612537837998   -0.03247599196031702   0.0032375375869368485
-0.06571612537837998   -0.03247599196031702   0.0032375375869368485
-0.10834416515823564   -0.08890975940253976   -0.027997759294852965
-0.10834416515823564   -0.08890975940253976   -0.027997759294852965
-0.10834416515823564   -0.08890975940253976   -0.027997759294852965
-0.10834416515823564   -0.08890975940253976   -0.027997759294852965
0.5201990097495135   0.07695885576999646   0.04118925417750381
0.5201990097495135   0.07695885576999646   0.04118925417750381
0.5201990097495135   0.07695885576999646   0.04118925417750381
0.5201990097495135   0.07695885576999646   0.04118925417750381
0.2128403904514519   0.0033449569167854493   -0.00872867923209229
0.2128403904514519   0.0033449569167854493   -0.00872867923209229
0.2128403904514519   0.0033449569167854493   -0.00872867923209229
0.2128403904514519   0.0033449569167854493   -0.00872867923209229
0.5057781291674792   0.0406024939408568   0.005441213096476272
0.5057781291674792   0.0406024939408568   0.005441213096476272
0.5057781291674792   0.0406024939408568   0.005441213096476272
0.5057781291674792   0.0406024939408568   0.005441213096476272
-0.09413170218548435   -0.052761815182692594   0.006916611349056349
-0.09413170218548435   -0.052761815182692594   0.006916611349056349
-0.09413170218548435   -0.052761815182692594   0.006916611349056349
-0.09413170218548435   -0.052761815182692594   0.006916611349056349
-0.1354443472561453   -0.10377547001709786   -0.02248241510209312
-0.1354443472561453   -0.10377547001709786   -0.02248241510209312
-0.1354443472561453   -0.10377547001709786   -0.02248241510209312
-0.1354443472561453   -0.10377547001709786   -0.02248241510209312
0.49031552788293975   0.05743093580715836   0.04447891209382515
0.49031552788293975   0.05743093580715836   0.04447891209382515
0.49031552788293975   0.05743093580715836   0.04447891209382515
0.49031552788293975   0.05743093580715836   0.04447891209382515
0.18687755426296018   -0.012487117373184052   -0.01746281302448628
0.18687755426296018   -0.012487117373184052   -0.01746281302448628
0.18687755426296018   -0.012487117373184052   -0.01746281302448628
0.18687755426296018   -0.012487117373184052   -0.01746281302448628
-0.012871875339133261   0.09845325528285315   0.013670269139701974
-0.012871875339133261   0.09845325528285315   0.013670269139701974
-0.012871875339133261   0.09845325528285315   0.013670269139701974
-0.012871875339133261   0.09845325528285315   0.013670269139701974
-0.6193045638617831   -0.026802090385722455   -0.02054235602208733
-0.6193045638617831   -0.026802090385722455   -0.02054235602208733
-0.6193045638617831   -0.026802090385722455   -0.02054235602208733
-0.6193045638617831   -0.026802090385722455   -0.02054235602208733
-0.6476283864757478   -0.04941514915717732   -0.016032731878008265
-0.6476283864757478   -0.04941514915717732   -0.016032731878008265
-0.6476283864757478   -0.04941514915717732   -0.016032731878008265
-0.6476283864757478   -0.04941514915717732   -0.016032731878008265
-0.040744687710828204   0.07920312570476877   0.01641560825960998
-0.040744687710828204   0.07920312570476877   0.01641560825960998
-0.040744687710828204   0.07920312570476877   0.01641560825960998
-0.040744687710828204   0.07920312570476877   0.01641560825960998
-0.3293555060288044   0.025531757938598937   0.00646183055535628
-0.3293555060288044   0.025531757938598937   0.00646183055535628
-0.3293555060288044   0.025531757938598937   0.00646183055535628
-0.3293555060288044   0.025531757938598937   0.00646183055535628
-0.04019545496776094   0.07912580254663726   0.019239095133077762
-0.04019545496776094   0.07912580254663726   0.019239095133077762
-0.04019545496776094   0.07912580254663726   0.019239095133077762
-0.04019545496776094   0.07912580254663726   0.019239095133077762
-0.6476469920340495   -0.04880719881428018   -0.016733710012413482
-0.6476469920340495   -0.04880719881428018   -0.016733710012413482
-0.6476469920340495   -0.04880719881428018   -0.016733710012413482
-0.6476469920340495   -0.04880719881428018   -0.016733710012413482
-0.6757527965616106   -0.06855763912888284   -0.010909489149676117
-0.6757527965616106   -0.06855763912888284   -0.010909489149676117
-0.6757527965616106   -0.06855763912888284   -0.010909489149676117
-0.6757527965616106   -0.06855763912888284   -0.010909489149676117
-0.06937024241091302   0.05746681872227227   0.0204952763169481
-0.06937024241091302   0.05746681872227227   0.0204952763169481
-0.06937024241091302   0.05746681872227227   0.0204952763169481
-0.06937024241091302   0.05746681872227227   0.0204952763169481
-0.35776935425640677   0.006650603288408274   -0.0020420410876241663
-0.35776935425640677   0.006650603288408274   -0.0020420410876241663
-0.35776935425640677   0.006650603288408274   -0.0020420410876241663
-0.35776935425640677   0.006650603288408274   -0.0020420410876241663
-0.06825396647474605   0.05986059971870718   0.023682875001348122
-0.06825396647474605   0.05986059971870718   0.023682875001348122
-0.06825396647474605   0.05986059971870718   0.023682875001348122
-0.06825396647474605   0.05986059971870718   0.023682875001348122
-0.6767126258529462   -0.07079497348047621   -0.013471301254761172
-0.6767126258529462   -0.07079497348047621   -0.013471301254761172
-0.6767126258529462   -0.07079497348047621   -0.013471301254761172
-0.6767126258529462   -0.07079497348047621   -0.013471301254761172
-0.7035474749671499   -0.08604688912920307   -0.005838743086636972
-0.7035474749671499   -0.08604688912920307   -0.005838743086636972
-0.7035474749671499   -0.08604688912920307   -0.005838743086636972
-0.7035474749671499   -0.08604688912920307   -0.005838743086636972
-0.09811159511330915   0.03644406649579988   0.023961809099189886
-0.09811159511330915   0.03644406649579988   0.023961809099189886
-0.09811159511330915   0.03644406649579988   0.023961809099189886
-0.09811159511330915   0.03644406649579988   0.023961809099189886
-0.38748374979682954   -0.012390234189955288   -0.01151148373069123
-0.38748374979682954   -0.012390234189955288   -0.01151148373069123
-0.38748374979682954   -0.012390234189955288   -0.01151148373069123
-0.38748374979682954   -0.012390234189955288   -0.01151148373069123
-0.5812755037764381   0.1130666496046851   0.029734204414225786
-0.5812755037764381   0.1130666496046851   0.029734204414225786
-0.5812755037764381   0.1130666496046851   0.029734204414225786
-0.5812755037764381   0.1130666496046851   0.029734204414225786
-1.18827377695166   -0.046040059017249974   -0.03704740315275013
-1.18827377695166   -0.046040059017249974   -0.03704740315275013
-1.18827377695166   -0.046040059017249974   -0.03704740315275013
-1.18827377695166   -0.046040059017249974   -0.03704740315275013
-1.2037558252664207   -0.03099909511045934   0.0034025603566769785
-1.2037558252664207   -0.03099909511045934   0.0034025603566769785
-1.2037558252664207   -0.03099909511045934   0.0034025603566769785
-1.2037558252664207   -0.03099909511045934   0.0034025603566769785
-0.624119483157987   0.05686796446484185   -0.004771328911215254
-0.624119483157987   0.05686796446484185   -0.004771328911215254
-0.624119483157987   0.05686796446484185   -0.004771328911215254
-0.624119483157987   0.05686796446484185   -0.004771328911215254
-0.8935187747282085   0.02436549800358387   0.010952128951754889
-0.8935187747282085   0.02436549800358387   0.010952128951754889
-0.8935187747282085   0.02436549800358387   0.010952128951754889
-0.8935187747282085   0.02436549800358387   0.010952128951754889
-0.6086475236708178   0.09436111644600556   0.03509531654345976
-0.6086475236708178   0.09436111644600556   0.03509531654345976
-0.6086475236708178   0.09436111644600556   0.03509531654345976
-0.6086475236708178   0.09436111644600556   0.03509531654345976
-1.2190827513001048   -0.06834721363814936   -0.03588395128405338
-1.2190827513001048   -0.06834721363814936   -0.03588395128405338
-1.2190827513001048   -0.06834721363814936   -0.03588395128405338
-1.2190827513001048   -0.06834721363814936   -0.03588395128405338
-1.2365045736548357   -0.050349660797293055   0.005320603777080608
-1.2365045736548357   -0.050349660797293055   0.005320603777080608
-1.2365045736548357   -0.050349660797293055   0.005320603777080608
-1.2365045736548357   -0.050349660797293055   0.005320603777080608
-0.6526365475746775   0.03673691501149673   -0.0006227983553829253
-0.6526365475746775   0.03673691501149673   -0.0006227983553829253
-0.6526365475746775   0.03673691501149673   -0.0006227983553829253
-0.6526365475746775   0.03673691501149673   -0.0006227983553829253
-0.9175582349702133   0.007516631351306258   0.0030355237891746614
-0.9175582349702133   0.007516631351306258   0.0030355237891746614
-0.9175582349702133   0.007516631351306258   0.0030355237891746614
-0.9175582349702133   0.007516631351306258   0.0030355237891746614
-0.6365195057535329   0.07660258098325473   0.040096744778577983
-0.6365195057535329   0.07660258098325473   0.040096744778577983
-0.6365195057535329   0.07660258098325473   0.040096744778577983
-0.6365195057535329   0.07660258098325473   0.040096744778577983
-1.2517914845281592   -0.08938519582124099   -0.03207841556558966
-1.2517914845281592   -0.08938519582124099   -0.03207841556558966
-1.2517914845281592   -0.08938519582124099   -0.03207841556558966
-1.2517914845281592   -0.08938519582124099   -0.03207841556558966
-1.2662126744702524   -0.07117593148995585   0.011396069569068877
-1.2662126744702524   -0.07117593148995585   0.011396069569068877
-1.2662126744702524   -0.07117593148995585   0.011396069569068877
-1.2662126744702524   -0.07117593148995585   0.011396069569068877
-0.681951938795953   0.013710181489516193   0.002381867150635965
-0.681951938795953   0.013710181489516193   0.002381867150635965
-0.681951938795953   0.013710181489516193   0.002381867150635965
-0.681951938795953   0.013710181489516193   0.002381867150635965
-0.9541452121312942   -0.013602959442761492   -0.0070115540957719005
-0.9541452121312942   -0.013602959442761492   -0.0070115540957719005
-0.9541452121312942   -0.013602959442761492   -0.0070115540957719005
-0.9541452121312942   -0.013602959442761492   -0.0070115540957719005
-1.142968811907911   0.1013979841652275   0.042039378883516276
-1.142968811907911   0.1013979841652275   0.042039378883516276
-1.142968811907911   0.1013979841652275   0.042039378883516276
-1.142968811907911   0.1013979841652275   0.042039378883516276
-1.7292184489547004   -0.07976908070114691   -0.040859063580218
-1.7292184489547004   -0.07976908070114691   -0.040859063580218
-1.7292184489547004   -0.07976908070114691   -0.040859063580218
-1.7292184489547004   -0.07976908070114691   -0.040859063580218
-1.7485009881550848   -0.016962977864283746   0.038750769178390584
-1.7485009881550848   -0.016962977864283746   0.038750769178390584
-1.7485009881550848   -0.016962977864283746   0.038750769178390584
-1.7485009881550848   -0.016962977864283746   0.038750769178390584
-1.1972966490270376   0.028619426839590678   -0.02392008039645714
-1.1972966490270376   0.028619426839590678   -0.02392008039645714
-1.1972966490270376   0.028619426839590678   -0.02392008039645714
-1.1972966490270376   0.028619426839590678   -0.02392008039645714
-1.3901617821331915   0.02282692426373162   0.03402499610925924
-1.3901617821331915   0.02282692426373162   0.03402499610925924
-1.3901617821331915   0.02282692426373162   0.03402499610925924
-1.3901617821331915   0.02282692426373162   0.03402499610925924
-1.1681298768511412   0.10122311002111478   0.04931009730150106
-1.1681298768511412   0.10122311002111478   0.04931009730150106
-1.1681298768511412   0.10122311002111478   0.04931009730150106
-1.1681298768511412   0.10122311002111478   0.04931009730150106
-1.777173812218298   -0.08907271293313113   -0.03250361606880546
-1.777173812218298   -0.08907271293313113   -0.03250361606880546
-1.777173812218298   -0.08907271293313113   -0.03250361606880546
-1.777173812218298   -0.08907271293313113   -0.03250361606880546
-1.7913684697031256   -0.027170731364899003   0.04847467640692231
-1.7913684697031256   -0.027170731364899003   0.04847467640692231
-1.7913684697031256   -0.027170731364899003   0.04847467640692231
-1.7913684697031256   -0.027170731364899003   0.04847467640692231
-1.2280818821167503   0.01758227949163843   -0.020497878821424925
-1.2280818821167503   0.01758227949163843   -0.020497878821424925
-1.2280818821167503   0.01758227949163843   -0.020497878821424925
-1.2280818821167503   0.01758227949163843   -0.020497878821424925
-1.4499952346882479   0.011431823850231004   0.0206683921183929
-1.4499952346882479   0.011431823850231004   0.0206683921183929
-1.4499952346882479   0.011431823850231004   0.0206683921183929
-1.4499952346882479   0.011431823850231004   0.0206683921183929
-1.1971425641521412   0.09361309380214805   0.0581678966911119
-1.1971425641521412   0.09361309380214805   0.0581678966911119
-1.1971425641521412   0.09361309380214805   0.0581678966911119
-1.1971425641521412   0.09361309380214805   0.0581678966911119
-1.8214941809998657   -0.10238793900752796   -0.026936672434141662
-1.8214941809998657   -0.10238793900752796   -0.026936672434141662
-1.8214941809998657   -0.10238793900752796   -0.026936672434141662
-1.8214941809998657   -0.10238793900752796   -0.026936672434141662
-1.8479443897718726   -0.06344625602640169   0.04761609999762231
-1.8479443897718726   -0.06344625602640169   0.04761609999762231
-1.8479443897718726   -0.06344625602640169   0.04761609999762231
-1.8479443897718726   -0.06344625602640169   0.04761609999762231
-1.26058554316756   -0.013070014398503582   -0.018574191008922353
-1.26058554316756   -0.013070014398503582   -0.018574191008922353
-1.26058554316756   -0.013070014398503582   -0.018574191008922353
-1.26058554316756   -0.013070014398503582   -0.018574191008922353
-1.4654865376181376   -0.002731634319163956   0.016201931900697172
-1.4654865376181376   -0.002731634319163956   0.016201931900697172
-1.4654865376181376   -0.002731634319163956   0.016201931900697172
-1.4654865376181376   -0.002731634319163956   0.016201931900697172
0.8052102039616288   0.04554264552161465   -0.054507864899032255
0.8052102039616288   0.04554264552161465   -0.054507864899032255
0.8052102039616288   0.04554264552161465   -0.054507864899032255
0.8052102039616288   0.04554264552161465   -0.054507864899032255
0.3439446889423085   0.022077801568626237   0.02341152672407363
0.3439446889423085   0.022077801568626237   0.02341152672407363
0.3439446889423085   0.022077801568626237   0.02341152672407363
0.3439446889423085   0.022077801568626237   0.02341152672407363
0.28774894876365986   -0.07957542540727038   -0.05081611131680913
0.28774894876365986   -0.07957542540727038   -0.05081611131680913
0.28774894876365986   -0.07957542540727038   -0.05081611131680913
0.28774894876365986   -0.07957542540727038   -0.05081611131680913
0.7862621962899667   0.09154777143594048   0.028442497407471415
0.7862621962899667   0.09154777143594048   0.028442497407471415
0.7862621962899667   0.09154777143594048   0.028442497407471415
0.7862621962899667   0.09154777143594048   0.028442497407471415
0.5263549245236223   0.011677314771497596   -0.014383054897658915
0.5263549245236223   0.011677314771497596   -0.014383054897658915
0.5263549245236223   0.011677314771497596   -0.014383054897658915
0.5263549245236223   0.011677314771497596   -0.014383054897658915
0.7548650330498504   0.013843253534911976   -0.05083880089208792
0.7548650330498504   0.013843253534911976   -0.05083880089208792
0.7548650330498504   0.013843253534911976   -0.05083880089208792
0.7548650330498504   0.013843253534911976   -0.05083880089208792
0.31855639513152123   -0.002460624378497006   0.026106319493729484
0.31855639513152123   -0.002460624378497006   0.026106319493729484
0.31855639513152123   -0.002460624378497006   0.026106319493729484
0.31855639513152123   -0.002460624378497006   0.026106319493729484
0.26380701312139054   -0.08882570332054328   -0.04324605696622833
0.26380701312139054   -0.08882570332054328   -0.04324605696622833
0.26380701312139054   -0.08882570332054328   -0.04324605696622833
0.26380701312139054   -0.08882570332054328   -0.04324605696622833
0.746874824291218   0.07842351251939267   0.036646202244285185
0.746874824291218   0.07842351251939267   0.036646202244285185
0.746874824291218   0.07842351251939267   0.036646202244285185
0.746874824291218   0.07842351251939267   0.036646202244285185
0.5015777955851607   -0.0035737544461940385   -0.023450184898948893
0.5015777955851607   -0.0035737544461940385   -0.023450184898948893
0.5015777955851607   -0.0035737544461940385   -0.023450184898948893
0.5015777955851607   -0.0035737544461940385   -0.023450184898948893
0.7159952530946431   0.0019962731862603333   -0.04132441440546273
0.7159952530946431   0.0019962731862603333   -0.04132441440546273
0.7159952530946431   0.0019962731862603333   -0.04132441440546273
0.7159952530946431   0.0019962731862603333   -0.04132441440546273
0.29381752668411976   -0.01326752162125723   0.031248329148133934
0.29381752668411976   -0.01326752162125723   0.031248329148133934
0.29381752668411976   -0.01326752162125723   0.031248329148133934
0.29381752668411976   -0.01326752162125723   0.031248329148133934
0.24240245567795146   -0.09725667528331097   -0.03604122456526637
0.24240245567795146   -0.09725667528331097   -0.03604122456526637
0.24240245567795146   -0.09725667528331097   -0.03604122456526637
0.24240245567795146   -0.09725667528331097   -0.03604122456526637
0.7009007664957223   0.06114979525352626   0.041817941622903684
0.7009007664957223   0.06114979525352626   0.041817941622903684
0.7009007664957223   0.06114979525352626   0.041817941622903684
0.7009007664957223   0.06114979525352626   0.041817941622903684
0.45973359647696377   -0.016098251547729273   -0.03588822788181886
0.45973359647696377   -0.016098251547729273   -0.03588822788181886
0.45973359647696377   -0.016098251547729273   -0.03588822788181886
0.45973359647696377   -0.016098251547729273   -0.03588822788181886
0.34622545295560736   0.06674906146346203   -0.009855913104273147
0.34622545295560736   0.06674906146346203   -0.009855913104273147
0.34622545295560736   0.06674906146346203   -0.009855913104273147
0.34622545295560736   0.06674906146346203   -0.009855913104273147
-0.10643387106275634   0.0058308189418537736   0.0031948210318835865
-0.10643387106275634   0.0058308189418537736   0.0031948210318835865
-0.10643387106275634   0.0058308189418537736   0.0031948210318835865
-0.10643387106275634   0.0058308189418537736   0.0031948210318835865
-0.14485133481697118   -0.05520813606868449   -0.03128797351630927
-0.14485133481697118   -0.05520813606868449   -0.03128797351630927
-0.14485133481697118   -0.05520813606868449   -0.03128797351630927
-0.14485133481697118   -0.05520813606868449   -0.03128797351630927
0.336595297510585   0.08026176573878979   0.033578441271761635
0.336595297510585   0.08026176573878979   0.033578441271761635
0.336595297510585   0.08026176573878979   0.033578441271761635
0.336595297510585   0.08026176573878979   0.033578441271761635
0.10551631089075135   0.023223662182459012   0.004043280947987855
0.10551631089075135   0.023223662182459012   0.004043280947987855
0.10551631089075135   0.023223662182459012   0.004043280947987855
0.10551631089075135   0.023223662182459012   0.004043280947987855
0.3214128975292988   0.04323995543721225   -0.005311748333095584
0.3214128975292988   0.04323995543721225   -0.005311748333095584
0.3214128975292988   0.04323995543721225   -0.005311748333095584
0.3214128975292988   0.04323995543721225   -0.005311748333095584
-0.12989256375433617   -0.018409954685758748   0.006707700413940109
-0.12989256375433617   -0.018409954685758748   0.006707700413940109
-0.12989256375433617   -0.018409954685758748   0.006707700413940109
-0.12989256375433617   -0.018409954685758748   0.006707700413940109
-0.1671206250782334   -0.07380474460754974   -0.02530911288248037
-0.1671206250782334   -0.07380474460754974   -0.02530911288248037
-0.1671206250782334   -0.07380474460754974   -0.02530911288248037
-0.1671206250782334   -0.07380474460754974   -0.02530911288248037
0.3092847796040948   0.0588107923856736   0.03650627974107832
0.3092847796040948   0.0588107923856736   0.03650627974107832
0.3092847796040948   0.0588107923856736   0.03650627974107832
0.3092847796040948   0.0588107923856736   0.03650627974107832
0.07806127774531406   0.0022038176211010875   -0.006054226646944815
0.07806127774531406   0.0022038176211010875   -0.006054226646944815
0.07806127774531406   0.0022038176211010875   -0.006054226646944815
0.07806127774531406   0.0022038176211010875   -0.006054226646944815
0.2945823008487169   0.023298832353589746   -0.0014941540037331398
0.2945823008487169   0.023298832353589746   -0.0014941540037331398
0.2945823008487169   0.023298832353589746   -0.0014941540037331398
0.2945823008487169   0.023298832353589746   -0.0014941540037331398
-0.15298492542156003   -0.038859563674171434   0.010424204467507999
-0.15298492542156003   -0.038859563674171434   0.010424204467507999
-0.15298492542156003   -0.038859563674171434   0.010424204467507999
-0.15298492542156003   -0.038859563674171434   0.010424204467507999
-0.1890949623028429   -0.09130383351701933   -0.01978444434128071
-0.1890949623028429   -0.09130383351701933   -0.01978444434128071
-0.1890949623028429   -0.09130383351701933   -0.01978444434128071
-0.1890949623028429   -0.09130383351701933   -0.01978444434128071
0.28463934124246343   0.038183609658278356   0.03970291831570978
0.28463934124246343   0.038183609658278356   0.03970291831570978
0.28463934124246343   0.038183609658278356   0.03970291831570978
0.28463934124246343   0.038183609658278356   0.03970291831570978
0.056006860734684104   -0.015258521664191204   -0.014977780283799895
0.056006860734684104   -0.015258521664191204   -0.014977780283799895
0.056006860734684104   -0.015258521664191204   -0.014977780283799895
0.056006860734684104   -0.015258521664191204   -0.014977780283799895
-0.08974021721615134   0.08476502665764549   0.007728882549120696
-0.08974021721615134   0.08476502665764549   0.007728882549120696
-0.08974021721615134   0.08476502665764549   0.007728882549120696
-0.08974021721615134   0.08476502665764549   0.007728882549120696
-0.5501431618909002   -0.01382637186325511   -0.016720747867609517
-0.5501431618909002   -0.01382637186325511   -0.016720747867609517
-0.5501431618909002   -0.01382637186325511   -0.016720747867609517
-0.5501431618909002   -0.01382637186325511   -0.016720747867609517
-0.5721106435598641   -0.03281439363945014   -0.01230603261244868
-0.5721106435598641   -0.03281439363945014   -0.01230603261244868
-0.5721106435598641   -0.03281439363945014   -0.01230603261244868
-0.5721106435598641   -0.03281439363945014   -0.01230603261244868
-0.11270909353300876   0.0612012367377935   0.013013860097021043
-0.11270909353300876   0.0612012367377935   0.013013860097021043
-0.11270909353300876   0.0612012367377935   0.013013860097021043
-0.11270909353300876   0.0612012367377935   0.013013860097021043
-0.33036991532204046   0.024447837110343082   0.006527325625093235
-0.33036991532204046   0.024447837110343082   0.006527325625093235
-0.33036991532204046   0.024447837110343082   0.006527325625093235
-0.33036991532204046   0.024447837110343082   0.006527325625093235
-0.11201765248616698   0.06433322625965374   0.013339075809373605
-0.11201765248616698   0.06433322625965374   0.013339075809373605
-0.11201765248616698   0.06433322625965374   0.013339075809373605
-0.11201765248616698   0.06433322625965374   0.013339075809373605
-0.5728639376823919   -0.036008236236995755   -0.012878660627542095
-0.5728639376823919   -0.036008236236995755   -0.012878660627542095
-0.5728639376823919   -0.036008236236995755   -0.012878660627542095
-0.5728639376823919   -0.036008236236995755   -0.012878660627542095
-0.59460933087008   -0.05307604357948269   -0.006979946732659694
-0.59460933087008   -0.05307604357948269   -0.006979946732659694
-0.59460933087008   -0.05307604357948269   -0.006979946732659694
-0.59460933087008   -0.05307604357948269   -0.006979946732659694
-0.1360772308979185   0.03912529624097405   0.016977817170570203
-0.1360772308979185   0.03912529624097405   0.016977817170570203
-0.1360772308979185   0.03912529624097405   0.016977817170570203
-0.1360772308979185   0.03912529624097405   0.016977817170570203
-0.35350168107963054   0.004723994683150087   -0.002155131548096479
-0.35350168107963054   0.004723994683150087   -0.002155131548096479
-0.35350168107963054   0.004723994683150087   -0.002155131548096479
-0.35350168107963054   0.004723994683150087   -0.002155131548096479
-0.13490396876587565   0.0438790858352015   0.018090338236556907
-0.13490396876587565   0.0438790858352015   0.018090338236556907
-0.13490396876587565   0.0438790858352015   0.018090338236556907
-0.13490396876587565   0.0438790858352015   0.018090338236556907
-0.5961408170138827   -0.058188057185469905   -0.009525363845685461
-0.5961408170138827   -0.058188057185469905   -0.009525363845685461
-0.5961408170138827   -0.058188057185469905   -0.009525363845685461
-0.5961408170138827   -0.058188057185469905   -0.009525363845685461
-0.6167300258476237   -0.07243243623168882   -0.0018022738039391879
-0.6167300258476237   -0.07243243623168882   -0.0018022738039391879
-0.6167300258476237   -0.07243243623168882   -0.0018022738039391879
-0.6167300258476237   -0.07243243623168882   -0.0018022738039391879
-0.15924679778386946   0.017674001672239224   0.02047854306432786
-0.15924679778386946   0.017674001672239224   0.02047854306432786
-0.15924679778386946   0.017674001672239224   0.02047854306432786
-0.15924679778386946   0.017674001672239224   0.02047854306432786
-0.37758542626271874   -0.015022189001072911   -0.01156592054272668
-0.37758542626271874   -0.015022189001072911   -0.01156592054272668
-0.37758542626271874   -0.015022189001072911   -0.01156592054272668
-0.37758542626271874   -0.015022189001072911   -0.01156592054272668
-0.519008833318851   0.10020609580478183   0.024918427324599972
-0.519008833318851   0.10020609580478183   0.024918427324599972
-0.519008833318851   0.10020609580478183   0.024918427324599972
-0.519008833318851   0.10020609580478183   0.024918427324599972
-0.9859612694529153   -0.033375106038448676   -0.03404731496779715
-0.9859612694529153   -0.033375106038448676   -0.03404731496779715
-0.9859612694529153   -0.033375106038448676   -0.03404731496779715
-0.9859612694529153   -0.033375106038448676   -0.03404731496779715
-0.9942193236047224   -0.014586914560671516   0.008054116407953456
-0.9942193236047224   -0.014586914560671516   0.008054116407953456
-0.9942193236047224   -0.014586914560671516   0.008054116407953456
-0.9942193236047224   -0.014586914560671516   0.008054116407953456
-0.55656393138355   0.03987730168595929   -0.00726416705629624
-0.55656393138355   0.03987730168595929   -0.00726416705629624
-0.55656393138355   0.03987730168595929   -0.00726416705629624
-0.55656393138355   0.03987730168595929   -0.00726416705629624
-0.7594105447812837   0.023256315287323553   0.009480979233970184
-0.7594105447812837   0.023256315287323553   0.009480979233970184
-0.7594105447812837   0.023256315287323553   0.009480979233970184
-0.7594105447812837   0.023256315287323553   0.009480979233970184
-0.540873049500556   0.08057085482291615   0.03049668922172525
-0.540873049500556   0.08057085482291615   0.03049668922172525
-0.540873049500556   0.08057085482291615   0.03049668922172525
-0.540873049500556   0.08057085482291615   0.03049668922172525
-1.010594481321241   -0.055964743531149164   -0.03244384320417808
-1.010594481321241   -0.055964743531149164   -0.03244384320417808
-1.010594481321241   -0.055964743531149164   -0.03244384320417808
-1.010594481321241   -0.055964743531149164   -0.03244384320417808
-1.0207397537235163   -0.03465452953689124   0.010523185051515976
-1.0207397537235163   -0.03465452953689124   0.010523185051515976
-1.0207397537235163   -0.03465452953689124   0.010523185051515976
-1.0207397537235163   -0.03465452953689124   0.010523185051515976
-0.5793030011477784   0.019533736977145055   -0.0030580786777912594
-0.5793030011477784   0.019533736977145055   -0.0030580786777912594
-0.5793030011477784   0.019533736977145055   -0.0030580786777912594
-0.5793030011477784   0.019533736977145055   -0.0030580786777912594
-0.7788923593759488   0.005366884283735968   0.0007750336139693559
-0.7788923593759488   0.005366884283735968   0.0007750336139693559
-0.7788923593759488   0.005366884283735968   0.0007750336139693559
-0.7788923593759488   0.005366884283735968   0.0007750336139693559
-0.5630482023392143   0.06194089516508547   0.035808757177097555
-0.5630482023392143   0.06194089516508547   0.035808757177097555
-0.5630482023392143   0.06194089516508547   0.035808757177097555
-0.5630482023392143   0.06194089516508547   0.035808757177097555
-1.0370535742605933   -0.07712070945334559   -0.028579737717429776
-1.0370535742605933   -0.07712070945334559   -0.028579737717429776
-1.0370535742605933   -0.07712070945334559   -0.028579737717429776
-1.0370535742605933   -0.07712070945334559   -0.028579737717429776
-1.0443559338757347   -0.05603108771951951   0.016079516185239513
-1.0443559338757347   -0.05603108771951951   0.016079516185239513
-1.0443559338757347   -0.05603108771951951   0.016079516185239513
-1.0443559338757347   -0.05603108771951951   0.016079516185239513
-0.6024390843554828   -0.0030271639150158125   0.00024716134008454654
-0.6024390843554828   -0.0030271639150158125   0.00024716134008454654
-0.6024390843554828   -0.0030271639150158125   0.00024716134008454654
-0.6024390843554828   -0.0030271639150158125   0.00024716134008454654
-0.8081128194212487   -0.015389393017305936   -0.009326552966624817
-0.8081128194212487   -0.015389393017305936   -0.009326552966624817
-0.8081128194212487   -0.015389393017305936   -0.009326552966624817
-0.8081128194212487   -0.015389393017305936   -0.009326552966624817
-0.9460681542110544   0.09286785167019804   0.0391753035328606
-0.9460681542110544   0.09286785167019804   0.0391753035328606
-0.9460681542110544   0.09286785167019804   0.0391753035328606
-0.9460681542110544   0.09286785167019804   0.0391753035328606
-1.395813276325266   -0.06425026881171039   -0.04424507035755266
-1.395813276325266   -0.06425026881171039   -0.04424507035755266
-1.395813276325266   -0.06425026881171039   -0.04424507035755266
-1.395813276325266   -0.06425026881171039   -0.04424507035755266
-1.409317536151255   -0.0012351536268971341   0.03882790439532137
-1.409317536151255   -0.0012351536268971341   0.03882790439532137
-1.409317536151255   -0.0012351536268971341   0.03882790439532137
-1.409317536151255   -0.0012351536268971341   0.03882790439532137
-0.995513369530973   0.013566404993110792   -0.026569432777096787
-0.995513369530973   0.013566404993110792   -0.026569432777096787
-0.995513369530973   0.013566404993110792   -0.026569432777096787
-0.995513369530973   0.013566404993110792   -0.026569432777096787
-1.1344692315519154   0.021567840068027255   0.028705666067641508
-1.1344692315519154   0.021567840068027255   0.028705666067641508
-1.1344692315519154   0.021567840068027255   0.028705666067641508
-1.1344692315519154   0.021567840068027255   0.028705666067641508
-0.9658850670746728   0.08892788017404962   0.046210604323472834
-0.9658850670746728   0.08892788017404962   0.046210604323472834
-0.9658850670746728   0.08892788017404962   0.046210604323472834
-0.9658850670746728   0.08892788017404962   0.046210604323472834
-1.4395296519137786   -0.07718044211405531   -0.03628738593012166
-1.4395296519137786   -0.07718044211405531   -0.03628738593012166
-1.4395296519137786   -0.07718044211405531   -0.03628738593012166
-1.4395296519137786   -0.07718044211405531   -0.03628738593012166
-1.4467820165806522   -0.012271160945611537   0.04893505345622723
-1.4467820165806522   -0.012271160945611537   0.04893505345622723
-1.4467820165806522   -0.012271160945611537   0.04893505345622723
-1.4467820165806522   -0.012271160945611537   0.04893505345622723
-1.0199597713012087   0.0024104334334005273   -0.02264186580726167
-1.0199597713012087   0.0024104334334005273   -0.02264186580726167
-1.0199597713012087   0.0024104334334005273   -0.02264186580726167
-1.0199597713012087   0.0024104334334005273   -0.02264186580726167
-1.1849709079030706   0.008880480860434137   0.01501699500469908
-1.1849709079030706   0.008880480860434137   0.01501699500469908
-1.1849709079030706   0.008880480860434137   0.01501699500469908
-1.1849709079030706   0.008880480860434137   0.01501699500469908
-0.9889441075339446   0.08039898955415087   0.05444789690833163
-0.9889441075339446   0.08039898955415087   0.05444789690833163
-0.9889441075339446   0.08039898955415087   0.05444789690833163
-0.9889441075339446   0.08039898955415087   0.05444789690833163
-1.4782195639136217   -0.09068160063206343   -0.02984224352216848
-1.4782195639136217   -0.09068160063206343   -0.02984224352216848
-1.4782195639136217   -0.09068160063206343   -0.02984224352216848
-1.4782195639136217   -0.09068160063206343   -0.02984224352216848
-1.4969018102299372   -0.04679849135929648   0.04909969124948996
-1.4969018102299372   -0.04679849135929648   0.04909969124948996
-1.4969018102299372   -0.04679849135929648   0.04909969124948996
-1.4969018102299372   -0.04679849135929648   0.04909969124948996
-1.0455370918867735   -0.025837551864582586   -0.0200198097249136
-1.0455370918867735   -0.025837551864582586   -0.0200198097249136
-1.0455370918867735   -0.025837551864582586   -0.0200198097249136
-1.0455370918867735   -0.025837551864582586   -0.0200198097249136
-1.199293447185574   -0.005589429351223862   0.00849911468760585
-1.199293447185574   -0.005589429351223862   0.00849911468760585
-1.199293447185574   -0.005589429351223862   0.00849911468760585
-1.199293447185574   -0.005589429351223862   0.00849911468760585
0.44254552224859095   0.02645165057028087   -0.05332006157393565
0.44254552224859095   0.02645165057028087   -0.05332006157393565
0.44254552224859095   0.02645165057028087   -0.05332006157393565
0.44254552224859095   0.02645165057028087   -0.05332006157393565
0.1285422869107323   0.032062590539664974   0.025515722554462265
0.1285422869107323   0.032062590539664974   0.025515722554462265
0.1285422869107323   0.032062590539664974   0.025515722554462265
0.1285422869107323   0.032062590539664974   0.025515722554462265
0.07890208307859961   -0.06501589754198532   -0.04701573427079046
0.07890208307859961   -0.06501589754198532   -0.04701573427079046
0.07890208307859961   -0.06501589754198532   -0.04701573427079046
0.07890208307859961   -0.06501589754198532   -0.04701573427079046
0.4303170759909317   0.07553579801228531   0.030700797148714615
0.4303170759909317   0.07553579801228531   0.030700797148714615
0.4303170759909317   0.07553579801228531   0.030700797148714615
0.4303170759909317   0.07553579801228531   0.030700797148714615
0.25429584339965516   0.012594320939007024   -0.005887086898560908
0.25429584339965516   0.012594320939007024   -0.005887086898560908
0.25429584339965516   0.012594320939007024   -0.005887086898560908
0.25429584339965516   0.012594320939007024   -0.005887086898560908
0.39902010983709596   -0.0013656603814704016   -0.048882575226712244
0.39902010983709596   -0.0013656603814704016   -0.048882575226712244
0.39902010983709596   -0.0013656603814704016   -0.048882575226712244
0.39902010983709596   -0.0013656603814704016   -0.048882575226712244
0.10922226475498695   0.010908776374321506   0.028660500194840375
0.10922226475498695   0.010908776374321506   0.028660500194840375
0.10922226475498695   0.010908776374321506   0.028660500194840375
0.10922226475498695   0.010908776374321506   0.028660500194840375
0.06016085215621906   -0.0742340158349901   -0.039927467392629756
0.06016085215621906   -0.0742340158349901   -0.039927467392629756
0.06016085215621906   -0.0742340158349901   -0.039927467392629756
0.06016085215621906   -0.0742340158349901   -0.039927467392629756
0.39662980536318254   0.06281510137572208   0.039434178128748706
0.39662980536318254   0.06281510137572208   0.039434178128748706
0.39662980536318254   0.06281510137572208   0.039434178128748706
0.39662980536318254   0.06281510137572208   0.039434178128748706
0.2307633042748118   -0.0018022047582839304   -0.015231111922395525
0.2307633042748118   -0.0018022047582839304   -0.015231111922395525
0.2307633042748118   -0.0018022047582839304   -0.015231111922395525
0.2307633042748118   -0.0018022047582839304   -0.015231111922395525
0.3655130373151391   -0.013204164559858136   -0.04013039617589
0.3655130373151391   -0.013204164559858136   -0.04013039617589
0.3655130373151391   -0.013204164559858136   -0.04013039617589
0.3655130373151391   -0.013204164559858136   -0.04013039617589
0.08996995432573114   0.0004775842220587044   0.034406443397883305
0.08996995432573114   0.0004775842220587044   0.034406443397883305
0.08996995432573114   0.0004775842220587044   0.034406443397883305
0.08996995432573114   0.0004775842220587044   0.034406443397883305
0.04340248162500018   -0.08536425536779856   -0.03325402661299824
0.04340248162500018   -0.08536425536779856   -0.03325402661299824
0.04340248162500018   -0.08536425536779856   -0.03325402661299824
0.04340248162500018   -0.08536425536779856   -0.03325402661299824
0.35491819005851855   0.04245783231362547   0.043777337120629777
0.35491819005851855   0.04245783231362547   0.043777337120629777
0.35491819005851855   0.04245783231362547   0.043777337120629777
0.35491819005851855   0.04245783231362547   0.043777337120629777
0.19826404203722392   -0.014628072991083804   -0.026649936597829004
0.19826404203722392   -0.014628072991083804   -0.026649936597829004
0.19826404203722392   -0.014628072991083804   -0.026649936597829004
0.19826404203722392   -0.014628072991083804   -0.026649936597829004
0.12355337631598433   0.04809671352941864   -0.01546295340903273
0.12355337631598433   0.04809671352941864   -0.01546295340903273
0.12355337631598433   0.04809671352941864   -0.01546295340903273
0.12355337631598433   0.04809671352941864   -0.01546295340903273
-0.18010071403671993   0.015528467377371458   0.006204697368484958
-0.18010071403671993   0.015528467377371458   0.006204697368484958
-0.18010071403671993   0.015528467377371458   0.006204697368484958
-0.18010071403671993   0.015528467377371458   0.006204697368484958
-0.21207558229554346   -0.04167503695562211   -0.027434692394169402
-0.21207558229554346   -0.04167503695562211   -0.027434692394169402
-0.21207558229554346   -0.04167503695562211   -0.027434692394169402
-0.21207558229554346   -0.04167503695562211   -0.027434692394169402
0.11907842587240638   0.059699708264494944   0.029150373891764034
0.11907842587240638   0.059699708264494944   0.029150373891764034
0.11907842587240638   0.059699708264494944   0.029150373891764034
0.11907842587240638   0.059699708264494944   0.029150373891764034
-0.038443872947742   0.01955167698955437   0.00495251991004733
-0.038443872947742   0.01955167698955437   0.00495251991004733
-0.038443872947742   0.01955167698955437   0.00495251991004733
-0.038443872947742   0.01955167698955437   0.00495251991004733
0.10398550585835095   0.024751012975989185   -0.01136553089000733
0.10398550585835095   0.024751012975989185   -0.01136553089000733
0.10398550585835095   0.024751012975989185   -0.01136553089000733
0.10398550585835095   0.024751012975989185   -0.01136553089000733
-0.19781526186559512   -0.0075589412512234305   0.009750814051173652
-0.19781526186559512   -0.0075589412512234305   0.009750814051173652
-0.19781526186559512   -0.0075589412512234305   0.009750814051173652
-0.19781526186559512   -0.0075589412512234305   0.009750814051173652
-0.22884126778853334   -0.060412169721059596   -0.021482483399959496
-0.22884126778853334   -0.060412169721059596   -0.021482483399959496
-0.22884126778853334   -0.060412169721059596   -0.021482483399959496
-0.22884126778853334   -0.060412169721059596   -0.021482483399959496
0.09708109183380667   0.03865767068714891   0.03178204447317076
0.09708109183380667   0.03865767068714891   0.03178204447317076
0.09708109183380667   0.03865767068714891   0.03178204447317076
0.09708109183380667   0.03865767068714891   0.03178204447317076
-0.05915750549298022   -0.000655961636785678   -0.004730413575661445
-0.05915750549298022   -0.000655961636785678   -0.004730413575661445
-0.05915750549298022   -0.000655961636785678   -0.004730413575661445
-0.05915750549298022   -0.000655961636785678   -0.004730413575661445
0.08243430662754792   0.0046504997232945395   -0.0074447105942700795
0.08243430662754792   0.0046504997232945395   -0.0074447105942700795
0.08243430662754792   0.0046504997232945395   -0.0074447105942700795
0.08243430662754792   0.0046504997232945395   -0.0074447105942700795
-0.21527211651507389   -0.027482632690009223   0.013433735936291328
-0.21527211651507389   -0.027482632690009223   0.013433735936291328
-0.21527211651507389   -0.027482632690009223   0.013433735936291328
-0.21527211651507389   -0.027482632690009223   0.013433735936291328
-0.24547903913167354   -0.07900124082044485   -0.016102953703769383
-0.24547903913167354   -0.07900124082044485   -0.016102953703769383
-0.24547903913167354   -0.07900124082044485   -0.016102953703769383
-0.24547903913167354   -0.07900124082044485   -0.016102953703769383
0.07782123983758306   0.017995271188562607   0.03548023789355542
0.07782123983758306   0.017995271188562607   0.03548023789355542
0.07782123983758306   0.017995271188562607   0.03548023789355542
0.07782123983758306   0.017995271188562607   0.03548023789355542
-0.07708631635269772   -0.01875364929525038   -0.013875454358332753
-0.07708631635269772   -0.01875364929525038   -0.013875454358332753
-0.07708631635269772   -0.01875364929525038   -0.013875454358332753
-0.07708631635269772   -0.01875364929525038   -0.013875454358332753
-0.1708132073330705   0.0658482568955445   0.002322441368558893
-0.1708132073330705   0.0658482568955445   0.002322441368558893
-0.1708132073330705   0.0658482568955445   0.002322441368558893
-0.1708132073330705   0.0658482568955445   0.002322441368558893
-0.48464501893415207   -0.0057651634483011915   -0.013316793176756027
-0.48464501893415207   -0.0057651634483011915   -0.013316793176756027
-0.48464501893415207   -0.0057651634483011915   -0.013316793176756027
-0.48464501893415207   -0.0057651634483011915   -0.013316793176756027
-0.4997451362754526   -0.02039991406715959   -0.007955851185300532
-0.4997451362754526   -0.02039991406715959   -0.007955851185300532
-0.4997451362754526   -0.02039991406715959   -0.007955851185300532
-0.4997451362754526   -0.02039991406715959   -0.007955851185300532
-0.18854019638624664   0.039296743977989664   0.009270456218703073
-0.18854019638624664   0.039296743977989664   0.009270456218703073
-0.18854019638624664   0.039296743977989664   0.009270456218703073
-0.18854019638624664   0.039296743977989664   0.009270456218703073
-0.3351396053797905   0.01933026283071164   0.005135148031351119
-0.3351396053797905   0.01933026283071164   0.005135148031351119
-0.3351396053797905   0.01933026283071164   0.005135148031351119
-0.3351396053797905   0.01933026283071164   0.005135148031351119
-0.18764057171538615   0.04518769482676069   0.007877628724234378
-0.18764057171538615   0.04518769482676069   0.007877628724234378
-0.18764057171538615   0.04518769482676069   0.007877628724234378
-0.18764057171538615   0.04518769482676069   0.007877628724234378
-0.5013738508469087   -0.027019954816527567   -0.009479383293220955
-0.5013738508469087   -0.027019954816527567   -0.009479383293220955
-0.5013738508469087   -0.027019954816527567   -0.009479383293220955
-0.5013738508469087   -0.027019954816527567   -0.009479383293220955
-0.5164377951931586   -0.04085493440484081   -0.0025627717632640684
-0.5164377951931586   -0.04085493440484081   -0.0025627717632640684
-0.5164377951931586   -0.04085493440484081   -0.0025627717632640684
-0.5164377951931586   -0.04085493440484081   -0.0025627717632640684
-0.20623722149694868   0.017956139968130565   0.013169438368773743
-0.20623722149694868   0.017956139968130565   0.013169438368773743
-0.20623722149694868   0.017956139968130565   0.013169438368773743
-0.20623722149694868   0.017956139968130565   0.013169438368773743
-0.35255576925697957   -9.698531821751566e-05   -0.003545896194947832
-0.35255576925697957   -9.698531821751566e-05   -0.003545896194947832
-0.35255576925697957   -9.698531821751566e-05   -0.003545896194947832
-0.35255576925697957   -9.698531821751566e-05   -0.003545896194947832
-0.2050308520511731   0.024475411407805236   0.012682014157980717
-0.2050308520511731   0.024475411407805236   0.012682014157980717
-0.2050308520511731   0.024475411407805236   0.012682014157980717
-0.2050308520511731   0.024475411407805236   0.012682014157980717
-0.5186806500815162   -0.048410691287097504   -0.006221289322799115
-0.5186806500815162   -0.048410691287097504   -0.006221289322799115
-0.5186806500815162   -0.048410691287097504   -0.006221289322799115
-0.5186806500815162   -0.048410691287097504   -0.006221289322799115
-0.5328103117723613   -0.06060285417748139   0.0026577778042165233
-0.5328103117723613   -0.06060285417748139   0.0026577778042165233
-0.5328103117723613   -0.06060285417748139   0.0026577778042165233
-0.5328103117723613   -0.06060285417748139   0.0026577778042165233
-0.22363093153303484   -0.0026017966681013416   0.016738140137080526
-0.22363093153303484   -0.0026017966681013416   0.016738140137080526
-0.22363093153303484   -0.0026017966681013416   0.016738140137080526
-0.22363093153303484   -0.0026017966681013416   0.016738140137080526
-0.3708802917164689   -0.01957072840390861   -0.012971223100631538
-0.3708802917164689   -0.01957072840390861   -0.012971223100631538
-0.3708802917164689   -0.01957072840390861   -0.012971223100631538
-0.3708802917164689   -0.01957072840390861   -0.012971223100631538
-0.4601707613076797   0.08270860407134893   0.020580727435955383
-0.4601707613076797   0.08270860407134893   0.020580727435955383
-0.4601707613076797   0.08270860407134893   0.020580727435955383
-0.4601707613076797   0.08270860407134893   0.020580727435955383
-0.7825208623071666   -0.0232391671407369   -0.03039245979445225
-0.7825208623071666   -0.0232391671407369   -0.03039245979445225
-0.7825208623071666   -0.0232391671407369   -0.03039245979445225
-0.7825208623071666   -0.0232391671407369   -0.03039245979445225
-0.7840156067379905   -0.0016217002261331714   0.012692498737651256
-0.7840156067379905   -0.0016217002261331714   0.012692498737651256
-0.7840156067379905   -0.0016217002261331714   0.012692498737651256
-0.7840156067379905   -0.0016217002261331714   0.012692498737651256
-0.49195119171770024   0.020199127150079488   -0.00958516961378953
-0.49195119171770024   0.020199127150079488   -0.00958516961378953
-0.49195119171770024   0.020199127150079488   -0.00958516961378953
-0.49195119171770024   0.020199127150079488   -0.00958516961378953
-0.6264581897590255   0.01947468287571047   0.006762012977580861
-0.6264581897590255   0.01947468287571047   0.006762012977580861
-0.6264581897590255   0.01947468287571047   0.006762012977580861
-0.6264581897590255   0.01947468287571047   0.006762012977580861
-0.4763214548248812   0.06260929900753154   0.026153342992865494
-0.4763214548248812   0.06260929900753154   0.026153342992865494
-0.4763214548248812   0.06260929900753154   0.026153342992865494
-0.4763214548248812   0.06260929900753154   0.026153342992865494
-0.8010453154213314   -0.04543184387410629   -0.028645901031087197
-0.8010453154213314   -0.04543184387410629   -0.028645901031087197
-0.8010453154213314   -0.04543184387410629   -0.028645901031087197
-0.8010453154213314   -0.04543184387410629   -0.028645901031087197
-0.8045655621276915   -0.021787689182423797   0.015597351504277324
-0.8045655621276915   -0.021787689182423797   0.015597351504277324
-0.8045655621276915   -0.021787689182423797   0.015597351504277324
-0.8045655621276915   -0.021787689182423797   0.015597351504277324
-0.5087315886354534   0.0005502220900315408   -0.005436895469618272
-0.5087315886354534   0.0005502220900315408   -0.005436895469618272
-0.5087315886354534   0.0005502220900315408   -0.005436895469618272
-0.5087315886354534   0.0005502220900315408   -0.005436895469618272
-0.64126014898482   0.001368905922494612   -0.002339483481158429
-0.64126014898482   0.001368905922494612   -0.002339483481158429
-0.64126014898482   0.001368905922494612   -0.002339483481158429
-0.64126014898482   0.001368905922494612   -0.002339483481158429
-0.4926862921949184   0.04378054688991209   0.031559261933183785
-0.4926862921949184   0.04378054688991209   0.031559261933183785
-0.4926862921949184   0.04378054688991209   0.031559261933183785
-0.4926862921949184   0.04378054688991209   0.031559261933183785
-0.8214836300928058   -0.06589078550688371   -0.02488989199684216
-0.8214836300928058   -0.06589078550688371   -0.02488989199684216
-0.8214836300928058   -0.06589078550688371   -0.02488989199684216
-0.8214836300928058   -0.06589078550688371   -0.02488989199684216
-0.8223176068392092   -0.04280623036277981   0.021230351584960193
-0.8223176068392092   -0.04280623036277981   0.021230351584960193
-0.8223176068392092   -0.04280623036277981   0.021230351584960193
-0.8223176068392092   -0.04280623036277981   0.021230351584960193
-0.5257218375878295   -0.020462764069979558   -0.0020399413806381876
-0.5257218375878295   -0.020462764069979558   -0.0020399413806381876
-0.5257218375878295   -0.020462764069979558   -0.0020399413806381876
-0.5257218375878295   -0.020462764069979558   -0.0020399413806381876
-0.6632728624932607   -0.01835756190982124   -0.012258308493552604
-0.6632728624932607   -0.01835756190982124   -0.012258308493552604
-0.6632728624932607   -0.01835756190982124   -0.012258308493552604
-0.6632728624932607   -0.01835756190982124   -0.012258308493552604
-0.7482213297292215   0.08140861814159944   0.036457417812951996
-0.7482213297292215   0.08140861814159944   0.036457417812951996
-0.7482213297292215   0.08140861814159944   0.036457417812951996
-0.7482213297292215   0.08140861814159944   0.036457417812951996
-1.0530031418730417   -0.04845369932271926   -0.04614326224411064
-1.0530031418730417   -0.04845369932271926   -0.04614326224411064
-1.0530031418730417   -0.04845369932271926   -0.04614326224411064
-1.0530031418730417   -0.04845369932271926   -0.04614326224411064
-1.0607187555780202   0.013504158177050446   0.038324719189648686
-1.0607187555780202   0.013504158177050446   0.038324719189648686
-1.0607187555780202   0.013504158177050446   0.038324719189648686
-1.0607187555780202   0.013504158177050446   0.038324719189648686
-0.79234627929061   -0.0023940454071671446   -0.028188518844426982
-0.79234627929061   -0.0023940454071671446   -0.028188518844426982
-0.79234627929061   -0.0023940454071671446   -0.028188518844426982
-0.79234627929061   -0.0023940454071671446   -0.028188518844426982
-0.8743104375169889   0.019529434824328257   0.021168280250718492
-0.8743104375169889   0.019529434824328257   0.021168280250718492
-0.8743104375169889   0.019529434824328257   0.021168280250718492
-0.8743104375169889   0.019529434824328257   0.021168280250718492
-0.7627966940389295   0.07404724920691849   0.04311811279989818
-0.7627966940389295   0.07404724920691849   0.04311811279989818
-0.7627966940389295   0.07404724920691849   0.04311811279989818
-0.7627966940389295   0.07404724920691849   0.04311811279989818
-1.0917582602818685   -0.06442705588919909   -0.03894159026332818
-1.0917582602818685   -0.06442705588919909   -0.03894159026332818
-1.0917582602818685   -0.06442705588919909   -0.03894159026332818
-1.0917582602818685   -0.06442705588919909   -0.03894159026332818
-1.0927226391942446   0.0021752646078799787   0.04894515795817138
-1.0927226391942446   0.0021752646078799787   0.04894515795817138
-1.0927226391942446   0.0021752646078799787   0.04894515795817138
-1.0927226391942446   0.0021752646078799787   0.04894515795817138
-0.810837001640421   -0.013358054784765233   -0.024189480457037095
-0.810837001640421   -0.013358054784765233   -0.024189480457037095
-0.810837001640421   -0.013358054784765233   -0.024189480457037095
-0.810837001640421   -0.013358054784765233   -0.024189480457037095
-0.9152125179946302   0.006130500643182157   0.007626222305068153
-0.9152125179946302   0.006130500643182157   0.007626222305068153
-0.9152125179946302   0.006130500643182157   0.007626222305068153
-0.9152125179946302   0.006130500643182157   0.007626222305068153
-0.7800344718021638   0.06518074107047195   0.05128437287901963
-0.7800344718021638   0.06518074107047195   0.05128437287901963
-0.7800344718021638   0.06518074107047195   0.05128437287901963
-0.7800344718021638   0.06518074107047195   0.05128437287901963
-1.1249352987183692   -0.0777736609332205   -0.03216921412133479
-1.1249352987183692   -0.0777736609332205   -0.03216921412133479
-1.1249352987183692   -0.0777736609332205   -0.03216921412133479
-1.1249352987183692   -0.0777736609332205   -0.03216921412133479
-1.1369814541681524   -0.030014711109598108   0.05053875633141843
-1.1369814541681524   -0.030014711109598108   0.05053875633141843
-1.1369814541681524   -0.030014711109598108   0.05053875633141843
-1.1369814541681524   -0.030014711109598108   0.05053875633141843
-0.8299174325263307   -0.03848042652605341   -0.021094580687381084
-0.8299174325263307   -0.03848042652605341   -0.021094580687381084
-0.8299174325263307   -0.03848042652605341   -0.021094580687381084
-0.8299174325263307   -0.03848042652605341   -0.021094580687381084
-0.9285517666673804   -0.008118827664720663   -0.00042972652561464736
-0.9285517666673804   -0.008118827664720663   -0.00042972652561464736
-0.9285517666673804   -0.008118827664720663   -0.00042972652561464736
-0.9285517666673804   -0.008118827664720663   -0.00042972652561464736
0.07976017069420663   0.006561952169641695   -0.05320535307915912
0.07976017069420663   0.006561952169641695   -0.05320535307915912
0.07976017069420663   0.006561952169641695   -0.05320535307915912
0.07976017069420663   0.006561952169641695   -0.05320535307915912
-0.08663335143987994   0.03989305692165796   0.027209255677273406
-0.08663335143987994   0.03989305692165796   0.027209255677273406
-0.08663335143987994   0.03989305692165796   0.027209255677273406
-0.08663335143987994   0.03989305692165796   0.027209255677273406
-0.12999314421756966   -0.051236647723941584   -0.042851211323918476
-0.12999314421756966   -0.051236647723941584   -0.042851211323918476
-0.12999314421756966   -0.051236647723941584   -0.042851211323918476
-0.12999314421756966   -0.051236647723941584   -0.042851211323918476
0.07319055771901983   0.05638238659040268   0.03340814056292523
0.07319055771901983   0.05638238659040268   0.03340814056292523
0.07319055771901983   0.05638238659040268   0.03340814056292523
0.07319055771901983   0.05638238659040268   0.03340814056292523
-0.017737961275334304   0.012373751931008788   0.004622215690807736
-0.017737961275334304   0.012373751931008788   0.004622215690807736
-0.017737961275334304   0.012373751931008788   0.004622215690807736
-0.017737961275334304   0.012373751931008788   0.004622215690807736
0.04216867481076131   -0.017748182609237193   -0.04757070477872749
0.04216867481076131   -0.017748182609237193   -0.04757070477872749
0.04216867481076131   -0.017748182609237193   -0.04757070477872749
0.04216867481076131   -0.017748182609237193   -0.04757070477872749
-0.10080415838460721   0.021061024400402206   0.03079604571654994
-0.10080415838460721   0.021061024400402206   0.03079604571654994
-0.10080415838460721   0.021061024400402206   0.03079604571654994
-0.10080415838460721   0.021061024400402206   0.03079604571654994
-0.14428178932121055   -0.0605192357978737   -0.03632591305483702
-0.14428178932121055   -0.0605192357978737   -0.03632591305483702
-0.14428178932121055   -0.0605192357978737   -0.03632591305483702
-0.14428178932121055   -0.0605192357978737   -0.03632591305483702
0.04377794800070529   0.043775592323843524   0.04582269088550737
0.04377794800070529   0.043775592323843524   0.04582269088550737
0.04377794800070529   0.043775592323843524   0.04582269088550737
0.04377794800070529   0.043775592323843524   0.04582269088550737
-0.04094099752316205   -0.0015340029797182454   -0.006099157276436136
-0.04094099752316205   -0.0015340029797182454   -0.006099157276436136
-0.04094099752316205   -0.0015340029797182454   -0.006099157276436136
-0.04094099752316205   -0.0015340029797182454   -0.006099157276436136
0.012038222988576984   -0.02984176591267243   -0.039258575938618215
0.012038222988576984   -0.02984176591267243   -0.039258575938618215
0.012038222988576984   -0.02984176591267243   -0.039258575938618215
0.012038222988576984   -0.02984176591267243   -0.039258575938618215
-0.11508590891144936   0.01055427783627514   0.03857997535982012
-0.11508590891144936   0.01055427783627514   0.03857997535982012
-0.11508590891144936   0.01055427783627514   0.03857997535982012
-0.11508590891144936   0.01055427783627514   0.03857997535982012
-0.15736877120094864   -0.07477749070079218   -0.03011231669202187
-0.15736877120094864   -0.07477749070079218   -0.03011231669202187
-0.15736877120094864   -0.07477749070079218   -0.03011231669202187
-0.15736877120094864   -0.07477749070079218   -0.03011231669202187
0.002930358889805745   0.017356593601688213   0.05224485905299182
0.002930358889805745   0.017356593601688213   0.05224485905299182
0.002930358889805745   0.017356593601688213   0.05224485905299182
0.002930358889805745   0.017356593601688213   0.05224485905299182
-0.06587838754653969   -0.015532786829914113   -0.018465312335411484
-0.06587838754653969   -0.015532786829914113   -0.018465312335411484
-0.06587838754653969   -0.015532786829914113   -0.018465312335411484
-0.06587838754653969   -0.015532786829914113   -0.018465312335411484
-0.09903134390646183   0.026269893319108714   -0.02115754305308685
-0.09903134390646183   0.026269893319108714   -0.02115754305308685
-0.09903134390646183   0.026269893319108714   -0.02115754305308685
-0.09903134390646183   0.026269893319108714   -0.02115754305308685
-0.254816824053787   0.010721172736485929   0.007097841544596108
-0.254816824053787   0.010721172736485929   0.007097841544596108
-0.254816824053787   0.010721172736485929   0.007097841544596108
-0.254816824053787   0.010721172736485929   0.007097841544596108
-0.2771902339926031   -0.029841540110930168   -0.02228720812035201
-0.2771902339926031   -0.029841540110930168   -0.02228720812035201
-0.2771902339926031   -0.029841540110930168   -0.02228720812035201
-0.2771902339926031   -0.029841540110930168   -0.02228720812035201
-0.1018194171375488   0.025489454332363486   0.021291322019880737
-0.1018194171375488   0.025489454332363486   0.021291322019880737
-0.1018194171375488   0.025489454332363486   0.021291322019880737
-0.1018194171375488   0.025489454332363486   0.021291322019880737
-0.18284178553250005   0.007639561184506177   0.004073474694494518
-0.18284178553250005   0.007639561184506177   0.004073474694494518
-0.18284178553250005   0.007639561184506177   0.004073474694494518
-0.18284178553250005   0.007639561184506177   0.004073474694494518
-0.11389279148648629   0.003798475779895963   -0.017384571172338232
-0.11389279148648629   0.003798475779895963   -0.017384571172338232
-0.11389279148648629   0.003798475779895963   -0.017384571172338232
-0.11389279148648629   0.003798475779895963   -0.017384571172338232
-0.26662227773133934   -0.009655979646136771   0.010367012721169973
-0.26662227773133934   -0.009655979646136771   0.010367012721169973
-0.26662227773133934   -0.009655979646136771   0.010367012721169973
-0.26662227773133934   -0.009655979646136771   0.010367012721169973
-0.28831528578417415   -0.048068223153688486   -0.016451047113035355
-0.28831528578417415   -0.048068223153688486   -0.016451047113035355
-0.28831528578417415   -0.048068223153688486   -0.016451047113035355
-0.28831528578417415   -0.048068223153688486   -0.016451047113035355
-0.1190419990951644   0.005347941319301674   0.02400586095821839
-0.1190419990951644   0.005347941319301674   0.02400586095821839
-0.1190419990951644   0.005347941319301674   0.02400586095821839
-0.1190419990951644   0.005347941319301674   0.02400586095821839
-0.19689546583942905   -0.010654132913019178   -0.005105752744210164
-0.19689546583942905   -0.010654132913019178   -0.005105752744210164
-0.19689546583942905   -0.010654132913019178   -0.005105752744210164
-0.19689546583942905   -0.010654132913019178   -0.005105752744210164
-0.13068029419127608   -0.015848791710924563   -0.01298888149211384
-0.13068029419127608   -0.015848791710924563   -0.01298888149211384
-0.13068029419127608   -0.015848791710924563   -0.01298888149211384
-0.13068029419127608   -0.015848791710924563   -0.01298888149211384
-0.2782931263378092   -0.028487625773208992   0.01407915273830987
-0.2782931263378092   -0.028487625773208992   0.01407915273830987
-0.2782931263378092   -0.028487625773208992   0.01407915273830987
-0.2782931263378092   -0.028487625773208992   0.01407915273830987
-0.2995136735949056   -0.06682434256769477   -0.011282917455212125
-0.2995136735949056   -0.06682434256769477   -0.011282917455212125
-0.2995136735949056   -0.06682434256769477   -0.011282917455212125
-0.2995136735949056   -0.06682434256769477   -0.011282917455212125
-0.13344594712981347   -0.015060665988359263   0.029784978951220415
-0.13344594712981347   -0.015060665988359263   0.029784978951220415
-0.13344594712981347   -0.015060665988359263   0.029784978951220415
-0.13344594712981347   -0.015060665988359263   0.029784978951220415
-0.21093257796555778   -0.028747553305790437   -0.014440903417534267
-0.21093257796555778   -0.028747553305790437   -0.014440903417534267
-0.21093257796555778   -0.028747553305790437   -0.014440903417534267
-0.21093257796555778   -0.028747553305790437   -0.014440903417534267
-0.2501600449904941   0.04334647657940909   -0.002243566981862538
-0.2501600449904941   0.04334647657940909   -0.002243566981862538
-0.2501600449904941   0.04334647657940909   -0.002243566981862538
-0.2501600449904941   0.04334647657940909   -0.002243566981862538
-0.4214695989295803   -0.014445861528017412   -0.011914295492678105
-0.4214695989295803   -0.014445861528017412   -0.011914295492678105
-0.4214695989295803   -0.014445861528017412   -0.011914295492678105
-0.4214695989295803   -0.014445861528017412   -0.011914295492678105
-0.42590200657891963   -0.010534105111974404   -0.0025219790384442
-0.42590200657891963   -0.010534105111974404   -0.0025219790384442
-0.42590200657891963   -0.010534105111974404   -0.0025219790384442
-0.42590200657891963   -0.010534105111974404   -0.0025219790384442
-0.2656155663546416   0.0024589428511614525   0.0032856471073602934
-0.2656155663546416   0.0024589428511614525   0.0032856471073602934
-0.2656155663546416   0.0024589428511614525   0.0032856471073602934
-0.2656155663546416   0.0024589428511614525   0.0032856471073602934
-0.3400741088763474   0.004873467189172323   0.0013923077503897006
-0.3400741088763474   0.004873467189172323   0.0013923077503897006
-0.3400741088763474   0.004873467189172323   0.0013923077503897006
-0.3400741088763474   0.004873467189172323   0.0013923077503897006
-0.2614115529720411   0.023517760659495804   0.003246896212028297
-0.2614115529720411   0.023517760659495804   0.003246896212028297
-0.2614115529720411   0.023517760659495804   0.003246896212028297
-0.2614115529720411   0.023517760659495804   0.003246896212028297
-0.431554366535514   -0.0330412694943026   -0.00827661443908757
-0.431554366535514   -0.0330412694943026   -0.00827661443908757
-0.431554366535514   -0.0330412694943026   -0.00827661443908757
-0.431554366535514   -0.0330412694943026   -0.00827661443908757
-0.4363336932520547   -0.030115118977952368   0.0029096153934650808
-0.4363336932520547   -0.030115118977952368   0.0029096153934650808
-0.4363336932520547   -0.030115118977952368   0.0029096153934650808
-0.4363336932520547   -0.030115118977952368   0.0029096153934650808
-0.27741319999529973   -0.01679072126663069   0.006781879944279107
-0.27741319999529973   -0.01679072126663069   0.006781879944279107
-0.27741319999529973   -0.01679072126663069   0.006781879944279107
-0.27741319999529973   -0.01679072126663069   0.006781879944279107
-0.3513821396546564   -0.0129348554955981   -0.007037986775415207
-0.3513821396546564   -0.0129348554955981   -0.007037986775415207
-0.3513821396546564   -0.0129348554955981   -0.007037986775415207
-0.3513821396546564   -0.0129348554955981   -0.007037986775415207
-0.2730809290422883   0.0035700112282125718   0.008082502214492797
-0.2730809290422883   0.0035700112282125718   0.008082502214492797
-0.2730809290422883   0.0035700112282125718   0.008082502214492797
-0.2730809290422883   0.0035700112282125718   0.008082502214492797
-0.44241208385265945   -0.05222197112039035   -0.005375485467128705
-0.44241208385265945   -0.05222197112039035   -0.005375485467128705
-0.44241208385265945   -0.05222197112039035   -0.005375485467128705
-0.44241208385265945   -0.05222197112039035   -0.005375485467128705
-0.4464932674790248   -0.04889815291009548   0.008118694873099781
-0.4464932674790248   -0.04889815291009548   0.008118694873099781
-0.4464932674790248   -0.04889815291009548   0.008118694873099781
-0.4464932674790248   -0.04889815291009548   0.008118694873099781
-0.2887430793735903   -0.034950813501768124   0.010696524585441836
-0.2887430793735903   -0.034950813501768124   0.010696524585441836
-0.2887430793735903   -0.034950813501768124   0.010696524585441836
-0.2887430793735903   -0.034950813501768124   0.010696524585441836
-0.36355048552897745   -0.03085361400836137   -0.016198423018503195
-0.36355048552897745   -0.03085361400836137   -0.016198423018503195
-0.36355048552897745   -0.03085361400836137   -0.016198423018503195
-0.36355048552897745   -0.03085361400836137   -0.016198423018503195
-0.4001893137562342   0.06276157358129555   0.01727969526474709
-0.4001893137562342   0.06276157358129555   0.01727969526474709
-0.4001893137562342   0.06276157358129555   0.01727969526474709
-0.4001893137562342   0.06276157358129555   0.01727969526474709
-0.5815525003549602   -0.024031599506830856   -0.026725952205719477
-0.5815525003549602   -0.024031599506830856   -0.026725952205719477
-0.5815525003549602   -0.024031599506830856   -0.026725952205719477
-0.5815525003549602   -0.024031599506830856   -0.026725952205719477
-0.57375282973817   0.009330864060669186   0.01787515295962868
-0.57375282973817   0.009330864060669186   0.01787515295962868
-0.57375282973817   0.009330864060669186   0.01787515295962868
-0.57375282973817   0.009330864060669186   0.01787515295962868
-0.42735505518920186   -0.008432593969025376   -0.01188873323280401
-0.42735505518920186   -0.008432593969025376   -0.01188873323280401
-0.42735505518920186   -0.008432593969025376   -0.01188873323280401
-0.42735505518920186   -0.008432593969025376   -0.01188873323280401
-0.493995387964694   0.009976214051017798   0.0023821920803886246
-0.493995387964694   0.009976214051017798   0.0023821920803886246
-0.493995387964694   0.009976214051017798   0.0023821920803886246
-0.493995387964694   0.009976214051017798   0.0023821920803886246
-0.4101270504831944   0.04303727382115008   0.02278142250705762
-0.4101270504831944   0.04303727382115008   0.02278142250705762
-0.4101270504831944   0.04303727382115008   0.02278142250705762
-0.4101270504831944   0.04303727382115008   0.02278142250705762
-0.59309589627881   -0.044254065564145253   -0.02525525011876471
-0.59309589627881   -0.044254065564145253   -0.02525525011876471
-0.59309589627881   -0.044254065564145253   -0.02525525011876471
-0.59309589627881   -0.044254065564145253   -0.02525525011876471
-0.5877333333032946   -0.009939765537650719   0.02111491105981167
-0.5877333333032946   -0.009939765537650719   0.02111491105981167
-0.5877333333032946   -0.009939765537650719   0.02111491105981167
-0.5877333333032946   -0.009939765537650719   0.02111491105981167
-0.4376964757384732   -0.02593552802980094   -0.008083887986779083
-0.4376964757384732   -0.02593552802980094   -0.008083887986779083
-0.4376964757384732   -0.02593552802980094   -0.008083887986779083
-0.4376964757384732   -0.02593552802980094   -0.008083887986779083
-0.5034917087877754   -0.007184267487368723   -0.006756279694243285
-0.5034917087877754   -0.007184267487368723   -0.006756279694243285
-0.5034917087877754   -0.007184267487368723   -0.006756279694243285
-0.5034917087877754   -0.007184267487368723   -0.006756279694243285
-0.4202748534107387   0.02495557279442416   0.028133122827660718
-0.4202748534107387   0.02495557279442416   0.028133122827660718
-0.4202748534107387   0.02495557279442416   0.028133122827660718
-0.4202748534107387   0.02495557279442416   0.028133122827660718
-0.6068251414810057   -0.06250105221185508   -0.021782843154547867
-0.6068251414810057   -0.06250105221185508   -0.021782843154547867
-0.6068251414810057   -0.06250105221185508   -0.021782843154547867
-0.6068251414810057   -0.06250105221185508   -0.021782843154547867
-0.5990980984240892   -0.029350993409835463   0.02689517275631137
-0.5990980984240892   -0.029350993409835463   0.02689517275631137
-0.5990980984240892   -0.029350993409835463   0.02689517275631137
-0.5990980984240892   -0.029350993409835463   0.02689517275631137
-0.44807589783064533   -0.04385729646370931   -0.004835313331389479
-0.44807589783064533   -0.04385729646370931   -0.004835313331389479
-0.44807589783064533   -0.04385729646370931   -0.004835313331389479
-0.44807589783064533   -0.04385729646370931   -0.004835313331389479
-0.5177869989537189   -0.024687412165677186   -0.016122301193057756
-0.5177869989537189   -0.024687412165677186   -0.016122301193057756
-0.5177869989537189   -0.024687412165677186   -0.016122301193057756
-0.5177869989537189   -0.024687412165677186   -0.016122301193057756
-0.5509635645705446   0.06801691169042309   0.034170215519104125
-0.5509635645705446   0.06801691169042309   0.034170215519104125
-0.5509635645705446   0.06801691169042309   0.034170215519104125
-0.5509635645705446   0.06801691169042309   0.034170215519104125
-0.7091482628141483   -0.03547327791978336   -0.04470034721440336
-0.7091482628141483   -0.03547327791978336   -0.04470034721440336
-0.7091482628141483   -0.03547327791978336   -0.04470034721440336
-0.7091482628141483   -0.03547327791978336   -0.04470034721440336
-0.709706782581526   0.02730511208258557   0.03766777189525268
-0.709706782581526   0.02730511208258557   0.03766777189525268
-0.709706782581526   0.02730511208258557   0.03766777189525268
-0.709706782581526   0.02730511208258557   0.03766777189525268
-0.5886682085134118   -0.020023419099889958   -0.027347457756021636
-0.5886682085134118   -0.020023419099889958   -0.027347457756021636
-0.5886682085134118   -0.020023419099889958   -0.027347457756021636
-0.5886682085134118   -0.020023419099889958   -0.027347457756021636
-0.6137422268397653   0.016137484052878626   0.01187336788223127
-0.6137422268397653   0.016137484052878626   0.01187336788223127
-0.6137422268397653   0.016137484052878626   0.01187336788223127
-0.6137422268397653   0.016137484052878626   0.01187336788223127
-0.559559357644742   0.05786309849031482   0.04031027899711491
-0.559559357644742   0.05786309849031482   0.04031027899711491
-0.559559357644742   0.05786309849031482   0.04031027899711491
-0.559559357644742   0.05786309849031482   0.04031027899711491
-0.7410126541114744   -0.05277842616889784   -0.0387780475029984
-0.7410126541114744   -0.05277842616889784   -0.0387780475029984
-0.7410126541114744   -0.05277842616889784   -0.0387780475029984
-0.7410126541114744   -0.05277842616889784   -0.0387780475029984
-0.7351351734584364   0.016326973540498585   0.0485338329872974
-0.7351351734584364   0.016326973540498585   0.0485338329872974
-0.7351351734584364   0.016326973540498585   0.0485338329872974
-0.7351351734584364   0.016326973540498585   0.0485338329872974
-0.6007769327111802   -0.03008517268738735   -0.02395767882988738
-0.6007769327111802   -0.03008517268738735   -0.02395767882988738
-0.6007769327111802   -0.03008517268738735   -0.02395767882988738
-0.6007769327111802   -0.03008517268738735   -0.02395767882988738
-0.6440116207770175   0.0027893413328516914   -0.0008047766395262654
-0.6440116207770175   0.0027893413328516914   -0.0008047766395262654
-0.6440116207770175   0.0027893413328516914   -0.0008047766395262654
-0.6440116207770175   0.0027893413328516914   -0.0008047766395262654
-0.5704558935758551   0.04922377645952117   0.04833856769982913
-0.5704558935758551   0.04922377645952117   0.04833856769982913
-0.5704558935758551   0.04922377645952117   0.04833856769982913
-0.5704558935758551   0.04922377645952117   0.04833856769982913
-0.7676951136928585   -0.06522087670550976   -0.032718017938790214
-0.7676951136928585   -0.06522087670550976   -0.032718017938790214
-0.7676951136928585   -0.06522087670550976   -0.032718017938790214
-0.7676951136928585   -0.06522087670550976   -0.032718017938790214
-0.7727132381107052   -0.01255696402926032   0.051318537380989626
-0.7727132381107052   -0.01255696402926032   0.051318537380989626
-0.7727132381107052   -0.01255696402926032   0.051318537380989626
-0.7727132381107052   -0.01255696402926032   0.051318537380989626
-0.6129352628678718   -0.0509474882357393   -0.020694154636697916
-0.6129352628678718   -0.0509474882357393   -0.020694154636697916
-0.6129352628678718   -0.0509474882357393   -0.020694154636697916
-0.6129352628678718   -0.0509474882357393   -0.020694154636697916
-0.6556321913187584   -0.010434996216840547   -0.009803780236178769
-0.6556321913187584   -0.010434996216840547   -0.009803780236178769
-0.6556321913187584   -0.010434996216840547   -0.009803780236178769
-0.6556321913187584   -0.010434996216840547   -0.009803780236178769
-0.30040339346742034   -0.019604404185201534   -0.05650800782948365
-0.30040339346742034   -0.019604404185201534   -0.05650800782948365
-0.30040339346742034   -0.019604404185201534   -0.05650800782948365
-0.30040339346742034   -0.019604404185201534   -0.05650800782948365
-0.29750789169800784   0.04326493951368447   0.02541807974333069
-0.29750789169800784   0.04326493951368447   0.02541807974333069
-0.29750789169800784   0.04326493951368447   0.02541807974333069
-0.29750789169800784   0.04326493951368447   0.02541807974333069
-0.334791828973406   -0.03955825948272939   -0.03831270311030927
-0.334791828973406   -0.03955825948272939   -0.03831270311030927
-0.334791828973406   -0.03955825948272939   -0.03831270311030927
-0.334791828973406   -0.03955825948272939   -0.03831270311030927
-0.30662984003486077   0.0226504194845559   0.038185970122010277
-0.30662984003486077   0.0226504194845559   0.038185970122010277
-0.30662984003486077   0.0226504194845559   0.038185970122010277
-0.30662984003486077   0.0226504194845559   0.038185970122010277
-0.29427951724802764   0.007299063378913201   0.02593208899936057
-0.29427951724802764   0.007299063378913201   0.02593208899936057
-0.29427951724802764   0.007299063378913201   0.02593208899936057
-0.29427951724802764   0.007299063378913201   0.02593208899936057
-0.3366149561305778   -0.04173181872208267   -0.04735737214993445
-0.3366149561305778   -0.04173181872208267   -0.04735737214993445
-0.3366149561305778   -0.04173181872208267   -0.04735737214993445
-0.3366149561305778   -0.04173181872208267   -0.04735737214993445
-0.30852948155385906   0.021101210047744443   0.03233956445695131
-0.30852948155385906   0.021101210047744443   0.03233956445695131
-0.30852948155385906   0.021101210047744443   0.03233956445695131
-0.30852948155385906   0.021101210047744443   0.03233956445695131
-0.34601906426891177   -0.04983351705755573   -0.03242584375190256
-0.34601906426891177   -0.04983351705755573   -0.03242584375190256
-0.34601906426891177   -0.04983351705755573   -0.03242584375190256
-0.34601906426891177   -0.04983351705755573   -0.03242584375190256
-0.33555262506687183   0.008664150229541819   0.07099634217157644
-0.33555262506687183   0.008664150229541819   0.07099634217157644
-0.33555262506687183   0.008664150229541819   0.07099634217157644
-0.33555262506687183   0.008664150229541819   0.07099634217157644
-0.32093457488522076   -0.010353129758664516   0.010369655227297924
-0.32093457488522076   -0.010353129758664516   0.010369655227297924
-0.32093457488522076   -0.010353129758664516   0.010369655227297924
-0.32093457488522076   -0.010353129758664516   0.010369655227297924
-0.36997110030196756   -0.05552094355721507   -0.03691094021714342
-0.36997110030196756   -0.05552094355721507   -0.03691094021714342
-0.36997110030196756   -0.05552094355721507   -0.03691094021714342
-0.36997110030196756   -0.05552094355721507   -0.03691094021714342
-0.32041463066265036   0.005537535100367114   0.04022527212148146
-0.32041463066265036   0.005537535100367114   0.04022527212148146
-0.32041463066265036   0.005537535100367114   0.04022527212148146
-0.32041463066265036   0.005537535100367114   0.04022527212148146
-0.3552121455092048   -0.06982510895219736   -0.025521149317425464
-0.3552121455092048   -0.06982510895219736   -0.025521149317425464
-0.3552121455092048   -0.06982510895219736   -0.025521149317425464
-0.3552121455092048   -0.06982510895219736   -0.025521149317425464
-0.38050651827216747   -0.03755566739738914   0.06644023767553675
-0.38050651827216747   -0.03755566739738914   0.06644023767553675
-0.38050651827216747   -0.03755566739738914   0.06644023767553675
-0.38050651827216747   -0.03755566739738914   0.06644023767553675
-0.34404335496890975   -0.031219892484271393   -0.014290728266462495
-0.34404335496890975   -0.031219892484271393   -0.014290728266462495
-0.34404335496890975   -0.031219892484271393   -0.014290728266462495
-0.34404335496890975   -0.031219892484271393   -0.014290728266462495
-0.3189321384384442   -0.0093409177819989   -0.029097296663170822
-0.3189321384384442   -0.0093409177819989   -0.029097296663170822
-0.3189321384384442   -0.0093409177819989   -0.029097296663170822
-0.3189321384384442   -0.0093409177819989   -0.029097296663170822
-0.3233922716412686   -0.039738731216114286   -0.0016936147150590757
-0.3233922716412686   -0.039738731216114286   -0.0016936147150590757
-0.3233922716412686   -0.039738731216114286   -0.0016936147150590757
-0.3233922716412686   -0.039738731216114286   -0.0016936147150590757
-0.3257505363574623   -0.026460063550294358   -0.014525148173495005
-0.3257505363574623   -0.026460063550294358   -0.014525148173495005
-0.3257505363574623   -0.026460063550294358   -0.014525148173495005
-0.3257505363574623   -0.026460063550294358   -0.014525148173495005
-0.33013106512329093   -0.05400633374833394   -0.000560809594129619
-0.33013106512329093   -0.05400633374833394   -0.000560809594129619
-0.33013106512329093   -0.05400633374833394   -0.000560809594129619
-0.33013106512329093   -0.05400633374833394   -0.000560809594129619
-0.3217927671609263   -0.033793127447239515   -0.0011442692056061292
-0.3217927671609263   -0.033793127447239515   -0.0011442692056061292
-0.3217927671609263   -0.033793127447239515   -0.0011442692056061292
-0.3217927671609263   -0.033793127447239515   -0.0011442692056061292
-0.3301474444305288   -0.0294701862549496   -0.0251788536237047
-0.3301474444305288   -0.0294701862549496   -0.0251788536237047
-0.3301474444305288   -0.0294701862549496   -0.0251788536237047
-0.3301474444305288   -0.0294701862549496   -0.0251788536237047
-0.32781047578825756   -0.0530725297817127   0.0017876209039432126
-0.32781047578825756   -0.0530725297817127   0.0017876209039432126
-0.32781047578825756   -0.0530725297817127   0.0017876209039432126
-0.32781047578825756   -0.0530725297817127   0.0017876209039432126
-0.3312168125178645   -0.043762847102357845   -0.00937326772737909
-0.3312168125178645   -0.043762847102357845   -0.00937326772737909
-0.3312168125178645   -0.043762847102357845   -0.00937326772737909
-0.3312168125178645   -0.043762847102357845   -0.00937326772737909
-0.34210176132963527   -0.07006476050443607   0.007391914391359972
-0.34210176132963527   -0.07006476050443607   0.007391914391359972
-0.34210176132963527   -0.07006476050443607   0.007391914391359972
-0.34210176132963527   -0.07006476050443607   0.007391914391359972
-0.32919436577170963   -0.047771744064671044   -0.009157685979710955
-0.32919436577170963   -0.047771744064671044   -0.009157685979710955
-0.32919436577170963   -0.047771744064671044   -0.009157685979710955
-0.32919436577170963   -0.047771744064671044   -0.009157685979710955
-0.342896471640704   -0.04796117076261156   -0.01868522690580815
-0.342896471640704   -0.04796117076261156   -0.01868522690580815
-0.342896471640704   -0.04796117076261156   -0.01868522690580815
-0.342896471640704   -0.04796117076261156   -0.01868522690580815
-0.33307741854157263   -0.06852175317896303   0.006082608230677808
-0.33307741854157263   -0.06852175317896303   0.006082608230677808
-0.33307741854157263   -0.06852175317896303   0.006082608230677808
-0.33307741854157263   -0.06852175317896303   0.006082608230677808
-0.33612438481327306   -0.062407566745551674   -0.004271087151251428
-0.33612438481327306   -0.062407566745551674   -0.004271087151251428
-0.33612438481327306   -0.062407566745551674   -0.004271087151251428
-0.33612438481327306   -0.062407566745551674   -0.004271087151251428
-0.35126287586404126   -0.09045668842078007   0.014856778376973842
-0.35126287586404126   -0.09045668842078007   0.014856778376973842
-0.35126287586404126   -0.09045668842078007   0.014856778376973842
-0.35126287586404126   -0.09045668842078007   0.014856778376973842
-0.3393729148640111   -0.06465626092371785   -0.019349868572580135
-0.3393729148640111   -0.06465626092371785   -0.019349868572580135
-0.3393729148640111   -0.06465626092371785   -0.019349868572580135
-0.3393729148640111   -0.06465626092371785   -0.019349868572580135
-0.3145209224043467   0.00825967743854411   -0.005335277185104098
-0.3145209224043467   0.00825967743854411   -0.005335277185104098
-0.3145209224043467   0.00825967743854411   -0.005335277185104098
-0.3145209224043467   0.00825967743854411   -0.005335277185104098
-0.3559626298129843   -0.06758056205301792   -0.017064273804495322
-0.3559626298129843   -0.06758056205301792   -0.017064273804495322
-0.3559626298129843   -0.06758056205301792   -0.017064273804495322
-0.3559626298129843   -0.06758056205301792   -0.017064273804495322
-0.34143236571815855   -0.012463626824970889   0.004489598090215544
-0.34143236571815855   -0.012463626824970889   0.004489598090215544
-0.34143236571815855   -0.012463626824970889   0.004489598090215544
-0.34143236571815855   -0.012463626824970889   0.004489598090215544
-0.33426889047831737   -0.07304649174068559   -0.010530490587383003
-0.33426889047831737   -0.07304649174068559   -0.010530490587383003
-0.33426889047831737   -0.07304649174068559   -0.010530490587383003
-0.33426889047831737   -0.07304649174068559   -0.010530490587383003
-0.3363109468328325   -0.037354621685768495   -0.00761051677096118
-0.3363109468328325   -0.037354621685768495   -0.00761051677096118
-0.3363109468328325   -0.037354621685768495   -0.00761051677096118
-0.3363109468328325   -0.037354621685768495   -0.00761051677096118
-0.3193517736537588   -0.00895308972599096   -3.830847928456768e-05
-0.3193517736537588   -0.00895308972599096   -3.830847928456768e-05
-0.3193517736537588   -0.00895308972599096   -3.830847928456768e-05
-0.3193517736537588   -0.00895308972599096   -3.830847928456768e-05
-0.3582346833446792   -0.07844222964162366   -0.01354338722572696
-0.3582346833446792   -0.07844222964162366   -0.01354338722572696
-0.3582346833446792   -0.07844222964162366   -0.01354338722572696
-0.3582346833446792   -0.07844222964162366   -0.01354338722572696
-0.34536191082879086   -0.029815430522876232   0.009607044496542528
-0.34536191082879086   -0.029815430522876232   0.009607044496542528
-0.34536191082879086   -0.029815430522876232   0.009607044496542528
-0.34536191082879086   -0.029815430522876232   0.009607044496542528
-0.33938523473313453   -0.08672116748116449   -0.007257058424922637
-0.33938523473313453   -0.08672116748116449   -0.007257058424922637
-0.33938523473313453   -0.08672116748116449   -0.007257058424922637
-0.33938523473313453   -0.08672116748116449   -0.007257058424922637
-0.3404841365237445   -0.05057205784127599   -0.014482003383775211
-0.3404841365237445   -0.05057205784127599   -0.014482003383775211
-0.3404841365237445   -0.05057205784127599   -0.014482003383775211
-0.3404841365237445   -0.05057205784127599   -0.014482003383775211
-0.32488542008432986   -0.02661447650475953   0.005135323842695735
-0.32488542008432986   -0.02661447650475953   0.005135323842695735
-0.32488542008432986   -0.02661447650475953   0.005135323842695735
-0.32488542008432986   -0.02661447650475953   0.005135323842695735
-0.36196763482931416   -0.0920280308510024   -0.011208975177947968
-0.36196763482931416   -0.0920280308510024   -0.011208975177947968
-0.36196763482931416   -0.0920280308510024   -0.011208975177947968
-0.36196763482931416   -0.0920280308510024   -0.011208975177947968
-0.348562069688311   -0.04613138975399024   0.014612633639021391
-0.348562069688311   -0.04613138975399024   0.014612633639021391
-0.348562069688311   -0.04613138975399024   0.014612633639021391
-0.348562069688311   -0.04613138975399024   0.014612633639021391
-0.34319733312676776   -0.09983864284475993   -0.0022047526195205034
-0.34319733312676776   -0.09983864284475993   -0.0022047526195205034
-0.34319733312676776   -0.09983864284475993   -0.0022047526195205034
-0.34319733312676776   -0.09983864284475993   -0.0022047526195205034
-0.3454570321109553   -0.06439518953443558   -0.022031845672941305
-0.3454570321109553   -0.06439518953443558   -0.022031845672941305
-0.3454570321109553   -0.06439518953443558   -0.022031845672941305
-0.3454570321109553   -0.06439518953443558   -0.022031845672941305
-0.3286782674893834   0.035203193882938896   0.01657378187755253
-0.3286782674893834   0.035203193882938896   0.01657378187755253
-0.3286782674893834   0.035203193882938896   0.01657378187755253
-0.3286782674893834   0.035203193882938896   0.01657378187755253
-0.3885837319369074   -0.05042723533972972   -0.023784389524242645
-0.3885837319369074   -0.05042723533972972   -0.023784389524242645
-0.3885837319369074   -0.05042723533972972   -0.023784389524242645
-0.3885837319369074   -0.05042723533972972   -0.023784389524242645
-0.36763993138967765   0.010479951807480098   0.02295887185019921
-0.36763993138967765   0.010479951807480098   0.02295887185019921
-0.36763993138967765   0.010479951807480098   0.02295887185019921
-0.36763993138967765   0.010479951807480098   0.02295887185019921
-0.35397118740975997   -0.05626522023292953   -0.014402916959832972
-0.35397118740975997   -0.05626522023292953   -0.014402916959832972
-0.35397118740975997   -0.05626522023292953   -0.014402916959832972
-0.35397118740975997   -0.05626522023292953   -0.014402916959832972
-0.35968579442423726   -0.014874542037348032   -0.004545136625442491
-0.35968579442423726   -0.014874542037348032   -0.004545136625442491
-0.35968579442423726   -0.014874542037348032   -0.004545136625442491
-0.35968579442423726   -0.014874542037348032   -0.004545136625442491
-0.332025434278494   0.017352668793658738   0.021707959669908697
-0.332025434278494   0.017352668793658738   0.021707959669908697
-0.332025434278494   0.017352668793658738   0.021707959669908697
-0.332025434278494   0.017352668793658738   0.021707959669908697
-0.392089146856774   -0.06564139955493847   -0.023165854122863712
-0.392089146856774   -0.06564139955493847   -0.023165854122863712
-0.392089146856774   -0.06564139955493847   -0.023165854122863712
-0.392089146856774   -0.06564139955493847   -0.023165854122863712
-0.37445059712108053   -0.006463177233171372   0.026031987378976124
-0.37445059712108053   -0.006463177233171372   0.026031987378976124
-0.37445059712108053   -0.006463177233171372   0.026031987378976124
-0.37445059712108053   -0.006463177233171372   0.026031987378976124
-0.3573919718009217   -0.06889357658195393   -0.011465114305041617
-0.3573919718009217   -0.06889357658195393   -0.011465114305041617
-0.3573919718009217   -0.06889357658195393   -0.011465114305041617
-0.3573919718009217   -0.06889357658195393   -0.011465114305041617
-0.3631223825338979   -0.029201586881393994   -0.012604095420678358
-0.3631223825338979   -0.029201586881393994   -0.012604095420678358
-0.3631223825338979   -0.029201586881393994   -0.012604095420678358
-0.3631223825338979   -0.029201586881393994   -0.012604095420678358
-0.33569696229204593   0.0014203529902653972   0.02669600366712534
-0.33569696229204593   0.0014203529902653972   0.02669600366712534
-0.33569696229204593   0.0014203529902653972   0.02669600366712534
-0.33569696229204593   0.0014203529902653972   0.02669600366712534
-0.3983149529733395   -0.07894645314877263   -0.020806515966717332
-0.3983149529733395   -0.07894645314877263   -0.020806515966717332
-0.3983149529733395   -0.07894645314877263   -0.020806515966717332
-0.3983149529733395   -0.07894645314877263   -0.020806515966717332
-0.37895721331481136   -0.02271698573963768   0.03174755577313469
-0.37895721331481136   -0.02271698573963768   0.03174755577313469
-0.37895721331481136   -0.02271698573963768   0.03174755577313469
-0.37895721331481136   -0.02271698573963768   0.03174755577313469
-0.36033254078264687   -0.08157896782353485   -0.008792143763120902
-0.36033254078264687   -0.08157896782353485   -0.008792143763120902
-0.36033254078264687   -0.08157896782353485   -0.008792143763120902
-0.36033254078264687   -0.08157896782353485   -0.008792143763120902
-0.36913806855425985   -0.04270730502556259   -0.020413199671671073
-0.36913806855425985   -0.04270730502556259   -0.020413199671671073
-0.36913806855425985   -0.04270730502556259   -0.020413199671671073
-0.36913806855425985   -0.04270730502556259   -0.020413199671671073
-0.35702175444552386   0.05050978809617601   0.033088474496769146
-0.35702175444552386   0.05050978809617601   0.033088474496769146
-0.35702175444552386   0.05050978809617601   0.033088474496769146
-0.35702175444552386   0.05050978809617601   0.033088474496769146
-0.38172118118535814   -0.03046270742774629   -0.03446246141677568
-0.38172118118535814   -0.03046270742774629   -0.03446246141677568
-0.38172118118535814   -0.03046270742774629   -0.03446246141677568
-0.38172118118535814   -0.03046270742774629   -0.03446246141677568
-0.37316059861830586   0.03590204445008961   0.03677225009873954
-0.37316059861830586   0.03590204445008961   0.03677225009873954
-0.37316059861830586   0.03590204445008961   0.03677225009873954
-0.37316059861830586   0.03590204445008961   0.03677225009873954
-0.3863532735143827   -0.03906253016171825   -0.021065356804135415
-0.3863532735143827   -0.03906253016171825   -0.021065356804135415
-0.3863532735143827   -0.03906253016171825   -0.021065356804135415
-0.3863532735143827   -0.03906253016171825   -0.021065356804135415
-0.3618222350883711   0.009017958112227095   0.0014160864864686644
-0.3618222350883711   0.009017958112227095   0.0014160864864686644
-0.3618222350883711   0.009017958112227095   0.0014160864864686644
-0.3618222350883711   0.009017958112227095   0.0014160864864686644
-0.35886564668917187   0.03905719520683411   0.03825305195335876
-0.35886564668917187   0.03905719520683411   0.03825305195335876
-0.35886564668917187   0.03905719520683411   0.03825305195335876
-0.35886564668917187   0.03905719520683411   0.03825305195335876
-0.4026883452493251   -0.044257800724277596   -0.030706637881989723
-0.4026883452493251   -0.044257800724277596   -0.030706637881989723
-0.4026883452493251   -0.044257800724277596   -0.030706637881989723
-0.4026883452493251   -0.044257800724277596   -0.030706637881989723
-0.3895953467730224   0.026411354276989388   0.047343370053869266
-0.3895953467730224   0.026411354276989388   0.047343370053869266
-0.3895953467730224   0.026411354276989388   0.047343370053869266
-0.3895953467730224   0.026411354276989388   0.047343370053869266
-0.39150746068668896   -0.0464952255869881   -0.019220282095256638
-0.39150746068668896   -0.0464952255869881   -0.019220282095256638
-0.39150746068668896   -0.0464952255869881   -0.019220282095256638
-0.39150746068668896   -0.0464952255869881   -0.019220282095256638
-0.37952619055265513   -0.0024809228055082955   -0.00809669644039061
-0.37952619055265513   -0.0024809228055082955   -0.00809669644039061
-0.37952619055265513   -0.0024809228055082955   -0.00809669644039061
-0.37952619055265513   -0.0024809228055082955   -0.00809669644039061
-0.36292035872114153   0.03143473192140718   0.04578527022407744
-0.36292035872114153   0.03143473192140718   0.04578527022407744
-0.36292035872114153   0.03143473192140718   0.04578527022407744
-0.36292035872114153   0.03143473192140718   0.04578527022407744
-0.420840130053377   -0.05417628454621436   -0.02829290752469994
-0.420840130053377   -0.05417628454621436   -0.02829290752469994
-0.420840130053377   -0.05417628454621436   -0.02829290752469994
-0.420840130053377   -0.05417628454621436   -0.02829290752469994
-0.4185737501947342   0.0021809700485573846   0.0505866241116479
-0.4185737501947342   0.0021809700485573846   0.0505866241116479
-0.4185737501947342   0.0021809700485573846   0.0505866241116479
-0.4185737501947342   0.0021809700485573846   0.0505866241116479
-0.3962108349708145   -0.06053428042505726   -0.01670325782146936
-0.3962108349708145   -0.06053428042505726   -0.01670325782146936
-0.3962108349708145   -0.06053428042505726   -0.01670325782146936
-0.3962108349708145   -0.06053428042505726   -0.01670325782146936
-0.3879207953318126   -0.013062616264527635   -0.016675782454681983
-0.3879207953318126   -0.013062616264527635   -0.016675782454681983
-0.3879207953318126   -0.013062616264527635   -0.016675782454681983
-0.3879207953318126   -0.013062616264527635   -0.016675782454681983
-0.7662131615252044   -0.07001238126564051   -0.07226325432609776
-0.7662131615252044   -0.07001238126564051   -0.07226325432609776
-0.7662131615252044   -0.07001238126564051   -0.07226325432609776
-0.7662131615252044   -0.07001238126564051   -0.07226325432609776
-0.48597785736445265   0.041518963853503676   0.0170380654241373
-0.48597785736445265   0.041518963853503676   0.0170380654241373
-0.48597785736445265   0.041518963853503676   0.0170380654241373
-0.48597785736445265   0.041518963853503676   0.0170380654241373
-0.5103026438602539   -0.03216677814926654   -0.03222721422170874
-0.5103026438602539   -0.03216677814926654   -0.03222721422170874
-0.5103026438602539   -0.03216677814926654   -0.03222721422170874
-0.5103026438602539   -0.03216677814926654   -0.03222721422170874
-0.8145597549611433   -0.09169022084093867   0.0810075808699969
-0.8145597549611433   -0.09169022084093867   0.0810075808699969
-0.8145597549611433   -0.09169022084093867   0.0810075808699969
-0.8145597549611433   -0.09169022084093867   0.0810075808699969
-0.5922897884919361   -0.022519292443364453   0.07854975432042664
-0.5922897884919361   -0.022519292443364453   0.07854975432042664
-0.5922897884919361   -0.022519292443364453   0.07854975432042664
-0.5922897884919361   -0.022519292443364453   0.07854975432042664
-0.8436054659060155   -0.10297011554428041   -0.052941079151016576
-0.8436054659060155   -0.10297011554428041   -0.052941079151016576
-0.8436054659060155   -0.10297011554428041   -0.052941079151016576
-0.8436054659060155   -0.10297011554428041   -0.052941079151016576
-0.5016829370957163   -0.04131288762625847   0.020017429077971043
-0.5016829370957163   -0.04131288762625847   0.020017429077971043
-0.5016829370957163   -0.04131288762625847   0.020017429077971043
-0.5016829370957163   -0.04131288762625847   0.020017429077971043
-0.5180991791862973   -0.04667015879632874   -0.0231286488383508
-0.5180991791862973   -0.04667015879632874   -0.0231286488383508
-0.5180991791862973   -0.04667015879632874   -0.0231286488383508
-0.5180991791862973   -0.04667015879632874   -0.0231286488383508
-0.8404400624562732   -0.1281285686995815   0.0020238199668669438
-0.8404400624562732   -0.1281285686995815   0.0020238199668669438
-0.8404400624562732   -0.1281285686995815   0.0020238199668669438
-0.8404400624562732   -0.1281285686995815   0.0020238199668669438
-0.6557024885599976   -0.07731383051256693   0.018141499168373605
-0.6557024885599976   -0.07731383051256693   0.018141499168373605
-0.6557024885599976   -0.07731383051256693   0.018141499168373605
-0.6557024885599976   -0.07731383051256693   0.018141499168373605
-0.8470134358946879   -0.11635133629607766   -0.04262027962870494
-0.8470134358946879   -0.11635133629607766   -0.04262027962870494
-0.8470134358946879   -0.11635133629607766   -0.04262027962870494
-0.8470134358946879   -0.11635133629607766   -0.04262027962870494
-0.5177168566140649   -0.06463844206601449   -0.0032487527075062
-0.5177168566140649   -0.06463844206601449   -0.0032487527075062
-0.5177168566140649   -0.06463844206601449   -0.0032487527075062
-0.5177168566140649   -0.06463844206601449   -0.0032487527075062
-0.518415982345407   -0.08179386332726357   -0.016841277900595836
-0.518415982345407   -0.08179386332726357   -0.016841277900595836
-0.518415982345407   -0.08179386332726357   -0.016841277900595836
-0.518415982345407   -0.08179386332726357   -0.016841277900595836
-0.8604960446107351   -0.19569481638165534   0.012877523189302171
-0.8604960446107351   -0.19569481638165534   0.012877523189302171
-0.8604960446107351   -0.19569481638165534   0.012877523189302171
-0.8604960446107351   -0.19569481638165534   0.012877523189302171
-0.6549567839273215   -0.10628639520351132   0.0013522355975926423
-0.6549567839273215   -0.10628639520351132   0.0013522355975926423
-0.6549567839273215   -0.10628639520351132   0.0013522355975926423
-0.6549567839273215   -0.10628639520351132   0.0013522355975926423
-0.5247810935123832   -0.0889746691164392   -0.046484482345569
-0.5247810935123832   -0.0889746691164392   -0.046484482345569
-0.5247810935123832   -0.0889746691164392   -0.046484482345569
-0.5247810935123832   -0.0889746691164392   -0.046484482345569
-0.36052278238038016   -0.23296730551957523   -0.04367903319657406
-0.36052278238038016   -0.23296730551957523   -0.04367903319657406
-0.36052278238038016   -0.23296730551957523   -0.04367903319657406
-0.36052278238038016   -0.23296730551957523   -0.04367903319657406
-0.31666965937333585   -0.05175224987830206   -0.002751795993909992
-0.31666965937333585   -0.05175224987830206   -0.002751795993909992
-0.31666965937333585   -0.05175224987830206   -0.002751795993909992
-0.31666965937333585   -0.05175224987830206   -0.002751795993909992
-0.557859175560839   -0.247112216573383   -0.05506443430051731
-0.557859175560839   -0.247112216573383   -0.05506443430051731
-0.557859175560839   -0.247112216573383   -0.05506443430051731
-0.557859175560839   -0.247112216573383   -0.05506443430051731
-0.43485244703166404   -0.16472431590792275   -0.012674793826007731
-0.43485244703166404   -0.16472431590792275   -0.012674793826007731
-0.43485244703166404   -0.16472431590792275   -0.012674793826007731
-0.43485244703166404   -0.16472431590792275   -0.012674793826007731
-0.5243717004419209   -0.09974179495758234   -0.03499748032172625
-0.5243717004419209   -0.09974179495758234   -0.03499748032172625
-0.5243717004419209   -0.09974179495758234   -0.03499748032172625
-0.5243717004419209   -0.09974179495758234   -0.03499748032172625
-0.3522832550775392   -0.20124879207938845   -0.03132323231384434
-0.3522832550775392   -0.20124879207938845   -0.03132323231384434
-0.3522832550775392   -0.20124879207938845   -0.03132323231384434
-0.3522832550775392   -0.20124879207938845   -0.03132323231384434
-0.3202210906325126   -0.06706563381770479   0.0005068771278936848
-0.3202210906325126   -0.06706563381770479   0.0005068771278936848
-0.3202210906325126   -0.06706563381770479   0.0005068771278936848
-0.3202210906325126   -0.06706563381770479   0.0005068771278936848
-0.5598070138048462   -0.24582764332402002   -0.03251033740340724
-0.5598070138048462   -0.24582764332402002   -0.03251033740340724
-0.5598070138048462   -0.24582764332402002   -0.03251033740340724
-0.5598070138048462   -0.24582764332402002   -0.03251033740340724
-0.42998913428764096   -0.15440645089390784   -0.0134655753279147
-0.42998913428764096   -0.15440645089390784   -0.0134655753279147
-0.42998913428764096   -0.15440645089390784   -0.0134655753279147
-0.42998913428764096   -0.15440645089390784   -0.0134655753279147
-0.5323554918111912   -0.11484163635904088   -0.02623873440010814
-0.5323554918111912   -0.11484163635904088   -0.02623873440010814
-0.5323554918111912   -0.11484163635904088   -0.02623873440010814
-0.5323554918111912   -0.11484163635904088   -0.02623873440010814
-0.3520723882429937   -0.20245141639950948   -0.02336382834270702
-0.3520723882429937   -0.20245141639950948   -0.02336382834270702
-0.3520723882429937   -0.20245141639950948   -0.02336382834270702
-0.3520723882429937   -0.20245141639950948   -0.02336382834270702
-0.3200379174877934   -0.08615008396404167   0.00516484228441802
-0.3200379174877934   -0.08615008396404167   0.00516484228441802
-0.3200379174877934   -0.08615008396404167   0.00516484228441802
-0.3200379174877934   -0.08615008396404167   0.00516484228441802
-0.5583581670980132   -0.24991394883317034   -0.04843211615772704
-0.5583581670980132   -0.24991394883317034   -0.04843211615772704
-0.5583581670980132   -0.24991394883317034   -0.04843211615772704
-0.5583581670980132   -0.24991394883317034   -0.04843211615772704
-0.4364164940322359   -0.16609596968250195   -0.025008547144838186
-0.4364164940322359   -0.16609596968250195   -0.025008547144838186
-0.4364164940322359   -0.16609596968250195   -0.025008547144838186
-0.4364164940322359   -0.16609596968250195   -0.025008547144838186
-0.317449070561584   -0.057267126138557854   -0.004010653483610635
-0.317449070561584   -0.057267126138557854   -0.004010653483610635
-0.317449070561584   -0.057267126138557854   -0.004010653483610635
-0.317449070561584   -0.057267126138557854   -0.004010653483610635
-0.26619031870170584   -0.17822824297902617   -0.030767368295514907
-0.26619031870170584   -0.17822824297902617   -0.030767368295514907
-0.26619031870170584   -0.17822824297902617   -0.030767368295514907
-0.26619031870170584   -0.17822824297902617   -0.030767368295514907
-0.2293943527197636   -0.04751290340265395   0.012262913344221419
-0.2293943527197636   -0.04751290340265395   0.012262913344221419
-0.2293943527197636   -0.04751290340265395   0.012262913344221419
-0.2293943527197636   -0.04751290340265395   0.012262913344221419
-0.3513243764055992   -0.1937764501131913   -0.034001180920341295
-0.3513243764055992   -0.1937764501131913   -0.034001180920341295
-0.3513243764055992   -0.1937764501131913   -0.034001180920341295
-0.3513243764055992   -0.1937764501131913   -0.034001180920341295
-0.28980571988207404   -0.12086522124342541   -0.014197000731898984
-0.28980571988207404   -0.12086522124342541   -0.014197000731898984
-0.28980571988207404   -0.12086522124342541   -0.014197000731898984
-0.28980571988207404   -0.12086522124342541   -0.014197000731898984
-0.3192216095292164   -0.06781974730309376   0.0005559506514751819
-0.3192216095292164   -0.06781974730309376   0.0005559506514751819
-0.3192216095292164   -0.06781974730309376   0.0005559506514751819
-0.3192216095292164   -0.06781974730309376   0.0005559506514751819
-0.2633805486520201   -0.17535303526862137   -0.029827934451078432
-0.2633805486520201   -0.17535303526862137   -0.029827934451078432
-0.2633805486520201   -0.17535303526862137   -0.029827934451078432
-0.2633805486520201   -0.17535303526862137   -0.029827934451078432
-0.22941628351682447   -0.060098143561754344   0.015889109955817944
-0.22941628351682447   -0.060098143561754344   0.015889109955817944
-0.22941628351682447   -0.060098143561754344   0.015889109955817944
-0.22941628351682447   -0.060098143561754344   0.015889109955817944
-0.3523712334325201   -0.19684866760073794   -0.030460803089110464
-0.3523712334325201   -0.19684866760073794   -0.030460803089110464
-0.3523712334325201   -0.19684866760073794   -0.030460803089110464
-0.3523712334325201   -0.19684866760073794   -0.030460803089110464
-0.2892370669135951   -0.12560655942141963   -0.018421710074369463
-0.2892370669135951   -0.12560655942141963   -0.018421710074369463
-0.2892370669135951   -0.12560655942141963   -0.018421710074369463
-0.2892370669135951   -0.12560655942141963   -0.018421710074369463
-0.32184100651471287   -0.0805771478105459   0.0059188117097332725
-0.32184100651471287   -0.0805771478105459   0.0059188117097332725
-0.32184100651471287   -0.0805771478105459   0.0059188117097332725
-0.32184100651471287   -0.0805771478105459   0.0059188117097332725
-0.2609814582535427   -0.1774046111708549   -0.02463029611867259
-0.2609814582535427   -0.1774046111708549   -0.02463029611867259
-0.2609814582535427   -0.1774046111708549   -0.02463029611867259
-0.2609814582535427   -0.1774046111708549   -0.02463029611867259
-0.22664739720254787   -0.07212038482551114   0.019836601552503552
-0.22664739720254787   -0.07212038482551114   0.019836601552503552
-0.22664739720254787   -0.07212038482551114   0.019836601552503552
-0.22664739720254787   -0.07212038482551114   0.019836601552503552
-0.348104261952722   -0.19936420349959327   -0.021952760504669516
-0.348104261952722   -0.19936420349959327   -0.021952760504669516
-0.348104261952722   -0.19936420349959327   -0.021952760504669516
-0.348104261952722   -0.19936420349959327   -0.021952760504669516
-0.28830513052847473   -0.13184406653767572   -0.021345730294638047
-0.28830513052847473   -0.13184406653767572   -0.021345730294638047
-0.28830513052847473   -0.13184406653767572   -0.021345730294638047
-0.28830513052847473   -0.13184406653767572   -0.021345730294638047
-0.22163167562944028   -0.007933687796692034   0.021731291883478665
-0.22163167562944028   -0.007933687796692034   0.021731291883478665
-0.22163167562944028   -0.007933687796692034   0.021731291883478665
-0.22163167562944028   -0.007933687796692034   0.021731291883478665
-0.20946923862449948   -0.09432455277532098   -0.018409681850474927
-0.20946923862449948   -0.09432455277532098   -0.018409681850474927
-0.20946923862449948   -0.09432455277532098   -0.018409681850474927
-0.20946923862449948   -0.09432455277532098   -0.018409681850474927
-0.18055817135371044   -0.013667499685088028   0.025172669723324985
-0.18055817135371044   -0.013667499685088028   0.025172669723324985
-0.18055817135371044   -0.013667499685088028   0.025172669723324985
-0.18055817135371044   -0.013667499685088028   0.025172669723324985
-0.24676089302481302   -0.10903904751612348   -0.013043644067556055
-0.24676089302481302   -0.10903904751612348   -0.013043644067556055
-0.24676089302481302   -0.10903904751612348   -0.013043644067556055
-0.24676089302481302   -0.10903904751612348   -0.013043644067556055
-0.21532206428293   -0.055723160959220135   -0.007699279814942861
-0.21532206428293   -0.055723160959220135   -0.007699279814942861
-0.21532206428293   -0.055723160959220135   -0.007699279814942861
-0.21532206428293   -0.055723160959220135   -0.007699279814942861
-0.22171550633882936   -0.0219205435479409   0.02506478539417955
-0.22171550633882936   -0.0219205435479409   0.02506478539417955
-0.22171550633882936   -0.0219205435479409   0.02506478539417955
-0.22171550633882936   -0.0219205435479409   0.02506478539417955
-0.20760611390993572   -0.10278855952351225   -0.020945983219377188
-0.20760611390993572   -0.10278855952351225   -0.020945983219377188
-0.20760611390993572   -0.10278855952351225   -0.020945983219377188
-0.20760611390993572   -0.10278855952351225   -0.020945983219377188
-0.1807629020676937   -0.02586375502615832   0.027054923740708375
-0.1807629020676937   -0.02586375502615832   0.027054923740708375
-0.1807629020676937   -0.02586375502615832   0.027054923740708375
-0.1807629020676937   -0.02586375502615832   0.027054923740708375
-0.24661913560151114   -0.11568187436843756   -0.014541419660939973
-0.24661913560151114   -0.11568187436843756   -0.014541419660939973
-0.24661913560151114   -0.11568187436843756   -0.014541419660939973
-0.24661913560151114   -0.11568187436843756   -0.014541419660939973
-0.21432716744091948   -0.06552119673431281   -0.013064508167994374
-0.21432716744091948   -0.06552119673431281   -0.013064508167994374
-0.21432716744091948   -0.06552119673431281   -0.013064508167994374
-0.21432716744091948   -0.06552119673431281   -0.013064508167994374
-0.22161941905144297   -0.03374248785571302   0.028517776576684157
-0.22161941905144297   -0.03374248785571302   0.028517776576684157
-0.22161941905144297   -0.03374248785571302   0.028517776576684157
-0.22161941905144297   -0.03374248785571302   0.028517776576684157
-0.20697509067470096   -0.10901561359582067   -0.020854160724665703
-0.20697509067470096   -0.10901561359582067   -0.020854160724665703
-0.20697509067470096   -0.10901561359582067   -0.020854160724665703
-0.20697509067470096   -0.10901561359582067   -0.020854160724665703
-0.17915517917582977   -0.03731470923441928   0.03135178757565519
-0.17915517917582977   -0.03731470923441928   0.03135178757565519
-0.17915517917582977   -0.03731470923441928   0.03135178757565519
-0.17915517917582977   -0.03731470923441928   0.03135178757565519
-0.24264587772911533   -0.12232827343852379   -0.009947912467321084
-0.24264587772911533   -0.12232827343852379   -0.009947912467321084
-0.24264587772911533   -0.12232827343852379   -0.009947912467321084
-0.24264587772911533   -0.12232827343852379   -0.009947912467321084
-0.21361706452780416   -0.07394066796964226   -0.016788831534924557
-0.21361706452780416   -0.07394066796964226   -0.016788831534924557
-0.21361706452780416   -0.07394066796964226   -0.016788831534924557
-0.21361706452780416   -0.07394066796964226   -0.016788831534924557
-0.1752493727148878   0.02449763794512952   0.03386745697713302
-0.1752493727148878   0.02449763794512952   0.03386745697713302
-0.1752493727148878   0.02449763794512952   0.03386745697713302
-0.1752493727148878   0.02449763794512952   0.03386745697713302
-0.11631702491640426   -0.03100530490074202   -0.011316559612003434
-0.11631702491640426   -0.03100530490074202   -0.011316559612003434
-0.11631702491640426   -0.03100530490074202   -0.011316559612003434
-0.11631702491640426   -0.03100530490074202   -0.011316559612003434
-0.10149088310476222   0.028810674185428632   0.03343827452197849
-0.10149088310476222   0.028810674185428632   0.03343827452197849
-0.10149088310476222   0.028810674185428632   0.03343827452197849
-0.10149088310476222   0.028810674185428632   0.03343827452197849
-0.19353233611841375   -0.04750688582590489   -0.0058587679593747576
-0.19353233611841375   -0.04750688582590489   -0.0058587679593747576
-0.19353233611841375   -0.04750688582590489   -0.0058587679593747576
-0.19353233611841375   -0.04750688582590489   -0.0058587679593747576
-0.1446395720786352   -0.0030295517175835188   -0.006125036115241915
-0.1446395720786352   -0.0030295517175835188   -0.006125036115241915
-0.1446395720786352   -0.0030295517175835188   -0.006125036115241915
-0.1446395720786352   -0.0030295517175835188   -0.006125036115241915
-0.17239871399554813   0.015334953723905816   0.03696750310515032
-0.17239871399554813   0.015334953723905816   0.03696750310515032
-0.17239871399554813   0.015334953723905816   0.03696750310515032
-0.17239871399554813   0.015334953723905816   0.03696750310515032
-0.12282572153778028   -0.03423238167453195   -0.010192861783151229
-0.12282572153778028   -0.03423238167453195   -0.010192861783151229
-0.12282572153778028   -0.03423238167453195   -0.010192861783151229
-0.12282572153778028   -0.03423238167453195   -0.010192861783151229
-0.10594239966868042   0.022875693032774883   0.042069249985549714
-0.10594239966868042   0.022875693032774883   0.042069249985549714
-0.10594239966868042   0.022875693032774883   0.042069249985549714
-0.10594239966868042   0.022875693032774883   0.042069249985549714
-0.19261504631472282   -0.05056624560413622   -0.007503306916459402
-0.19261504631472282   -0.05056624560413622   -0.007503306916459402
-0.19261504631472282   -0.05056624560413622   -0.007503306916459402
-0.19261504631472282   -0.05056624560413622   -0.007503306916459402
-0.14890583968062232   -0.009511961539047886   -0.0086369609582044
-0.14890583968062232   -0.009511961539047886   -0.0086369609582044
-0.14890583968062232   -0.009511961539047886   -0.0086369609582044
-0.14890583968062232   -0.009511961539047886   -0.0086369609582044
-0.17047457083758574   0.010068311479084834   0.04256451338600481
-0.17047457083758574   0.010068311479084834   0.04256451338600481
-0.17047457083758574   0.010068311479084834   0.04256451338600481
-0.17047457083758574   0.010068311479084834   0.04256451338600481
-0.12959863981448755   -0.03927462871911368   -0.014061628991581941
-0.12959863981448755   -0.03927462871911368   -0.014061628991581941
-0.12959863981448755   -0.03927462871911368   -0.014061628991581941
-0.12959863981448755   -0.03927462871911368   -0.014061628991581941
-0.12122819899925688   0.006558172346480755   0.0437763700646631
-0.12122819899925688   0.006558172346480755   0.0437763700646631
-0.12122819899925688   0.006558172346480755   0.0437763700646631
-0.12122819899925688   0.006558172346480755   0.0437763700646631
-0.18988163032713604   -0.05330235956608885   -0.006292817849206545
-0.18988163032713604   -0.05330235956608885   -0.006292817849206545
-0.18988163032713604   -0.05330235956608885   -0.006292817849206545
-0.18988163032713604   -0.05330235956608885   -0.006292817849206545
-0.15094823701532376   -0.014198018156137592   -0.012711028152162594
-0.15094823701532376   -0.014198018156137592   -0.012711028152162594
-0.15094823701532376   -0.014198018156137592   -0.012711028152162594
-0.15094823701532376   -0.014198018156137592   -0.012711028152162594
-1.8073179079537962   -0.2562477713138141   -0.15045555982310785
-1.8073179079537962   -0.2562477713138141   -0.15045555982310785
-1.8073179079537962   -0.2562477713138141   -0.15045555982310785
-1.8073179079537962   -0.2562477713138141   -0.15045555982310785
-0.6274256431876405   -0.9889809508684941   -0.11773181235466676
-0.6274256431876405   -0.9889809508684941   -0.11773181235466676
-0.6274256431876405   -0.9889809508684941   -0.11773181235466676
-0.6274256431876405   -0.9889809508684941   -0.11773181235466676
-0.48464274926368595   -0.04177924689659229   0.0006454448942715338
-0.48464274926368595   -0.04177924689659229   0.0006454448942715338
-0.48464274926368595   -0.04177924689659229   0.0006454448942715338
-0.48464274926368595   -0.04177924689659229   0.0006454448942715338
-1.9302455439660173   -1.1620701057236065   -0.6184631299379247
-1.9302455439660173   -1.1620701057236065   -0.6184631299379247
-1.9302455439660173   -1.1620701057236065   -0.6184631299379247
-1.9302455439660173   -1.1620701057236065   -0.6184631299379247
-1.1820940866782945   -0.5780510622801447   -0.08423811576785259
-1.1820940866782945   -0.5780510622801447   -0.08423811576785259
-1.1820940866782945   -0.5780510622801447   -0.08423811576785259
-1.1820940866782945   -0.5780510622801447   -0.08423811576785259
-1.6793882853220847   -0.3217556929795855   -0.20449124946229574
-1.6793882853220847   -0.3217556929795855   -0.20449124946229574
-1.6793882853220847   -0.3217556929795855   -0.20449124946229574
-1.6793882853220847   -0.3217556929795855   -0.20449124946229574
-0.677631596708375   -0.8242252484413713   -0.18185279078439184
-0.677631596708375   -0.8242252484413713   -0.18185279078439184
-0.677631596708375   -0.8242252484413713   -0.18185279078439184
-0.677631596708375   -0.8242252484413713   -0.18185279078439184
-0.4944833095236706   -0.05562291216969582   0.01859534968369282
-0.4944833095236706   -0.05562291216969582   0.01859534968369282
-0.4944833095236706   -0.05562291216969582   0.01859534968369282
-0.4944833095236706   -0.05562291216969582   0.01859534968369282
-1.8063136938649864   -1.0368414902239282   -0.5686310368177829
-1.8063136938649864   -1.0368414902239282   -0.5686310368177829
-1.8063136938649864   -1.0368414902239282   -0.5686310368177829
-1.8063136938649864   -1.0368414902239282   -0.5686310368177829
-1.1134195227232069   -0.521327760322583   0.04500459757331152
-1.1134195227232069   -0.521327760322583   0.04500459757331152
-1.1134195227232069   -0.521327760322583   0.04500459757331152
-1.1134195227232069   -0.521327760322583   0.04500459757331152
-1.57700177184458   -0.30635688163212843   -0.15255603530756107
-1.57700177184458   -0.30635688163212843   -0.15255603530756107
-1.57700177184458   -0.30635688163212843   -0.15255603530756107
-1.57700177184458   -0.30635688163212843   -0.15255603530756107
-0.6594861520204001   -0.7217984412378197   -0.14024333373182682
-0.6594861520204001   -0.7217984412378197   -0.14024333373182682
-0.6594861520204001   -0.7217984412378197   -0.14024333373182682
-0.6594861520204001   -0.7217984412378197   -0.14024333373182682
-0.5683893865445832   -0.14577094110663363   -0.02960975850173361
-0.5683893865445832   -0.14577094110663363   -0.02960975850173361
-0.5683893865445832   -0.14577094110663363   -0.02960975850173361
-0.5683893865445832   -0.14577094110663363   -0.02960975850173361
-1.6463466932548882   -0.8717386329596277   -0.5036170652429032
-1.6463466932548882   -0.8717386329596277   -0.5036170652429032
-1.6463466932548882   -0.8717386329596277   -0.5036170652429032
-1.6463466932548882   -0.8717386329596277   -0.5036170652429032
-1.0314026281796176   -0.45203514494729236   0.1910228426997032
-1.0314026281796176   -0.45203514494729236   0.1910228426997032
-1.0314026281796176   -0.45203514494729236   0.1910228426997032
-1.0314026281796176   -0.45203514494729236   0.1910228426997032
-0.4640359612360801   -0.2524058377870606   -0.03735851567830096
-0.4640359612360801   -0.2524058377870606   -0.03735851567830096
-0.4640359612360801   -0.2524058377870606   -0.03735851567830096
-0.4640359612360801   -0.2524058377870606   -0.03735851567830096
-0.21476456769563793   -0.3129962562221251   -0.05307467026273121
-0.21476456769563793   -0.3129962562221251   -0.05307467026273121
-0.21476456769563793   -0.3129962562221251   -0.05307467026273121
-0.21476456769563793   -0.3129962562221251   -0.05307467026273121
-0.18930333036140062   -0.16141301771996305   0.004875714767144136
-0.18930333036140062   -0.16141301771996305   0.004875714767144136
-0.18930333036140062   -0.16141301771996305   0.004875714767144136
-0.18930333036140062   -0.16141301771996305   0.004875714767144136
-0.5679085270900834   -0.4578587434773739   0.0003960523430686508
-0.5679085270900834   -0.4578587434773739   0.0003960523430686508
-0.5679085270900834   -0.4578587434773739   0.0003960523430686508
-0.5679085270900834   -0.4578587434773739   0.0003960523430686508
-0.30494604304181305   -0.22199451732133618   0.0977814282632477
-0.30494604304181305   -0.22199451732133618   0.0977814282632477
-0.30494604304181305   -0.22199451732133618   0.0977814282632477
-0.30494604304181305   -0.22199451732133618   0.0977814282632477
-0.5282152377865641   -0.23497482590147284   -0.02402141871524128
-0.5282152377865641   -0.23497482590147284   -0.02402141871524128
-0.5282152377865641   -0.23497482590147284   -0.02402141871524128
-0.5282152377865641   -0.23497482590147284   -0.02402141871524128
-0.24504908497469258   -0.4003494006056376   -0.034916675413641074
-0.24504908497469258   -0.4003494006056376   -0.034916675413641074
-0.24504908497469258   -0.4003494006056376   -0.034916675413641074
-0.24504908497469258   -0.4003494006056376   -0.034916675413641074
-0.2045231003957863   -0.1672636268269269   0.005025831672998568
-0.2045231003957863   -0.1672636268269269   0.005025831672998568
-0.2045231003957863   -0.1672636268269269   0.005025831672998568
-0.2045231003957863   -0.1672636268269269   0.005025831672998568
-0.5956973149629856   -0.4520639207796122   -0.09103366890296198
-0.5956973149629856   -0.4520639207796122   -0.09103366890296198
-0.5956973149629856   -0.4520639207796122   -0.09103366890296198
-0.5956973149629856   -0.4520639207796122   -0.09103366890296198
-0.36373079921079643   -0.2847092815406739   0.044587086627990824
-0.36373079921079643   -0.2847092815406739   0.044587086627990824
-0.36373079921079643   -0.2847092815406739   0.044587086627990824
-0.36373079921079643   -0.2847092815406739   0.044587086627990824
-0.5451258483777055   -0.2453644950909549   -0.04487576166522232
-0.5451258483777055   -0.2453644950909549   -0.04487576166522232
-0.5451258483777055   -0.2453644950909549   -0.04487576166522232
-0.5451258483777055   -0.2453644950909549   -0.04487576166522232
-0.2536001328316683   -0.3724686183661867   -0.03515433896715171
-0.2536001328316683   -0.3724686183661867   -0.03515433896715171
-0.2536001328316683   -0.3724686183661867   -0.03515433896715171
-0.2536001328316683   -0.3724686183661867   -0.03515433896715171
-0.22801161992003355   -0.17267759838090788   0.00740308892560549
-0.22801161992003355   -0.17267759838090788   0.00740308892560549
-0.22801161992003355   -0.17267759838090788   0.00740308892560549
-0.22801161992003355   -0.17267759838090788   0.00740308892560549
-0.6370240553700172   -0.4393023479844579   -0.07925169575107766
-0.6370240553700172   -0.4393023479844579   -0.07925169575107766
-0.6370240553700172   -0.4393023479844579   -0.07925169575107766
-0.6370240553700172   -0.4393023479844579   -0.07925169575107766
-0.38065076858950775   -0.2683502216586295   0.04716488619757271
-0.38065076858950775   -0.2683502216586295   0.04716488619757271
-0.38065076858950775   -0.2683502216586295   0.04716488619757271
-0.38065076858950775   -0.2683502216586295   0.04716488619757271
-0.16944979188633996   -0.15052172787043613   0.011024680432061798
-0.16944979188633996   -0.15052172787043613   0.011024680432061798
-0.16944979188633996   -0.15052172787043613   0.011024680432061798
-0.16944979188633996   -0.15052172787043613   0.011024680432061798
-0.1036720207605836   -0.09785880646183276   -0.02592219683286064
-0.1036720207605836   -0.09785880646183276   -0.02592219683286064
-0.1036720207605836   -0.09785880646183276   -0.02592219683286064
-0.1036720207605836   -0.09785880646183276   -0.02592219683286064
-0.10048448039503656   -0.13458785951529761   0.011101876058564455
-0.10048448039503656   -0.13458785951529761   0.011101876058564455
-0.10048448039503656   -0.13458785951529761   0.011101876058564455
-0.10048448039503656   -0.13458785951529761   0.011101876058564455
-0.1871804569336152   -0.1341369491233252   -0.011785986690566592
-0.1871804569336152   -0.1341369491233252   -0.011785986690566592
-0.1871804569336152   -0.1341369491233252   -0.011785986690566592
-0.1871804569336152   -0.1341369491233252   -0.011785986690566592
-0.11838146294299952   -0.1090412467126117   0.049044358074319894
-0.11838146294299952   -0.1090412467126117   0.049044358074319894
-0.11838146294299952   -0.1090412467126117   0.049044358074319894
-0.11838146294299952   -0.1090412467126117   0.049044358074319894
-0.18591990017050217   -0.15151612423480618   0.011895972236479535
-0.18591990017050217   -0.15151612423480618   0.011895972236479535
-0.18591990017050217   -0.15151612423480618   0.011895972236479535
-0.18591990017050217   -0.15151612423480618   0.011895972236479535
-0.10337838603455927   -0.11884203328022502   -0.019113478374121706
-0.10337838603455927   -0.11884203328022502   -0.019113478374121706
-0.10337838603455927   -0.11884203328022502   -0.019113478374121706
-0.10337838603455927   -0.11884203328022502   -0.019113478374121706
-0.10161022145847087   -0.13863016352066132   0.009870705337223479
-0.10161022145847087   -0.13863016352066132   0.009870705337223479
-0.10161022145847087   -0.13863016352066132   0.009870705337223479
-0.10161022145847087   -0.13863016352066132   0.009870705337223479
-0.1987539149843545   -0.15650342233526962   0.02311155423850031
-0.1987539149843545   -0.15650342233526962   0.02311155423850031
-0.1987539149843545   -0.15650342233526962   0.02311155423850031
-0.1987539149843545   -0.15650342233526962   0.02311155423850031
-0.12872257329050488   -0.12149907897930597   0.04154454157394182
-0.12872257329050488   -0.12149907897930597   0.04154454157394182
-0.12872257329050488   -0.12149907897930597   0.04154454157394182
-0.12872257329050488   -0.12149907897930597   0.04154454157394182
-0.2002898592140613   -0.157128791656904   0.016057202411600552
-0.2002898592140613   -0.157128791656904   0.016057202411600552
-0.2002898592140613   -0.157128791656904   0.016057202411600552
-0.2002898592140613   -0.157128791656904   0.016057202411600552
-0.10869265072860979   -0.14662316769887268   -0.017548436835259692
-0.10869265072860979   -0.14662316769887268   -0.017548436835259692
-0.10869265072860979   -0.14662316769887268   -0.017548436835259692
-0.10869265072860979   -0.14662316769887268   -0.017548436835259692
-0.10276186813436126   -0.14313152479908364   0.013868239179517947
-0.10276186813436126   -0.14313152479908364   0.013868239179517947
-0.10276186813436126   -0.14313152479908364   0.013868239179517947
-0.10276186813436126   -0.14313152479908364   0.013868239179517947
-0.23245573743221037   -0.19255280066846994   0.005057703652283384
-0.23245573743221037   -0.19255280066846994   0.005057703652283384
-0.23245573743221037   -0.19255280066846994   0.005057703652283384
-0.23245573743221037   -0.19255280066846994   0.005057703652283384
-0.14372935054617147   -0.13851442539157482   0.01962704454063261
-0.14372935054617147   -0.13851442539157482   0.01962704454063261
-0.14372935054617147   -0.13851442539157482   0.01962704454063261
-0.14372935054617147   -0.13851442539157482   0.01962704454063261
-0.08508214029063134   -0.059942930772864375   0.02911132982793225
-0.08508214029063134   -0.059942930772864375   0.02911132982793225
-0.08508214029063134   -0.059942930772864375   0.02911132982793225
-0.08508214029063134   -0.059942930772864375   0.02911132982793225
-0.05967775504318755   -0.00010454284345335144   -0.005821184290305242
-0.05967775504318755   -0.00010454284345335144   -0.005821184290305242
-0.05967775504318755   -0.00010454284345335144   -0.005821184290305242
-0.05967775504318755   -0.00010454284345335144   -0.005821184290305242
-0.0566336877265891   -0.06479209361055706   0.018063920162059835
-0.0566336877265891   -0.06479209361055706   0.018063920162059835
-0.0566336877265891   -0.06479209361055706   0.018063920162059835
-0.0566336877265891   -0.06479209361055706   0.018063920162059835
-0.07882033265615324   -0.011487622368923811   -0.0036776223933927543
-0.07882033265615324   -0.011487622368923811   -0.0036776223933927543
-0.07882033265615324   -0.011487622368923811   -0.0036776223933927543
-0.07882033265615324   -0.011487622368923811   -0.0036776223933927543
-0.06477486076500606   -0.032783556989438856   0.014439950632677013
-0.06477486076500606   -0.032783556989438856   0.014439950632677013
-0.06477486076500606   -0.032783556989438856   0.014439950632677013
-0.06477486076500606   -0.032783556989438856   0.014439950632677013
-0.08397458127204473   -0.06838362826701247   0.027447140425238423
-0.08397458127204473   -0.06838362826701247   0.027447140425238423
-0.08397458127204473   -0.06838362826701247   0.027447140425238423
-0.08397458127204473   -0.06838362826701247   0.027447140425238423
-0.05000020602221667   -0.00641685462398747   -0.007143910302647617
-0.05000020602221667   -0.00641685462398747   -0.007143910302647617
-0.05000020602221667   -0.00641685462398747   -0.007143910302647617
-0.05000020602221667   -0.00641685462398747   -0.007143910302647617
-0.0518910115814017   -0.07049689146043724   0.016655370858944522
-0.0518910115814017   -0.07049689146043724   0.016655370858944522
-0.0518910115814017   -0.07049689146043724   0.016655370858944522
-0.0518910115814017   -0.07049689146043724   0.016655370858944522
-0.07938730532351546   -0.022581684943994058   0.0049368074353332726
-0.07938730532351546   -0.022581684943994058   0.0049368074353332726
-0.07938730532351546   -0.022581684943994058   0.0049368074353332726
-0.07938730532351546   -0.022581684943994058   0.0049368074353332726
-0.0594205125375392   -0.03757650758436519   0.017214849718450845
-0.0594205125375392   -0.03757650758436519   0.017214849718450845
-0.0594205125375392   -0.03757650758436519   0.017214849718450845
-0.0594205125375392   -0.03757650758436519   0.017214849718450845
-0.08439893467690894   -0.07405846258871102   0.03135543831308284
-0.08439893467690894   -0.07405846258871102   0.03135543831308284
-0.08439893467690894   -0.07405846258871102   0.03135543831308284
-0.08439893467690894   -0.07405846258871102   0.03135543831308284
-0.04732915085938651   -0.01946988244709856   -0.011562334544318192
-0.04732915085938651   -0.01946988244709856   -0.011562334544318192
-0.04732915085938651   -0.01946988244709856   -0.011562334544318192
-0.04732915085938651   -0.01946988244709856   -0.011562334544318192
-0.0433663547774103   -0.07682150470825756   0.01830640823230505
-0.0433663547774103   -0.07682150470825756   0.01830640823230505
-0.0433663547774103   -0.07682150470825756   0.01830640823230505
-0.0433663547774103   -0.07682150470825756   0.01830640823230505
-0.08554591888746901   -0.04965756871487288   0.006474029329768446
-0.08554591888746901   -0.04965756871487288   0.006474029329768446
-0.08554591888746901   -0.04965756871487288   0.006474029329768446
-0.08554591888746901   -0.04965756871487288   0.006474029329768446
-0.05714342579031083   -0.04742714041813007   0.01489055696466261
-0.05714342579031083   -0.04742714041813007   0.01489055696466261
-0.05714342579031083   -0.04742714041813007   0.01489055696466261
-0.05714342579031083   -0.04742714041813007   0.01489055696466261
-0.054749986119810044   -0.0105716347686652   0.029284752251794114
-0.054749986119810044   -0.0105716347686652   0.029284752251794114
-0.054749986119810044   -0.0105716347686652   0.029284752251794114
-0.054749986119810044   -0.0105716347686652   0.029284752251794114
-0.00960545915230048   0.006382902518277328   -0.0005913438093374454
-0.00960545915230048   0.006382902518277328   -0.0005913438093374454
-0.00960545915230048   0.006382902518277328   -0.0005913438093374454
-0.00960545915230048   0.006382902518277328   -0.0005913438093374454
0.0031921476374999775   -0.0033676753198546806   0.018112800814954883
0.0031921476374999775   -0.0033676753198546806   0.018112800814954883
0.0031921476374999775   -0.0033676753198546806   0.018112800814954883
0.0031921476374999775   -0.0033676753198546806   0.018112800814954883
-0.04678545200388026   0.004779016898999995   -0.002266011733953019
-0.04678545200388026   0.004779016898999995   -0.002266011733953019
-0.04678545200388026   0.004779016898999995   -0.002266011733953019
-0.04678545200388026   0.004779016898999995   -0.002266011733953019
-0.02744404840635501   -0.0020626294368356448   -0.0022702657777355258
-0.02744404840635501   -0.0020626294368356448   -0.0022702657777355258
-0.02744404840635501   -0.0020626294368356448   -0.0022702657777355258
-0.02744404840635501   -0.0020626294368356448   -0.0022702657777355258
-0.04323553491405372   -0.010186044891935002   0.030448635506114655
-0.04323553491405372   -0.010186044891935002   0.030448635506114655
-0.04323553491405372   -0.010186044891935002   0.030448635506114655
-0.04323553491405372   -0.010186044891935002   0.030448635506114655
0.001277678174067716   0.013232834097473311   -0.008060055919534417
0.001277678174067716   0.013232834097473311   -0.008060055919534417
0.001277678174067716   0.013232834097473311   -0.008060055919534417
0.001277678174067716   0.013232834097473311   -0.008060055919534417
0.009661756762603587   -0.0041458349614731365   0.022321943219537305
0.009661756762603587   -0.0041458349614731365   0.022321943219537305
0.009661756762603587   -0.0041458349614731365   0.022321943219537305
0.009661756762603587   -0.0041458349614731365   0.022321943219537305
-0.041059419492854035   0.0036573515943526796   -0.0033409117531070583
-0.041059419492854035   0.0036573515943526796   -0.0033409117531070583
-0.041059419492854035   0.0036573515943526796   -0.0033409117531070583
-0.041059419492854035   0.0036573515943526796   -0.0033409117531070583
-0.017953018058568086   -0.00047484426754314116   0.0028893030531908204
-0.017953018058568086   -0.00047484426754314116   0.0028893030531908204
-0.017953018058568086   -0.00047484426754314116   0.0028893030531908204
-0.017953018058568086   -0.00047484426754314116   0.0028893030531908204
-0.03685817352024317   -0.01137472976757497   0.032697399471874895
-0.03685817352024317   -0.01137472976757497   0.032697399471874895
-0.03685817352024317   -0.01137472976757497   0.032697399471874895
-0.03685817352024317   -0.01137472976757497   0.032697399471874895
0.006933114154651938   0.012358849765113726   -0.007825954546807802
0.006933114154651938   0.012358849765113726   -0.007825954546807802
0.006933114154651938   0.012358849765113726   -0.007825954546807802
0.006933114154651938   0.012358849765113726   -0.007825954546807802
0.016273745391806007   -0.006478298014330959   0.021672114190633217
0.016273745391806007   -0.006478298014330959   0.021672114190633217
0.016273745391806007   -0.006478298014330959   0.021672114190633217
0.016273745391806007   -0.006478298014330959   0.021672114190633217
-0.03167134734044643   0.0037472817166477636   -0.003787341007780912
-0.03167134734044643   0.0037472817166477636   -0.003787341007780912
-0.03167134734044643   0.0037472817166477636   -0.003787341007780912
-0.03167134734044643   0.0037472817166477636   -0.003787341007780912
-0.009473729964478636   0.0005141906952901272   0.007433653720961994
-0.009473729964478636   0.0005141906952901272   0.007433653720961994
-0.009473729964478636   0.0005141906952901272   0.007433653720961994
-0.009473729964478636   0.0005141906952901272   0.007433653720961994
              </DataArray>   
             <DataArray type="Float64" NumberOfComponents="3" Name="Displacements" format="ascii">   
0.0   0.0   0.0
-0.0050315948799837095   -0.0033013995013427048   -0.0016855452601659882
0.0   0.0   0.0
0.0   0.0   0.0
-0.0050315948799837095   -0.0033013995013427048   -0.0016855452601659882
-0.0032017849092162154   -0.0029668896825199406   -0.0012383817733872516
0.0   0.0   0.0
-0.0031385309837743823   -0.0031157585241236474   -0.0010374867009399075
0.0   0.0   0.0
0.0   0.0   0.0
-0.0031385309837743823   -0.0031157585241236474   -0.0010374867009399075
0.0   0.0   0.0
0.0   0.0   0.0
-0.0031385309837743823   -0.0031157585241236474   -0.0010374867009399075
-0.0052658850447731215   -0.0035171552424017637   -0.0013532389359562189
-0.0050315948799837095   -0.0033013995013427048   -0.0016855452601659882
0.0   0.0   0.0
-0.0031385309837743823   -0.0031157585241236474   -0.0010374867009399075
-0.0050315948799837095   -0.0033013995013427048   -0.0016855452601659882
0.0   0.0   0.0
0.0   0.0   0.0
-0.0052658850447731215   -0.0035171552424017637   -0.0013532389359562189
0.0   0.0   0.0
0.0   0.0   0.0
-0.0052658850447731215   -0.0035171552424017637   -0.0013532389359562189
-0.0031385309837743823   -0.0031157585241236474   -0.0010374867009399075
0.0   0.0   0.0
-0.0031474546656273337   -0.0031920408509989646   -0.0008368727525821983
0.0   0.0   0.0
0.0   0.0   0.0
-0.0031474546656273337   -0.0031920408509989646   -0.0008368727525821983
0.0   0.0   0.0
0.0   0.0   0.0
-0.0031474546656273337   -0.0031920408509989646   -0.0008368727525821983
-0.005430458000988793   -0.003622068176973885   -0.001034822131441617
-0.0052658850447731215   -0.0035171552424017637   -0.0013532389359562189
0.0   0.0   0.0
-0.0031474546656273337   -0.0031920408509989646   -0.0008368727525821983
-0.0052658850447731215   -0.0035171552424017637   -0.0013532389359562189
0.0   0.0   0.0
0.0   0.0   0.0
-0.005430458000988793   -0.003622068176973885   -0.001034822131441617
0.0   0.0   0.0
0.0   0.0   0.0
-0.005430458000988793   -0.003622068176973885   -0.001034822131441617
-0.0031474546656273337   -0.0031920408509989646   -0.0008368727525821983
0.0   0.0   0.0
-0.003145881986853895   -0.003211630939044301   -0.0006294249736123447
0.0   0.0   0.0
0.0   0.0   0.0
-0.003145881986853895   -0.003211630939044301   -0.0006294249736123447
0.0   0.0   0.0
0.0   0.0   0.0
-0.003145881986853895   -0.003211630939044301   -0.0006294249736123447
-0.005784921569658289   -0.0037014928436340747   -0.0006654031395461119
-0.005430458000988793   -0.003622068176973885   -0.001034822131441617
0.0   0.0   0.0
-0.003145881986853895   -0.003211630939044301   -0.0006294249736123447
-0.005430458000988793   -0.003622068176973885   -0.001034822131441617
0.0   0.0   0.0
0.0   0.0   0.0
-0.0032017849092162154   -0.0029668896825199406   -0.0012383817733872516
0.0   0.0   0.0
0.0   0.0   0.0
-0.0032017849092162154   -0.0029668896825199406   -0.0012383817733872516
-0.0014580263563495326   -0.0028441916523942417   -0.0009419076156021463
0.0   0.0   0.0
-0.0014023797536369964   -0.0029410967020335435   -0.0008470757457747747
0.0   0.0   0.0
0.0   0.0   0.0
-0.0014023797536369964   -0.0029410967020335435   -0.0008470757457747747
0.0   0.0   0.0
0.0   0.0   0.0
-0.0014023797536369964   -0.0029410967020335435   -0.0008470757457747747
-0.0031385309837743823   -0.0031157585241236474   -0.0010374867009399075
-0.0032017849092162154   -0.0029668896825199406   -0.0012383817733872516
0.0   0.0   0.0
-0.0014023797536369964   -0.0029410967020335435   -0.0008470757457747747
-0.0032017849092162154   -0.0029668896825199406   -0.0012383817733872516
0.0   0.0   0.0
0.0   0.0   0.0
-0.0031385309837743823   -0.0031157585241236474   -0.0010374867009399075
0.0   0.0   0.0
0.0   0.0   0.0
-0.0031385309837743823   -0.0031157585241236474   -0.0010374867009399075
-0.0014023797536369964   -0.0029410967020335435   -0.0008470757457747747
0.0   0.0   0.0
-0.0013711565317597832   -0.002978030387015788   -0.000754712221856145
0.0   0.0   0.0
0.0   0.0   0.0
-0.0013711565317597832   -0.002978030387015788   -0.000754712221856145
0.0   0.0   0.0
0.0   0.0   0.0
-0.0013711565317597832   -0.002978030387015788   -0.000754712221856145
-0.0031474546656273337   -0.0031920408509989646   -0.0008368727525821983
-0.0031385309837743823   -0.0031157585241236474   -0.0010374867009399075
0.0   0.0   0.0
-0.0013711565317597832   -0.002978030387015788   -0.000754712221856145
-0.0031385309837743823   -0.0031157585241236474   -0.0010374867009399075
0.0   0.0   0.0
0.0   0.0   0.0
-0.0031474546656273337   -0.0031920408509989646   -0.0008368727525821983
0.0   0.0   0.0
0.0   0.0   0.0
-0.0031474546656273337   -0.0031920408509989646   -0.0008368727525821983
-0.0013711565317597832   -0.002978030387015788   -0.000754712221856145
0.0   0.0   0.0
-0.0013427373140695183   -0.0029626151006979075   -0.0006592166113536907
0.0   0.0   0.0
0.0   0.0   0.0
-0.0013427373140695183   -0.0029626151006979075   -0.0006592166113536907
0.0   0.0   0.0
0.0   0.0   0.0
-0.0013427373140695183   -0.0029626151006979075   -0.0006592166113536907
-0.003145881986853895   -0.003211630939044301   -0.0006294249736123447
-0.0031474546656273337   -0.0031920408509989646   -0.0008368727525821983
0.0   0.0   0.0
-0.0013427373140695183   -0.0029626151006979075   -0.0006592166113536907
-0.0031474546656273337   -0.0031920408509989646   -0.0008368727525821983
0.0   0.0   0.0
0.0   0.0   0.0
-0.0014580263563495326   -0.0028441916523942417   -0.0009419076156021463
0.0   0.0   0.0
0.0   0.0   0.0
-0.0014580263563495326   -0.0028441916523942417   -0.0009419076156021463
0.00018955983568072853   -0.002859901302014089   -0.000752975752456183
0.0   0.0   0.0
0.00022504537694518714   -0.0029101359404886543   -0.0007661184714054288
0.0   0.0   0.0
0.0   0.0   0.0
0.00022504537694518714   -0.0029101359404886543   -0.0007661184714054288
0.0   0.0   0.0
0.0   0.0   0.0
0.00022504537694518714   -0.0029101359404886543   -0.0007661184714054288
-0.0014023797536369964   -0.0029410967020335435   -0.0008470757457747747
-0.0014580263563495326   -0.0028441916523942417   -0.0009419076156021463
0.0   0.0   0.0
0.00022504537694518714   -0.0029101359404886543   -0.0007661184714054288
-0.0014580263563495326   -0.0028441916523942417   -0.0009419076156021463
0.0   0.0   0.0
0.0   0.0   0.0
-0.0014023797536369964   -0.0029410967020335435   -0.0008470757457747747
0.0   0.0   0.0
0.0   0.0   0.0
-0.0014023797536369964   -0.0029410967020335435   -0.0008470757457747747
0.00022504537694518714   -0.0029101359404886543   -0.0007661184714054288
0.0   0.0   0.0
0.0002530432369112952   -0.002905978117229339   -0.0007779831816561435
0.0   0.0   0.0
0.0   0.0   0.0
0.0002530432369112952   -0.002905978117229339   -0.0007779831816561435
0.0   0.0   0.0
0.0   0.0   0.0
0.0002530432369112952   -0.002905978117229339   -0.0007779831816561435
-0.0013711565317597832   -0.002978030387015788   -0.000754712221856145
-0.0014023797536369964   -0.0029410967020335435   -0.0008470757457747747
0.0   0.0   0.0
0.0002530432369112952   -0.002905978117229339   -0.0007779831816561435
-0.0014023797536369964   -0.0029410967020335435   -0.0008470757457747747
0.0   0.0   0.0
0.0   0.0   0.0
-0.0013711565317597832   -0.002978030387015788   -0.000754712221856145
0.0   0.0   0.0
0.0   0.0   0.0
-0.0013711565317597832   -0.002978030387015788   -0.000754712221856145
0.0002530432369112952   -0.002905978117229339   -0.0007779831816561435
0.0   0.0   0.0
0.0002907385478225274   -0.0028429658065013026   -0.0007901689476112973
0.0   0.0   0.0
0.0   0.0   0.0
0.0002907385478225274   -0.0028429658065013026   -0.0007901689476112973
0.0   0.0   0.0
0.0   0.0   0.0
0.0002907385478225274   -0.0028429658065013026   -0.0007901689476112973
-0.0013427373140695183   -0.0029626151006979075   -0.0006592166113536907
-0.0013711565317597832   -0.002978030387015788   -0.000754712221856145
0.0   0.0   0.0
0.0002907385478225274   -0.0028429658065013026   -0.0007901689476112973
-0.0013711565317597832   -0.002978030387015788   -0.000754712221856145
0.0   0.0   0.0
0.0   0.0   0.0
0.00018955983568072853   -0.002859901302014089   -0.000752975752456183
0.0   0.0   0.0
0.0   0.0   0.0
0.00018955983568072853   -0.002859901302014089   -0.000752975752456183
0.001977928062947691   -0.0029990955283496945   -0.0006595311099881846
0.0   0.0   0.0
0.001981323889172532   -0.0030150822234243707   -0.0007862866156154789
0.0   0.0   0.0
0.0   0.0   0.0
0.001981323889172532   -0.0030150822234243707   -0.0007862866156154789
0.0   0.0   0.0
0.0   0.0   0.0
0.001981323889172532   -0.0030150822234243707   -0.0007862866156154789
0.00022504537694518714   -0.0029101359404886543   -0.0007661184714054288
0.00018955983568072853   -0.002859901302014089   -0.000752975752456183
0.0   0.0   0.0
0.001981323889172532   -0.0030150822234243707   -0.0007862866156154789
0.00018955983568072853   -0.002859901302014089   -0.000752975752456183
0.0   0.0   0.0
0.0   0.0   0.0
0.00022504537694518714   -0.0029101359404886543   -0.0007661184714054288
0.0   0.0   0.0
0.0   0.0   0.0
0.00022504537694518714   -0.0029101359404886543   -0.0007661184714054288
0.001981323889172532   -0.0030150822234243707   -0.0007862866156154789
0.0   0.0   0.0
0.0019727336644572778   -0.002972027118926115   -0.0009078804690077252
0.0   0.0   0.0
0.0   0.0   0.0
0.0019727336644572778   -0.002972027118926115   -0.0009078804690077252
0.0   0.0   0.0
0.0   0.0   0.0
0.0019727336644572778   -0.002972027118926115   -0.0009078804690077252
0.0002530432369112952   -0.002905978117229339   -0.0007779831816561435
0.00022504537694518714   -0.0029101359404886543   -0.0007661184714054288
0.0   0.0   0.0
0.0019727336644572778   -0.002972027118926115   -0.0009078804690077252
0.00022504537694518714   -0.0029101359404886543   -0.0007661184714054288
0.0   0.0   0.0
0.0   0.0   0.0
0.0002530432369112952   -0.002905978117229339   -0.0007779831816561435
0.0   0.0   0.0
0.0   0.0   0.0
0.0002530432369112952   -0.002905978117229339   -0.0007779831816561435
0.0019727336644572778   -0.002972027118926115   -0.0009078804690077252
0.0   0.0   0.0
0.002010839167107655   -0.0028567417263398436   -0.0010271548526131183
0.0   0.0   0.0
0.0   0.0   0.0
0.002010839167107655   -0.0028567417263398436   -0.0010271548526131183
0.0   0.0   0.0
0.0   0.0   0.0
0.002010839167107655   -0.0028567417263398436   -0.0010271548526131183
0.0002907385478225274   -0.0028429658065013026   -0.0007901689476112973
0.0002530432369112952   -0.002905978117229339   -0.0007779831816561435
0.0   0.0   0.0
0.002010839167107655   -0.0028567417263398436   -0.0010271548526131183
0.0002530432369112952   -0.002905978117229339   -0.0007779831816561435
0.0   0.0   0.0
0.0   0.0   0.0
0.001977928062947691   -0.0029990955283496945   -0.0006595311099881846
0.0   0.0   0.0
0.0   0.0   0.0
0.001977928062947691   -0.0029990955283496945   -0.0006595311099881846
0.0044648138828564275   -0.0033519033027768767   -0.000622286403282809
0.0   0.0   0.0
0.00419302324984753   -0.0033153039269207866   -0.0009096489030752514
0.0   0.0   0.0
0.0   0.0   0.0
0.00419302324984753   -0.0033153039269207866   -0.0009096489030752514
0.0   0.0   0.0
0.0   0.0   0.0
0.00419302324984753   -0.0033153039269207866   -0.0009096489030752514
0.001981323889172532   -0.0030150822234243707   -0.0007862866156154789
0.001977928062947691   -0.0029990955283496945   -0.0006595311099881846
0.0   0.0   0.0
0.00419302324984753   -0.0033153039269207866   -0.0009096489030752514
0.001977928062947691   -0.0029990955283496945   -0.0006595311099881846
0.0   0.0   0.0
0.0   0.0   0.0
0.001981323889172532   -0.0030150822234243707   -0.0007862866156154789
0.0   0.0   0.0
0.0   0.0   0.0
0.001981323889172532   -0.0030150822234243707   -0.0007862866156154789
0.00419302324984753   -0.0033153039269207866   -0.0009096489030752514
0.0   0.0   0.0
0.004067642519118496   -0.003246375798396453   -0.0011526467691461803
0.0   0.0   0.0
0.0   0.0   0.0
0.004067642519118496   -0.003246375798396453   -0.0011526467691461803
0.0   0.0   0.0
0.0   0.0   0.0
0.004067642519118496   -0.003246375798396453   -0.0011526467691461803
0.0019727336644572778   -0.002972027118926115   -0.0009078804690077252
0.001981323889172532   -0.0030150822234243707   -0.0007862866156154789
0.0   0.0   0.0
0.004067642519118496   -0.003246375798396453   -0.0011526467691461803
0.001981323889172532   -0.0030150822234243707   -0.0007862866156154789
0.0   0.0   0.0
0.0   0.0   0.0
0.0019727336644572778   -0.002972027118926115   -0.0009078804690077252
0.0   0.0   0.0
0.0   0.0   0.0
0.0019727336644572778   -0.002972027118926115   -0.0009078804690077252
0.004067642519118496   -0.003246375798396453   -0.0011526467691461803
0.0   0.0   0.0
0.003881058919079557   -0.003070017300632449   -0.0014097826859162407
0.0   0.0   0.0
0.0   0.0   0.0
0.003881058919079557   -0.003070017300632449   -0.0014097826859162407
0.0   0.0   0.0
0.0   0.0   0.0
0.003881058919079557   -0.003070017300632449   -0.0014097826859162407
0.002010839167107655   -0.0028567417263398436   -0.0010271548526131183
0.0019727336644572778   -0.002972027118926115   -0.0009078804690077252
0.0   0.0   0.0
0.003881058919079557   -0.003070017300632449   -0.0014097826859162407
0.0019727336644572778   -0.002972027118926115   -0.0009078804690077252
0.0   0.0   0.0
-0.0050315948799837095   -0.0033013995013427048   -0.0016855452601659882
-0.00939784418543552   -0.00921534432365936   -0.0022708777450188428
-0.0032017849092162154   -0.0029668896825199406   -0.0012383817733872516
-0.0052658850447731215   -0.0035171552424017637   -0.0013532389359562189
-0.00939784418543552   -0.00921534432365936   -0.0022708777450188428
-0.005998275701142095   -0.008914502653601272   -0.0018692095132479356
-0.0032017849092162154   -0.0029668896825199406   -0.0012383817733872516
-0.00600543206237131   -0.009066814925474606   -0.001683405035064083
-0.0052658850447731215   -0.0035171552424017637   -0.0013532389359562189
-0.0031385309837743823   -0.0031157585241236474   -0.0010374867009399075
-0.00600543206237131   -0.009066814925474606   -0.001683405035064083
-0.0032017849092162154   -0.0029668896825199406   -0.0012383817733872516
-0.0052658850447731215   -0.0035171552424017637   -0.0013532389359562189
-0.00600543206237131   -0.009066814925474606   -0.001683405035064083
-0.009679502905116145   -0.00942787263515938   -0.0019691506786188953
-0.00939784418543552   -0.00921534432365936   -0.0022708777450188428
-0.0052658850447731215   -0.0035171552424017637   -0.0013532389359562189
-0.00600543206237131   -0.009066814925474606   -0.001683405035064083
-0.00939784418543552   -0.00921534432365936   -0.0022708777450188428
-0.0032017849092162154   -0.0029668896825199406   -0.0012383817733872516
-0.0052658850447731215   -0.0035171552424017637   -0.0013532389359562189
-0.009679502905116145   -0.00942787263515938   -0.0019691506786188953
-0.0031385309837743823   -0.0031157585241236474   -0.0010374867009399075
-0.005430458000988793   -0.003622068176973885   -0.001034822131441617
-0.009679502905116145   -0.00942787263515938   -0.0019691506786188953
-0.00600543206237131   -0.009066814925474606   -0.001683405035064083
-0.0031385309837743823   -0.0031157585241236474   -0.0010374867009399075
-0.006029158929073926   -0.009159659737933696   -0.001504850141352106
-0.005430458000988793   -0.003622068176973885   -0.001034822131441617
-0.0031474546656273337   -0.0031920408509989646   -0.0008368727525821983
-0.006029158929073926   -0.009159659737933696   -0.001504850141352106
-0.0031385309837743823   -0.0031157585241236474   -0.0010374867009399075
-0.005430458000988793   -0.003622068176973885   -0.001034822131441617
-0.006029158929073926   -0.009159659737933696   -0.001504850141352106
-0.009875226669496731   -0.009547893798550092   -0.0016737022645601715
-0.009679502905116145   -0.00942787263515938   -0.0019691506786188953
-0.005430458000988793   -0.003622068176973885   -0.001034822131441617
-0.006029158929073926   -0.009159659737933696   -0.001504850141352106
-0.009679502905116145   -0.00942787263515938   -0.0019691506786188953
-0.0031385309837743823   -0.0031157585241236474   -0.0010374867009399075
-0.005430458000988793   -0.003622068176973885   -0.001034822131441617
-0.009875226669496731   -0.009547893798550092   -0.0016737022645601715
-0.0031474546656273337   -0.0031920408509989646   -0.0008368727525821983
-0.005784921569658289   -0.0037014928436340747   -0.0006654031395461119
-0.009875226669496731   -0.009547893798550092   -0.0016737022645601715
-0.006029158929073926   -0.009159659737933696   -0.001504850141352106
-0.0031474546656273337   -0.0031920408509989646   -0.0008368727525821983
-0.006011274274039142   -0.009207830112751902   -0.0013377122826879453
-0.005784921569658289   -0.0037014928436340747   -0.0006654031395461119
-0.003145881986853895   -0.003211630939044301   -0.0006294249736123447
-0.006011274274039142   -0.009207830112751902   -0.0013377122826879453
-0.0031474546656273337   -0.0031920408509989646   -0.0008368727525821983
-0.005784921569658289   -0.0037014928436340747   -0.0006654031395461119
-0.006011274274039142   -0.009207830112751902   -0.0013377122826879453
-0.010106567566263535   -0.009617662923807769   -0.00140488941109243
-0.009875226669496731   -0.009547893798550092   -0.0016737022645601715
-0.005784921569658289   -0.0037014928436340747   -0.0006654031395461119
-0.006011274274039142   -0.009207830112751902   -0.0013377122826879453
-0.009875226669496731   -0.009547893798550092   -0.0016737022645601715
-0.0031474546656273337   -0.0031920408509989646   -0.0008368727525821983
-0.0032017849092162154   -0.0029668896825199406   -0.0012383817733872516
-0.005998275701142095   -0.008914502653601272   -0.0018692095132479356
-0.0014580263563495326   -0.0028441916523942417   -0.0009419076156021463
-0.0031385309837743823   -0.0031157585241236474   -0.0010374867009399075
-0.005998275701142095   -0.008914502653601272   -0.0018692095132479356
-0.002783061843198538   -0.008774517104084056   -0.0015950128521933548
-0.0014580263563495326   -0.0028441916523942417   -0.0009419076156021463
-0.002759125482992824   -0.008871456330310114   -0.0014998043428046612
-0.0031385309837743823   -0.0031157585241236474   -0.0010374867009399075
-0.0014023797536369964   -0.0029410967020335435   -0.0008470757457747747
-0.002759125482992824   -0.008871456330310114   -0.0014998043428046612
-0.0014580263563495326   -0.0028441916523942417   -0.0009419076156021463
-0.0031385309837743823   -0.0031157585241236474   -0.0010374867009399075
-0.002759125482992824   -0.008871456330310114   -0.0014998043428046612
-0.00600543206237131   -0.009066814925474606   -0.001683405035064083
-0.005998275701142095   -0.008914502653601272   -0.0018692095132479356
-0.0031385309837743823   -0.0031157585241236474   -0.0010374867009399075
-0.002759125482992824   -0.008871456330310114   -0.0014998043428046612
-0.005998275701142095   -0.008914502653601272   -0.0018692095132479356
-0.0014580263563495326   -0.0028441916523942417   -0.0009419076156021463
-0.0031385309837743823   -0.0031157585241236474   -0.0010374867009399075
-0.00600543206237131   -0.009066814925474606   -0.001683405035064083
-0.0014023797536369964   -0.0029410967020335435   -0.0008470757457747747
-0.0031474546656273337   -0.0031920408509989646   -0.0008368727525821983
-0.00600543206237131   -0.009066814925474606   -0.001683405035064083
-0.002759125482992824   -0.008871456330310114   -0.0014998043428046612
-0.0014023797536369964   -0.0029410967020335435   -0.0008470757457747747
-0.002737922344186185   -0.008918469897297257   -0.0014134931658099715
-0.0031474546656273337   -0.0031920408509989646   -0.0008368727525821983
-0.0013711565317597832   -0.002978030387015788   -0.000754712221856145
-0.002737922344186185   -0.008918469897297257   -0.0014134931658099715
-0.0014023797536369964   -0.0029410967020335435   -0.0008470757457747747
-0.0031474546656273337   -0.0031920408509989646   -0.0008368727525821983
-0.002737922344186185   -0.008918469897297257   -0.0014134931658099715
-0.006029158929073926   -0.009159659737933696   -0.001504850141352106
-0.00600543206237131   -0.009066814925474606   -0.001683405035064083
-0.0031474546656273337   -0.0031920408509989646   -0.0008368727525821983
-0.002737922344186185   -0.008918469897297257   -0.0014134931658099715
-0.00600543206237131   -0.009066814925474606   -0.001683405035064083
-0.0014023797536369964   -0.0029410967020335435   -0.0008470757457747747
-0.0031474546656273337   -0.0031920408509989646   -0.0008368727525821983
-0.006029158929073926   -0.009159659737933696   -0.001504850141352106
-0.0013711565317597832   -0.002978030387015788   -0.000754712221856145
-0.003145881986853895   -0.003211630939044301   -0.0006294249736123447
-0.006029158929073926   -0.009159659737933696   -0.001504850141352106
-0.002737922344186185   -0.008918469897297257   -0.0014134931658099715
-0.0013711565317597832   -0.002978030387015788   -0.000754712221856145
-0.0027062463765274245   -0.008917330141028105   -0.0013383458052300035
-0.003145881986853895   -0.003211630939044301   -0.0006294249736123447
-0.0013427373140695183   -0.0029626151006979075   -0.0006592166113536907
-0.0027062463765274245   -0.008917330141028105   -0.0013383458052300035
-0.0013711565317597832   -0.002978030387015788   -0.000754712221856145
-0.003145881986853895   -0.003211630939044301   -0.0006294249736123447
-0.0027062463765274245   -0.008917330141028105   -0.0013383458052300035
-0.006011274274039142   -0.009207830112751902   -0.0013377122826879453
-0.006029158929073926   -0.009159659737933696   -0.001504850141352106
-0.003145881986853895   -0.003211630939044301   -0.0006294249736123447
-0.0027062463765274245   -0.008917330141028105   -0.0013383458052300035
-0.006029158929073926   -0.009159659737933696   -0.001504850141352106
-0.0013711565317597832   -0.002978030387015788   -0.000754712221856145
-0.0014580263563495326   -0.0028441916523942417   -0.0009419076156021463
-0.002783061843198538   -0.008774517104084056   -0.0015950128521933548
0.00018955983568072853   -0.002859901302014089   -0.000752975752456183
-0.0014023797536369964   -0.0029410967020335435   -0.0008470757457747747
-0.002783061843198538   -0.008774517104084056   -0.0015950128521933548
0.0003174272935169573   -0.008778680566163322   -0.0014216594533756823
0.00018955983568072853   -0.002859901302014089   -0.000752975752456183
0.00034686131872677323   -0.008824602748911307   -0.0014153689505720793
-0.0014023797536369964   -0.0029410967020335435   -0.0008470757457747747
0.00022504537694518714   -0.0029101359404886543   -0.0007661184714054288
0.00034686131872677323   -0.008824602748911307   -0.0014153689505720793
0.00018955983568072853   -0.002859901302014089   -0.000752975752456183
-0.0014023797536369964   -0.0029410967020335435   -0.0008470757457747747
0.00034686131872677323   -0.008824602748911307   -0.0014153689505720793
-0.002759125482992824   -0.008871456330310114   -0.0014998043428046612
-0.002783061843198538   -0.008774517104084056   -0.0015950128521933548
-0.0014023797536369964   -0.0029410967020335435   -0.0008470757457747747
0.00034686131872677323   -0.008824602748911307   -0.0014153689505720793
-0.002783061843198538   -0.008774517104084056   -0.0015950128521933548
0.00018955983568072853   -0.002859901302014089   -0.000752975752456183
-0.0014023797536369964   -0.0029410967020335435   -0.0008470757457747747
-0.002759125482992824   -0.008871456330310114   -0.0014998043428046612
0.00022504537694518714   -0.0029101359404886543   -0.0007661184714054288
-0.0013711565317597832   -0.002978030387015788   -0.000754712221856145
-0.002759125482992824   -0.008871456330310114   -0.0014998043428046612
0.00034686131872677323   -0.008824602748911307   -0.0014153689505720793
0.00022504537694518714   -0.0029101359404886543   -0.0007661184714054288
0.00036664258923097936   -0.008821769871408508   -0.0014191770593343386
-0.0013711565317597832   -0.002978030387015788   -0.000754712221856145
0.0002530432369112952   -0.002905978117229339   -0.0007779831816561435
0.00036664258923097936   -0.008821769871408508   -0.0014191770593343386
0.00022504537694518714   -0.0029101359404886543   -0.0007661184714054288
-0.0013711565317597832   -0.002978030387015788   -0.000754712221856145
0.00036664258923097936   -0.008821769871408508   -0.0014191770593343386
-0.002737922344186185   -0.008918469897297257   -0.0014134931658099715
-0.002759125482992824   -0.008871456330310114   -0.0014998043428046612
-0.0013711565317597832   -0.002978030387015788   -0.000754712221856145
0.00036664258923097936   -0.008821769871408508   -0.0014191770593343386
-0.002759125482992824   -0.008871456330310114   -0.0014998043428046612
0.00022504537694518714   -0.0029101359404886543   -0.0007661184714054288
-0.0013711565317597832   -0.002978030387015788   -0.000754712221856145
-0.002737922344186185   -0.008918469897297257   -0.0014134931658099715
0.0002530432369112952   -0.002905978117229339   -0.0007779831816561435
-0.0013427373140695183   -0.0029626151006979075   -0.0006592166113536907
-0.002737922344186185   -0.008918469897297257   -0.0014134931658099715
0.00036664258923097936   -0.008821769871408508   -0.0014191770593343386
0.0002530432369112952   -0.002905978117229339   -0.0007779831816561435
0.0003878704649424884   -0.00876869379660549   -0.0014332435541832367
-0.0013427373140695183   -0.0029626151006979075   -0.0006592166113536907
0.0002907385478225274   -0.0028429658065013026   -0.0007901689476112973
0.0003878704649424884   -0.00876869379660549   -0.0014332435541832367
0.0002530432369112952   -0.002905978117229339   -0.0007779831816561435
-0.0013427373140695183   -0.0029626151006979075   -0.0006592166113536907
0.0003878704649424884   -0.00876869379660549   -0.0014332435541832367
-0.0027062463765274245   -0.008917330141028105   -0.0013383458052300035
-0.002737922344186185   -0.008918469897297257   -0.0014134931658099715
-0.0013427373140695183   -0.0029626151006979075   -0.0006592166113536907
0.0003878704649424884   -0.00876869379660549   -0.0014332435541832367
-0.002737922344186185   -0.008918469897297257   -0.0014134931658099715
0.0002530432369112952   -0.002905978117229339   -0.0007779831816561435
0.00018955983568072853   -0.002859901302014089   -0.000752975752456183
0.0003174272935169573   -0.008778680566163322   -0.0014216594533756823
0.001977928062947691   -0.0029990955283496945   -0.0006595311099881846
0.00022504537694518714   -0.0029101359404886543   -0.0007661184714054288
0.0003174272935169573   -0.008778680566163322   -0.0014216594533756823
0.0036030367673914967   -0.00892178842286702   -0.0013408001975309628
0.001977928062947691   -0.0029990955283496945   -0.0006595311099881846
0.003619664587800254   -0.008921359981060572   -0.0014263116773904085
0.00022504537694518714   -0.0029101359404886543   -0.0007661184714054288
0.001981323889172532   -0.0030150822234243707   -0.0007862866156154789
0.003619664587800254   -0.008921359981060572   -0.0014263116773904085
0.001977928062947691   -0.0029990955283496945   -0.0006595311099881846
0.00022504537694518714   -0.0029101359404886543   -0.0007661184714054288
0.003619664587800254   -0.008921359981060572   -0.0014263116773904085
0.00034686131872677323   -0.008824602748911307   -0.0014153689505720793
0.0003174272935169573   -0.008778680566163322   -0.0014216594533756823
0.00022504537694518714   -0.0029101359404886543   -0.0007661184714054288
0.003619664587800254   -0.008921359981060572   -0.0014263116773904085
0.0003174272935169573   -0.008778680566163322   -0.0014216594533756823
0.001977928062947691   -0.0029990955283496945   -0.0006595311099881846
0.00022504537694518714   -0.0029101359404886543   -0.0007661184714054288
0.00034686131872677323   -0.008824602748911307   -0.0014153689505720793
0.001981323889172532   -0.0030150822234243707   -0.0007862866156154789
0.0002530432369112952   -0.002905978117229339   -0.0007779831816561435
0.00034686131872677323   -0.008824602748911307   -0.0014153689505720793
0.003619664587800254   -0.008921359981060572   -0.0014263116773904085
0.001981323889172532   -0.0030150822234243707   -0.0007862866156154789
0.0036028820388508214   -0.008873122248708232   -0.0015232486806306298
0.0002530432369112952   -0.002905978117229339   -0.0007779831816561435
0.0019727336644572778   -0.002972027118926115   -0.0009078804690077252
0.0036028820388508214   -0.008873122248708232   -0.0015232486806306298
0.001981323889172532   -0.0030150822234243707   -0.0007862866156154789
0.0002530432369112952   -0.002905978117229339   -0.0007779831816561435
0.0036028820388508214   -0.008873122248708232   -0.0015232486806306298
0.00036664258923097936   -0.008821769871408508   -0.0014191770593343386
0.00034686131872677323   -0.008824602748911307   -0.0014153689505720793
0.0002530432369112952   -0.002905978117229339   -0.0007779831816561435
0.0036028820388508214   -0.008873122248708232   -0.0015232486806306298
0.00034686131872677323   -0.008824602748911307   -0.0014153689505720793
0.001981323889172532   -0.0030150822234243707   -0.0007862866156154789
0.0002530432369112952   -0.002905978117229339   -0.0007779831816561435
0.00036664258923097936   -0.008821769871408508   -0.0014191770593343386
0.0019727336644572778   -0.002972027118926115   -0.0009078804690077252
0.0002907385478225274   -0.0028429658065013026   -0.0007901689476112973
0.00036664258923097936   -0.008821769871408508   -0.0014191770593343386
0.0036028820388508214   -0.008873122248708232   -0.0015232486806306298
0.0019727336644572778   -0.002972027118926115   -0.0009078804690077252
0.003593244235133323   -0.008763883300950522   -0.001628024888613572
0.0002907385478225274   -0.0028429658065013026   -0.0007901689476112973
0.002010839167107655   -0.0028567417263398436   -0.0010271548526131183
0.003593244235133323   -0.008763883300950522   -0.001628024888613572
0.0019727336644572778   -0.002972027118926115   -0.0009078804690077252
0.0002907385478225274   -0.0028429658065013026   -0.0007901689476112973
0.003593244235133323   -0.008763883300950522   -0.001628024888613572
0.0003878704649424884   -0.00876869379660549   -0.0014332435541832367
0.00036664258923097936   -0.008821769871408508   -0.0014191770593343386
0.0002907385478225274   -0.0028429658065013026   -0.0007901689476112973
0.003593244235133323   -0.008763883300950522   -0.001628024888613572
0.00036664258923097936   -0.008821769871408508   -0.0014191770593343386
0.0019727336644572778   -0.002972027118926115   -0.0009078804690077252
0.001977928062947691   -0.0029990955283496945   -0.0006595311099881846
0.0036030367673914967   -0.00892178842286702   -0.0013408001975309628
0.0044648138828564275   -0.0033519033027768767   -0.000622286403282809
0.001981323889172532   -0.0030150822234243707   -0.0007862866156154789
0.0036030367673914967   -0.00892178842286702   -0.0013408001975309628
0.007567758450928732   -0.009187800163492405   -0.0013190806241739931
0.0044648138828564275   -0.0033519033027768767   -0.000622286403282809
0.0074137274424421465   -0.009162708356908652   -0.0015114530178582971
0.001981323889172532   -0.0030150822234243707   -0.0007862866156154789
0.00419302324984753   -0.0033153039269207866   -0.0009096489030752514
0.0074137274424421465   -0.009162708356908652   -0.0015114530178582971
0.0044648138828564275   -0.0033519033027768767   -0.000622286403282809
0.001981323889172532   -0.0030150822234243707   -0.0007862866156154789
0.0074137274424421465   -0.009162708356908652   -0.0015114530178582971
0.003619664587800254   -0.008921359981060572   -0.0014263116773904085
0.0036030367673914967   -0.00892178842286702   -0.0013408001975309628
0.001981323889172532   -0.0030150822234243707   -0.0007862866156154789
0.0074137274424421465   -0.009162708356908652   -0.0015114530178582971
0.0036030367673914967   -0.00892178842286702   -0.0013408001975309628
0.0044648138828564275   -0.0033519033027768767   -0.000622286403282809
0.001981323889172532   -0.0030150822234243707   -0.0007862866156154789
0.003619664587800254   -0.008921359981060572   -0.0014263116773904085
0.00419302324984753   -0.0033153039269207866   -0.0009096489030752514
0.0019727336644572778   -0.002972027118926115   -0.0009078804690077252
0.003619664587800254   -0.008921359981060572   -0.0014263116773904085
0.0074137274424421465   -0.009162708356908652   -0.0015114530178582971
0.00419302324984753   -0.0033153039269207866   -0.0009096489030752514
0.007276078396491981   -0.009088340663333767   -0.001727866005777358
0.0019727336644572778   -0.002972027118926115   -0.0009078804690077252
0.004067642519118496   -0.003246375798396453   -0.0011526467691461803
0.007276078396491981   -0.009088340663333767   -0.001727866005777358
0.00419302324984753   -0.0033153039269207866   -0.0009096489030752514
0.0019727336644572778   -0.002972027118926115   -0.0009078804690077252
0.007276078396491981   -0.009088340663333767   -0.001727866005777358
0.0036028820388508214   -0.008873122248708232   -0.0015232486806306298
0.003619664587800254   -0.008921359981060572   -0.0014263116773904085
0.0019727336644572778   -0.002972027118926115   -0.0009078804690077252
0.007276078396491981   -0.009088340663333767   -0.001727866005777358
0.003619664587800254   -0.008921359981060572   -0.0014263116773904085
0.00419302324984753   -0.0033153039269207866   -0.0009096489030752514
0.0019727336644572778   -0.002972027118926115   -0.0009078804690077252
0.0036028820388508214   -0.008873122248708232   -0.0015232486806306298
0.004067642519118496   -0.003246375798396453   -0.0011526467691461803
0.002010839167107655   -0.0028567417263398436   -0.0010271548526131183
0.0036028820388508214   -0.008873122248708232   -0.0015232486806306298
0.007276078396491981   -0.009088340663333767   -0.001727866005777358
0.004067642519118496   -0.003246375798396453   -0.0011526467691461803
0.007069844997962882   -0.00892286895161856   -0.001953142844194003
0.002010839167107655   -0.0028567417263398436   -0.0010271548526131183
0.003881058919079557   -0.003070017300632449   -0.0014097826859162407
0.007069844997962882   -0.00892286895161856   -0.001953142844194003
0.004067642519118496   -0.003246375798396453   -0.0011526467691461803
0.002010839167107655   -0.0028567417263398436   -0.0010271548526131183
0.007069844997962882   -0.00892286895161856   -0.001953142844194003
0.003593244235133323   -0.008763883300950522   -0.001628024888613572
0.0036028820388508214   -0.008873122248708232   -0.0015232486806306298
0.002010839167107655   -0.0028567417263398436   -0.0010271548526131183
0.007069844997962882   -0.00892286895161856   -0.001953142844194003
0.0036028820388508214   -0.008873122248708232   -0.0015232486806306298
0.004067642519118496   -0.003246375798396453   -0.0011526467691461803
-0.00939784418543552   -0.00921534432365936   -0.0022708777450188428
-0.012876471936435298   -0.017281981101223903   -0.002586550399563102
-0.005998275701142095   -0.008914502653601272   -0.0018692095132479356
-0.009679502905116145   -0.00942787263515938   -0.0019691506786188953
-0.012876471936435298   -0.017281981101223903   -0.002586550399563102
-0.008278709761945424   -0.01705208129156151   -0.002260788521230132
-0.005998275701142095   -0.008914502653601272   -0.0018692095132479356
-0.008296930268325384   -0.01718354179041582   -0.0021166363121282654
-0.009679502905116145   -0.00942787263515938   -0.0019691506786188953
-0.00600543206237131   -0.009066814925474606   -0.001683405035064083
-0.008296930268325384   -0.01718354179041582   -0.0021166363121282654
-0.005998275701142095   -0.008914502653601272   -0.0018692095132479356
-0.009679502905116145   -0.00942787263515938   -0.0019691506786188953
-0.008296930268325384   -0.01718354179041582   -0.0021166363121282654
-0.013105536337443609   -0.017461640369455786   -0.0023615383498382125
-0.012876471936435298   -0.017281981101223903   -0.002586550399563102
-0.009679502905116145   -0.00942787263515938   -0.0019691506786188953
-0.008296930268325384   -0.01718354179041582   -0.0021166363121282654
-0.012876471936435298   -0.017281981101223903   -0.002586550399563102
-0.005998275701142095   -0.008914502653601272   -0.0018692095132479356
-0.009679502905116145   -0.00942787263515938   -0.0019691506786188953
-0.013105536337443609   -0.017461640369455786   -0.0023615383498382125
-0.00600543206237131   -0.009066814925474606   -0.001683405035064083
-0.009875226669496731   -0.009547893798550092   -0.0016737022645601715
-0.013105536337443609   -0.017461640369455786   -0.0023615383498382125
-0.008296930268325384   -0.01718354179041582   -0.0021166363121282654
-0.00600543206237131   -0.009066814925474606   -0.001683405035064083
-0.008318377949397245   -0.017275027150384675   -0.001982914225413009
-0.009875226669496731   -0.009547893798550092   -0.0016737022645601715
-0.006029158929073926   -0.009159659737933696   -0.001504850141352106
-0.008318377949397245   -0.017275027150384675   -0.001982914225413009
-0.00600543206237131   -0.009066814925474606   -0.001683405035064083
-0.009875226669496731   -0.009547893798550092   -0.0016737022645601715
-0.008318377949397245   -0.017275027150384675   -0.001982914225413009
-0.013249972925651141   -0.017574299886158364   -0.002151815590866163
-0.013105536337443609   -0.017461640369455786   -0.0023615383498382125
-0.009875226669496731   -0.009547893798550092   -0.0016737022645601715
-0.008318377949397245   -0.017275027150384675   -0.001982914225413009
-0.013105536337443609   -0.017461640369455786   -0.0023615383498382125
-0.00600543206237131   -0.009066814925474606   -0.001683405035064083
-0.009875226669496731   -0.009547893798550092   -0.0016737022645601715
-0.013249972925651141   -0.017574299886158364   -0.002151815590866163
-0.006029158929073926   -0.009159659737933696   -0.001504850141352106
-0.010106567566263535   -0.009617662923807769   -0.00140488941109243
-0.013249972925651141   -0.017574299886158364   -0.002151815590866163
-0.008318377949397245   -0.017275027150384675   -0.001982914225413009
-0.006029158929073926   -0.009159659737933696   -0.001504850141352106
-0.008302857551578717   -0.017335216727342905   -0.0018574003157492784
-0.010106567566263535   -0.009617662923807769   -0.00140488941109243
-0.006011274274039142   -0.009207830112751902   -0.0013377122826879453
-0.008302857551578717   -0.017335216727342905   -0.0018574003157492784
-0.006029158929073926   -0.009159659737933696   -0.001504850141352106
-0.010106567566263535   -0.009617662923807769   -0.00140488941109243
-0.008302857551578717   -0.017335216727342905   -0.0018574003157492784
-0.013414312541811989   -0.01765532355290646   -0.001958811886713993
-0.013249972925651141   -0.017574299886158364   -0.002151815590866163
-0.010106567566263535   -0.009617662923807769   -0.00140488941109243
-0.008302857551578717   -0.017335216727342905   -0.0018574003157492784
-0.013249972925651141   -0.017574299886158364   -0.002151815590866163
-0.006029158929073926   -0.009159659737933696   -0.001504850141352106
-0.005998275701142095   -0.008914502653601272   -0.0018692095132479356
-0.008278709761945424   -0.01705208129156151   -0.002260788521230132
-0.002783061843198538   -0.008774517104084056   -0.0015950128521933548
-0.00600543206237131   -0.009066814925474606   -0.001683405035064083
-0.008278709761945424   -0.01705208129156151   -0.002260788521230132
-0.003943585914567048   -0.01693745607256749   -0.002034463218017536
-0.002783061843198538   -0.008774517104084056   -0.0015950128521933548
-0.003933780609739871   -0.017021515572002825   -0.00195299883082669
-0.00600543206237131   -0.009066814925474606   -0.001683405035064083
-0.002759125482992824   -0.008871456330310114   -0.0014998043428046612
-0.003933780609739871   -0.017021515572002825   -0.00195299883082669
-0.002783061843198538   -0.008774517104084056   -0.0015950128521933548
-0.00600543206237131   -0.009066814925474606   -0.001683405035064083
-0.003933780609739871   -0.017021515572002825   -0.00195299883082669
-0.008296930268325384   -0.01718354179041582   -0.0021166363121282654
-0.008278709761945424   -0.01705208129156151   -0.002260788521230132
-0.00600543206237131   -0.009066814925474606   -0.001683405035064083
-0.003933780609739871   -0.017021515572002825   -0.00195299883082669
-0.008278709761945424   -0.01705208129156151   -0.002260788521230132
-0.002783061843198538   -0.008774517104084056   -0.0015950128521933548
-0.00600543206237131   -0.009066814925474606   -0.001683405035064083
-0.008296930268325384   -0.01718354179041582   -0.0021166363121282654
-0.002759125482992824   -0.008871456330310114   -0.0014998043428046612
-0.006029158929073926   -0.009159659737933696   -0.001504850141352106
-0.008296930268325384   -0.01718354179041582   -0.0021166363121282654
-0.003933780609739871   -0.017021515572002825   -0.00195299883082669
-0.002759125482992824   -0.008871456330310114   -0.0014998043428046612
-0.0039217534662526485   -0.017070891991923236   -0.001881466626047159
-0.006029158929073926   -0.009159659737933696   -0.001504850141352106
-0.002737922344186185   -0.008918469897297257   -0.0014134931658099715
-0.0039217534662526485   -0.017070891991923236   -0.001881466626047159
-0.002759125482992824   -0.008871456330310114   -0.0014998043428046612
-0.006029158929073926   -0.009159659737933696   -0.001504850141352106
-0.0039217534662526485   -0.017070891991923236   -0.001881466626047159
-0.008318377949397245   -0.017275027150384675   -0.001982914225413009
-0.008296930268325384   -0.01718354179041582   -0.0021166363121282654
-0.006029158929073926   -0.009159659737933696   -0.001504850141352106
-0.0039217534662526485   -0.017070891991923236   -0.001881466626047159
-0.008296930268325384   -0.01718354179041582   -0.0021166363121282654
-0.002759125482992824   -0.008871456330310114   -0.0014998043428046612
-0.006029158929073926   -0.009159659737933696   -0.001504850141352106
-0.008318377949397245   -0.017275027150384675   -0.001982914225413009
-0.002737922344186185   -0.008918469897297257   -0.0014134931658099715
-0.006011274274039142   -0.009207830112751902   -0.0013377122826879453
-0.008318377949397245   -0.017275027150384675   -0.001982914225413009
-0.0039217534662526485   -0.017070891991923236   -0.001881466626047159
-0.002737922344186185   -0.008918469897297257   -0.0014134931658099715
-0.0039019379116628453   -0.017086291226423318   -0.0018198368793673285
-0.006011274274039142   -0.009207830112751902   -0.0013377122826879453
-0.0027062463765274245   -0.008917330141028105   -0.0013383458052300035
-0.0039019379116628453   -0.017086291226423318   -0.0018198368793673285
-0.002737922344186185   -0.008918469897297257   -0.0014134931658099715
-0.006011274274039142   -0.009207830112751902   -0.0013377122826879453
-0.0039019379116628453   -0.017086291226423318   -0.0018198368793673285
-0.008302857551578717   -0.017335216727342905   -0.0018574003157492784
-0.008318377949397245   -0.017275027150384675   -0.001982914225413009
-0.006011274274039142   -0.009207830112751902   -0.0013377122826879453
-0.0039019379116628453   -0.017086291226423318   -0.0018198368793673285
-0.008318377949397245   -0.017275027150384675   -0.001982914225413009
-0.002737922344186185   -0.008918469897297257   -0.0014134931658099715
-0.002783061843198538   -0.008774517104084056   -0.0015950128521933548
-0.003943585914567048   -0.01693745607256749   -0.002034463218017536
0.0003174272935169573   -0.008778680566163322   -0.0014216594533756823
-0.002759125482992824   -0.008871456330310114   -0.0014998043428046612
-0.003943585914567048   -0.01693745607256749   -0.002034463218017536
0.0002642468337315856   -0.016931355355718977   -0.0018941439281085731
0.0003174272935169573   -0.008778680566163322   -0.0014216594533756823
0.00028233806537968634   -0.01696875805984557   -0.0018750311700727498
-0.002759125482992824   -0.008871456330310114   -0.0014998043428046612
0.00034686131872677323   -0.008824602748911307   -0.0014153689505720793
0.00028233806537968634   -0.01696875805984557   -0.0018750311700727498
0.0003174272935169573   -0.008778680566163322   -0.0014216594533756823
-0.002759125482992824   -0.008871456330310114   -0.0014998043428046612
0.00028233806537968634   -0.01696875805984557   -0.0018750311700727498
-0.003933780609739871   -0.017021515572002825   -0.00195299883082669
-0.003943585914567048   -0.01693745607256749   -0.002034463218017536
-0.002759125482992824   -0.008871456330310114   -0.0014998043428046612
0.00028233806537968634   -0.01696875805984557   -0.0018750311700727498
-0.003943585914567048   -0.01693745607256749   -0.002034463218017536
0.0003174272935169573   -0.008778680566163322   -0.0014216594533756823
-0.002759125482992824   -0.008871456330310114   -0.0014998043428046612
-0.003933780609739871   -0.017021515572002825   -0.00195299883082669
0.00034686131872677323   -0.008824602748911307   -0.0014153689505720793
-0.002737922344186185   -0.008918469897297257   -0.0014134931658099715
-0.003933780609739871   -0.017021515572002825   -0.00195299883082669
0.00028233806537968634   -0.01696875805984557   -0.0018750311700727498
0.00034686131872677323   -0.008824602748911307   -0.0014153689505720793
0.0002939108035233615   -0.016971616997214226   -0.0018655909714382537
-0.002737922344186185   -0.008918469897297257   -0.0014134931658099715
0.00036664258923097936   -0.008821769871408508   -0.0014191770593343386
0.0002939108035233615   -0.016971616997214226   -0.0018655909714382537
0.00034686131872677323   -0.008824602748911307   -0.0014153689505720793
-0.002737922344186185   -0.008918469897297257   -0.0014134931658099715
0.0002939108035233615   -0.016971616997214226   -0.0018655909714382537
-0.0039217534662526485   -0.017070891991923236   -0.001881466626047159
-0.003933780609739871   -0.017021515572002825   -0.00195299883082669
-0.002737922344186185   -0.008918469897297257   -0.0014134931658099715
0.0002939108035233615   -0.016971616997214226   -0.0018655909714382537
-0.003933780609739871   -0.017021515572002825   -0.00195299883082669
0.00034686131872677323   -0.008824602748911307   -0.0014153689505720793
-0.002737922344186185   -0.008918469897297257   -0.0014134931658099715
-0.0039217534662526485   -0.017070891991923236   -0.001881466626047159
0.00036664258923097936   -0.008821769871408508   -0.0014191770593343386
-0.0027062463765274245   -0.008917330141028105   -0.0013383458052300035
-0.0039217534662526485   -0.017070891991923236   -0.001881466626047159
0.0002939108035233615   -0.016971616997214226   -0.0018655909714382537
0.00036664258923097936   -0.008821769871408508   -0.0014191770593343386
0.00030226173084474145   -0.01693941708455125   -0.0018664113469150207
-0.0027062463765274245   -0.008917330141028105   -0.0013383458052300035
0.0003878704649424884   -0.00876869379660549   -0.0014332435541832367
0.00030226173084474145   -0.01693941708455125   -0.0018664113469150207
0.00036664258923097936   -0.008821769871408508   -0.0014191770593343386
-0.0027062463765274245   -0.008917330141028105   -0.0013383458052300035
0.00030226173084474145   -0.01693941708455125   -0.0018664113469150207
-0.0039019379116628453   -0.017086291226423318   -0.0018198368793673285
-0.0039217534662526485   -0.017070891991923236   -0.001881466626047159
-0.0027062463765274245   -0.008917330141028105   -0.0013383458052300035
0.00030226173084474145   -0.01693941708455125   -0.0018664113469150207
-0.0039217534662526485   -0.017070891991923236   -0.001881466626047159
0.00036664258923097936   -0.008821769871408508   -0.0014191770593343386
0.0003174272935169573   -0.008778680566163322   -0.0014216594533756823
0.0002642468337315856   -0.016931355355718977   -0.0018941439281085731
0.0036030367673914967   -0.00892178842286702   -0.0013408001975309628
0.00034686131872677323   -0.008824602748911307   -0.0014153689505720793
0.0002642468337315856   -0.016931355355718977   -0.0018941439281085731
0.0046516552968663815   -0.01702732872176499   -0.0018374317592105502
0.0036030367673914967   -0.00892178842286702   -0.0013408001975309628
0.004667443065869058   -0.01702196787866482   -0.0018819659094603508
0.00034686131872677323   -0.008824602748911307   -0.0014153689505720793
0.003619664587800254   -0.008921359981060572   -0.0014263116773904085
0.004667443065869058   -0.01702196787866482   -0.0018819659094603508
0.0036030367673914967   -0.00892178842286702   -0.0013408001975309628
0.00034686131872677323   -0.008824602748911307   -0.0014153689505720793
0.004667443065869058   -0.01702196787866482   -0.0018819659094603508
0.00028233806537968634   -0.01696875805984557   -0.0018750311700727498
0.0002642468337315856   -0.016931355355718977   -0.0018941439281085731
0.00034686131872677323   -0.008824602748911307   -0.0014153689505720793
0.004667443065869058   -0.01702196787866482   -0.0018819659094603508
0.0002642468337315856   -0.016931355355718977   -0.0018941439281085731
0.0036030367673914967   -0.00892178842286702   -0.0013408001975309628
0.00034686131872677323   -0.008824602748911307   -0.0014153689505720793
0.00028233806537968634   -0.01696875805984557   -0.0018750311700727498
0.003619664587800254   -0.008921359981060572   -0.0014263116773904085
0.00036664258923097936   -0.008821769871408508   -0.0014191770593343386
0.00028233806537968634   -0.01696875805984557   -0.0018750311700727498
0.004667443065869058   -0.01702196787866482   -0.0018819659094603508
0.003619664587800254   -0.008921359981060572   -0.0014263116773904085
0.004655565448587292   -0.01698280337062409   -0.0019354618838536368
0.00036664258923097936   -0.008821769871408508   -0.0014191770593343386
0.0036028820388508214   -0.008873122248708232   -0.0015232486806306298
0.004655565448587292   -0.01698280337062409   -0.0019354618838536368
0.003619664587800254   -0.008921359981060572   -0.0014263116773904085
0.00036664258923097936   -0.008821769871408508   -0.0014191770593343386
0.004655565448587292   -0.01698280337062409   -0.0019354618838536368
0.0002939108035233615   -0.016971616997214226   -0.0018655909714382537
0.00028233806537968634   -0.01696875805984557   -0.0018750311700727498
0.00036664258923097936   -0.008821769871408508   -0.0014191770593343386
0.004655565448587292   -0.01698280337062409   -0.0019354618838536368
0.00028233806537968634   -0.01696875805984557   -0.0018750311700727498
0.003619664587800254   -0.008921359981060572   -0.0014263116773904085
0.00036664258923097936   -0.008821769871408508   -0.0014191770593343386
0.0002939108035233615   -0.016971616997214226   -0.0018655909714382537
0.0036028820388508214   -0.008873122248708232   -0.0015232486806306298
0.0003878704649424884   -0.00876869379660549   -0.0014332435541832367
0.0002939108035233615   -0.016971616997214226   -0.0018655909714382537
0.004655565448587292   -0.01698280337062409   -0.0019354618838536368
0.0036028820388508214   -0.008873122248708232   -0.0015232486806306298
0.004637805452935539   -0.016901465608197986   -0.00199898130588531
0.0003878704649424884   -0.00876869379660549   -0.0014332435541832367
0.003593244235133323   -0.008763883300950522   -0.001628024888613572
0.004637805452935539   -0.016901465608197986   -0.00199898130588531
0.0036028820388508214   -0.008873122248708232   -0.0015232486806306298
0.0003878704649424884   -0.00876869379660549   -0.0014332435541832367
0.004637805452935539   -0.016901465608197986   -0.00199898130588531
0.00030226173084474145   -0.01693941708455125   -0.0018664113469150207
0.0002939108035233615   -0.016971616997214226   -0.0018655909714382537
0.0003878704649424884   -0.00876869379660549   -0.0014332435541832367
0.004637805452935539   -0.016901465608197986   -0.00199898130588531
0.0002939108035233615   -0.016971616997214226   -0.0018655909714382537
0.0036028820388508214   -0.008873122248708232   -0.0015232486806306298
0.0036030367673914967   -0.00892178842286702   -0.0013408001975309628
0.0046516552968663815   -0.01702732872176499   -0.0018374317592105502
0.007567758450928732   -0.009187800163492405   -0.0013190806241739931
0.003619664587800254   -0.008921359981060572   -0.0014263116773904085
0.0046516552968663815   -0.01702732872176499   -0.0018374317592105502
0.009648227602520867   -0.017201412315370264   -0.0018385711361796084
0.007567758450928732   -0.009187800163492405   -0.0013190806241739931
0.009564245093538145   -0.0171714134601237   -0.0019549462889740586
0.003619664587800254   -0.008921359981060572   -0.0014263116773904085
0.0074137274424421465   -0.009162708356908652   -0.0015114530178582971
0.009564245093538145   -0.0171714134601237   -0.0019549462889740586
0.007567758450928732   -0.009187800163492405   -0.0013190806241739931
0.003619664587800254   -0.008921359981060572   -0.0014263116773904085
0.009564245093538145   -0.0171714134601237   -0.0019549462889740586
0.004667443065869058   -0.01702196787866482   -0.0018819659094603508
0.0046516552968663815   -0.01702732872176499   -0.0018374317592105502
0.003619664587800254   -0.008921359981060572   -0.0014263116773904085
0.009564245093538145   -0.0171714134601237   -0.0019549462889740586
0.0046516552968663815   -0.01702732872176499   -0.0018374317592105502
0.007567758450928732   -0.009187800163492405   -0.0013190806241739931
0.003619664587800254   -0.008921359981060572   -0.0014263116773904085
0.004667443065869058   -0.01702196787866482   -0.0018819659094603508
0.0074137274424421465   -0.009162708356908652   -0.0015114530178582971
0.0036028820388508214   -0.008873122248708232   -0.0015232486806306298
0.004667443065869058   -0.01702196787866482   -0.0018819659094603508
0.009564245093538145   -0.0171714134601237   -0.0019549462889740586
0.0074137274424421465   -0.009162708356908652   -0.0015114530178582971
0.009480420009332618   -0.017111113165554595   -0.002087481834128937
0.0036028820388508214   -0.008873122248708232   -0.0015232486806306298
0.007276078396491981   -0.009088340663333767   -0.001727866005777358
0.009480420009332618   -0.017111113165554595   -0.002087481834128937
0.0074137274424421465   -0.009162708356908652   -0.0015114530178582971
0.0036028820388508214   -0.008873122248708232   -0.0015232486806306298
0.009480420009332618   -0.017111113165554595   -0.002087481834128937
0.004655565448587292   -0.01698280337062409   -0.0019354618838536368
0.004667443065869058   -0.01702196787866482   -0.0018819659094603508
0.0036028820388508214   -0.008873122248708232   -0.0015232486806306298
0.009480420009332618   -0.017111113165554595   -0.002087481834128937
0.004667443065869058   -0.01702196787866482   -0.0018819659094603508
0.0074137274424421465   -0.009162708356908652   -0.0015114530178582971
0.0036028820388508214   -0.008873122248708232   -0.0015232486806306298
0.004655565448587292   -0.01698280337062409   -0.0019354618838536368
0.007276078396491981   -0.009088340663333767   -0.001727866005777358
0.003593244235133323   -0.008763883300950522   -0.001628024888613572
0.004655565448587292   -0.01698280337062409   -0.0019354618838536368
0.009480420009332618   -0.017111113165554595   -0.002087481834128937
0.007276078396491981   -0.009088340663333767   -0.001727866005777358
0.009331529584661838   -0.016984622126328824   -0.0022361949532307504
0.003593244235133323   -0.008763883300950522   -0.001628024888613572
0.007069844997962882   -0.00892286895161856   -0.001953142844194003
0.009331529584661838   -0.016984622126328824   -0.0022361949532307504
0.007276078396491981   -0.009088340663333767   -0.001727866005777358
0.003593244235133323   -0.008763883300950522   -0.001628024888613572
0.009331529584661838   -0.016984622126328824   -0.0022361949532307504
0.004637805452935539   -0.016901465608197986   -0.00199898130588531
0.004655565448587292   -0.01698280337062409   -0.0019354618838536368
0.003593244235133323   -0.008763883300950522   -0.001628024888613572
0.009331529584661838   -0.016984622126328824   -0.0022361949532307504
0.004655565448587292   -0.01698280337062409   -0.0019354618838536368
0.007276078396491981   -0.009088340663333767   -0.001727866005777358
-0.012876471936435298   -0.017281981101223903   -0.002586550399563102
-0.015376627351138908   -0.026846792319956708   -0.0027585381786661145
-0.008278709761945424   -0.01705208129156151   -0.002260788521230132
-0.013105536337443609   -0.017461640369455786   -0.0023615383498382125
-0.015376627351138908   -0.026846792319956708   -0.0027585381786661145
-0.009980932043348809   -0.026700524120803187   -0.0024929526368374405
-0.008278709761945424   -0.01705208129156151   -0.002260788521230132
-0.00999295885496031   -0.026813599548991558   -0.002389775830550612
-0.013105536337443609   -0.017461640369455786   -0.0023615383498382125
-0.008296930268325384   -0.01718354179041582   -0.0021166363121282654
-0.00999295885496031   -0.026813599548991558   -0.002389775830550612
-0.008278709761945424   -0.01705208129156151   -0.002260788521230132
-0.013105536337443609   -0.017461640369455786   -0.0023615383498382125
-0.00999295885496031   -0.026813599548991558   -0.002389775830550612
-0.01553094269309157   -0.026999768139394368   -0.002609132867905034
-0.015376627351138908   -0.026846792319956708   -0.0027585381786661145
-0.013105536337443609   -0.017461640369455786   -0.0023615383498382125
-0.00999295885496031   -0.026813599548991558   -0.002389775830550612
-0.015376627351138908   -0.026846792319956708   -0.0027585381786661145
-0.008278709761945424   -0.01705208129156151   -0.002260788521230132
-0.013105536337443609   -0.017461640369455786   -0.0023615383498382125
-0.01553094269309157   -0.026999768139394368   -0.002609132867905034
-0.008296930268325384   -0.01718354179041582   -0.0021166363121282654
-0.013249972925651141   -0.017574299886158364   -0.002151815590866163
-0.01553094269309157   -0.026999768139394368   -0.002609132867905034
-0.00999295885496031   -0.026813599548991558   -0.002389775830550612
-0.008296930268325384   -0.01718354179041582   -0.0021166363121282654
-0.01000154592658359   -0.026903246457792147   -0.002296880359467797
-0.013249972925651141   -0.017574299886158364   -0.002151815590866163
-0.008318377949397245   -0.017275027150384675   -0.001982914225413009
-0.01000154592658359   -0.026903246457792147   -0.002296880359467797
-0.008296930268325384   -0.01718354179041582   -0.0021166363121282654
-0.013249972925651141   -0.017574299886158364   -0.002151815590866163
-0.01000154592658359   -0.026903246457792147   -0.002296880359467797
-0.015619497498267508   -0.027108003933723146   -0.0024740634930960565
-0.01553094269309157   -0.026999768139394368   -0.002609132867905034
-0.013249972925651141   -0.017574299886158364   -0.002151815590866163
-0.01000154592658359   -0.026903246457792147   -0.002296880359467797
-0.01553094269309157   -0.026999768139394368   -0.002609132867905034
-0.008296930268325384   -0.01718354179041582   -0.0021166363121282654
-0.013249972925651141   -0.017574299886158364   -0.002151815590866163
-0.015619497498267508   -0.027108003933723146   -0.0024740634930960565
-0.008318377949397245   -0.017275027150384675   -0.001982914225413009
-0.013414312541811989   -0.01765532355290646   -0.001958811886713993
-0.015619497498267508   -0.027108003933723146   -0.0024740634930960565
-0.01000154592658359   -0.026903246457792147   -0.002296880359467797
-0.008318377949397245   -0.017275027150384675   -0.001982914225413009
-0.009980874218706835   -0.02697689942825388   -0.002212899602332281
-0.013414312541811989   -0.01765532355290646   -0.001958811886713993
-0.008302857551578717   -0.017335216727342905   -0.0018574003157492784
-0.009980874218706835   -0.02697689942825388   -0.002212899602332281
-0.008318377949397245   -0.017275027150384675   -0.001982914225413009
-0.013414312541811989   -0.01765532355290646   -0.001958811886713993
-0.009980874218706835   -0.02697689942825388   -0.002212899602332281
-0.015710714801791384   -0.02720502944124354   -0.0023550340350623014
-0.015619497498267508   -0.027108003933723146   -0.0024740634930960565
-0.013414312541811989   -0.01765532355290646   -0.001958811886713993
-0.009980874218706835   -0.02697689942825388   -0.002212899602332281
-0.015619497498267508   -0.027108003933723146   -0.0024740634930960565
-0.008318377949397245   -0.017275027150384675   -0.001982914225413009
-0.008278709761945424   -0.01705208129156151   -0.002260788521230132
-0.009980932043348809   -0.026700524120803187   -0.0024929526368374405
-0.003943585914567048   -0.01693745607256749   -0.002034463218017536
-0.008296930268325384   -0.01718354179041582   -0.0021166363121282654
-0.009980932043348809   -0.026700524120803187   -0.0024929526368374405
-0.00492259451434734   -0.026624914644439213   -0.0023090501693544025
-0.003943585914567048   -0.01693745607256749   -0.002034463218017536
-0.004913263564541598   -0.026695867289863957   -0.0022409303306486694
-0.008296930268325384   -0.01718354179041582   -0.0021166363121282654
-0.003933780609739871   -0.017021515572002825   -0.00195299883082669
-0.004913263564541598   -0.026695867289863957   -0.0022409303306486694
-0.003943585914567048   -0.01693745607256749   -0.002034463218017536
-0.008296930268325384   -0.01718354179041582   -0.0021166363121282654
-0.004913263564541598   -0.026695867289863957   -0.0022409303306486694
-0.00999295885496031   -0.026813599548991558   -0.002389775830550612
-0.009980932043348809   -0.026700524120803187   -0.0024929526368374405
-0.008296930268325384   -0.01718354179041582   -0.0021166363121282654
-0.004913263564541598   -0.026695867289863957   -0.0022409303306486694
-0.009980932043348809   -0.026700524120803187   -0.0024929526368374405
-0.003943585914567048   -0.01693745607256749   -0.002034463218017536
-0.008296930268325384   -0.01718354179041582   -0.0021166363121282654
-0.00999295885496031   -0.026813599548991558   -0.002389775830550612
-0.003933780609739871   -0.017021515572002825   -0.00195299883082669
-0.008318377949397245   -0.017275027150384675   -0.001982914225413009
-0.00999295885496031   -0.026813599548991558   -0.002389775830550612
-0.004913263564541598   -0.026695867289863957   -0.0022409303306486694
-0.003933780609739871   -0.017021515572002825   -0.00195299883082669
-0.004900509426653932   -0.02674718702723292   -0.002182937330158489
-0.008318377949397245   -0.017275027150384675   -0.001982914225413009
-0.0039217534662526485   -0.017070891991923236   -0.001881466626047159
-0.004900509426653932   -0.02674718702723292   -0.002182937330158489
-0.003933780609739871   -0.017021515572002825   -0.00195299883082669
-0.008318377949397245   -0.017275027150384675   -0.001982914225413009
-0.004900509426653932   -0.02674718702723292   -0.002182937330158489
-0.01000154592658359   -0.026903246457792147   -0.002296880359467797
-0.00999295885496031   -0.026813599548991558   -0.002389775830550612
-0.008318377949397245   -0.017275027150384675   -0.001982914225413009
-0.004900509426653932   -0.02674718702723292   -0.002182937330158489
-0.00999295885496031   -0.026813599548991558   -0.002389775830550612
-0.003933780609739871   -0.017021515572002825   -0.00195299883082669
-0.008318377949397245   -0.017275027150384675   -0.001982914225413009
-0.01000154592658359   -0.026903246457792147   -0.002296880359467797
-0.0039217534662526485   -0.017070891991923236   -0.001881466626047159
-0.008302857551578717   -0.017335216727342905   -0.0018574003157492784
-0.01000154592658359   -0.026903246457792147   -0.002296880359467797
-0.004900509426653932   -0.02674718702723292   -0.002182937330158489
-0.0039217534662526485   -0.017070891991923236   -0.001881466626047159
-0.0048814727417844615   -0.026779210253575818   -0.0021352389554392176
-0.008302857551578717   -0.017335216727342905   -0.0018574003157492784
-0.0039019379116628453   -0.017086291226423318   -0.0018198368793673285
-0.0048814727417844615   -0.026779210253575818   -0.0021352389554392176
-0.0039217534662526485   -0.017070891991923236   -0.001881466626047159
-0.008302857551578717   -0.017335216727342905   -0.0018574003157492784
-0.0048814727417844615   -0.026779210253575818   -0.0021352389554392176
-0.009980874218706835   -0.02697689942825388   -0.002212899602332281
-0.01000154592658359   -0.026903246457792147   -0.002296880359467797
-0.008302857551578717   -0.017335216727342905   -0.0018574003157492784
-0.0048814727417844615   -0.026779210253575818   -0.0021352389554392176
-0.01000154592658359   -0.026903246457792147   -0.002296880359467797
-0.0039217534662526485   -0.017070891991923236   -0.001881466626047159
-0.003943585914567048   -0.01693745607256749   -0.002034463218017536
-0.00492259451434734   -0.026624914644439213   -0.0023090501693544025
0.0002642468337315856   -0.016931355355718977   -0.0018941439281085731
-0.003933780609739871   -0.017021515572002825   -0.00195299883082669
-0.00492259451434734   -0.026624914644439213   -0.0023090501693544025
-1.6149582936364324e-06   -0.026611904597965374   -0.002201951912730105
0.0002642468337315856   -0.016931355355718977   -0.0018941439281085731
1.5973562649442826e-05   -0.02664050771544484   -0.002169161409819726
-0.003933780609739871   -0.017021515572002825   -0.00195299883082669
0.00028233806537968634   -0.01696875805984557   -0.0018750311700727498
1.5973562649442826e-05   -0.02664050771544484   -0.002169161409819726
0.0002642468337315856   -0.016931355355718977   -0.0018941439281085731
-0.003933780609739871   -0.017021515572002825   -0.00195299883082669
1.5973562649442826e-05   -0.02664050771544484   -0.002169161409819726
-0.004913263564541598   -0.026695867289863957   -0.0022409303306486694
-0.00492259451434734   -0.026624914644439213   -0.0023090501693544025
-0.003933780609739871   -0.017021515572002825   -0.00195299883082669
1.5973562649442826e-05   -0.02664050771544484   -0.002169161409819726
-0.00492259451434734   -0.026624914644439213   -0.0023090501693544025
0.0002642468337315856   -0.016931355355718977   -0.0018941439281085731
-0.003933780609739871   -0.017021515572002825   -0.00195299883082669
-0.004913263564541598   -0.026695867289863957   -0.0022409303306486694
0.00028233806537968634   -0.01696875805984557   -0.0018750311700727498
-0.0039217534662526485   -0.017070891991923236   -0.001881466626047159
-0.004913263564541598   -0.026695867289863957   -0.0022409303306486694
1.5973562649442826e-05   -0.02664050771544484   -0.002169161409819726
0.00028233806537968634   -0.01696875805984557   -0.0018750311700727498
2.848724130205729e-05   -0.026649342567877536   -0.0021463693633421597
-0.0039217534662526485   -0.017070891991923236   -0.001881466626047159
0.0002939108035233615   -0.016971616997214226   -0.0018655909714382537
2.848724130205729e-05   -0.026649342567877536   -0.0021463693633421597
0.00028233806537968634   -0.01696875805984557   -0.0018750311700727498
-0.0039217534662526485   -0.017070891991923236   -0.001881466626047159
2.848724130205729e-05   -0.026649342567877536   -0.0021463693633421597
-0.004900509426653932   -0.02674718702723292   -0.002182937330158489
-0.004913263564541598   -0.026695867289863957   -0.0022409303306486694
-0.0039217534662526485   -0.017070891991923236   -0.001881466626047159
2.848724130205729e-05   -0.026649342567877536   -0.0021463693633421597
-0.004913263564541598   -0.026695867289863957   -0.0022409303306486694
0.00028233806537968634   -0.01696875805984557   -0.0018750311700727498
-0.0039217534662526485   -0.017070891991923236   -0.001881466626047159
-0.004900509426653932   -0.02674718702723292   -0.002182937330158489
0.0002939108035233615   -0.016971616997214226   -0.0018655909714382537
-0.0039019379116628453   -0.017086291226423318   -0.0018198368793673285
-0.004900509426653932   -0.02674718702723292   -0.002182937330158489
2.848724130205729e-05   -0.026649342567877536   -0.0021463693633421597
0.0002939108035233615   -0.016971616997214226   -0.0018655909714382537
3.642255166359018e-05   -0.02663813810228284   -0.0021340182544815726
-0.0039019379116628453   -0.017086291226423318   -0.0018198368793673285
0.00030226173084474145   -0.01693941708455125   -0.0018664113469150207
3.642255166359018e-05   -0.02663813810228284   -0.0021340182544815726
0.0002939108035233615   -0.016971616997214226   -0.0018655909714382537
-0.0039019379116628453   -0.017086291226423318   -0.0018198368793673285
3.642255166359018e-05   -0.02663813810228284   -0.0021340182544815726
-0.0048814727417844615   -0.026779210253575818   -0.0021352389554392176
-0.004900509426653932   -0.02674718702723292   -0.002182937330158489
-0.0039019379116628453   -0.017086291226423318   -0.0018198368793673285
3.642255166359018e-05   -0.02663813810228284   -0.0021340182544815726
-0.004900509426653932   -0.02674718702723292   -0.002182937330158489
0.0002939108035233615   -0.016971616997214226   -0.0018655909714382537
0.0002642468337315856   -0.016931355355718977   -0.0018941439281085731
-1.6149582936364324e-06   -0.026611904597965374   -0.002201951912730105
0.0046516552968663815   -0.01702732872176499   -0.0018374317592105502
0.00028233806537968634   -0.01696875805984557   -0.0018750311700727498
-1.6149582936364324e-06   -0.026611904597965374   -0.002201951912730105
0.0050885864224691985   -0.026656146578893796   -0.002171225408272644
0.0046516552968663815   -0.01702732872176499   -0.0018374317592105502
0.005110113340881068   -0.026644862574099634   -0.0021745089769514177
0.00028233806537968634   -0.01696875805984557   -0.0018750311700727498
0.004667443065869058   -0.01702196787866482   -0.0018819659094603508
0.005110113340881068   -0.026644862574099634   -0.0021745089769514177
0.0046516552968663815   -0.01702732872176499   -0.0018374317592105502
0.00028233806537968634   -0.01696875805984557   -0.0018750311700727498
0.005110113340881068   -0.026644862574099634   -0.0021745089769514177
1.5973562649442826e-05   -0.02664050771544484   -0.002169161409819726
-1.6149582936364324e-06   -0.026611904597965374   -0.002201951912730105
0.00028233806537968634   -0.01696875805984557   -0.0018750311700727498
0.005110113340881068   -0.026644862574099634   -0.0021745089769514177
-1.6149582936364324e-06   -0.026611904597965374   -0.002201951912730105
0.0046516552968663815   -0.01702732872176499   -0.0018374317592105502
0.00028233806537968634   -0.01696875805984557   -0.0018750311700727498
1.5973562649442826e-05   -0.02664050771544484   -0.002169161409819726
0.004667443065869058   -0.01702196787866482   -0.0018819659094603508
0.0002939108035233615   -0.016971616997214226   -0.0018655909714382537
1.5973562649442826e-05   -0.02664050771544484   -0.002169161409819726
0.005110113340881068   -0.026644862574099634   -0.0021745089769514177
0.004667443065869058   -0.01702196787866482   -0.0018819659094603508
0.005111756196863165   -0.02661532285042929   -0.0021872527873027063
0.0002939108035233615   -0.016971616997214226   -0.0018655909714382537
0.004655565448587292   -0.01698280337062409   -0.0019354618838536368
0.005111756196863165   -0.02661532285042929   -0.0021872527873027063
0.004667443065869058   -0.01702196787866482   -0.0018819659094603508
0.0002939108035233615   -0.016971616997214226   -0.0018655909714382537
0.005111756196863165   -0.02661532285042929   -0.0021872527873027063
2.848724130205729e-05   -0.026649342567877536   -0.0021463693633421597
1.5973562649442826e-05   -0.02664050771544484   -0.002169161409819726
0.0002939108035233615   -0.016971616997214226   -0.0018655909714382537
0.005111756196863165   -0.02661532285042929   -0.0021872527873027063
1.5973562649442826e-05   -0.02664050771544484   -0.002169161409819726
0.004667443065869058   -0.01702196787866482   -0.0018819659094603508
0.0002939108035233615   -0.016971616997214226   -0.0018655909714382537
2.848724130205729e-05   -0.026649342567877536   -0.0021463693633421597
0.004655565448587292   -0.01698280337062409   -0.0019354618838536368
0.00030226173084474145   -0.01693941708455125   -0.0018664113469150207
2.848724130205729e-05   -0.026649342567877536   -0.0021463693633421597
0.005111756196863165   -0.02661532285042929   -0.0021872527873027063
0.004655565448587292   -0.01698280337062409   -0.0019354618838536368
0.005100611897854115   -0.02656013377219818   -0.002209817081176795
0.00030226173084474145   -0.01693941708455125   -0.0018664113469150207
0.004637805452935539   -0.016901465608197986   -0.00199898130588531
0.005100611897854115   -0.02656013377219818   -0.002209817081176795
0.004655565448587292   -0.01698280337062409   -0.0019354618838536368
0.00030226173084474145   -0.01693941708455125   -0.0018664113469150207
0.005100611897854115   -0.02656013377219818   -0.002209817081176795
3.642255166359018e-05   -0.02663813810228284   -0.0021340182544815726
2.848724130205729e-05   -0.026649342567877536   -0.0021463693633421597
0.00030226173084474145   -0.01693941708455125   -0.0018664113469150207
0.005100611897854115   -0.02656013377219818   -0.002209817081176795
2.848724130205729e-05   -0.026649342567877536   -0.0021463693633421597
0.004655565448587292   -0.01698280337062409   -0.0019354618838536368
0.0046516552968663815   -0.01702732872176499   -0.0018374317592105502
0.0050885864224691985   -0.026656146578893796   -0.002171225408272644
0.009648227602520867   -0.017201412315370264   -0.0018385711361796084
0.004667443065869058   -0.01702196787866482   -0.0018819659094603508
0.0050885864224691985   -0.026656146578893796   -0.002171225408272644
0.010709423157476989   -0.02673745509684427   -0.002200190819979583
0.009648227602520867   -0.017201412315370264   -0.0018385711361796084
0.010699557957879581   -0.026699157164338846   -0.002242399818408962
0.004667443065869058   -0.01702196787866482   -0.0018819659094603508
0.009564245093538145   -0.0171714134601237   -0.0019549462889740586
0.010699557957879581   -0.026699157164338846   -0.002242399818408962
0.009648227602520867   -0.017201412315370264   -0.0018385711361796084
0.004667443065869058   -0.01702196787866482   -0.0018819659094603508
0.010699557957879581   -0.026699157164338846   -0.002242399818408962
0.005110113340881068   -0.026644862574099634   -0.0021745089769514177
0.0050885864224691985   -0.026656146578893796   -0.002171225408272644
0.004667443065869058   -0.01702196787866482   -0.0018819659094603508
0.010699557957879581   -0.026699157164338846   -0.002242399818408962
0.0050885864224691985   -0.026656146578893796   -0.002171225408272644
0.009648227602520867   -0.017201412315370264   -0.0018385711361796084
0.004667443065869058   -0.01702196787866482   -0.0018819659094603508
0.005110113340881068   -0.026644862574099634   -0.0021745089769514177
0.009564245093538145   -0.0171714134601237   -0.0019549462889740586
0.004655565448587292   -0.01698280337062409   -0.0019354618838536368
0.005110113340881068   -0.026644862574099634   -0.0021745089769514177
0.010699557957879581   -0.026699157164338846   -0.002242399818408962
0.009564245093538145   -0.0171714134601237   -0.0019549462889740586
0.010672779693490628   -0.02665096567250852   -0.002299957342820538
0.004655565448587292   -0.01698280337062409   -0.0019354618838536368
0.009480420009332618   -0.017111113165554595   -0.002087481834128937
0.010672779693490628   -0.02665096567250852   -0.002299957342820538
0.009564245093538145   -0.0171714134601237   -0.0019549462889740586
0.004655565448587292   -0.01698280337062409   -0.0019354618838536368
0.010672779693490628   -0.02665096567250852   -0.002299957342820538
0.005111756196863165   -0.02661532285042929   -0.0021872527873027063
0.005110113340881068   -0.026644862574099634   -0.0021745089769514177
0.004655565448587292   -0.01698280337062409   -0.0019354618838536368
0.010672779693490628   -0.02665096567250852   -0.002299957342820538
0.005110113340881068   -0.026644862574099634   -0.0021745089769514177
0.009564245093538145   -0.0171714134601237   -0.0019549462889740586
0.004655565448587292   -0.01698280337062409   -0.0019354618838536368
0.005111756196863165   -0.02661532285042929   -0.0021872527873027063
0.009480420009332618   -0.017111113165554595   -0.002087481834128937
0.004637805452935539   -0.016901465608197986   -0.00199898130588531
0.005111756196863165   -0.02661532285042929   -0.0021872527873027063
0.010672779693490628   -0.02665096567250852   -0.002299957342820538
0.009480420009332618   -0.017111113165554595   -0.002087481834128937
0.010599697963104764   -0.02655910580517112   -0.0023727521009927026
0.004637805452935539   -0.016901465608197986   -0.00199898130588531
0.009331529584661838   -0.016984622126328824   -0.0022361949532307504
0.010599697963104764   -0.02655910580517112   -0.0023727521009927026
0.009480420009332618   -0.017111113165554595   -0.002087481834128937
0.004637805452935539   -0.016901465608197986   -0.00199898130588531
0.010599697963104764   -0.02655910580517112   -0.0023727521009927026
0.005100611897854115   -0.02656013377219818   -0.002209817081176795
0.005111756196863165   -0.02661532285042929   -0.0021872527873027063
0.004637805452935539   -0.016901465608197986   -0.00199898130588531
0.010599697963104764   -0.02655910580517112   -0.0023727521009927026
0.005111756196863165   -0.02661532285042929   -0.0021872527873027063
0.009480420009332618   -0.017111113165554595   -0.002087481834128937
-0.015376627351138908   -0.026846792319956708   -0.0027585381786661145
-0.016890272889173812   -0.03725800321886606   -0.0028091109318662895
-0.009980932043348809   -0.026700524120803187   -0.0024929526368374405
-0.01553094269309157   -0.026999768139394368   -0.002609132867905034
-0.016890272889173812   -0.03725800321886606   -0.0028091109318662895
-0.011098513786323138   -0.037198402467050015   -0.00259757916012252
-0.009980932043348809   -0.026700524120803187   -0.0024929526368374405
-0.011094099819809999   -0.03729484448131219   -0.0025342990200540407
-0.01553094269309157   -0.026999768139394368   -0.002609132867905034
-0.00999295885496031   -0.026813599548991558   -0.002389775830550612
-0.011094099819809999   -0.03729484448131219   -0.0025342990200540407
-0.009980932043348809   -0.026700524120803187   -0.0024929526368374405
-0.01553094269309157   -0.026999768139394368   -0.002609132867905034
-0.011094099819809999   -0.03729484448131219   -0.0025342990200540407
-0.016962348784551554   -0.037387647823330414   -0.0027320762695819596
-0.016890272889173812   -0.03725800321886606   -0.0028091109318662895
-0.01553094269309157   -0.026999768139394368   -0.002609132867905034
-0.011094099819809999   -0.03729484448131219   -0.0025342990200540407
-0.016890272889173812   -0.03725800321886606   -0.0028091109318662895
-0.009980932043348809   -0.026700524120803187   -0.0024929526368374405
-0.01553094269309157   -0.026999768139394368   -0.002609132867905034
-0.016962348784551554   -0.037387647823330414   -0.0027320762695819596
-0.00999295885496031   -0.026813599548991558   -0.002389775830550612
-0.015619497498267508   -0.027108003933723146   -0.0024740634930960565
-0.016962348784551554   -0.037387647823330414   -0.0027320762695819596
-0.011094099819809999   -0.03729484448131219   -0.0025342990200540407
-0.00999295885496031   -0.026813599548991558   -0.002389775830550612
-0.011079223090610019   -0.03738381845840675   -0.0024815264712976454
-0.015619497498267508   -0.027108003933723146   -0.0024740634930960565
-0.01000154592658359   -0.026903246457792147   -0.002296880359467797
-0.011079223090610019   -0.03738381845840675   -0.0024815264712976454
-0.00999295885496031   -0.026813599548991558   -0.002389775830550612
-0.015619497498267508   -0.027108003933723146   -0.0024740634930960565
-0.011079223090610019   -0.03738381845840675   -0.0024815264712976454
-0.01698530118396011   -0.03749339659335317   -0.0026701653020302306
-0.016962348784551554   -0.037387647823330414   -0.0027320762695819596
-0.015619497498267508   -0.027108003933723146   -0.0024740634930960565
-0.011079223090610019   -0.03738381845840675   -0.0024815264712976454
-0.016962348784551554   -0.037387647823330414   -0.0027320762695819596
-0.00999295885496031   -0.026813599548991558   -0.002389775830550612
-0.015619497498267508   -0.027108003933723146   -0.0024740634930960565
-0.01698530118396011   -0.03749339659335317   -0.0026701653020302306
-0.01000154592658359   -0.026903246457792147   -0.002296880359467797
-0.015710714801791384   -0.02720502944124354   -0.0023550340350623014
-0.01698530118396011   -0.03749339659335317   -0.0026701653020302306
-0.011079223090610019   -0.03738381845840675   -0.0024815264712976454
-0.01000154592658359   -0.026903246457792147   -0.002296880359467797
-0.01104256317165448   -0.03747210710550334   -0.0024385246951713394
-0.015710714801791384   -0.02720502944124354   -0.0023550340350623014
-0.009980874218706835   -0.02697689942825388   -0.002212899602332281
-0.01104256317165448   -0.03747210710550334   -0.0024385246951713394
-0.01000154592658359   -0.026903246457792147   -0.002296880359467797
-0.015710714801791384   -0.02720502944124354   -0.0023550340350623014
-0.01104256317165448   -0.03747210710550334   -0.0024385246951713394
-0.016992982520482997   -0.03760825687011592   -0.002624677598715212
-0.01698530118396011   -0.03749339659335317   -0.0026701653020302306
-0.015710714801791384   -0.02720502944124354   -0.0023550340350623014
-0.01104256317165448   -0.03747210710550334   -0.0024385246951713394
-0.01698530118396011   -0.03749339659335317   -0.0026701653020302306
-0.01000154592658359   -0.026903246457792147   -0.002296880359467797
-0.009980932043348809   -0.026700524120803187   -0.0024929526368374405
-0.011098513786323138   -0.037198402467050015   -0.00259757916012252
-0.00492259451434734   -0.026624914644439213   -0.0023090501693544025
-0.00999295885496031   -0.026813599548991558   -0.002389775830550612
-0.011098513786323138   -0.037198402467050015   -0.00259757916012252
-0.00571837541797496   -0.03716418910826139   -0.0024535707147664587
-0.00492259451434734   -0.026624914644439213   -0.0023090501693544025
-0.005698277544826832   -0.03722255963987446   -0.002398395707362615
-0.00999295885496031   -0.026813599548991558   -0.002389775830550612
-0.004913263564541598   -0.026695867289863957   -0.0022409303306486694
-0.005698277544826832   -0.03722255963987446   -0.002398395707362615
-0.00492259451434734   -0.026624914644439213   -0.0023090501693544025
-0.00999295885496031   -0.026813599548991558   -0.002389775830550612
-0.005698277544826832   -0.03722255963987446   -0.002398395707362615
-0.011094099819809999   -0.03729484448131219   -0.0025342990200540407
-0.011098513786323138   -0.037198402467050015   -0.00259757916012252
-0.00999295885496031   -0.026813599548991558   -0.002389775830550612
-0.005698277544826832   -0.03722255963987446   -0.002398395707362615
-0.011098513786323138   -0.037198402467050015   -0.00259757916012252
-0.00492259451434734   -0.026624914644439213   -0.0023090501693544025
-0.00999295885496031   -0.026813599548991558   -0.002389775830550612
-0.011094099819809999   -0.03729484448131219   -0.0025342990200540407
-0.004913263564541598   -0.026695867289863957   -0.0022409303306486694
-0.01000154592658359   -0.026903246457792147   -0.002296880359467797
-0.011094099819809999   -0.03729484448131219   -0.0025342990200540407
-0.005698277544826832   -0.03722255963987446   -0.002398395707362615
-0.004913263564541598   -0.026695867289863957   -0.0022409303306486694
-0.005673632610157439   -0.037276133813956426   -0.00235373673082463
-0.01000154592658359   -0.026903246457792147   -0.002296880359467797
-0.004900509426653932   -0.02674718702723292   -0.002182937330158489
-0.005673632610157439   -0.037276133813956426   -0.00235373673082463
-0.004913263564541598   -0.026695867289863957   -0.0022409303306486694
-0.01000154592658359   -0.026903246457792147   -0.002296880359467797
-0.005673632610157439   -0.037276133813956426   -0.00235373673082463
-0.011079223090610019   -0.03738381845840675   -0.0024815264712976454
-0.011094099819809999   -0.03729484448131219   -0.0025342990200540407
-0.01000154592658359   -0.026903246457792147   -0.002296880359467797
-0.005673632610157439   -0.037276133813956426   -0.00235373673082463
-0.011094099819809999   -0.03729484448131219   -0.0025342990200540407
-0.004913263564541598   -0.026695867289863957   -0.0022409303306486694
-0.01000154592658359   -0.026903246457792147   -0.002296880359467797
-0.011079223090610019   -0.03738381845840675   -0.0024815264712976454
-0.004900509426653932   -0.02674718702723292   -0.002182937330158489
-0.009980874218706835   -0.02697689942825388   -0.002212899602332281
-0.011079223090610019   -0.03738381845840675   -0.0024815264712976454
-0.005673632610157439   -0.037276133813956426   -0.00235373673082463
-0.004900509426653932   -0.02674718702723292   -0.002182937330158489
-0.005644020419112253   -0.03732508787600935   -0.002319846790783153
-0.009980874218706835   -0.02697689942825388   -0.002212899602332281
-0.0048814727417844615   -0.026779210253575818   -0.0021352389554392176
-0.005644020419112253   -0.03732508787600935   -0.002319846790783153
-0.004900509426653932   -0.02674718702723292   -0.002182937330158489
-0.009980874218706835   -0.02697689942825388   -0.002212899602332281
-0.005644020419112253   -0.03732508787600935   -0.002319846790783153
-0.01104256317165448   -0.03747210710550334   -0.0024385246951713394
-0.011079223090610019   -0.03738381845840675   -0.0024815264712976454
-0.009980874218706835   -0.02697689942825388   -0.002212899602332281
-0.005644020419112253   -0.03732508787600935   -0.002319846790783153
-0.011079223090610019   -0.03738381845840675   -0.0024815264712976454
-0.004900509426653932   -0.02674718702723292   -0.002182937330158489
-0.00492259451434734   -0.026624914644439213   -0.0023090501693544025
-0.00571837541797496   -0.03716418910826139   -0.0024535707147664587
-1.6149582936364324e-06   -0.026611904597965374   -0.002201951912730105
-0.004913263564541598   -0.026695867289863957   -0.0022409303306486694
-0.00571837541797496   -0.03716418910826139   -0.0024535707147664587
-0.0004838213699606664   -0.037144583671935405   -0.002379093761116308
-1.6149582936364324e-06   -0.026611904597965374   -0.002201951912730105
-0.000455739233901477   -0.03716417848524279   -0.0023325757209020953
-0.004913263564541598   -0.026695867289863957   -0.0022409303306486694
1.5973562649442826e-05   -0.02664050771544484   -0.002169161409819726
-0.000455739233901477   -0.03716417848524279   -0.0023325757209020953
-1.6149582936364324e-06   -0.026611904597965374   -0.002201951912730105
-0.004913263564541598   -0.026695867289863957   -0.0022409303306486694
-0.000455739233901477   -0.03716417848524279   -0.0023325757209020953
-0.005698277544826832   -0.03722255963987446   -0.002398395707362615
-0.00571837541797496   -0.03716418910826139   -0.0024535707147664587
-0.004913263564541598   -0.026695867289863957   -0.0022409303306486694
-0.000455739233901477   -0.03716417848524279   -0.0023325757209020953
-0.00571837541797496   -0.03716418910826139   -0.0024535707147664587
-1.6149582936364324e-06   -0.026611904597965374   -0.002201951912730105
-0.004913263564541598   -0.026695867289863957   -0.0022409303306486694
-0.005698277544826832   -0.03722255963987446   -0.002398395707362615
1.5973562649442826e-05   -0.02664050771544484   -0.002169161409819726
-0.004900509426653932   -0.02674718702723292   -0.002182937330158489
-0.005698277544826832   -0.03722255963987446   -0.002398395707362615
-0.000455739233901477   -0.03716417848524279   -0.0023325757209020953
1.5973562649442826e-05   -0.02664050771544484   -0.002169161409819726
-0.00043141998496133764   -0.03717863721189835   -0.0022964831700695502
-0.004900509426653932   -0.02674718702723292   -0.002182937330158489
2.848724130205729e-05   -0.026649342567877536   -0.0021463693633421597
-0.00043141998496133764   -0.03717863721189835   -0.0022964831700695502
1.5973562649442826e-05   -0.02664050771544484   -0.002169161409819726
-0.004900509426653932   -0.02674718702723292   -0.002182937330158489
-0.00043141998496133764   -0.03717863721189835   -0.0022964831700695502
-0.005673632610157439   -0.037276133813956426   -0.00235373673082463
-0.005698277544826832   -0.03722255963987446   -0.002398395707362615
-0.004900509426653932   -0.02674718702723292   -0.002182937330158489
-0.00043141998496133764   -0.03717863721189835   -0.0022964831700695502
-0.005698277544826832   -0.03722255963987446   -0.002398395707362615
1.5973562649442826e-05   -0.02664050771544484   -0.002169161409819726
-0.004900509426653932   -0.02674718702723292   -0.002182937330158489
-0.005673632610157439   -0.037276133813956426   -0.00235373673082463
2.848724130205729e-05   -0.026649342567877536   -0.0021463693633421597
-0.0048814727417844615   -0.026779210253575818   -0.0021352389554392176
-0.005673632610157439   -0.037276133813956426   -0.00235373673082463
-0.00043141998496133764   -0.03717863721189835   -0.0022964831700695502
2.848724130205729e-05   -0.026649342567877536   -0.0021463693633421597
-0.0004128781159204429   -0.0371878855537603   -0.002271196099653485
-0.0048814727417844615   -0.026779210253575818   -0.0021352389554392176
3.642255166359018e-05   -0.02663813810228284   -0.0021340182544815726
-0.0004128781159204429   -0.0371878855537603   -0.002271196099653485
2.848724130205729e-05   -0.026649342567877536   -0.0021463693633421597
-0.0048814727417844615   -0.026779210253575818   -0.0021352389554392176
-0.0004128781159204429   -0.0371878855537603   -0.002271196099653485
-0.005644020419112253   -0.03732508787600935   -0.002319846790783153
-0.005673632610157439   -0.037276133813956426   -0.00235373673082463
-0.0048814727417844615   -0.026779210253575818   -0.0021352389554392176
-0.0004128781159204429   -0.0371878855537603   -0.002271196099653485
-0.005673632610157439   -0.037276133813956426   -0.00235373673082463
2.848724130205729e-05   -0.026649342567877536   -0.0021463693633421597
-1.6149582936364324e-06   -0.026611904597965374   -0.002201951912730105
-0.0004838213699606664   -0.037144583671935405   -0.002379093761116308
0.0050885864224691985   -0.026656146578893796   -0.002171225408272644
1.5973562649442826e-05   -0.02664050771544484   -0.002169161409819726
-0.0004838213699606664   -0.037144583671935405   -0.002379093761116308
0.004910493678645527   -0.03713620847447751   -0.002374803915081919
0.0050885864224691985   -0.026656146578893796   -0.002171225408272644
0.004947698318040669   -0.03711824327295695   -0.002337376871641557
1.5973562649442826e-05   -0.02664050771544484   -0.002169161409819726
0.005110113340881068   -0.026644862574099634   -0.0021745089769514177
0.004947698318040669   -0.03711824327295695   -0.002337376871641557
0.0050885864224691985   -0.026656146578893796   -0.002171225408272644
1.5973562649442826e-05   -0.02664050771544484   -0.002169161409819726
0.004947698318040669   -0.03711824327295695   -0.002337376871641557
-0.000455739233901477   -0.03716417848524279   -0.0023325757209020953
-0.0004838213699606664   -0.037144583671935405   -0.002379093761116308
1.5973562649442826e-05   -0.02664050771544484   -0.002169161409819726
0.004947698318040669   -0.03711824327295695   -0.002337376871641557
-0.0004838213699606664   -0.037144583671935405   -0.002379093761116308
0.0050885864224691985   -0.026656146578893796   -0.002171225408272644
1.5973562649442826e-05   -0.02664050771544484   -0.002169161409819726
-0.000455739233901477   -0.03716417848524279   -0.0023325757209020953
0.005110113340881068   -0.026644862574099634   -0.0021745089769514177
2.848724130205729e-05   -0.026649342567877536   -0.0021463693633421597
-0.000455739233901477   -0.03716417848524279   -0.0023325757209020953
0.004947698318040669   -0.03711824327295695   -0.002337376871641557
0.005110113340881068   -0.026644862574099634   -0.0021745089769514177
0.004972616219033088   -0.037097306670475824   -0.002310076388479244
2.848724130205729e-05   -0.026649342567877536   -0.0021463693633421597
0.005111756196863165   -0.02661532285042929   -0.0021872527873027063
0.004972616219033088   -0.037097306670475824   -0.002310076388479244
0.005110113340881068   -0.026644862574099634   -0.0021745089769514177
2.848724130205729e-05   -0.026649342567877536   -0.0021463693633421597
0.004972616219033088   -0.037097306670475824   -0.002310076388479244
-0.00043141998496133764   -0.03717863721189835   -0.0022964831700695502
-0.000455739233901477   -0.03716417848524279   -0.0023325757209020953
2.848724130205729e-05   -0.026649342567877536   -0.0021463693633421597
0.004972616219033088   -0.037097306670475824   -0.002310076388479244
-0.000455739233901477   -0.03716417848524279   -0.0023325757209020953
0.005110113340881068   -0.026644862574099634   -0.0021745089769514177
2.848724130205729e-05   -0.026649342567877536   -0.0021463693633421597
-0.00043141998496133764   -0.03717863721189835   -0.0022964831700695502
0.005111756196863165   -0.02661532285042929   -0.0021872527873027063
3.642255166359018e-05   -0.02663813810228284   -0.0021340182544815726
-0.00043141998496133764   -0.03717863721189835   -0.0022964831700695502
0.004972616219033088   -0.037097306670475824   -0.002310076388479244
0.005111756196863165   -0.02661532285042929   -0.0021872527873027063
0.004977722842461192   -0.03706653147283207   -0.0022926948864468405
3.642255166359018e-05   -0.02663813810228284   -0.0021340182544815726
0.005100611897854115   -0.02656013377219818   -0.002209817081176795
0.004977722842461192   -0.03706653147283207   -0.0022926948864468405
0.005111756196863165   -0.02661532285042929   -0.0021872527873027063
3.642255166359018e-05   -0.02663813810228284   -0.0021340182544815726
0.004977722842461192   -0.03706653147283207   -0.0022926948864468405
-0.0004128781159204429   -0.0371878855537603   -0.002271196099653485
-0.00043141998496133764   -0.03717863721189835   -0.0022964831700695502
3.642255166359018e-05   -0.02663813810228284   -0.0021340182544815726
0.004977722842461192   -0.03706653147283207   -0.0022926948864468405
-0.00043141998496133764   -0.03717863721189835   -0.0022964831700695502
0.005111756196863165   -0.02661532285042929   -0.0021872527873027063
0.0050885864224691985   -0.026656146578893796   -0.002171225408272644
0.004910493678645527   -0.03713620847447751   -0.002374803915081919
0.010709423157476989   -0.02673745509684427   -0.002200190819979583
0.005110113340881068   -0.026644862574099634   -0.0021745089769514177
0.004910493678645527   -0.03713620847447751   -0.002374803915081919
0.01075629919850494   -0.03712460032724447   -0.0024336678228444254
0.010709423157476989   -0.02673745509684427   -0.002200190819979583
0.01082914528986917   -0.0370769489707521   -0.0024029862181064315
0.005110113340881068   -0.026644862574099634   -0.0021745089769514177
0.010699557957879581   -0.026699157164338846   -0.002242399818408962
0.01082914528986917   -0.0370769489707521   -0.0024029862181064315
0.010709423157476989   -0.02673745509684427   -0.002200190819979583
0.005110113340881068   -0.026644862574099634   -0.0021745089769514177
0.01082914528986917   -0.0370769489707521   -0.0024029862181064315
0.004947698318040669   -0.03711824327295695   -0.002337376871641557
0.004910493678645527   -0.03713620847447751   -0.002374803915081919
0.005110113340881068   -0.026644862574099634   -0.0021745089769514177
0.01082914528986917   -0.0370769489707521   -0.0024029862181064315
0.004910493678645527   -0.03713620847447751   -0.002374803915081919
0.010709423157476989   -0.02673745509684427   -0.002200190819979583
0.005110113340881068   -0.026644862574099634   -0.0021745089769514177
0.004947698318040669   -0.03711824327295695   -0.002337376871641557
0.010699557957879581   -0.026699157164338846   -0.002242399818408962
0.005111756196863165   -0.02661532285042929   -0.0021872527873027063
0.004947698318040669   -0.03711824327295695   -0.002337376871641557
0.01082914528986917   -0.0370769489707521   -0.0024029862181064315
0.010699557957879581   -0.026699157164338846   -0.002242399818408962
0.010867675295551216   -0.03703931630898426   -0.002387691600491307
0.005111756196863165   -0.02661532285042929   -0.0021872527873027063
0.010672779693490628   -0.02665096567250852   -0.002299957342820538
0.010867675295551216   -0.03703931630898426   -0.002387691600491307
0.010699557957879581   -0.026699157164338846   -0.002242399818408962
0.005111756196863165   -0.02661532285042929   -0.0021872527873027063
0.010867675295551216   -0.03703931630898426   -0.002387691600491307
0.004972616219033088   -0.037097306670475824   -0.002310076388479244
0.004947698318040669   -0.03711824327295695   -0.002337376871641557
0.005111756196863165   -0.02661532285042929   -0.0021872527873027063
0.010867675295551216   -0.03703931630898426   -0.002387691600491307
0.004947698318040669   -0.03711824327295695   -0.002337376871641557
0.010699557957879581   -0.026699157164338846   -0.002242399818408962
0.005111756196863165   -0.02661532285042929   -0.0021872527873027063
0.004972616219033088   -0.037097306670475824   -0.002310076388479244
0.010672779693490628   -0.02665096567250852   -0.002299957342820538
0.005100611897854115   -0.02656013377219818   -0.002209817081176795
0.004972616219033088   -0.037097306670475824   -0.002310076388479244
0.010867675295551216   -0.03703931630898426   -0.002387691600491307
0.010672779693490628   -0.02665096567250852   -0.002299957342820538
0.010876997462054307   -0.03697892984971943   -0.0023880461711990176
0.005100611897854115   -0.02656013377219818   -0.002209817081176795
0.010599697963104764   -0.02655910580517112   -0.0023727521009927026
0.010876997462054307   -0.03697892984971943   -0.0023880461711990176
0.010672779693490628   -0.02665096567250852   -0.002299957342820538
0.005100611897854115   -0.02656013377219818   -0.002209817081176795
0.010876997462054307   -0.03697892984971943   -0.0023880461711990176
0.004977722842461192   -0.03706653147283207   -0.0022926948864468405
0.004972616219033088   -0.037097306670475824   -0.002310076388479244
0.005100611897854115   -0.02656013377219818   -0.002209817081176795
0.010876997462054307   -0.03697892984971943   -0.0023880461711990176
0.004972616219033088   -0.037097306670475824   -0.002310076388479244
0.010672779693490628   -0.02665096567250852   -0.002299957342820538
-0.016890272889173812   -0.03725800321886606   -0.0028091109318662895
-0.017417752111942714   -0.04785648682443883   -0.0027617224059039796
-0.011098513786323138   -0.037198402467050015   -0.00259757916012252
-0.016962348784551554   -0.037387647823330414   -0.0027320762695819596
-0.017417752111942714   -0.04785648682443883   -0.0027617224059039796
-0.011632933485496896   -0.04788419310033752   -0.0026053294238834067
-0.011098513786323138   -0.037198402467050015   -0.00259757916012252
-0.01160174261562638   -0.04796367050452236   -0.0025813335691072374
-0.016962348784551554   -0.037387647823330414   -0.0027320762695819596
-0.011094099819809999   -0.03729484448131219   -0.0025342990200540407
-0.01160174261562638   -0.04796367050452236   -0.0025813335691072374
-0.011098513786323138   -0.037198402467050015   -0.00259757916012252
-0.016962348784551554   -0.037387647823330414   -0.0027320762695819596
-0.01160174261562638   -0.04796367050452236   -0.0025813335691072374
-0.017397705498573984   -0.0479628255860732   -0.002756745211451005
-0.017417752111942714   -0.04785648682443883   -0.0027617224059039796
-0.016962348784551554   -0.037387647823330414   -0.0027320762695819596
-0.01160174261562638   -0.04796367050452236   -0.0025813335691072374
-0.017417752111942714   -0.04785648682443883   -0.0027617224059039796
-0.011098513786323138   -0.037198402467050015   -0.00259757916012252
-0.016962348784551554   -0.037387647823330414   -0.0027320762695819596
-0.017397705498573984   -0.0479628255860732   -0.002756745211451005
-0.011094099819809999   -0.03729484448131219   -0.0025342990200540407
-0.01698530118396011   -0.03749339659335317   -0.0026701653020302306
-0.017397705498573984   -0.0479628255860732   -0.002756745211451005
-0.01160174261562638   -0.04796367050452236   -0.0025813335691072374
-0.011094099819809999   -0.03729484448131219   -0.0025342990200540407
-0.011553090153844038   -0.048051735335538553   -0.0025681670421409423
-0.01698530118396011   -0.03749339659335317   -0.0026701653020302306
-0.011079223090610019   -0.03738381845840675   -0.0024815264712976454
-0.011553090153844038   -0.048051735335538553   -0.0025681670421409423
-0.011094099819809999   -0.03729484448131219   -0.0025342990200540407
-0.01698530118396011   -0.03749339659335317   -0.0026701653020302306
-0.011553090153844038   -0.048051735335538553   -0.0025681670421409423
-0.017344472391576056   -0.048066084569108554   -0.00276795104553845
-0.017397705498573984   -0.0479628255860732   -0.002756745211451005
-0.01698530118396011   -0.03749339659335317   -0.0026701653020302306
-0.011553090153844038   -0.048051735335538553   -0.0025681670421409423
-0.017397705498573984   -0.0479628255860732   -0.002756745211451005
-0.011094099819809999   -0.03729484448131219   -0.0025342990200540407
-0.01698530118396011   -0.03749339659335317   -0.0026701653020302306
-0.017344472391576056   -0.048066084569108554   -0.00276795104553845
-0.011079223090610019   -0.03738381845840675   -0.0024815264712976454
-0.016992982520482997   -0.03760825687011592   -0.002624677598715212
-0.017344472391576056   -0.048066084569108554   -0.00276795104553845
-0.011553090153844038   -0.048051735335538553   -0.0025681670421409423
-0.011079223090610019   -0.03738381845840675   -0.0024815264712976454
-0.011490082271613782   -0.04815445182509336   -0.002565653713821252
-0.016992982520482997   -0.03760825687011592   -0.002624677598715212
-0.01104256317165448   -0.03747210710550334   -0.0024385246951713394
-0.011490082271613782   -0.04815445182509336   -0.002565653713821252
-0.011079223090610019   -0.03738381845840675   -0.0024815264712976454
-0.016992982520482997   -0.03760825687011592   -0.002624677598715212
-0.011490082271613782   -0.04815445182509336   -0.002565653713821252
-0.01725808910304877   -0.04819910513048635   -0.002796158699414571
-0.017344472391576056   -0.048066084569108554   -0.00276795104553845
-0.016992982520482997   -0.03760825687011592   -0.002624677598715212
-0.011490082271613782   -0.04815445182509336   -0.002565653713821252
-0.017344472391576056   -0.048066084569108554   -0.00276795104553845
-0.011079223090610019   -0.03738381845840675   -0.0024815264712976454
-0.011098513786323138   -0.037198402467050015   -0.00259757916012252
-0.011632933485496896   -0.04788419310033752   -0.0026053294238834067
-0.00571837541797496   -0.03716418910826139   -0.0024535707147664587
-0.011094099819809999   -0.03729484448131219   -0.0025342990200540407
-0.011632933485496896   -0.04788419310033752   -0.0026053294238834067
-0.006334020018346146   -0.047890198109675416   -0.0025013819554442537
-0.00571837541797496   -0.03716418910826139   -0.0024535707147664587
-0.006292284255658023   -0.04793578392201577   -0.0024587727383040187
-0.011094099819809999   -0.03729484448131219   -0.0025342990200540407
-0.005698277544826832   -0.03722255963987446   -0.002398395707362615
-0.006292284255658023   -0.04793578392201577   -0.0024587727383040187
-0.00571837541797496   -0.03716418910826139   -0.0024535707147664587
-0.011094099819809999   -0.03729484448131219   -0.0025342990200540407
-0.006292284255658023   -0.04793578392201577   -0.0024587727383040187
-0.01160174261562638   -0.04796367050452236   -0.0025813335691072374
-0.011632933485496896   -0.04788419310033752   -0.0026053294238834067
-0.011094099819809999   -0.03729484448131219   -0.0025342990200540407
-0.006292284255658023   -0.04793578392201577   -0.0024587727383040187
-0.011632933485496896   -0.04788419310033752   -0.0026053294238834067
-0.00571837541797496   -0.03716418910826139   -0.0024535707147664587
-0.011094099819809999   -0.03729484448131219   -0.0025342990200540407
-0.01160174261562638   -0.04796367050452236   -0.0025813335691072374
-0.005698277544826832   -0.03722255963987446   -0.002398395707362615
-0.011079223090610019   -0.03738381845840675   -0.0024815264712976454
-0.01160174261562638   -0.04796367050452236   -0.0025813335691072374
-0.006292284255658023   -0.04793578392201577   -0.0024587727383040187
-0.005698277544826832   -0.03722255963987446   -0.002398395707362615
-0.006245135173788004   -0.047991219352965374   -0.0024270336077875927
-0.011079223090610019   -0.03738381845840675   -0.0024815264712976454
-0.005673632610157439   -0.037276133813956426   -0.00235373673082463
-0.006245135173788004   -0.047991219352965374   -0.0024270336077875927
-0.005698277544826832   -0.03722255963987446   -0.002398395707362615
-0.011079223090610019   -0.03738381845840675   -0.0024815264712976454
-0.006245135173788004   -0.047991219352965374   -0.0024270336077875927
-0.011553090153844038   -0.048051735335538553   -0.0025681670421409423
-0.01160174261562638   -0.04796367050452236   -0.0025813335691072374
-0.011079223090610019   -0.03738381845840675   -0.0024815264712976454
-0.006245135173788004   -0.047991219352965374   -0.0024270336077875927
-0.01160174261562638   -0.04796367050452236   -0.0025813335691072374
-0.005698277544826832   -0.03722255963987446   -0.002398395707362615
-0.011079223090610019   -0.03738381845840675   -0.0024815264712976454
-0.011553090153844038   -0.048051735335538553   -0.0025681670421409423
-0.005673632610157439   -0.037276133813956426   -0.00235373673082463
-0.01104256317165448   -0.03747210710550334   -0.0024385246951713394
-0.011553090153844038   -0.048051735335538553   -0.0025681670421409423
-0.006245135173788004   -0.047991219352965374   -0.0024270336077875927
-0.005673632610157439   -0.037276133813956426   -0.00235373673082463
-0.006194327207932177   -0.04805667724317252   -0.0024065173783711746
-0.01104256317165448   -0.03747210710550334   -0.0024385246951713394
-0.005644020419112253   -0.03732508787600935   -0.002319846790783153
-0.006194327207932177   -0.04805667724317252   -0.0024065173783711746
-0.005673632610157439   -0.037276133813956426   -0.00235373673082463
-0.01104256317165448   -0.03747210710550334   -0.0024385246951713394
-0.006194327207932177   -0.04805667724317252   -0.0024065173783711746
-0.011490082271613782   -0.04815445182509336   -0.002565653713821252
-0.011553090153844038   -0.048051735335538553   -0.0025681670421409423
-0.01104256317165448   -0.03747210710550334   -0.0024385246951713394
-0.006194327207932177   -0.04805667724317252   -0.0024065173783711746
-0.011553090153844038   -0.048051735335538553   -0.0025681670421409423
-0.005673632610157439   -0.037276133813956426   -0.00235373673082463
-0.00571837541797496   -0.03716418910826139   -0.0024535707147664587
-0.006334020018346146   -0.047890198109675416   -0.0025013819554442537
-0.0004838213699606664   -0.037144583671935405   -0.002379093761116308
-0.005698277544826832   -0.03722255963987446   -0.002398395707362615
-0.006334020018346146   -0.047890198109675416   -0.0025013819554442537
-0.0011850119344180103   -0.0478620967802616   -0.0024589023019000685
-0.0004838213699606664   -0.037144583671935405   -0.002379093761116308
-0.0011356642973157608   -0.04787265365546974   -0.0023986062581101563
-0.005698277544826832   -0.03722255963987446   -0.002398395707362615
-0.000455739233901477   -0.03716417848524279   -0.0023325757209020953
-0.0011356642973157608   -0.04787265365546974   -0.0023986062581101563
-0.0004838213699606664   -0.037144583671935405   -0.002379093761116308
-0.005698277544826832   -0.03722255963987446   -0.002398395707362615
-0.0011356642973157608   -0.04787265365546974   -0.0023986062581101563
-0.006292284255658023   -0.04793578392201577   -0.0024587727383040187
-0.006334020018346146   -0.047890198109675416   -0.0025013819554442537
-0.005698277544826832   -0.03722255963987446   -0.002398395707362615
-0.0011356642973157608   -0.04787265365546974   -0.0023986062581101563
-0.006334020018346146   -0.047890198109675416   -0.0025013819554442537
-0.0004838213699606664   -0.037144583671935405   -0.002379093761116308
-0.005698277544826832   -0.03722255963987446   -0.002398395707362615
-0.006292284255658023   -0.04793578392201577   -0.0024587727383040187
-0.000455739233901477   -0.03716417848524279   -0.0023325757209020953
-0.005673632610157439   -0.037276133813956426   -0.00235373673082463
-0.006292284255658023   -0.04793578392201577   -0.0024587727383040187
-0.0011356642973157608   -0.04787265365546974   -0.0023986062581101563
-0.000455739233901477   -0.03716417848524279   -0.0023325757209020953
-0.0010889793661919818   -0.047892289971523276   -0.0023491037185894865
-0.005673632610157439   -0.037276133813956426   -0.00235373673082463
-0.00043141998496133764   -0.03717863721189835   -0.0022964831700695502
-0.0010889793661919818   -0.047892289971523276   -0.0023491037185894865
-0.000455739233901477   -0.03716417848524279   -0.0023325757209020953
-0.005673632610157439   -0.037276133813956426   -0.00235373673082463
-0.0010889793661919818   -0.047892289971523276   -0.0023491037185894865
-0.006245135173788004   -0.047991219352965374   -0.0024270336077875927
-0.006292284255658023   -0.04793578392201577   -0.0024587727383040187
-0.005673632610157439   -0.037276133813956426   -0.00235373673082463
-0.0010889793661919818   -0.047892289971523276   -0.0023491037185894865
-0.006292284255658023   -0.04793578392201577   -0.0024587727383040187
-0.000455739233901477   -0.03716417848524279   -0.0023325757209020953
-0.005673632610157439   -0.037276133813956426   -0.00235373673082463
-0.006245135173788004   -0.047991219352965374   -0.0024270336077875927
-0.00043141998496133764   -0.03717863721189835   -0.0022964831700695502
-0.005644020419112253   -0.03732508787600935   -0.002319846790783153
-0.006245135173788004   -0.047991219352965374   -0.0024270336077875927
-0.0010889793661919818   -0.047892289971523276   -0.0023491037185894865
-0.00043141998496133764   -0.03717863721189835   -0.0022964831700695502
-0.001049343410609377   -0.04792145336772496   -0.0023107714917163
-0.005644020419112253   -0.03732508787600935   -0.002319846790783153
-0.0004128781159204429   -0.0371878855537603   -0.002271196099653485
-0.001049343410609377   -0.04792145336772496   -0.0023107714917163
-0.00043141998496133764   -0.03717863721189835   -0.0022964831700695502
-0.005644020419112253   -0.03732508787600935   -0.002319846790783153
-0.001049343410609377   -0.04792145336772496   -0.0023107714917163
-0.006194327207932177   -0.04805667724317252   -0.0024065173783711746
-0.006245135173788004   -0.047991219352965374   -0.0024270336077875927
-0.005644020419112253   -0.03732508787600935   -0.002319846790783153
-0.001049343410609377   -0.04792145336772496   -0.0023107714917163
-0.006245135173788004   -0.047991219352965374   -0.0024270336077875927
-0.00043141998496133764   -0.03717863721189835   -0.0022964831700695502
-0.0004838213699606664   -0.037144583671935405   -0.002379093761116308
-0.0011850119344180103   -0.0478620967802616   -0.0024589023019000685
0.004910493678645527   -0.03713620847447751   -0.002374803915081919
-0.000455739233901477   -0.03716417848524279   -0.0023325757209020953
-0.0011850119344180103   -0.0478620967802616   -0.0024589023019000685
0.004118981635602526   -0.04779963637786872   -0.0024799219082539707
0.004910493678645527   -0.03713620847447751   -0.002374803915081919
0.004181915580433955   -0.04777504649799816   -0.002402251461511212
-0.000455739233901477   -0.03716417848524279   -0.0023325757209020953
0.004947698318040669   -0.03711824327295695   -0.002337376871641557
0.004181915580433955   -0.04777504649799816   -0.002402251461511212
0.004910493678645527   -0.03713620847447751   -0.002374803915081919
-0.000455739233901477   -0.03716417848524279   -0.0023325757209020953
0.004181915580433955   -0.04777504649799816   -0.002402251461511212
-0.0011356642973157608   -0.04787265365546974   -0.0023986062581101563
-0.0011850119344180103   -0.0478620967802616   -0.0024589023019000685
-0.000455739233901477   -0.03716417848524279   -0.0023325757209020953
0.004181915580433955   -0.04777504649799816   -0.002402251461511212
-0.0011850119344180103   -0.0478620967802616   -0.0024589023019000685
0.004910493678645527   -0.03713620847447751   -0.002374803915081919
-0.000455739233901477   -0.03716417848524279   -0.0023325757209020953
-0.0011356642973157608   -0.04787265365546974   -0.0023986062581101563
0.004947698318040669   -0.03711824327295695   -0.002337376871641557
-0.00043141998496133764   -0.03717863721189835   -0.0022964831700695502
-0.0011356642973157608   -0.04787265365546974   -0.0023986062581101563
0.004181915580433955   -0.04777504649799816   -0.002402251461511212
0.004947698318040669   -0.03711824327295695   -0.002337376871641557
0.004240080341039048   -0.047762258801667734   -0.002335342017633313
-0.00043141998496133764   -0.03717863721189835   -0.0022964831700695502
0.004972616219033088   -0.037097306670475824   -0.002310076388479244
0.004240080341039048   -0.047762258801667734   -0.002335342017633313
0.004947698318040669   -0.03711824327295695   -0.002337376871641557
-0.00043141998496133764   -0.03717863721189835   -0.0022964831700695502
0.004240080341039048   -0.047762258801667734   -0.002335342017633313
-0.0010889793661919818   -0.047892289971523276   -0.0023491037185894865
-0.0011356642973157608   -0.04787265365546974   -0.0023986062581101563
-0.00043141998496133764   -0.03717863721189835   -0.0022964831700695502
0.004240080341039048   -0.047762258801667734   -0.002335342017633313
-0.0011356642973157608   -0.04787265365546974   -0.0023986062581101563
0.004947698318040669   -0.03711824327295695   -0.002337376871641557
-0.00043141998496133764   -0.03717863721189835   -0.0022964831700695502
-0.0010889793661919818   -0.047892289971523276   -0.0023491037185894865
0.004972616219033088   -0.037097306670475824   -0.002310076388479244
-0.0004128781159204429   -0.0371878855537603   -0.002271196099653485
-0.0010889793661919818   -0.047892289971523276   -0.0023491037185894865
0.004240080341039048   -0.047762258801667734   -0.002335342017633313
0.004972616219033088   -0.037097306670475824   -0.002310076388479244
0.0042713063098991045   -0.04775508392188102   -0.0022784910438020116
-0.0004128781159204429   -0.0371878855537603   -0.002271196099653485
0.004977722842461192   -0.03706653147283207   -0.0022926948864468405
0.0042713063098991045   -0.04775508392188102   -0.0022784910438020116
0.004972616219033088   -0.037097306670475824   -0.002310076388479244
-0.0004128781159204429   -0.0371878855537603   -0.002271196099653485
0.0042713063098991045   -0.04775508392188102   -0.0022784910438020116
-0.001049343410609377   -0.04792145336772496   -0.0023107714917163
-0.0010889793661919818   -0.047892289971523276   -0.0023491037185894865
-0.0004128781159204429   -0.0371878855537603   -0.002271196099653485
0.0042713063098991045   -0.04775508392188102   -0.0022784910438020116
-0.0010889793661919818   -0.047892289971523276   -0.0023491037185894865
0.004972616219033088   -0.037097306670475824   -0.002310076388479244
0.004910493678645527   -0.03713620847447751   -0.002374803915081919
0.004118981635602526   -0.04779963637786872   -0.0024799219082539707
0.01075629919850494   -0.03712460032724447   -0.0024336678228444254
0.004947698318040669   -0.03711824327295695   -0.002337376871641557
0.004118981635602526   -0.04779963637786872   -0.0024799219082539707
0.009797756949033235   -0.047694679424933745   -0.002567768875420256
0.01075629919850494   -0.03712460032724447   -0.0024336678228444254
0.0099619658385362   -0.04763822646512256   -0.002465811097108915
0.004947698318040669   -0.03711824327295695   -0.002337376871641557
0.01082914528986917   -0.0370769489707521   -0.0024029862181064315
0.0099619658385362   -0.04763822646512256   -0.002465811097108915
0.01075629919850494   -0.03712460032724447   -0.0024336678228444254
0.004947698318040669   -0.03711824327295695   -0.002337376871641557
0.0099619658385362   -0.04763822646512256   -0.002465811097108915
0.004181915580433955   -0.04777504649799816   -0.002402251461511212
0.004118981635602526   -0.04779963637786872   -0.0024799219082539707
0.004947698318040669   -0.03711824327295695   -0.002337376871641557
0.0099619658385362   -0.04763822646512256   -0.002465811097108915
0.004118981635602526   -0.04779963637786872   -0.0024799219082539707
0.01075629919850494   -0.03712460032724447   -0.0024336678228444254
0.004947698318040669   -0.03711824327295695   -0.002337376871641557
0.004181915580433955   -0.04777504649799816   -0.002402251461511212
0.01082914528986917   -0.0370769489707521   -0.0024029862181064315
0.004972616219033088   -0.037097306670475824   -0.002310076388479244
0.004181915580433955   -0.04777504649799816   -0.002402251461511212
0.0099619658385362   -0.04763822646512256   -0.002465811097108915
0.01082914528986917   -0.0370769489707521   -0.0024029862181064315
0.010074806701173377   -0.04761084951538205   -0.0023791788110868726
0.004972616219033088   -0.037097306670475824   -0.002310076388479244
0.010867675295551216   -0.03703931630898426   -0.002387691600491307
0.010074806701173377   -0.04761084951538205   -0.0023791788110868726
0.01082914528986917   -0.0370769489707521   -0.0024029862181064315
0.004972616219033088   -0.037097306670475824   -0.002310076388479244
0.010074806701173377   -0.04761084951538205   -0.0023791788110868726
0.004240080341039048   -0.047762258801667734   -0.002335342017633313
0.004181915580433955   -0.04777504649799816   -0.002402251461511212
0.004972616219033088   -0.037097306670475824   -0.002310076388479244
0.010074806701173377   -0.04761084951538205   -0.0023791788110868726
0.004181915580433955   -0.04777504649799816   -0.002402251461511212
0.01082914528986917   -0.0370769489707521   -0.0024029862181064315
0.004972616219033088   -0.037097306670475824   -0.002310076388479244
0.004240080341039048   -0.047762258801667734   -0.002335342017633313
0.010867675295551216   -0.03703931630898426   -0.002387691600491307
0.004977722842461192   -0.03706653147283207   -0.0022926948864468405
0.004240080341039048   -0.047762258801667734   -0.002335342017633313
0.010074806701173377   -0.04761084951538205   -0.0023791788110868726
0.010867675295551216   -0.03703931630898426   -0.002387691600491307
0.010175011703880731   -0.04758106606303716   -0.002308508327362482
0.004977722842461192   -0.03706653147283207   -0.0022926948864468405
0.010876997462054307   -0.03697892984971943   -0.0023880461711990176
0.010175011703880731   -0.04758106606303716   -0.002308508327362482
0.010867675295551216   -0.03703931630898426   -0.002387691600491307
0.004977722842461192   -0.03706653147283207   -0.0022926948864468405
0.010175011703880731   -0.04758106606303716   -0.002308508327362482
0.0042713063098991045   -0.04775508392188102   -0.0022784910438020116
0.004240080341039048   -0.047762258801667734   -0.002335342017633313
0.004977722842461192   -0.03706653147283207   -0.0022926948864468405
0.010175011703880731   -0.04758106606303716   -0.002308508327362482
0.004240080341039048   -0.047762258801667734   -0.002335342017633313
0.010867675295551216   -0.03703931630898426   -0.002387691600491307
-0.017417752111942714   -0.04785648682443883   -0.0027617224059039796
-0.016951009855087736   -0.05797674375081207   -0.0026405218070964438
-0.011632933485496896   -0.04788419310033752   -0.0026053294238834067
-0.017397705498573984   -0.0479628255860732   -0.002756745211451005
-0.016951009855087736   -0.05797674375081207   -0.0026405218070964438
-0.011585071347066992   -0.05809332130922488   -0.002546335909625441
-0.011632933485496896   -0.04788419310033752   -0.0026053294238834067
-0.011517168013329415   -0.05815265164324122   -0.0025605794687363352
-0.017397705498573984   -0.0479628255860732   -0.002756745211451005
-0.01160174261562638   -0.04796367050452236   -0.0025813335691072374
-0.011517168013329415   -0.05815265164324122   -0.0025605794687363352
-0.011632933485496896   -0.04788419310033752   -0.0026053294238834067
-0.017397705498573984   -0.0479628255860732   -0.002756745211451005
-0.011517168013329415   -0.05815265164324122   -0.0025605794687363352
-0.016828431779802363   -0.05805685219274251   -0.0027077496120757757
-0.016951009855087736   -0.05797674375081207   -0.0026405218070964438
-0.017397705498573984   -0.0479628255860732   -0.002756745211451005
-0.011517168013329415   -0.05815265164324122   -0.0025605794687363352
-0.016951009855087736   -0.05797674375081207   -0.0026405218070964438
-0.011632933485496896   -0.04788419310033752   -0.0026053294238834067
-0.017397705498573984   -0.0479628255860732   -0.002756745211451005
-0.016828431779802363   -0.05805685219274251   -0.0027077496120757757
-0.01160174261562638   -0.04796367050452236   -0.0025813335691072374
-0.017344472391576056   -0.048066084569108554   -0.00276795104553845
-0.016828431779802363   -0.05805685219274251   -0.0027077496120757757
-0.011517168013329415   -0.05815265164324122   -0.0025605794687363352
-0.01160174261562638   -0.04796367050452236   -0.0025813335691072374
-0.011425239077282542   -0.05823712534112548   -0.0025859259525070396
-0.017344472391576056   -0.048066084569108554   -0.00276795104553845
-0.011553090153844038   -0.048051735335538553   -0.0025681670421409423
-0.011425239077282542   -0.05823712534112548   -0.0025859259525070396
-0.01160174261562638   -0.04796367050452236   -0.0025813335691072374
-0.017344472391576056   -0.048066084569108554   -0.00276795104553845
-0.011425239077282542   -0.05823712534112548   -0.0025859259525070396
-0.016688528321503093   -0.05815517689861464   -0.0027924391290651434
-0.016828431779802363   -0.05805685219274251   -0.0027077496120757757
-0.017344472391576056   -0.048066084569108554   -0.00276795104553845
-0.011425239077282542   -0.05823712534112548   -0.0025859259525070396
-0.016828431779802363   -0.05805685219274251   -0.0027077496120757757
-0.01160174261562638   -0.04796367050452236   -0.0025813335691072374
-0.017344472391576056   -0.048066084569108554   -0.00276795104553845
-0.016688528321503093   -0.05815517689861464   -0.0027924391290651434
-0.011553090153844038   -0.048051735335538553   -0.0025681670421409423
-0.01725808910304877   -0.04819910513048635   -0.002796158699414571
-0.016688528321503093   -0.05815517689861464   -0.0027924391290651434
-0.011425239077282542   -0.05823712534112548   -0.0025859259525070396
-0.011553090153844038   -0.048051735335538553   -0.0025681670421409423
-0.011326602706097949   -0.058351895698042874   -0.0026227024280047633
-0.01725808910304877   -0.04819910513048635   -0.002796158699414571
-0.011490082271613782   -0.04815445182509336   -0.002565653713821252
-0.011326602706097949   -0.058351895698042874   -0.0026227024280047633
-0.011553090153844038   -0.048051735335538553   -0.0025681670421409423
-0.01725808910304877   -0.04819910513048635   -0.002796158699414571
-0.011326602706097949   -0.058351895698042874   -0.0026227024280047633
-0.016498032554710124   -0.05830484969388484   -0.0028949132040644245
-0.016688528321503093   -0.05815517689861464   -0.0027924391290651434
-0.01725808910304877   -0.04819910513048635   -0.002796158699414571
-0.011326602706097949   -0.058351895698042874   -0.0026227024280047633
-0.016688528321503093   -0.05815517689861464   -0.0027924391290651434
-0.011553090153844038   -0.048051735335538553   -0.0025681670421409423
-0.011632933485496896   -0.04788419310033752   -0.0026053294238834067
-0.011585071347066992   -0.05809332130922488   -0.002546335909625441
-0.006334020018346146   -0.047890198109675416   -0.0025013819554442537
-0.01160174261562638   -0.04796367050452236   -0.0025813335691072374
-0.011585071347066992   -0.05809332130922488   -0.002546335909625441
-0.006775034666812528   -0.05813943925281945   -0.0024860552243873334
-0.006334020018346146   -0.047890198109675416   -0.0025013819554442537
-0.006701093296982133   -0.05817028380124258   -0.002455029466422246
-0.01160174261562638   -0.04796367050452236   -0.0025813335691072374
-0.006292284255658023   -0.04793578392201577   -0.0024587727383040187
-0.006701093296982133   -0.05817028380124258   -0.002455029466422246
-0.006334020018346146   -0.047890198109675416   -0.0025013819554442537
-0.01160174261562638   -0.04796367050452236   -0.0025813335691072374
-0.006701093296982133   -0.05817028380124258   -0.002455029466422246
-0.011517168013329415   -0.05815265164324122   -0.0025605794687363352
-0.011585071347066992   -0.05809332130922488   -0.002546335909625441
-0.01160174261562638   -0.04796367050452236   -0.0025813335691072374
-0.006701093296982133   -0.05817028380124258   -0.002455029466422246
-0.011585071347066992   -0.05809332130922488   -0.002546335909625441
-0.006334020018346146   -0.047890198109675416   -0.0025013819554442537
-0.01160174261562638   -0.04796367050452236   -0.0025813335691072374
-0.011517168013329415   -0.05815265164324122   -0.0025605794687363352
-0.006292284255658023   -0.04793578392201577   -0.0024587727383040187
-0.011553090153844038   -0.048051735335538553   -0.0025681670421409423
-0.011517168013329415   -0.05815265164324122   -0.0025605794687363352
-0.006701093296982133   -0.05817028380124258   -0.002455029466422246
-0.006292284255658023   -0.04793578392201577   -0.0024587727383040187
-0.006621555022076747   -0.05822530305323778   -0.002434971284146107
-0.011553090153844038   -0.048051735335538553   -0.0025681670421409423
-0.006245135173788004   -0.047991219352965374   -0.0024270336077875927
-0.006621555022076747   -0.05822530305323778   -0.002434971284146107
-0.006292284255658023   -0.04793578392201577   -0.0024587727383040187
-0.011553090153844038   -0.048051735335538553   -0.0025681670421409423
-0.006621555022076747   -0.05822530305323778   -0.002434971284146107
-0.011425239077282542   -0.05823712534112548   -0.0025859259525070396
-0.011517168013329415   -0.05815265164324122   -0.0025605794687363352
-0.011553090153844038   -0.048051735335538553   -0.0025681670421409423
-0.006621555022076747   -0.05822530305323778   -0.002434971284146107
-0.011517168013329415   -0.05815265164324122   -0.0025605794687363352
-0.006292284255658023   -0.04793578392201577   -0.0024587727383040187
-0.011553090153844038   -0.048051735335538553   -0.0025681670421409423
-0.011425239077282542   -0.05823712534112548   -0.0025859259525070396
-0.006245135173788004   -0.047991219352965374   -0.0024270336077875927
-0.011490082271613782   -0.04815445182509336   -0.002565653713821252
-0.011425239077282542   -0.05823712534112548   -0.0025859259525070396
-0.006621555022076747   -0.05822530305323778   -0.002434971284146107
-0.006245135173788004   -0.047991219352965374   -0.0024270336077875927
-0.006539799180602609   -0.05830519260690217   -0.0024264173515929173
-0.011490082271613782   -0.04815445182509336   -0.002565653713821252
-0.006194327207932177   -0.04805667724317252   -0.0024065173783711746
-0.006539799180602609   -0.05830519260690217   -0.0024264173515929173
-0.006245135173788004   -0.047991219352965374   -0.0024270336077875927
-0.011490082271613782   -0.04815445182509336   -0.002565653713821252
-0.006539799180602609   -0.05830519260690217   -0.0024264173515929173
-0.011326602706097949   -0.058351895698042874   -0.0026227024280047633
-0.011425239077282542   -0.05823712534112548   -0.0025859259525070396
-0.011490082271613782   -0.04815445182509336   -0.002565653713821252
-0.006539799180602609   -0.05830519260690217   -0.0024264173515929173
-0.011425239077282542   -0.05823712534112548   -0.0025859259525070396
-0.006245135173788004   -0.047991219352965374   -0.0024270336077875927
-0.006334020018346146   -0.047890198109675416   -0.0025013819554442537
-0.006775034666812528   -0.05813943925281945   -0.0024860552243873334
-0.0011850119344180103   -0.0478620967802616   -0.0024589023019000685
-0.006292284255658023   -0.04793578392201577   -0.0024587727383040187
-0.006775034666812528   -0.05813943925281945   -0.0024860552243873334
-0.0021106625387356816   -0.05810401507118373   -0.0024760944701566166
-0.0011850119344180103   -0.0478620967802616   -0.0024589023019000685
-0.0020288800064337787   -0.058104722022174204   -0.0024013521802250777
-0.006292284255658023   -0.04793578392201577   -0.0024587727383040187
-0.0011356642973157608   -0.04787265365546974   -0.0023986062581101563
-0.0020288800064337787   -0.058104722022174204   -0.0024013521802250777
-0.0011850119344180103   -0.0478620967802616   -0.0024589023019000685
-0.006292284255658023   -0.04793578392201577   -0.0024587727383040187
-0.0020288800064337787   -0.058104722022174204   -0.0024013521802250777
-0.006701093296982133   -0.05817028380124258   -0.002455029466422246
-0.006775034666812528   -0.05813943925281945   -0.0024860552243873334
-0.006292284255658023   -0.04793578392201577   -0.0024587727383040187
-0.0020288800064337787   -0.058104722022174204   -0.0024013521802250777
-0.006775034666812528   -0.05813943925281945   -0.0024860552243873334
-0.0011850119344180103   -0.0478620967802616   -0.0024589023019000685
-0.006292284255658023   -0.04793578392201577   -0.0024587727383040187
-0.006701093296982133   -0.05817028380124258   -0.002455029466422246
-0.0011356642973157608   -0.04787265365546974   -0.0023986062581101563
-0.006245135173788004   -0.047991219352965374   -0.0024270336077875927
-0.006701093296982133   -0.05817028380124258   -0.002455029466422246
-0.0020288800064337787   -0.058104722022174204   -0.0024013521802250777
-0.0011356642973157608   -0.04787265365546974   -0.0023986062581101563
-0.001949239639637481   -0.05812783343894027   -0.002337604802323253
-0.006245135173788004   -0.047991219352965374   -0.0024270336077875927
-0.0010889793661919818   -0.047892289971523276   -0.0023491037185894865
-0.001949239639637481   -0.05812783343894027   -0.002337604802323253
-0.0011356642973157608   -0.04787265365546974   -0.0023986062581101563
-0.006245135173788004   -0.047991219352965374   -0.0024270336077875927
-0.001949239639637481   -0.05812783343894027   -0.002337604802323253
-0.006621555022076747   -0.05822530305323778   -0.002434971284146107
-0.006701093296982133   -0.05817028380124258   -0.002455029466422246
-0.006245135173788004   -0.047991219352965374   -0.0024270336077875927
-0.001949239639637481   -0.05812783343894027   -0.002337604802323253
-0.006701093296982133   -0.05817028380124258   -0.002455029466422246
-0.0011356642973157608   -0.04787265365546974   -0.0023986062581101563
-0.006245135173788004   -0.047991219352965374   -0.0024270336077875927
-0.006621555022076747   -0.05822530305323778   -0.002434971284146107
-0.0010889793661919818   -0.047892289971523276   -0.0023491037185894865
-0.006194327207932177   -0.04805667724317252   -0.0024065173783711746
-0.006621555022076747   -0.05822530305323778   -0.002434971284146107
-0.001949239639637481   -0.05812783343894027   -0.002337604802323253
-0.0010889793661919818   -0.047892289971523276   -0.0023491037185894865
-0.0018781785995610324   -0.05817526369327668   -0.0022852344748255033
-0.006194327207932177   -0.04805667724317252   -0.0024065173783711746
-0.001049343410609377   -0.04792145336772496   -0.0023107714917163
-0.0018781785995610324   -0.05817526369327668   -0.0022852344748255033
-0.0010889793661919818   -0.047892289971523276   -0.0023491037185894865
-0.006194327207932177   -0.04805667724317252   -0.0024065173783711746
-0.0018781785995610324   -0.05817526369327668   -0.0022852344748255033
-0.006539799180602609   -0.05830519260690217   -0.0024264173515929173
-0.006621555022076747   -0.05822530305323778   -0.002434971284146107
-0.006194327207932177   -0.04805667724317252   -0.0024065173783711746
-0.0018781785995610324   -0.05817526369327668   -0.0022852344748255033
-0.006621555022076747   -0.05822530305323778   -0.002434971284146107
-0.0010889793661919818   -0.047892289971523276   -0.0023491037185894865
-0.0011850119344180103   -0.0478620967802616   -0.0024589023019000685
-0.0021106625387356816   -0.05810401507118373   -0.0024760944701566166
0.004118981635602526   -0.04779963637786872   -0.0024799219082539707
-0.0011356642973157608   -0.04787265365546974   -0.0023986062581101563
-0.0021106625387356816   -0.05810401507118373   -0.0024760944701566166
0.0027144765434841214   -0.05798944932851911   -0.002520403412819352
0.004118981635602526   -0.04779963637786872   -0.0024799219082539707
0.0028144695871145276   -0.05795798739580955   -0.002402355761082407
-0.0011356642973157608   -0.04787265365546974   -0.0023986062581101563
0.004181915580433955   -0.04777504649799816   -0.002402251461511212
0.0028144695871145276   -0.05795798739580955   -0.002402355761082407
0.004118981635602526   -0.04779963637786872   -0.0024799219082539707
-0.0011356642973157608   -0.04787265365546974   -0.0023986062581101563
0.0028144695871145276   -0.05795798739580955   -0.002402355761082407
-0.0020288800064337787   -0.058104722022174204   -0.0024013521802250777
-0.0021106625387356816   -0.05810401507118373   -0.0024760944701566166
-0.0011356642973157608   -0.04787265365546974   -0.0023986062581101563
0.0028144695871145276   -0.05795798739580955   -0.002402355761082407
-0.0021106625387356816   -0.05810401507118373   -0.0024760944701566166
0.004118981635602526   -0.04779963637786872   -0.0024799219082539707
-0.0011356642973157608   -0.04787265365546974   -0.0023986062581101563
-0.0020288800064337787   -0.058104722022174204   -0.0024013521802250777
0.004181915580433955   -0.04777504649799816   -0.002402251461511212
-0.0010889793661919818   -0.047892289971523276   -0.0023491037185894865
-0.0020288800064337787   -0.058104722022174204   -0.0024013521802250777
0.0028144695871145276   -0.05795798739580955   -0.002402355761082407
0.004181915580433955   -0.04777504649799816   -0.002402251461511212
0.0029170027309014   -0.057952122018685034   -0.00229600708004514
-0.0010889793661919818   -0.047892289971523276   -0.0023491037185894865
0.004240080341039048   -0.047762258801667734   -0.002335342017633313
0.0029170027309014   -0.057952122018685034   -0.00229600708004514
0.004181915580433955   -0.04777504649799816   -0.002402251461511212
-0.0010889793661919818   -0.047892289971523276   -0.0023491037185894865
0.0029170027309014   -0.057952122018685034   -0.00229600708004514
-0.001949239639637481   -0.05812783343894027   -0.002337604802323253
-0.0020288800064337787   -0.058104722022174204   -0.0024013521802250777
-0.0010889793661919818   -0.047892289971523276   -0.0023491037185894865
0.0029170027309014   -0.057952122018685034   -0.00229600708004514
-0.0020288800064337787   -0.058104722022174204   -0.0024013521802250777
0.004181915580433955   -0.04777504649799816   -0.002402251461511212
-0.0010889793661919818   -0.047892289971523276   -0.0023491037185894865
-0.001949239639637481   -0.05812783343894027   -0.002337604802323253
0.004240080341039048   -0.047762258801667734   -0.002335342017633313
-0.001049343410609377   -0.04792145336772496   -0.0023107714917163
-0.001949239639637481   -0.05812783343894027   -0.002337604802323253
0.0029170027309014   -0.057952122018685034   -0.00229600708004514
0.004240080341039048   -0.047762258801667734   -0.002335342017633313
0.00298519387723454   -0.05796713063414031   -0.0021998145694738834
-0.001049343410609377   -0.04792145336772496   -0.0023107714917163
0.0042713063098991045   -0.04775508392188102   -0.0022784910438020116
0.00298519387723454   -0.05796713063414031   -0.0021998145694738834
0.004240080341039048   -0.047762258801667734   -0.002335342017633313
-0.001049343410609377   -0.04792145336772496   -0.0023107714917163
0.00298519387723454   -0.05796713063414031   -0.0021998145694738834
-0.0018781785995610324   -0.05817526369327668   -0.0022852344748255033
-0.001949239639637481   -0.05812783343894027   -0.002337604802323253
-0.001049343410609377   -0.04792145336772496   -0.0023107714917163
0.00298519387723454   -0.05796713063414031   -0.0021998145694738834
-0.001949239639637481   -0.05812783343894027   -0.002337604802323253
0.004240080341039048   -0.047762258801667734   -0.002335342017633313
0.004118981635602526   -0.04779963637786872   -0.0024799219082539707
0.0027144765434841214   -0.05798944932851911   -0.002520403412819352
0.009797756949033235   -0.047694679424933745   -0.002567768875420256
0.004181915580433955   -0.04777504649799816   -0.002402251461511212
0.0027144765434841214   -0.05798944932851911   -0.002520403412819352
0.007847517411255688   -0.05779248434950857   -0.0026347549104670733
0.009797756949033235   -0.047694679424933745   -0.002567768875420256
0.008113553482662883   -0.05772762508923897   -0.0024629830812746708
0.004181915580433955   -0.04777504649799816   -0.002402251461511212
0.0099619658385362   -0.04763822646512256   -0.002465811097108915
0.008113553482662883   -0.05772762508923897   -0.0024629830812746708
0.009797756949033235   -0.047694679424933745   -0.002567768875420256
0.004181915580433955   -0.04777504649799816   -0.002402251461511212
0.008113553482662883   -0.05772762508923897   -0.0024629830812746708
0.0028144695871145276   -0.05795798739580955   -0.002402355761082407
0.0027144765434841214   -0.05798944932851911   -0.002520403412819352
0.004181915580433955   -0.04777504649799816   -0.002402251461511212
0.008113553482662883   -0.05772762508923897   -0.0024629830812746708
0.0027144765434841214   -0.05798944932851911   -0.002520403412819352
0.009797756949033235   -0.047694679424933745   -0.002567768875420256
0.004181915580433955   -0.04777504649799816   -0.002402251461511212
0.0028144695871145276   -0.05795798739580955   -0.002402355761082407
0.0099619658385362   -0.04763822646512256   -0.002465811097108915
0.004240080341039048   -0.047762258801667734   -0.002335342017633313
0.0028144695871145276   -0.05795798739580955   -0.002402355761082407
0.008113553482662883   -0.05772762508923897   -0.0024629830812746708
0.0099619658385362   -0.04763822646512256   -0.002465811097108915
0.008310555500617081   -0.05770979333531819   -0.002306769590621838
0.004240080341039048   -0.047762258801667734   -0.002335342017633313
0.010074806701173377   -0.04761084951538205   -0.0023791788110868726
0.008310555500617081   -0.05770979333531819   -0.002306769590621838
0.0099619658385362   -0.04763822646512256   -0.002465811097108915
0.004240080341039048   -0.047762258801667734   -0.002335342017633313
0.008310555500617081   -0.05770979333531819   -0.002306769590621838
0.0029170027309014   -0.057952122018685034   -0.00229600708004514
0.0028144695871145276   -0.05795798739580955   -0.002402355761082407
0.004240080341039048   -0.047762258801667734   -0.002335342017633313
0.008310555500617081   -0.05770979333531819   -0.002306769590621838
0.0028144695871145276   -0.05795798739580955   -0.002402355761082407
0.0099619658385362   -0.04763822646512256   -0.002465811097108915
0.004240080341039048   -0.047762258801667734   -0.002335342017633313
0.0029170027309014   -0.057952122018685034   -0.00229600708004514
0.010074806701173377   -0.04761084951538205   -0.0023791788110868726
0.0042713063098991045   -0.04775508392188102   -0.0022784910438020116
0.0029170027309014   -0.057952122018685034   -0.00229600708004514
0.008310555500617081   -0.05770979333531819   -0.002306769590621838
0.010074806701173377   -0.04761084951538205   -0.0023791788110868726
0.008510285936510424   -0.057709623831352225   -0.0021668236031967833
0.0042713063098991045   -0.04775508392188102   -0.0022784910438020116
0.010175011703880731   -0.04758106606303716   -0.002308508327362482
0.008510285936510424   -0.057709623831352225   -0.0021668236031967833
0.010074806701173377   -0.04761084951538205   -0.0023791788110868726
0.0042713063098991045   -0.04775508392188102   -0.0022784910438020116
0.008510285936510424   -0.057709623831352225   -0.0021668236031967833
0.00298519387723454   -0.05796713063414031   -0.0021998145694738834
0.0029170027309014   -0.057952122018685034   -0.00229600708004514
0.0042713063098991045   -0.04775508392188102   -0.0022784910438020116
0.008510285936510424   -0.057709623831352225   -0.0021668236031967833
0.0029170027309014   -0.057952122018685034   -0.00229600708004514
0.010074806701173377   -0.04761084951538205   -0.0023791788110868726
-0.016951009855087736   -0.05797674375081207   -0.0026405218070964438
-0.015469902352528504   -0.06693147499342085   -0.0024624235504819795
-0.011585071347066992   -0.05809332130922488   -0.002546335909625441
-0.016828431779802363   -0.05805685219274251   -0.0027077496120757757
-0.015469902352528504   -0.06693147499342085   -0.0024624235504819795
-0.010953793671510193   -0.06714179125401919   -0.002447241904951804
-0.011585071347066992   -0.05809332130922488   -0.002546335909625441
-0.010841110780523269   -0.06717221147629127   -0.002496973566819202
-0.016828431779802363   -0.05805685219274251   -0.0027077496120757757
-0.011517168013329415   -0.05815265164324122   -0.0025605794687363352
-0.010841110780523269   -0.06717221147629127   -0.002496973566819202
-0.011585071347066992   -0.05809332130922488   -0.002546335909625441
-0.016828431779802363   -0.05805685219274251   -0.0027077496120757757
-0.010841110780523269   -0.06717221147629127   -0.002496973566819202
-0.015235205484702443   -0.06697661942830246   -0.0026016463106838333
-0.015469902352528504   -0.06693147499342085   -0.0024624235504819795
-0.016828431779802363   -0.05805685219274251   -0.0027077496120757757
-0.010841110780523269   -0.06717221147629127   -0.002496973566819202
-0.015469902352528504   -0.06693147499342085   -0.0024624235504819795
-0.011585071347066992   -0.05809332130922488   -0.002546335909625441
-0.016828431779802363   -0.05805685219274251   -0.0027077496120757757
-0.015235205484702443   -0.06697661942830246   -0.0026016463106838333
-0.011517168013329415   -0.05815265164324122   -0.0025605794687363352
-0.016688528321503093   -0.05815517689861464   -0.0027924391290651434
-0.015235205484702443   -0.06697661942830246   -0.0026016463106838333
-0.010841110780523269   -0.06717221147629127   -0.002496973566819202
-0.011517168013329415   -0.05815265164324122   -0.0025605794687363352
-0.01069957839084479   -0.06724508987590998   -0.0025579725718509563
-0.016688528321503093   -0.05815517689861464   -0.0027924391290651434
-0.011425239077282542   -0.05823712534112548   -0.0025859259525070396
-0.01069957839084479   -0.06724508987590998   -0.0025579725718509563
-0.011517168013329415   -0.05815265164324122   -0.0025605794687363352
-0.016688528321503093   -0.05815517689861464   -0.0027924391290651434
-0.01069957839084479   -0.06724508987590998   -0.0025579725718509563
-0.015001105073877731   -0.06706214723466743   -0.002759215664284428
-0.015235205484702443   -0.06697661942830246   -0.0026016463106838333
-0.016688528321503093   -0.05815517689861464   -0.0027924391290651434
-0.01069957839084479   -0.06724508987590998   -0.0025579725718509563
-0.015235205484702443   -0.06697661942830246   -0.0026016463106838333
-0.011517168013329415   -0.05815265164324122   -0.0025605794687363352
-0.016688528321503093   -0.05815517689861464   -0.0027924391290651434
-0.015001105073877731   -0.06706214723466743   -0.002759215664284428
-0.011425239077282542   -0.05823712534112548   -0.0025859259525070396
-0.016498032554710124   -0.05830484969388484   -0.0028949132040644245
-0.015001105073877731   -0.06706214723466743   -0.002759215664284428
-0.01069957839084479   -0.06724508987590998   -0.0025579725718509563
-0.011425239077282542   -0.05823712534112548   -0.0025859259525070396
-0.010559931060124275   -0.06736456584348734   -0.002630133128916897
-0.016498032554710124   -0.05830484969388484   -0.0028949132040644245
-0.011326602706097949   -0.058351895698042874   -0.0026227024280047633
-0.010559931060124275   -0.06736456584348734   -0.002630133128916897
-0.011425239077282542   -0.05823712534112548   -0.0025859259525070396
-0.016498032554710124   -0.05830484969388484   -0.0028949132040644245
-0.010559931060124275   -0.06736456584348734   -0.002630133128916897
-0.014701237656872451   -0.06722163113952663   -0.002934793516132686
-0.015001105073877731   -0.06706214723466743   -0.002759215664284428
-0.016498032554710124   -0.05830484969388484   -0.0028949132040644245
-0.010559931060124275   -0.06736456584348734   -0.002630133128916897
-0.015001105073877731   -0.06706214723466743   -0.002759215664284428
-0.011425239077282542   -0.05823712534112548   -0.0025859259525070396
-0.011585071347066992   -0.05809332130922488   -0.002546335909625441
-0.010953793671510193   -0.06714179125401919   -0.002447241904951804
-0.006775034666812528   -0.05813943925281945   -0.0024860552243873334
-0.011517168013329415   -0.05815265164324122   -0.0025605794687363352
-0.010953793671510193   -0.06714179125401919   -0.002447241904951804
-0.007043405736104908   -0.06724030866136627   -0.0024412175534299693
-0.006775034666812528   -0.05813943925281945   -0.0024860552243873334
-0.006927794441463075   -0.06725028455596194   -0.0024189632976480964
-0.011517168013329415   -0.05815265164324122   -0.0025605794687363352
-0.006701093296982133   -0.05817028380124258   -0.002455029466422246
-0.006927794441463075   -0.06725028455596194   -0.0024189632976480964
-0.006775034666812528   -0.05813943925281945   -0.0024860552243873334
-0.011517168013329415   -0.05815265164324122   -0.0025605794687363352
-0.006927794441463075   -0.06725028455596194   -0.0024189632976480964
-0.010841110780523269   -0.06717221147629127   -0.002496973566819202
-0.010953793671510193   -0.06714179125401919   -0.002447241904951804
-0.011517168013329415   -0.05815265164324122   -0.0025605794687363352
-0.006927794441463075   -0.06725028455596194   -0.0024189632976480964
-0.010953793671510193   -0.06714179125401919   -0.002447241904951804
-0.006775034666812528   -0.05813943925281945   -0.0024860552243873334
-0.011517168013329415   -0.05815265164324122   -0.0025605794687363352
-0.010841110780523269   -0.06717221147629127   -0.002496973566819202
-0.006701093296982133   -0.05817028380124258   -0.002455029466422246
-0.011425239077282542   -0.05823712534112548   -0.0025859259525070396
-0.010841110780523269   -0.06717221147629127   -0.002496973566819202
-0.006927794441463075   -0.06725028455596194   -0.0024189632976480964
-0.006701093296982133   -0.05817028380124258   -0.002455029466422246
-0.006808469770173303   -0.06729817191832138   -0.002407642792688757
-0.011425239077282542   -0.05823712534112548   -0.0025859259525070396
-0.006621555022076747   -0.05822530305323778   -0.002434971284146107
-0.006808469770173303   -0.06729817191832138   -0.002407642792688757
-0.006701093296982133   -0.05817028380124258   -0.002455029466422246
-0.011425239077282542   -0.05823712534112548   -0.0025859259525070396
-0.006808469770173303   -0.06729817191832138   -0.002407642792688757
-0.01069957839084479   -0.06724508987590998   -0.0025579725718509563
-0.010841110780523269   -0.06717221147629127   -0.002496973566819202
-0.011425239077282542   -0.05823712534112548   -0.0025859259525070396
-0.006808469770173303   -0.06729817191832138   -0.002407642792688757
-0.010841110780523269   -0.06717221147629127   -0.002496973566819202
-0.006701093296982133   -0.05817028380124258   -0.002455029466422246
-0.011425239077282542   -0.05823712534112548   -0.0025859259525070396
-0.01069957839084479   -0.06724508987590998   -0.0025579725718509563
-0.006621555022076747   -0.05822530305323778   -0.002434971284146107
-0.011326602706097949   -0.058351895698042874   -0.0026227024280047633
-0.01069957839084479   -0.06724508987590998   -0.0025579725718509563
-0.006808469770173303   -0.06729817191832138   -0.002407642792688757
-0.006621555022076747   -0.05822530305323778   -0.002434971284146107
-0.006689340284066976   -0.0673862049112841   -0.0024071158292488085
-0.011326602706097949   -0.058351895698042874   -0.0026227024280047633
-0.006539799180602609   -0.05830519260690217   -0.0024264173515929173
-0.006689340284066976   -0.0673862049112841   -0.0024071158292488085
-0.006621555022076747   -0.05822530305323778   -0.002434971284146107
-0.011326602706097949   -0.058351895698042874   -0.0026227024280047633
-0.006689340284066976   -0.0673862049112841   -0.0024071158292488085
-0.010559931060124275   -0.06736456584348734   -0.002630133128916897
-0.01069957839084479   -0.06724508987590998   -0.0025579725718509563
-0.011326602706097949   -0.058351895698042874   -0.0026227024280047633
-0.006689340284066976   -0.0673862049112841   -0.0024071158292488085
-0.01069957839084479   -0.06724508987590998   -0.0025579725718509563
-0.006621555022076747   -0.05822530305323778   -0.002434971284146107
-0.006775034666812528   -0.05813943925281945   -0.0024860552243873334
-0.007043405736104908   -0.06724030866136627   -0.0024412175534299693
-0.0021106625387356816   -0.05810401507118373   -0.0024760944701566166
-0.006701093296982133   -0.05817028380124258   -0.002455029466422246
-0.007043405736104908   -0.06724030866136627   -0.0024412175534299693
-0.003262836433704839   -0.06722242606609664   -0.0024692683550859035
-0.0021106625387356816   -0.05810401507118373   -0.0024760944701566166
-0.003136201716489409   -0.06720944114702909   -0.00237755394807693
-0.006701093296982133   -0.05817028380124258   -0.002455029466422246
-0.0020288800064337787   -0.058104722022174204   -0.0024013521802250777
-0.003136201716489409   -0.06720944114702909   -0.00237755394807693
-0.0021106625387356816   -0.05810401507118373   -0.0024760944701566166
-0.006701093296982133   -0.05817028380124258   -0.002455029466422246
-0.003136201716489409   -0.06720944114702909   -0.00237755394807693
-0.006927794441463075   -0.06725028455596194   -0.0024189632976480964
-0.007043405736104908   -0.06724030866136627   -0.0024412175534299693
-0.006701093296982133   -0.05817028380124258   -0.002455029466422246
-0.003136201716489409   -0.06720944114702909   -0.00237755394807693
-0.007043405736104908   -0.06724030866136627   -0.0024412175534299693
-0.0021106625387356816   -0.05810401507118373   -0.0024760944701566166
-0.006701093296982133   -0.05817028380124258   -0.002455029466422246
-0.006927794441463075   -0.06725028455596194   -0.0024189632976480964
-0.0020288800064337787   -0.058104722022174204   -0.0024013521802250777
-0.006621555022076747   -0.05822530305323778   -0.002434971284146107
-0.006927794441463075   -0.06725028455596194   -0.0024189632976480964
-0.003136201716489409   -0.06720944114702909   -0.00237755394807693
-0.0020288800064337787   -0.058104722022174204   -0.0024013521802250777
-0.0030133015557615825   -0.06723073758568239   -0.002297494400361988
-0.006621555022076747   -0.05822530305323778   -0.002434971284146107
-0.001949239639637481   -0.05812783343894027   -0.002337604802323253
-0.0030133015557615825   -0.06723073758568239   -0.002297494400361988
-0.0020288800064337787   -0.058104722022174204   -0.0024013521802250777
-0.006621555022076747   -0.05822530305323778   -0.002434971284146107
-0.0030133015557615825   -0.06723073758568239   -0.002297494400361988
-0.006808469770173303   -0.06729817191832138   -0.002407642792688757
-0.006927794441463075   -0.06725028455596194   -0.0024189632976480964
-0.006621555022076747   -0.05822530305323778   -0.002434971284146107
-0.0030133015557615825   -0.06723073758568239   -0.002297494400361988
-0.006927794441463075   -0.06725028455596194   -0.0024189632976480964
-0.0020288800064337787   -0.058104722022174204   -0.0024013521802250777
-0.006621555022076747   -0.05822530305323778   -0.002434971284146107
-0.006808469770173303   -0.06729817191832138   -0.002407642792688757
-0.001949239639637481   -0.05812783343894027   -0.002337604802323253
-0.006539799180602609   -0.05830519260690217   -0.0024264173515929173
-0.006808469770173303   -0.06729817191832138   -0.002407642792688757
-0.0030133015557615825   -0.06723073758568239   -0.002297494400361988
-0.001949239639637481   -0.05812783343894027   -0.002337604802323253
-0.0029022659745135968   -0.06729128939168474   -0.002228080390497163
-0.006539799180602609   -0.05830519260690217   -0.0024264173515929173
-0.0018781785995610324   -0.05817526369327668   -0.0022852344748255033
-0.0029022659745135968   -0.06729128939168474   -0.002228080390497163
-0.001949239639637481   -0.05812783343894027   -0.002337604802323253
-0.006539799180602609   -0.05830519260690217   -0.0024264173515929173
-0.0029022659745135968   -0.06729128939168474   -0.002228080390497163
-0.006689340284066976   -0.0673862049112841   -0.0024071158292488085
-0.006808469770173303   -0.06729817191832138   -0.002407642792688757
-0.006539799180602609   -0.05830519260690217   -0.0024264173515929173
-0.0029022659745135968   -0.06729128939168474   -0.002228080390497163
-0.006808469770173303   -0.06729817191832138   -0.002407642792688757
-0.001949239639637481   -0.05812783343894027   -0.002337604802323253
-0.0021106625387356816   -0.05810401507118373   -0.0024760944701566166
-0.003262836433704839   -0.06722242606609664   -0.0024692683550859035
0.0027144765434841214   -0.05798944932851911   -0.002520403412819352
-0.0020288800064337787   -0.058104722022174204   -0.0024013521802250777
-0.003262836433704839   -0.06722242606609664   -0.0024692683550859035
0.0006949145277329003   -0.06708397946046325   -0.002537552911772643
0.0027144765434841214   -0.05798944932851911   -0.002520403412819352
0.0008489658184313096   -0.0670418345517917   -0.0023766169343014923
-0.0020288800064337787   -0.058104722022174204   -0.0024013521802250777
0.0028144695871145276   -0.05795798739580955   -0.002402355761082407
0.0008489658184313096   -0.0670418345517917   -0.0023766169343014923
0.0027144765434841214   -0.05798944932851911   -0.002520403412819352
-0.0020288800064337787   -0.058104722022174204   -0.0024013521802250777
0.0008489658184313096   -0.0670418345517917   -0.0023766169343014923
-0.003136201716489409   -0.06720944114702909   -0.00237755394807693
-0.003262836433704839   -0.06722242606609664   -0.0024692683550859035
-0.0020288800064337787   -0.058104722022174204   -0.0024013521802250777
0.0008489658184313096   -0.0670418345517917   -0.0023766169343014923
-0.003262836433704839   -0.06722242606609664   -0.0024692683550859035
0.0027144765434841214   -0.05798944932851911   -0.002520403412819352
-0.0020288800064337787   -0.058104722022174204   -0.0024013521802250777
-0.003136201716489409   -0.06720944114702909   -0.00237755394807693
0.0028144695871145276   -0.05795798739580955   -0.002402355761082407
-0.001949239639637481   -0.05812783343894027   -0.002337604802323253
-0.003136201716489409   -0.06720944114702909   -0.00237755394807693
0.0008489658184313096   -0.0670418345517917   -0.0023766169343014923
0.0028144695871145276   -0.05795798739580955   -0.002402355761082407
0.001011311054540689   -0.06703801808892405   -0.002230455017220874
-0.001949239639637481   -0.05812783343894027   -0.002337604802323253
0.0029170027309014   -0.057952122018685034   -0.00229600708004514
0.001011311054540689   -0.06703801808892405   -0.002230455017220874
0.0028144695871145276   -0.05795798739580955   -0.002402355761082407
-0.001949239639637481   -0.05812783343894027   -0.002337604802323253
0.001011311054540689   -0.06703801808892405   -0.002230455017220874
-0.0030133015557615825   -0.06723073758568239   -0.002297494400361988
-0.003136201716489409   -0.06720944114702909   -0.00237755394807693
-0.001949239639637481   -0.05812783343894027   -0.002337604802323253
0.001011311054540689   -0.06703801808892405   -0.002230455017220874
-0.003136201716489409   -0.06720944114702909   -0.00237755394807693
0.0028144695871145276   -0.05795798739580955   -0.002402355761082407
-0.001949239639637481   -0.05812783343894027   -0.002337604802323253
-0.0030133015557615825   -0.06723073758568239   -0.002297494400361988
0.0029170027309014   -0.057952122018685034   -0.00229600708004514
-0.0018781785995610324   -0.05817526369327668   -0.0022852344748255033
-0.0030133015557615825   -0.06723073758568239   -0.002297494400361988
0.001011311054540689   -0.06703801808892405   -0.002230455017220874
0.0029170027309014   -0.057952122018685034   -0.00229600708004514
0.0011300448579499563   -0.06707078615104083   -0.002094465864701614
-0.0018781785995610324   -0.05817526369327668   -0.0022852344748255033
0.00298519387723454   -0.05796713063414031   -0.0021998145694738834
0.0011300448579499563   -0.06707078615104083   -0.002094465864701614
0.0029170027309014   -0.057952122018685034   -0.00229600708004514
-0.0018781785995610324   -0.05817526369327668   -0.0022852344748255033
0.0011300448579499563   -0.06707078615104083   -0.002094465864701614
-0.0029022659745135968   -0.06729128939168474   -0.002228080390497163
-0.0030133015557615825   -0.06723073758568239   -0.002297494400361988
-0.0018781785995610324   -0.05817526369327668   -0.0022852344748255033
0.0011300448579499563   -0.06707078615104083   -0.002094465864701614
-0.0030133015557615825   -0.06723073758568239   -0.002297494400361988
0.0029170027309014   -0.057952122018685034   -0.00229600708004514
0.0027144765434841214   -0.05798944932851911   -0.002520403412819352
0.0006949145277329003   -0.06708397946046325   -0.002537552911772643
0.007847517411255688   -0.05779248434950857   -0.0026347549104670733
0.0028144695871145276   -0.05795798739580955   -0.002402355761082407
0.0006949145277329003   -0.06708397946046325   -0.002537552911772643
0.004914379215998345   -0.06681184095681166   -0.0026835563215425857
0.007847517411255688   -0.05779248434950857   -0.0026347549104670733
0.005304540239811138   -0.0667309521460184   -0.002437249365380403
0.0028144695871145276   -0.05795798739580955   -0.002402355761082407
0.008113553482662883   -0.05772762508923897   -0.0024629830812746708
0.005304540239811138   -0.0667309521460184   -0.002437249365380403
0.007847517411255688   -0.05779248434950857   -0.0026347549104670733
0.0028144695871145276   -0.05795798739580955   -0.002402355761082407
0.005304540239811138   -0.0667309521460184   -0.002437249365380403
0.0008489658184313096   -0.0670418345517917   -0.0023766169343014923
0.0006949145277329003   -0.06708397946046325   -0.002537552911772643
0.0028144695871145276   -0.05795798739580955   -0.002402355761082407
0.005304540239811138   -0.0667309521460184   -0.002437249365380403
0.0006949145277329003   -0.06708397946046325   -0.002537552911772643
0.007847517411255688   -0.05779248434950857   -0.0026347549104670733
0.0028144695871145276   -0.05795798739580955   -0.002402355761082407
0.0008489658184313096   -0.0670418345517917   -0.0023766169343014923
0.008113553482662883   -0.05772762508923897   -0.0024629830812746708
0.0029170027309014   -0.057952122018685034   -0.00229600708004514
0.0008489658184313096   -0.0670418345517917   -0.0023766169343014923
0.005304540239811138   -0.0667309521460184   -0.002437249365380403
0.008113553482662883   -0.05772762508923897   -0.0024629830812746708
0.005603684406124664   -0.066716945794014   -0.0022092635586291216
0.0029170027309014   -0.057952122018685034   -0.00229600708004514
0.008310555500617081   -0.05770979333531819   -0.002306769590621838
0.005603684406124664   -0.066716945794014   -0.0022092635586291216
0.008113553482662883   -0.05772762508923897   -0.0024629830812746708
0.0029170027309014   -0.057952122018685034   -0.00229600708004514
0.005603684406124664   -0.066716945794014   -0.0022092635586291216
0.001011311054540689   -0.06703801808892405   -0.002230455017220874
0.0008489658184313096   -0.0670418345517917   -0.0023766169343014923
0.0029170027309014   -0.057952122018685034   -0.00229600708004514
0.005603684406124664   -0.066716945794014   -0.0022092635586291216
0.0008489658184313096   -0.0670418345517917   -0.0023766169343014923
0.008113553482662883   -0.05772762508923897   -0.0024629830812746708
0.0029170027309014   -0.057952122018685034   -0.00229600708004514
0.001011311054540689   -0.06703801808892405   -0.002230455017220874
0.008310555500617081   -0.05770979333531819   -0.002306769590621838
0.00298519387723454   -0.05796713063414031   -0.0021998145694738834
0.001011311054540689   -0.06703801808892405   -0.002230455017220874
0.005603684406124664   -0.066716945794014   -0.0022092635586291216
0.008310555500617081   -0.05770979333531819   -0.002306769590621838
0.005913599420774236   -0.06674093095100332   -0.0020014617962560203
0.00298519387723454   -0.05796713063414031   -0.0021998145694738834
0.008510285936510424   -0.057709623831352225   -0.0021668236031967833
0.005913599420774236   -0.06674093095100332   -0.0020014617962560203
0.008310555500617081   -0.05770979333531819   -0.002306769590621838
0.00298519387723454   -0.05796713063414031   -0.0021998145694738834
0.005913599420774236   -0.06674093095100332   -0.0020014617962560203
0.0011300448579499563   -0.06707078615104083   -0.002094465864701614
0.001011311054540689   -0.06703801808892405   -0.002230455017220874
0.00298519387723454   -0.05796713063414031   -0.0021998145694738834
0.005913599420774236   -0.06674093095100332   -0.0020014617962560203
0.001011311054540689   -0.06703801808892405   -0.002230455017220874
0.008310555500617081   -0.05770979333531819   -0.002306769590621838
-0.015469902352528504   -0.06693147499342085   -0.0024624235504819795
-0.012956280140125027   -0.07396037974014638   -0.0022341339639993024
-0.010953793671510193   -0.06714179125401919   -0.002447241904951804
-0.015235205484702443   -0.06697661942830246   -0.0026016463106838333
-0.012956280140125027   -0.07396037974014638   -0.0022341339639993024
-0.009742351930197728   -0.07427183304641298   -0.002327555949799185
-0.010953793671510193   -0.06714179125401919   -0.002447241904951804
-0.009580039328621111   -0.07425578418268429   -0.002404092504454442
-0.015235205484702443   -0.06697661942830246   -0.0026016463106838333
-0.010841110780523269   -0.06717221147629127   -0.002496973566819202
-0.009580039328621111   -0.07425578418268429   -0.002404092504454442
-0.010953793671510193   -0.06714179125401919   -0.002447241904951804
-0.015235205484702443   -0.06697661942830246   -0.0026016463106838333
-0.009580039328621111   -0.07425578418268429   -0.002404092504454442
-0.012606401560036277   -0.07395160876675785   -0.002440496235432165
-0.012956280140125027   -0.07396037974014638   -0.0022341339639993024
-0.015235205484702443   -0.06697661942830246   -0.0026016463106838333
-0.009580039328621111   -0.07425578418268429   -0.002404092504454442
-0.012956280140125027   -0.07396037974014638   -0.0022341339639993024
-0.010953793671510193   -0.06714179125401919   -0.002447241904951804
-0.015235205484702443   -0.06697661942830246   -0.0026016463106838333
-0.012606401560036277   -0.07395160876675785   -0.002440496235432165
-0.010841110780523269   -0.06717221147629127   -0.002496973566819202
-0.015001105073877731   -0.06706214723466743   -0.002759215664284428
-0.012606401560036277   -0.07395160876675785   -0.002440496235432165
-0.009580039328621111   -0.07425578418268429   -0.002404092504454442
-0.010841110780523269   -0.06717221147629127   -0.002496973566819202
-0.009389137135386734   -0.07430060152447922   -0.0024921412237882985
-0.015001105073877731   -0.06706214723466743   -0.002759215664284428
-0.01069957839084479   -0.06724508987590998   -0.0025579725718509563
-0.009389137135386734   -0.07430060152447922   -0.0024921412237882985
-0.010841110780523269   -0.06717221147629127   -0.002496973566819202
-0.015001105073877731   -0.06706214723466743   -0.002759215664284428
-0.009389137135386734   -0.07430060152447922   -0.0024921412237882985
-0.012283884641306154   -0.07400698475006977   -0.0026630715245737143
-0.012606401560036277   -0.07395160876675785   -0.002440496235432165
-0.015001105073877731   -0.06706214723466743   -0.002759215664284428
-0.009389137135386734   -0.07430060152447922   -0.0024921412237882985
-0.012606401560036277   -0.07395160876675785   -0.002440496235432165
-0.010841110780523269   -0.06717221147629127   -0.002496973566819202
-0.015001105073877731   -0.06706214723466743   -0.002759215664284428
-0.012283884641306154   -0.07400698475006977   -0.0026630715245737143
-0.01069957839084479   -0.06724508987590998   -0.0025579725718509563
-0.014701237656872451   -0.06722163113952663   -0.002934793516132686
-0.012283884641306154   -0.07400698475006977   -0.0026630715245737143
-0.009389137135386734   -0.07430060152447922   -0.0024921412237882985
-0.01069957839084479   -0.06724508987590998   -0.0025579725718509563
-0.009215951241088581   -0.07440730577803531   -0.002590965726851111
-0.014701237656872451   -0.06722163113952663   -0.002934793516132686
-0.010559931060124275   -0.06736456584348734   -0.002630133128916897
-0.009215951241088581   -0.07440730577803531   -0.002590965726851111
-0.01069957839084479   -0.06724508987590998   -0.0025579725718509563
-0.014701237656872451   -0.06722163113952663   -0.002934793516132686
-0.009215951241088581   -0.07440730577803531   -0.002590965726851111
-0.011890524655884605   -0.07415487799695276   -0.0029009043784029077
-0.012283884641306154   -0.07400698475006977   -0.0026630715245737143
-0.014701237656872451   -0.06722163113952663   -0.002934793516132686
-0.009215951241088581   -0.07440730577803531   -0.002590965726851111
-0.012283884641306154   -0.07400698475006977   -0.0026630715245737143
-0.01069957839084479   -0.06724508987590998   -0.0025579725718509563
-0.010953793671510193   -0.06714179125401919   -0.002447241904951804
-0.009742351930197728   -0.07427183304641298   -0.002327555949799185
-0.007043405736104908   -0.06724030866136627   -0.0024412175534299693
-0.010841110780523269   -0.06717221147629127   -0.002496973566819202
-0.009742351930197728   -0.07427183304641298   -0.002327555949799185
-0.007116535664060866   -0.07447374263950254   -0.002400666554240285
-0.007043405736104908   -0.06724030866136627   -0.0024412175534299693
-0.006949975591792543   -0.07444803803094614   -0.0023772536912879706
-0.010841110780523269   -0.06717221147629127   -0.002496973566819202
-0.006927794441463075   -0.06725028455596194   -0.0024189632976480964
-0.006949975591792543   -0.07444803803094614   -0.0023772536912879706
-0.007043405736104908   -0.06724030866136627   -0.0024412175534299693
-0.010841110780523269   -0.06717221147629127   -0.002496973566819202
-0.006949975591792543   -0.07444803803094614   -0.0023772536912879706
-0.009580039328621111   -0.07425578418268429   -0.002404092504454442
-0.009742351930197728   -0.07427183304641298   -0.002327555949799185
-0.010841110780523269   -0.06717221147629127   -0.002496973566819202
-0.006949975591792543   -0.07444803803094614   -0.0023772536912879706
-0.009742351930197728   -0.07427183304641298   -0.002327555949799185
-0.007043405736104908   -0.06724030866136627   -0.0024412175534299693
-0.010841110780523269   -0.06717221147629127   -0.002496973566819202
-0.009580039328621111   -0.07425578418268429   -0.002404092504454442
-0.006927794441463075   -0.06725028455596194   -0.0024189632976480964
-0.01069957839084479   -0.06724508987590998   -0.0025579725718509563
-0.009580039328621111   -0.07425578418268429   -0.002404092504454442
-0.006949975591792543   -0.07444803803094614   -0.0023772536912879706
-0.006927794441463075   -0.06725028455596194   -0.0024189632976480964
-0.006785760280182881   -0.07447487078110555   -0.002365022033177224
-0.01069957839084479   -0.06724508987590998   -0.0025579725718509563
-0.006808469770173303   -0.06729817191832138   -0.002407642792688757
-0.006785760280182881   -0.07447487078110555   -0.002365022033177224
-0.006927794441463075   -0.06725028455596194   -0.0024189632976480964
-0.01069957839084479   -0.06724508987590998   -0.0025579725718509563
-0.006785760280182881   -0.07447487078110555   -0.002365022033177224
-0.009389137135386734   -0.07430060152447922   -0.0024921412237882985
-0.009580039328621111   -0.07425578418268429   -0.002404092504454442
-0.01069957839084479   -0.06724508987590998   -0.0025579725718509563
-0.006785760280182881   -0.07447487078110555   -0.002365022033177224
-0.009580039328621111   -0.07425578418268429   -0.002404092504454442
-0.006927794441463075   -0.06725028455596194   -0.0024189632976480964
-0.01069957839084479   -0.06724508987590998   -0.0025579725718509563
-0.009389137135386734   -0.07430060152447922   -0.0024921412237882985
-0.006808469770173303   -0.06729817191832138   -0.002407642792688757
-0.010559931060124275   -0.06736456584348734   -0.002630133128916897
-0.009389137135386734   -0.07430060152447922   -0.0024921412237882985
-0.006785760280182881   -0.07447487078110555   -0.002365022033177224
-0.006808469770173303   -0.06729817191832138   -0.002407642792688757
-0.006634664752411978   -0.07455598763033905   -0.002366314247482432
-0.010559931060124275   -0.06736456584348734   -0.002630133128916897
-0.006689340284066976   -0.0673862049112841   -0.0024071158292488085
-0.006634664752411978   -0.07455598763033905   -0.002366314247482432
-0.006808469770173303   -0.06729817191832138   -0.002407642792688757
-0.010559931060124275   -0.06736456584348734   -0.002630133128916897
-0.006634664752411978   -0.07455598763033905   -0.002366314247482432
-0.009215951241088581   -0.07440730577803531   -0.002590965726851111
-0.009389137135386734   -0.07430060152447922   -0.0024921412237882985
-0.010559931060124275   -0.06736456584348734   -0.002630133128916897
-0.006634664752411978   -0.07455598763033905   -0.002366314247482432
-0.009389137135386734   -0.07430060152447922   -0.0024921412237882985
-0.006808469770173303   -0.06729817191832138   -0.002407642792688757
-0.007043405736104908   -0.06724030866136627   -0.0024412175534299693
-0.007116535664060866   -0.07447374263950254   -0.002400666554240285
-0.003262836433704839   -0.06722242606609664   -0.0024692683550859035
-0.006927794441463075   -0.06725028455596194   -0.0024189632976480964
-0.007116535664060866   -0.07447374263950254   -0.002400666554240285
-0.004601561348692007   -0.07457988440788615   -0.0024870479759328966
-0.003262836433704839   -0.06722242606609664   -0.0024692683550859035
-0.0044137992965657   -0.07454280623075689   -0.00236937877660671
-0.006927794441463075   -0.06725028455596194   -0.0024189632976480964
-0.003136201716489409   -0.06720944114702909   -0.00237755394807693
-0.0044137992965657   -0.07454280623075689   -0.00236937877660671
-0.003262836433704839   -0.06722242606609664   -0.0024692683550859035
-0.006927794441463075   -0.06725028455596194   -0.0024189632976480964
-0.0044137992965657   -0.07454280623075689   -0.00236937877660671
-0.006949975591792543   -0.07444803803094614   -0.0023772536912879706
-0.007116535664060866   -0.07447374263950254   -0.002400666554240285
-0.006927794441463075   -0.06725028455596194   -0.0024189632976480964
-0.0044137992965657   -0.07454280623075689   -0.00236937877660671
-0.007116535664060866   -0.07447374263950254   -0.002400666554240285
-0.003262836433704839   -0.06722242606609664   -0.0024692683550859035
-0.006927794441463075   -0.06725028455596194   -0.0024189632976480964
-0.006949975591792543   -0.07444803803094614   -0.0023772536912879706
-0.003136201716489409   -0.06720944114702909   -0.00237755394807693
-0.006808469770173303   -0.06729817191832138   -0.002407642792688757
-0.006949975591792543   -0.07444803803094614   -0.0023772536912879706
-0.0044137992965657   -0.07454280623075689   -0.00236937877660671
-0.003136201716489409   -0.06720944114702909   -0.00237755394807693
-0.004234817732138651   -0.07455192191156022   -0.0022615914614119107
-0.006808469770173303   -0.06729817191832138   -0.002407642792688757
-0.0030133015557615825   -0.06723073758568239   -0.002297494400361988
-0.004234817732138651   -0.07455192191156022   -0.0022615914614119107
-0.003136201716489409   -0.06720944114702909   -0.00237755394807693
-0.006808469770173303   -0.06729817191832138   -0.002407642792688757
-0.004234817732138651   -0.07455192191156022   -0.0022615914614119107
-0.006785760280182881   -0.07447487078110555   -0.002365022033177224
-0.006949975591792543   -0.07444803803094614   -0.0023772536912879706
-0.006808469770173303   -0.06729817191832138   -0.002407642792688757
-0.004234817732138651   -0.07455192191156022   -0.0022615914614119107
-0.006949975591792543   -0.07444803803094614   -0.0023772536912879706
-0.003136201716489409   -0.06720944114702909   -0.00237755394807693
-0.006808469770173303   -0.06729817191832138   -0.002407642792688757
-0.006785760280182881   -0.07447487078110555   -0.002365022033177224
-0.0030133015557615825   -0.06723073758568239   -0.002297494400361988
-0.006689340284066976   -0.0673862049112841   -0.0024071158292488085
-0.006785760280182881   -0.07447487078110555   -0.002365022033177224
-0.004234817732138651   -0.07455192191156022   -0.0022615914614119107
-0.0030133015557615825   -0.06723073758568239   -0.002297494400361988
-0.004085967424031495   -0.07461623939671676   -0.0021698641593851154
-0.006689340284066976   -0.0673862049112841   -0.0024071158292488085
-0.0029022659745135968   -0.06729128939168474   -0.002228080390497163
-0.004085967424031495   -0.07461623939671676   -0.0021698641593851154
-0.0030133015557615825   -0.06723073758568239   -0.002297494400361988
-0.006689340284066976   -0.0673862049112841   -0.0024071158292488085
-0.004085967424031495   -0.07461623939671676   -0.0021698641593851154
-0.006634664752411978   -0.07455598763033905   -0.002366314247482432
-0.006785760280182881   -0.07447487078110555   -0.002365022033177224
-0.006689340284066976   -0.0673862049112841   -0.0024071158292488085
-0.004085967424031495   -0.07461623939671676   -0.0021698641593851154
-0.006785760280182881   -0.07447487078110555   -0.002365022033177224
-0.0030133015557615825   -0.06723073758568239   -0.002297494400361988
-0.003262836433704839   -0.06722242606609664   -0.0024692683550859035
-0.004601561348692007   -0.07457988440788615   -0.0024870479759328966
0.0006949145277329003   -0.06708397946046325   -0.002537552911772643
-0.003136201716489409   -0.06720944114702909   -0.00237755394807693
-0.004601561348692007   -0.07457988440788615   -0.0024870479759328966
-0.0019270252478072274   -0.07455320035524418   -0.002588788437471866
0.0006949145277329003   -0.06708397946046325   -0.002537552911772643
-0.0016859544179893898   -0.07449507484185257   -0.0023809502631119963
-0.003136201716489409   -0.06720944114702909   -0.00237755394807693
0.0008489658184313096   -0.0670418345517917   -0.0023766169343014923
-0.0016859544179893898   -0.07449507484185257   -0.0023809502631119963
0.0006949145277329003   -0.06708397946046325   -0.002537552911772643
-0.003136201716489409   -0.06720944114702909   -0.00237755394807693
-0.0016859544179893898   -0.07449507484185257   -0.0023809502631119963
-0.0044137992965657   -0.07454280623075689   -0.00236937877660671
-0.004601561348692007   -0.07457988440788615   -0.0024870479759328966
-0.003136201716489409   -0.06720944114702909   -0.00237755394807693
-0.0016859544179893898   -0.07449507484185257   -0.0023809502631119963
-0.004601561348692007   -0.07457988440788615   -0.0024870479759328966
0.0006949145277329003   -0.06708397946046325   -0.002537552911772643
-0.003136201716489409   -0.06720944114702909   -0.00237755394807693
-0.0044137992965657   -0.07454280623075689   -0.00236937877660671
0.0008489658184313096   -0.0670418345517917   -0.0023766169343014923
-0.0030133015557615825   -0.06723073758568239   -0.002297494400361988
-0.0044137992965657   -0.07454280623075689   -0.00236937877660671
-0.0016859544179893898   -0.07449507484185257   -0.0023809502631119963
0.0008489658184313096   -0.0670418345517917   -0.0023766169343014923
-0.0014394967815356623   -0.07448481337136852   -0.0021836844110601507
-0.0030133015557615825   -0.06723073758568239   -0.002297494400361988
0.001011311054540689   -0.06703801808892405   -0.002230455017220874
-0.0014394967815356623   -0.07448481337136852   -0.0021836844110601507
0.0008489658184313096   -0.0670418345517917   -0.0023766169343014923
-0.0030133015557615825   -0.06723073758568239   -0.002297494400361988
-0.0014394967815356623   -0.07448481337136852   -0.0021836844110601507
-0.004234817732138651   -0.07455192191156022   -0.0022615914614119107
-0.0044137992965657   -0.07454280623075689   -0.00236937877660671
-0.0030133015557615825   -0.06723073758568239   -0.002297494400361988
-0.0014394967815356623   -0.07448481337136852   -0.0021836844110601507
-0.0044137992965657   -0.07454280623075689   -0.00236937877660671
0.0008489658184313096   -0.0670418345517917   -0.0023766169343014923
-0.0030133015557615825   -0.06723073758568239   -0.002297494400361988
-0.004234817732138651   -0.07455192191156022   -0.0022615914614119107
0.001011311054540689   -0.06703801808892405   -0.002230455017220874
-0.0029022659745135968   -0.06729128939168474   -0.002228080390497163
-0.004234817732138651   -0.07455192191156022   -0.0022615914614119107
-0.0014394967815356623   -0.07448481337136852   -0.0021836844110601507
0.001011311054540689   -0.06703801808892405   -0.002230455017220874
-0.001256944925603567   -0.07453273607935076   -0.0020045298008250496
-0.0029022659745135968   -0.06729128939168474   -0.002228080390497163
0.0011300448579499563   -0.06707078615104083   -0.002094465864701614
-0.001256944925603567   -0.07453273607935076   -0.0020045298008250496
0.001011311054540689   -0.06703801808892405   -0.002230455017220874
-0.0029022659745135968   -0.06729128939168474   -0.002228080390497163
-0.001256944925603567   -0.07453273607935076   -0.0020045298008250496
-0.004085967424031495   -0.07461623939671676   -0.0021698641593851154
-0.004234817732138651   -0.07455192191156022   -0.0022615914614119107
-0.0029022659745135968   -0.06729128939168474   -0.002228080390497163
-0.001256944925603567   -0.07453273607935076   -0.0020045298008250496
-0.004234817732138651   -0.07455192191156022   -0.0022615914614119107
0.001011311054540689   -0.06703801808892405   -0.002230455017220874
0.0006949145277329003   -0.06708397946046325   -0.002537552911772643
-0.0019270252478072274   -0.07455320035524418   -0.002588788437471866
0.004914379215998345   -0.06681184095681166   -0.0026835563215425857
0.0008489658184313096   -0.0670418345517917   -0.0023766169343014923
-0.0019270252478072274   -0.07455320035524418   -0.002588788437471866
0.000951828631091505   -0.07429632970479294   -0.002797326600492166
0.004914379215998345   -0.06681184095681166   -0.0026835563215425857
0.0015135875922278068   -0.07416983029095509   -0.002457340309997276
0.0008489658184313096   -0.0670418345517917   -0.0023766169343014923
0.005304540239811138   -0.0667309521460184   -0.002437249365380403
0.0015135875922278068   -0.07416983029095509   -0.002457340309997276
0.004914379215998345   -0.06681184095681166   -0.0026835563215425857
0.0008489658184313096   -0.0670418345517917   -0.0023766169343014923
0.0015135875922278068   -0.07416983029095509   -0.002457340309997276
-0.0016859544179893898   -0.07449507484185257   -0.0023809502631119963
-0.0019270252478072274   -0.07455320035524418   -0.002588788437471866
0.0008489658184313096   -0.0670418345517917   -0.0023766169343014923
0.0015135875922278068   -0.07416983029095509   -0.002457340309997276
-0.0019270252478072274   -0.07455320035524418   -0.002588788437471866
0.004914379215998345   -0.06681184095681166   -0.0026835563215425857
0.0008489658184313096   -0.0670418345517917   -0.0023766169343014923
-0.0016859544179893898   -0.07449507484185257   -0.0023809502631119963
0.005304540239811138   -0.0667309521460184   -0.002437249365380403
0.001011311054540689   -0.06703801808892405   -0.002230455017220874
-0.0016859544179893898   -0.07449507484185257   -0.0023809502631119963
0.0015135875922278068   -0.07416983029095509   -0.002457340309997276
0.005304540239811138   -0.0667309521460184   -0.002437249365380403
0.001955064478309609   -0.07414420541450244   -0.0021381218564272414
0.001011311054540689   -0.06703801808892405   -0.002230455017220874
0.005603684406124664   -0.066716945794014   -0.0022092635586291216
0.001955064478309609   -0.07414420541450244   -0.0021381218564272414
0.005304540239811138   -0.0667309521460184   -0.002437249365380403
0.001011311054540689   -0.06703801808892405   -0.002230455017220874
0.001955064478309609   -0.07414420541450244   -0.0021381218564272414
-0.0014394967815356623   -0.07448481337136852   -0.0021836844110601507
-0.0016859544179893898   -0.07449507484185257   -0.0023809502631119963
0.001011311054540689   -0.06703801808892405   -0.002230455017220874
0.001955064478309609   -0.07414420541450244   -0.0021381218564272414
-0.0016859544179893898   -0.07449507484185257   -0.0023809502631119963
0.005304540239811138   -0.0667309521460184   -0.002437249365380403
0.001011311054540689   -0.06703801808892405   -0.002230455017220874
-0.0014394967815356623   -0.07448481337136852   -0.0021836844110601507
0.005603684406124664   -0.066716945794014   -0.0022092635586291216
0.0011300448579499563   -0.06707078615104083   -0.002094465864701614
-0.0014394967815356623   -0.07448481337136852   -0.0021836844110601507
0.001955064478309609   -0.07414420541450244   -0.0021381218564272414
0.005603684406124664   -0.066716945794014   -0.0022092635586291216
0.0024138279659583002   -0.07416572315235694   -0.001846596124388683
0.0011300448579499563   -0.06707078615104083   -0.002094465864701614
0.005913599420774236   -0.06674093095100332   -0.0020014617962560203
0.0024138279659583002   -0.07416572315235694   -0.001846596124388683
0.005603684406124664   -0.066716945794014   -0.0022092635586291216
0.0011300448579499563   -0.06707078615104083   -0.002094465864701614
0.0024138279659583002   -0.07416572315235694   -0.001846596124388683
-0.001256944925603567   -0.07453273607935076   -0.0020045298008250496
-0.0014394967815356623   -0.07448481337136852   -0.0021836844110601507
0.0011300448579499563   -0.06707078615104083   -0.002094465864701614
0.0024138279659583002   -0.07416572315235694   -0.001846596124388683
-0.0014394967815356623   -0.07448481337136852   -0.0021836844110601507
0.005603684406124664   -0.066716945794014   -0.0022092635586291216
-0.012956280140125027   -0.07396037974014638   -0.0022341339639993024
-0.009500537417319724   -0.0781383223355261   -0.0019660245346496477
-0.009742351930197728   -0.07427183304641298   -0.002327555949799185
-0.012606401560036277   -0.07395160876675785   -0.002440496235432165
-0.009500537417319724   -0.0781383223355261   -0.0019660245346496477
-0.00800518462711431   -0.07853223452846621   -0.0022027593255208033
-0.009742351930197728   -0.07427183304641298   -0.002327555949799185
-0.007800393038331584   -0.07845438375456715   -0.0022841912988042284
-0.012606401560036277   -0.07395160876675785   -0.002440496235432165
-0.009580039328621111   -0.07425578418268429   -0.002404092504454442
-0.007800393038331584   -0.07845438375456715   -0.0022841912988042284
-0.009742351930197728   -0.07427183304641298   -0.002327555949799185
-0.012606401560036277   -0.07395160876675785   -0.002440496235432165
-0.007800393038331584   -0.07845438375456715   -0.0022841912988042284
-0.009064500621607855   -0.0780506176378337   -0.00221360689936279
-0.009500537417319724   -0.0781383223355261   -0.0019660245346496477
-0.012606401560036277   -0.07395160876675785   -0.002440496235432165
-0.007800393038331584   -0.07845438375456715   -0.0022841912988042284
-0.009500537417319724   -0.0781383223355261   -0.0019660245346496477
-0.009742351930197728   -0.07427183304641298   -0.002327555949799185
-0.012606401560036277   -0.07395160876675785   -0.002440496235432165
-0.009064500621607855   -0.0780506176378337   -0.00221360689936279
-0.009580039328621111   -0.07425578418268429   -0.002404092504454442
-0.012283884641306154   -0.07400698475006977   -0.0026630715245737143
-0.009064500621607855   -0.0780506176378337   -0.00221360689936279
-0.007800393038331584   -0.07845438375456715   -0.0022841912988042284
-0.009580039328621111   -0.07425578418268429   -0.002404092504454442
-0.007573584805602057   -0.07845821149766151   -0.002366448230353557
-0.012283884641306154   -0.07400698475006977   -0.0026630715245737143
-0.009389137135386734   -0.07430060152447922   -0.0024921412237882985
-0.007573584805602057   -0.07845821149766151   -0.002366448230353557
-0.009580039328621111   -0.07425578418268429   -0.002404092504454442
-0.012283884641306154   -0.07400698475006977   -0.0026630715245737143
-0.007573584805602057   -0.07845821149766151   -0.002366448230353557
-0.008688285485637237   -0.07805809918504994   -0.0024602340227545894
-0.009064500621607855   -0.0780506176378337   -0.00221360689936279
-0.012283884641306154   -0.07400698475006977   -0.0026630715245737143
-0.007573584805602057   -0.07845821149766151   -0.002366448230353557
-0.009064500621607855   -0.0780506176378337   -0.00221360689936279
-0.009580039328621111   -0.07425578418268429   -0.002404092504454442
-0.012283884641306154   -0.07400698475006977   -0.0026630715245737143
-0.008688285485637237   -0.07805809918504994   -0.0024602340227545894
-0.009389137135386734   -0.07430060152447922   -0.0024921412237882985
-0.011890524655884605   -0.07415487799695276   -0.0029009043784029077
-0.008688285485637237   -0.07805809918504994   -0.0024602340227545894
-0.007573584805602057   -0.07845821149766151   -0.002366448230353557
-0.009389137135386734   -0.07430060152447922   -0.0024921412237882985
-0.0073628802353697155   -0.07854409616939777   -0.0024498745731929557
-0.011890524655884605   -0.07415487799695276   -0.0029009043784029077
-0.009215951241088581   -0.07440730577803531   -0.002590965726851111
-0.0073628802353697155   -0.07854409616939777   -0.0024498745731929557
-0.009389137135386734   -0.07430060152447922   -0.0024921412237882985
-0.011890524655884605   -0.07415487799695276   -0.0029009043784029077
-0.0073628802353697155   -0.07854409616939777   -0.0024498745731929557
-0.008242051655535923   -0.0781662305981932   -0.002712173952729118
-0.008688285485637237   -0.07805809918504994   -0.0024602340227545894
-0.011890524655884605   -0.07415487799695276   -0.0029009043784029077
-0.0073628802353697155   -0.07854409616939777   -0.0024498745731929557
-0.008688285485637237   -0.07805809918504994   -0.0024602340227545894
-0.009389137135386734   -0.07430060152447922   -0.0024921412237882985
-0.009742351930197728   -0.07427183304641298   -0.002327555949799185
-0.00800518462711431   -0.07853223452846621   -0.0022027593255208033
-0.007116535664060866   -0.07447374263950254   -0.002400666554240285
-0.009580039328621111   -0.07425578418268429   -0.002404092504454442
-0.00800518462711431   -0.07853223452846621   -0.0022027593255208033
-0.00691012741916014   -0.07892761825221234   -0.002411989508581135
-0.007116535664060866   -0.07447374263950254   -0.002400666554240285
-0.0066940548158810455   -0.0788477432655759   -0.0023549217416068678
-0.009580039328621111   -0.07425578418268429   -0.002404092504454442
-0.006949975591792543   -0.07444803803094614   -0.0023772536912879706
-0.0066940548158810455   -0.0788477432655759   -0.0023549217416068678
-0.007116535664060866   -0.07447374263950254   -0.002400666554240285
-0.009580039328621111   -0.07425578418268429   -0.002404092504454442
-0.0066940548158810455   -0.0788477432655759   -0.0023549217416068678
-0.007800393038331584   -0.07845438375456715   -0.0022841912988042284
-0.00800518462711431   -0.07853223452846621   -0.0022027593255208033
-0.009580039328621111   -0.07425578418268429   -0.002404092504454442
-0.0066940548158810455   -0.0788477432655759   -0.0023549217416068678
-0.00800518462711431   -0.07853223452846621   -0.0022027593255208033
-0.007116535664060866   -0.07447374263950254   -0.002400666554240285
-0.009580039328621111   -0.07425578418268429   -0.002404092504454442
-0.007800393038331584   -0.07845438375456715   -0.0022841912988042284
-0.006949975591792543   -0.07444803803094614   -0.0023772536912879706
-0.009389137135386734   -0.07430060152447922   -0.0024921412237882985
-0.007800393038331584   -0.07845438375456715   -0.0022841912988042284
-0.0066940548158810455   -0.0788477432655759   -0.0023549217416068678
-0.006949975591792543   -0.07444803803094614   -0.0023772536912879706
-0.0064851458496604855   -0.07884629644059411   -0.002297144087049449
-0.009389137135386734   -0.07430060152447922   -0.0024921412237882985
-0.006785760280182881   -0.07447487078110555   -0.002365022033177224
-0.0064851458496604855   -0.07884629644059411   -0.002297144087049449
-0.006949975591792543   -0.07444803803094614   -0.0023772536912879706
-0.009389137135386734   -0.07430060152447922   -0.0024921412237882985
-0.0064851458496604855   -0.07884629644059411   -0.002297144087049449
-0.007573584805602057   -0.07845821149766151   -0.002366448230353557
-0.007800393038331584   -0.07845438375456715   -0.0022841912988042284
-0.009389137135386734   -0.07430060152447922   -0.0024921412237882985
-0.0064851458496604855   -0.07884629644059411   -0.002297144087049449
-0.007800393038331584   -0.07845438375456715   -0.0022841912988042284
-0.006949975591792543   -0.07444803803094614   -0.0023772536912879706
-0.009389137135386734   -0.07430060152447922   -0.0024921412237882985
-0.007573584805602057   -0.07845821149766151   -0.002366448230353557
-0.006785760280182881   -0.07447487078110555   -0.002365022033177224
-0.009215951241088581   -0.07440730577803531   -0.002590965726851111
-0.007573584805602057   -0.07845821149766151   -0.002366448230353557
-0.0064851458496604855   -0.07884629644059411   -0.002297144087049449
-0.006785760280182881   -0.07447487078110555   -0.002365022033177224
-0.0062673490775967036   -0.07892163976165045   -0.002241647700927543
-0.009215951241088581   -0.07440730577803531   -0.002590965726851111
-0.006634664752411978   -0.07455598763033905   -0.002366314247482432
-0.0062673490775967036   -0.07892163976165045   -0.002241647700927543
-0.006785760280182881   -0.07447487078110555   -0.002365022033177224
-0.009215951241088581   -0.07440730577803531   -0.002590965726851111
-0.0062673490775967036   -0.07892163976165045   -0.002241647700927543
-0.0073628802353697155   -0.07854409616939777   -0.0024498745731929557
-0.007573584805602057   -0.07845821149766151   -0.002366448230353557
-0.009215951241088581   -0.07440730577803531   -0.002590965726851111
-0.0062673490775967036   -0.07892163976165045   -0.002241647700927543
-0.007573584805602057   -0.07845821149766151   -0.002366448230353557
-0.006785760280182881   -0.07447487078110555   -0.002365022033177224
-0.007116535664060866   -0.07447374263950254   -0.002400666554240285
-0.00691012741916014   -0.07892761825221234   -0.002411989508581135
-0.004601561348692007   -0.07457988440788615   -0.0024870479759328966
-0.006949975591792543   -0.07444803803094614   -0.0023772536912879706
-0.00691012741916014   -0.07892761825221234   -0.002411989508581135
-0.005910096518611411   -0.07940480652243805   -0.0026423917239254855
-0.004601561348692007   -0.07457988440788615   -0.0024870479759328966
-0.005645212354406938   -0.07933549332976392   -0.0024390542377938735
-0.006949975591792543   -0.07444803803094614   -0.0023772536912879706
-0.0044137992965657   -0.07454280623075689   -0.00236937877660671
-0.005645212354406938   -0.07933549332976392   -0.0024390542377938735
-0.004601561348692007   -0.07457988440788615   -0.0024870479759328966
-0.006949975591792543   -0.07444803803094614   -0.0023772536912879706
-0.005645212354406938   -0.07933549332976392   -0.0024390542377938735
-0.0066940548158810455   -0.0788477432655759   -0.0023549217416068678
-0.00691012741916014   -0.07892761825221234   -0.002411989508581135
-0.006949975591792543   -0.07444803803094614   -0.0023772536912879706
-0.005645212354406938   -0.07933549332976392   -0.0024390542377938735
-0.00691012741916014   -0.07892761825221234   -0.002411989508581135
-0.004601561348692007   -0.07457988440788615   -0.0024870479759328966
-0.006949975591792543   -0.07444803803094614   -0.0023772536912879706
-0.0066940548158810455   -0.0788477432655759   -0.0023549217416068678
-0.0044137992965657   -0.07454280623075689   -0.00236937877660671
-0.006785760280182881   -0.07447487078110555   -0.002365022033177224
-0.0066940548158810455   -0.0788477432655759   -0.0023549217416068678
-0.005645212354406938   -0.07933549332976392   -0.0024390542377938735
-0.0044137992965657   -0.07454280623075689   -0.00236937877660671
-0.005399776524147819   -0.07933177513260366   -0.002236405578094089
-0.006785760280182881   -0.07447487078110555   -0.002365022033177224
-0.004234817732138651   -0.07455192191156022   -0.0022615914614119107
-0.005399776524147819   -0.07933177513260366   -0.002236405578094089
-0.0044137992965657   -0.07454280623075689   -0.00236937877660671
-0.006785760280182881   -0.07447487078110555   -0.002365022033177224
-0.005399776524147819   -0.07933177513260366   -0.002236405578094089
-0.0064851458496604855   -0.07884629644059411   -0.002297144087049449
-0.0066940548158810455   -0.0788477432655759   -0.0023549217416068678
-0.006785760280182881   -0.07447487078110555   -0.002365022033177224
-0.005399776524147819   -0.07933177513260366   -0.002236405578094089
-0.0066940548158810455   -0.0788477432655759   -0.0023549217416068678
-0.0044137992965657   -0.07454280623075689   -0.00236937877660671
-0.006785760280182881   -0.07447487078110555   -0.002365022033177224
-0.0064851458496604855   -0.07884629644059411   -0.002297144087049449
-0.004234817732138651   -0.07455192191156022   -0.0022615914614119107
-0.006634664752411978   -0.07455598763033905   -0.002366314247482432
-0.0064851458496604855   -0.07884629644059411   -0.002297144087049449
-0.005399776524147819   -0.07933177513260366   -0.002236405578094089
-0.004234817732138651   -0.07455192191156022   -0.0022615914614119107
-0.005136270465087294   -0.07939010719773602   -0.0020333024755980777
-0.006634664752411978   -0.07455598763033905   -0.002366314247482432
-0.004085967424031495   -0.07461623939671676   -0.0021698641593851154
-0.005136270465087294   -0.07939010719773602   -0.0020333024755980777
-0.004234817732138651   -0.07455192191156022   -0.0022615914614119107
-0.006634664752411978   -0.07455598763033905   -0.002366314247482432
-0.005136270465087294   -0.07939010719773602   -0.0020333024755980777
-0.0062673490775967036   -0.07892163976165045   -0.002241647700927543
-0.0064851458496604855   -0.07884629644059411   -0.002297144087049449
-0.006634664752411978   -0.07455598763033905   -0.002366314247482432
-0.005136270465087294   -0.07939010719773602   -0.0020333024755980777
-0.0064851458496604855   -0.07884629644059411   -0.002297144087049449
-0.004234817732138651   -0.07455192191156022   -0.0022615914614119107
-0.004601561348692007   -0.07457988440788615   -0.0024870479759328966
-0.005910096518611411   -0.07940480652243805   -0.0026423917239254855
-0.0019270252478072274   -0.07455320035524418   -0.002588788437471866
-0.0044137992965657   -0.07454280623075689   -0.00236937877660671
-0.005910096518611411   -0.07940480652243805   -0.0026423917239254855
-0.004925890637173914   -0.08   -0.002819366698100502
-0.0019270252478072274   -0.07455320035524418   -0.002588788437471866
-0.004592743482260363   -0.08   -0.0025105564266779995
-0.0044137992965657   -0.07454280623075689   -0.00236937877660671
-0.0016859544179893898   -0.07449507484185257   -0.0023809502631119963
-0.004592743482260363   -0.08   -0.0025105564266779995
-0.0019270252478072274   -0.07455320035524418   -0.002588788437471866
-0.0044137992965657   -0.07454280623075689   -0.00236937877660671
-0.004592743482260363   -0.08   -0.0025105564266779995
-0.005645212354406938   -0.07933549332976392   -0.0024390542377938735
-0.005910096518611411   -0.07940480652243805   -0.0026423917239254855
-0.0044137992965657   -0.07454280623075689   -0.00236937877660671
-0.004592743482260363   -0.08   -0.0025105564266779995
-0.005910096518611411   -0.07940480652243805   -0.0026423917239254855
-0.0019270252478072274   -0.07455320035524418   -0.002588788437471866
-0.0044137992965657   -0.07454280623075689   -0.00236937877660671
-0.005645212354406938   -0.07933549332976392   -0.0024390542377938735
-0.0016859544179893898   -0.07449507484185257   -0.0023809502631119963
-0.004234817732138651   -0.07455192191156022   -0.0022615914614119107
-0.005645212354406938   -0.07933549332976392   -0.0024390542377938735
-0.004592743482260363   -0.08   -0.0025105564266779995
-0.0016859544179893898   -0.07449507484185257   -0.0023809502631119963
-0.004258019280598632   -0.08   -0.0021980836989981614
-0.004234817732138651   -0.07455192191156022   -0.0022615914614119107
-0.0014394967815356623   -0.07448481337136852   -0.0021836844110601507
-0.004258019280598632   -0.08   -0.0021980836989981614
-0.0016859544179893898   -0.07449507484185257   -0.0023809502631119963
-0.004234817732138651   -0.07455192191156022   -0.0022615914614119107
-0.004258019280598632   -0.08   -0.0021980836989981614
-0.005399776524147819   -0.07933177513260366   -0.002236405578094089
-0.005645212354406938   -0.07933549332976392   -0.0024390542377938735
-0.004234817732138651   -0.07455192191156022   -0.0022615914614119107
-0.004258019280598632   -0.08   -0.0021980836989981614
-0.005645212354406938   -0.07933549332976392   -0.0024390542377938735
-0.0016859544179893898   -0.07449507484185257   -0.0023809502631119963
-0.004234817732138651   -0.07455192191156022   -0.0022615914614119107
-0.005399776524147819   -0.07933177513260366   -0.002236405578094089
-0.0014394967815356623   -0.07448481337136852   -0.0021836844110601507
-0.004085967424031495   -0.07461623939671676   -0.0021698641593851154
-0.005399776524147819   -0.07933177513260366   -0.002236405578094089
-0.004258019280598632   -0.08   -0.0021980836989981614
-0.0014394967815356623   -0.07448481337136852   -0.0021836844110601507
-0.003930810376377494   -0.08   -0.0018897414335333441
-0.004085967424031495   -0.07461623939671676   -0.0021698641593851154
-0.001256944925603567   -0.07453273607935076   -0.0020045298008250496
-0.003930810376377494   -0.08   -0.0018897414335333441
-0.0014394967815356623   -0.07448481337136852   -0.0021836844110601507
-0.004085967424031495   -0.07461623939671676   -0.0021698641593851154
-0.003930810376377494   -0.08   -0.0018897414335333441
-0.005136270465087294   -0.07939010719773602   -0.0020333024755980777
-0.005399776524147819   -0.07933177513260366   -0.002236405578094089
-0.004085967424031495   -0.07461623939671676   -0.0021698641593851154
-0.003930810376377494   -0.08   -0.0018897414335333441
-0.005399776524147819   -0.07933177513260366   -0.002236405578094089
-0.0014394967815356623   -0.07448481337136852   -0.0021836844110601507
-0.0019270252478072274   -0.07455320035524418   -0.002588788437471866
-0.004925890637173914   -0.08   -0.002819366698100502
0.000951828631091505   -0.07429632970479294   -0.002797326600492166
-0.0016859544179893898   -0.07449507484185257   -0.0023809502631119963
-0.004925890637173914   -0.08   -0.002819366698100502
-0.0042120355450446624   -0.08   -0.0030337011722972097
0.000951828631091505   -0.07429632970479294   -0.002797326600492166
-0.0035155314875885873   -0.08   -0.0025869596198329595
-0.0016859544179893898   -0.07449507484185257   -0.0023809502631119963
0.0015135875922278068   -0.07416983029095509   -0.002457340309997276
-0.0035155314875885873   -0.08   -0.0025869596198329595
0.000951828631091505   -0.07429632970479294   -0.002797326600492166
-0.0016859544179893898   -0.07449507484185257   -0.0023809502631119963
-0.0035155314875885873   -0.08   -0.0025869596198329595
-0.004592743482260363   -0.08   -0.0025105564266779995
-0.004925890637173914   -0.08   -0.002819366698100502
-0.0016859544179893898   -0.07449507484185257   -0.0023809502631119963
-0.0035155314875885873   -0.08   -0.0025869596198329595
-0.004925890637173914   -0.08   -0.002819366698100502
0.000951828631091505   -0.07429632970479294   -0.002797326600492166
-0.0016859544179893898   -0.07449507484185257   -0.0023809502631119963
-0.004592743482260363   -0.08   -0.0025105564266779995
0.0015135875922278068   -0.07416983029095509   -0.002457340309997276
-0.0014394967815356623   -0.07448481337136852   -0.0021836844110601507
-0.004592743482260363   -0.08   -0.0025105564266779995
-0.0035155314875885873   -0.08   -0.0025869596198329595
0.0015135875922278068   -0.07416983029095509   -0.002457340309997276
-0.0029600791832933076   -0.08   -0.0021595947168947093
-0.0014394967815356623   -0.07448481337136852   -0.0021836844110601507
0.001955064478309609   -0.07414420541450244   -0.0021381218564272414
-0.0029600791832933076   -0.08   -0.0021595947168947093
0.0015135875922278068   -0.07416983029095509   -0.002457340309997276
-0.0014394967815356623   -0.07448481337136852   -0.0021836844110601507
-0.0029600791832933076   -0.08   -0.0021595947168947093
-0.004258019280598632   -0.08   -0.0021980836989981614
-0.004592743482260363   -0.08   -0.0025105564266779995
-0.0014394967815356623   -0.07448481337136852   -0.0021836844110601507
-0.0029600791832933076   -0.08   -0.0021595947168947093
-0.004592743482260363   -0.08   -0.0025105564266779995
0.0015135875922278068   -0.07416983029095509   -0.002457340309997276
-0.0014394967815356623   -0.07448481337136852   -0.0021836844110601507
-0.004258019280598632   -0.08   -0.0021980836989981614
0.001955064478309609   -0.07414420541450244   -0.0021381218564272414
-0.001256944925603567   -0.07453273607935076   -0.0020045298008250496
-0.004258019280598632   -0.08   -0.0021980836989981614
-0.0029600791832933076   -0.08   -0.0021595947168947093
0.001955064478309609   -0.07414420541450244   -0.0021381218564272414
-0.002273924005737351   -0.08   -0.0017159426889565119
-0.001256944925603567   -0.07453273607935076   -0.0020045298008250496
0.0024138279659583002   -0.07416572315235694   -0.001846596124388683
-0.002273924005737351   -0.08   -0.0017159426889565119
0.001955064478309609   -0.07414420541450244   -0.0021381218564272414
-0.001256944925603567   -0.07453273607935076   -0.0020045298008250496
-0.002273924005737351   -0.08   -0.0017159426889565119
-0.003930810376377494   -0.08   -0.0018897414335333441
-0.004258019280598632   -0.08   -0.0021980836989981614
-0.001256944925603567   -0.07453273607935076   -0.0020045298008250496
-0.002273924005737351   -0.08   -0.0017159426889565119
-0.004258019280598632   -0.08   -0.0021980836989981614
0.001955064478309609   -0.07414420541450244   -0.0021381218564272414
-0.009500537417319724   -0.0781383223355261   -0.0019660245346496477
-0.0056773057471360446   -0.0783483762320281   -0.0016827301884268298
-0.00800518462711431   -0.07853223452846621   -0.0022027593255208033
-0.009064500621607855   -0.0780506176378337   -0.00221360689936279
-0.0056773057471360446   -0.0783483762320281   -0.0016827301884268298
-0.006021516064529151   -0.07865189812502267   -0.001987543416652396
-0.00800518462711431   -0.07853223452846621   -0.0022027593255208033
-0.005866638020098757   -0.0785455869816799   -0.002098660142213979
-0.009064500621607855   -0.0780506176378337   -0.00221360689936279
-0.007800393038331584   -0.07845438375456715   -0.0022841912988042284
-0.005866638020098757   -0.0785455869816799   -0.002098660142213979
-0.00800518462711431   -0.07853223452846621   -0.0022027593255208033
-0.009064500621607855   -0.0780506176378337   -0.00221360689936279
-0.005866638020098757   -0.0785455869816799   -0.002098660142213979
-0.005282172501777526   -0.07821187234173875   -0.0019428551029108023
-0.0056773057471360446   -0.0783483762320281   -0.0016827301884268298
-0.009064500621607855   -0.0780506176378337   -0.00221360689936279
-0.005866638020098757   -0.0785455869816799   -0.002098660142213979
-0.0056773057471360446   -0.0783483762320281   -0.0016827301884268298
-0.00800518462711431   -0.07853223452846621   -0.0022027593255208033
-0.009064500621607855   -0.0780506176378337   -0.00221360689936279
-0.005282172501777526   -0.07821187234173875   -0.0019428551029108023
-0.007800393038331584   -0.07845438375456715   -0.0022841912988042284
-0.008688285485637237   -0.07805809918504994   -0.0024602340227545894
-0.005282172501777526   -0.07821187234173875   -0.0019428551029108023
-0.005866638020098757   -0.0785455869816799   -0.002098660142213979
-0.007800393038331584   -0.07845438375456715   -0.0022841912988042284
-0.005684982020492703   -0.07850632066735114   -0.0022011718730342196
-0.008688285485637237   -0.07805809918504994   -0.0024602340227545894
-0.007573584805602057   -0.07845821149766151   -0.002366448230353557
-0.005684982020492703   -0.07850632066735114   -0.0022011718730342196
-0.007800393038331584   -0.07845438375456715   -0.0022841912988042284
-0.008688285485637237   -0.07805809918504994   -0.0024602340227545894
-0.005684982020492703   -0.07850632066735114   -0.0022011718730342196
-0.004953260565640474   -0.07816982702533441   -0.002192301504009597
-0.005282172501777526   -0.07821187234173875   -0.0019428551029108023
-0.008688285485637237   -0.07805809918504994   -0.0024602340227545894
-0.005684982020492703   -0.07850632066735114   -0.0022011718730342196
-0.005282172501777526   -0.07821187234173875   -0.0019428551029108023
-0.007800393038331584   -0.07845438375456715   -0.0022841912988042284
-0.008688285485637237   -0.07805809918504994   -0.0024602340227545894
-0.004953260565640474   -0.07816982702533441   -0.002192301504009597
-0.007573584805602057   -0.07845821149766151   -0.002366448230353557
-0.008242051655535923   -0.0781662305981932   -0.002712173952729118
-0.004953260565640474   -0.07816982702533441   -0.002192301504009597
-0.005684982020492703   -0.07850632066735114   -0.0022011718730342196
-0.007573584805602057   -0.07845821149766151   -0.002366448230353557
-0.005529363978324329   -0.0785346657890172   -0.002294541871423587
-0.008242051655535923   -0.0781662305981932   -0.002712173952729118
-0.0073628802353697155   -0.07854409616939777   -0.0024498745731929557
-0.005529363978324329   -0.0785346657890172   -0.002294541871423587
-0.007573584805602057   -0.07845821149766151   -0.002366448230353557
-0.008242051655535923   -0.0781662305981932   -0.002712173952729118
-0.005529363978324329   -0.0785346657890172   -0.002294541871423587
-0.0045811422283592515   -0.07820519077371939   -0.002429959862567149
-0.004953260565640474   -0.07816982702533441   -0.002192301504009597
-0.008242051655535923   -0.0781662305981932   -0.002712173952729118
-0.005529363978324329   -0.0785346657890172   -0.002294541871423587
-0.004953260565640474   -0.07816982702533441   -0.002192301504009597
-0.007573584805602057   -0.07845821149766151   -0.002366448230353557
-0.00800518462711431   -0.07853223452846621   -0.0022027593255208033
-0.006021516064529151   -0.07865189812502267   -0.001987543416652396
-0.00691012741916014   -0.07892761825221234   -0.002411989508581135
-0.007800393038331584   -0.07845438375456715   -0.0022841912988042284
-0.006021516064529151   -0.07865189812502267   -0.001987543416652396
-0.0064874735064380015   -0.07883959336768946   -0.002231264108052052
-0.00691012741916014   -0.07892761825221234   -0.002411989508581135
-0.006350396067208516   -0.07874466554244851   -0.002234180597277037
-0.007800393038331584   -0.07845438375456715   -0.0022841912988042284
-0.0066940548158810455   -0.0788477432655759   -0.0023549217416068678
-0.006350396067208516   -0.07874466554244851   -0.002234180597277037
-0.00691012741916014   -0.07892761825221234   -0.002411989508581135
-0.007800393038331584   -0.07845438375456715   -0.0022841912988042284
-0.006350396067208516   -0.07874466554244851   -0.002234180597277037
-0.005866638020098757   -0.0785455869816799   -0.002098660142213979
-0.006021516064529151   -0.07865189812502267   -0.001987543416652396
-0.007800393038331584   -0.07845438375456715   -0.0022841912988042284
-0.006350396067208516   -0.07874466554244851   -0.002234180597277037
-0.006021516064529151   -0.07865189812502267   -0.001987543416652396
-0.00691012741916014   -0.07892761825221234   -0.002411989508581135
-0.007800393038331584   -0.07845438375456715   -0.0022841912988042284
-0.005866638020098757   -0.0785455869816799   -0.002098660142213979
-0.0066940548158810455   -0.0788477432655759   -0.0023549217416068678
-0.007573584805602057   -0.07845821149766151   -0.002366448230353557
-0.005866638020098757   -0.0785455869816799   -0.002098660142213979
-0.006350396067208516   -0.07874466554244851   -0.002234180597277037
-0.0066940548158810455   -0.0788477432655759   -0.0023549217416068678
-0.006197818183966118   -0.07871046148248445   -0.0022259408519666774
-0.007573584805602057   -0.07845821149766151   -0.002366448230353557
-0.0064851458496604855   -0.07884629644059411   -0.002297144087049449
-0.006197818183966118   -0.07871046148248445   -0.0022259408519666774
-0.0066940548158810455   -0.0788477432655759   -0.0023549217416068678
-0.007573584805602057   -0.07845821149766151   -0.002366448230353557
-0.006197818183966118   -0.07871046148248445   -0.0022259408519666774
-0.005684982020492703   -0.07850632066735114   -0.0022011718730342196
-0.005866638020098757   -0.0785455869816799   -0.002098660142213979
-0.007573584805602057   -0.07845821149766151   -0.002366448230353557
-0.006197818183966118   -0.07871046148248445   -0.0022259408519666774
-0.005866638020098757   -0.0785455869816799   -0.002098660142213979
-0.0066940548158810455   -0.0788477432655759   -0.0023549217416068678
-0.007573584805602057   -0.07845821149766151   -0.002366448230353557
-0.005684982020492703   -0.07850632066735114   -0.0022011718730342196
-0.0064851458496604855   -0.07884629644059411   -0.002297144087049449
-0.0073628802353697155   -0.07854409616939777   -0.0024498745731929557
-0.005684982020492703   -0.07850632066735114   -0.0022011718730342196
-0.006197818183966118   -0.07871046148248445   -0.0022259408519666774
-0.0064851458496604855   -0.07884629644059411   -0.002297144087049449
-0.006042684822236305   -0.07873420434352277   -0.0022089470351948685
-0.0073628802353697155   -0.07854409616939777   -0.0024498745731929557
-0.0062673490775967036   -0.07892163976165045   -0.002241647700927543
-0.006042684822236305   -0.07873420434352277   -0.0022089470351948685
-0.0064851458496604855   -0.07884629644059411   -0.002297144087049449
-0.0073628802353697155   -0.07854409616939777   -0.0024498745731929557
-0.006042684822236305   -0.07873420434352277   -0.0022089470351948685
-0.005529363978324329   -0.0785346657890172   -0.002294541871423587
-0.005684982020492703   -0.07850632066735114   -0.0022011718730342196
-0.0073628802353697155   -0.07854409616939777   -0.0024498745731929557
-0.006042684822236305   -0.07873420434352277   -0.0022089470351948685
-0.005684982020492703   -0.07850632066735114   -0.0022011718730342196
-0.0064851458496604855   -0.07884629644059411   -0.002297144087049449
-0.00691012741916014   -0.07892761825221234   -0.002411989508581135
-0.0064874735064380015   -0.07883959336768946   -0.002231264108052052
-0.005910096518611411   -0.07940480652243805   -0.0026423917239254855
-0.0066940548158810455   -0.0788477432655759   -0.0023549217416068678
-0.0064874735064380015   -0.07883959336768946   -0.002231264108052052
-0.006986985364890872   -0.07891855167181062   -0.0024711341113741385
-0.005910096518611411   -0.07940480652243805   -0.0026423917239254855
-0.006844988313158594   -0.07882804222097824   -0.0023700098162403984
-0.0066940548158810455   -0.0788477432655759   -0.0023549217416068678
-0.005645212354406938   -0.07933549332976392   -0.0024390542377938735
-0.006844988313158594   -0.07882804222097824   -0.0023700098162403984
-0.005910096518611411   -0.07940480652243805   -0.0026423917239254855
-0.0066940548158810455   -0.0788477432655759   -0.0023549217416068678
-0.006844988313158594   -0.07882804222097824   -0.0023700098162403984
-0.006350396067208516   -0.07874466554244851   -0.002234180597277037
-0.0064874735064380015   -0.07883959336768946   -0.002231264108052052
-0.0066940548158810455   -0.0788477432655759   -0.0023549217416068678
-0.006844988313158594   -0.07882804222097824   -0.0023700098162403984
-0.0064874735064380015   -0.07883959336768946   -0.002231264108052052
-0.005910096518611411   -0.07940480652243805   -0.0026423917239254855
-0.0066940548158810455   -0.0788477432655759   -0.0023549217416068678
-0.006350396067208516   -0.07874466554244851   -0.002234180597277037
-0.005645212354406938   -0.07933549332976392   -0.0024390542377938735
-0.0064851458496604855   -0.07884629644059411   -0.002297144087049449
-0.006350396067208516   -0.07874466554244851   -0.002234180597277037
-0.006844988313158594   -0.07882804222097824   -0.0023700098162403984
-0.005645212354406938   -0.07933549332976392   -0.0024390542377938735
-0.006674660066546104   -0.07879924972403347   -0.002255298518500804
-0.0064851458496604855   -0.07884629644059411   -0.002297144087049449
-0.005399776524147819   -0.07933177513260366   -0.002236405578094089
-0.006674660066546104   -0.07879924972403347   -0.002255298518500804
-0.005645212354406938   -0.07933549332976392   -0.0024390542377938735
-0.0064851458496604855   -0.07884629644059411   -0.002297144087049449
-0.006674660066546104   -0.07879924972403347   -0.002255298518500804
-0.006197818183966118   -0.07871046148248445   -0.0022259408519666774
-0.006350396067208516   -0.07874466554244851   -0.002234180597277037
-0.0064851458496604855   -0.07884629644059411   -0.002297144087049449
-0.006674660066546104   -0.07879924972403347   -0.002255298518500804
-0.006350396067208516   -0.07874466554244851   -0.002234180597277037
-0.005645212354406938   -0.07933549332976392   -0.0024390542377938735
-0.0064851458496604855   -0.07884629644059411   -0.002297144087049449
-0.006197818183966118   -0.07871046148248445   -0.0022259408519666774
-0.005399776524147819   -0.07933177513260366   -0.002236405578094089
-0.0062673490775967036   -0.07892163976165045   -0.002241647700927543
-0.006197818183966118   -0.07871046148248445   -0.0022259408519666774
-0.006674660066546104   -0.07879924972403347   -0.002255298518500804
-0.005399776524147819   -0.07933177513260366   -0.002236405578094089
-0.0064994931737304175   -0.07882246977050542   -0.0021331129010290877
-0.0062673490775967036   -0.07892163976165045   -0.002241647700927543
-0.005136270465087294   -0.07939010719773602   -0.0020333024755980777
-0.0064994931737304175   -0.07882246977050542   -0.0021331129010290877
-0.005399776524147819   -0.07933177513260366   -0.002236405578094089
-0.0062673490775967036   -0.07892163976165045   -0.002241647700927543
-0.0064994931737304175   -0.07882246977050542   -0.0021331129010290877
-0.006042684822236305   -0.07873420434352277   -0.0022089470351948685
-0.006197818183966118   -0.07871046148248445   -0.0022259408519666774
-0.0062673490775967036   -0.07892163976165045   -0.002241647700927543
-0.0064994931737304175   -0.07882246977050542   -0.0021331129010290877
-0.006197818183966118   -0.07871046148248445   -0.0022259408519666774
-0.005399776524147819   -0.07933177513260366   -0.002236405578094089
-0.005910096518611411   -0.07940480652243805   -0.0026423917239254855
-0.006986985364890872   -0.07891855167181062   -0.0024711341113741385
-0.004925890637173914   -0.08   -0.002819366698100502
-0.005645212354406938   -0.07933549332976392   -0.0024390542377938735
-0.006986985364890872   -0.07891855167181062   -0.0024711341113741385
-0.007710412878723553   -0.07883373359903323   -0.002699013735453254
-0.004925890637173914   -0.08   -0.002819366698100502
-0.0075249312288624805   -0.07874829654964732   -0.0024988387987921828
-0.005645212354406938   -0.07933549332976392   -0.0024390542377938735
-0.004592743482260363   -0.08   -0.0025105564266779995
-0.0075249312288624805   -0.07874829654964732   -0.0024988387987921828
-0.004925890637173914   -0.08   -0.002819366698100502
-0.005645212354406938   -0.07933549332976392   -0.0024390542377938735
-0.0075249312288624805   -0.07874829654964732   -0.0024988387987921828
-0.006844988313158594   -0.07882804222097824   -0.0023700098162403984
-0.006986985364890872   -0.07891855167181062   -0.0024711341113741385
-0.005645212354406938   -0.07933549332976392   -0.0024390542377938735
-0.0075249312288624805   -0.07874829654964732   -0.0024988387987921828
-0.006986985364890872   -0.07891855167181062   -0.0024711341113741385
-0.004925890637173914   -0.08   -0.002819366698100502
-0.005645212354406938   -0.07933549332976392   -0.0024390542377938735
-0.006844988313158594   -0.07882804222097824   -0.0023700098162403984
-0.004592743482260363   -0.08   -0.0025105564266779995
-0.005399776524147819   -0.07933177513260366   -0.002236405578094089
-0.006844988313158594   -0.07882804222097824   -0.0023700098162403984
-0.0075249312288624805   -0.07874829654964732   -0.0024988387987921828
-0.004592743482260363   -0.08   -0.0025105564266779995
-0.0072802119868180986   -0.07872884846492578   -0.0022835365103409814
-0.005399776524147819   -0.07933177513260366   -0.002236405578094089
-0.004258019280598632   -0.08   -0.0021980836989981614
-0.0072802119868180986   -0.07872884846492578   -0.0022835365103409814
-0.004592743482260363   -0.08   -0.0025105564266779995
-0.005399776524147819   -0.07933177513260366   -0.002236405578094089
-0.0072802119868180986   -0.07872884846492578   -0.0022835365103409814
-0.006674660066546104   -0.07879924972403347   -0.002255298518500804
-0.006844988313158594   -0.07882804222097824   -0.0023700098162403984
-0.005399776524147819   -0.07933177513260366   -0.002236405578094089
-0.0072802119868180986   -0.07872884846492578   -0.0022835365103409814
-0.006844988313158594   -0.07882804222097824   -0.0023700098162403984
-0.004592743482260363   -0.08   -0.0025105564266779995
-0.005399776524147819   -0.07933177513260366   -0.002236405578094089
-0.006674660066546104   -0.07879924972403347   -0.002255298518500804
-0.004258019280598632   -0.08   -0.0021980836989981614
-0.005136270465087294   -0.07939010719773602   -0.0020333024755980777
-0.006674660066546104   -0.07879924972403347   -0.002255298518500804
-0.0072802119868180986   -0.07872884846492578   -0.0022835365103409814
-0.004258019280598632   -0.08   -0.0021980836989981614
-0.007049977961086074   -0.07876264770277681   -0.0020599152934560943
-0.005136270465087294   -0.07939010719773602   -0.0020333024755980777
-0.003930810376377494   -0.08   -0.0018897414335333441
-0.007049977961086074   -0.07876264770277681   -0.0020599152934560943
-0.004258019280598632   -0.08   -0.0021980836989981614
-0.005136270465087294   -0.07939010719773602   -0.0020333024755980777
-0.007049977961086074   -0.07876264770277681   -0.0020599152934560943
-0.0064994931737304175   -0.07882246977050542   -0.0021331129010290877
-0.006674660066546104   -0.07879924972403347   -0.002255298518500804
-0.005136270465087294   -0.07939010719773602   -0.0020333024755980777
-0.007049977961086074   -0.07876264770277681   -0.0020599152934560943
-0.006674660066546104   -0.07879924972403347   -0.002255298518500804
-0.004258019280598632   -0.08   -0.0021980836989981614
-0.004925890637173914   -0.08   -0.002819366698100502
-0.007710412878723553   -0.07883373359903323   -0.002699013735453254
-0.0042120355450446624   -0.08   -0.0030337011722972097
-0.004592743482260363   -0.08   -0.0025105564266779995
-0.007710412878723553   -0.07883373359903323   -0.002699013735453254
-0.00911635079119309   -0.07844791245492981   -0.002940604928594297
-0.0042120355450446624   -0.08   -0.0030337011722972097
-0.00862350498731629   -0.07837592447624327   -0.002612186930825714
-0.004592743482260363   -0.08   -0.0025105564266779995
-0.0035155314875885873   -0.08   -0.0025869596198329595
-0.00862350498731629   -0.07837592447624327   -0.002612186930825714
-0.0042120355450446624   -0.08   -0.0030337011722972097
-0.004592743482260363   -0.08   -0.0025105564266779995
-0.00862350498731629   -0.07837592447624327   -0.002612186930825714
-0.0075249312288624805   -0.07874829654964732   -0.0024988387987921828
-0.007710412878723553   -0.07883373359903323   -0.002699013735453254
-0.004592743482260363   -0.08   -0.0025105564266779995
-0.00862350498731629   -0.07837592447624327   -0.002612186930825714
-0.007710412878723553   -0.07883373359903323   -0.002699013735453254
-0.0042120355450446624   -0.08   -0.0030337011722972097
-0.004592743482260363   -0.08   -0.0025105564266779995
-0.0075249312288624805   -0.07874829654964732   -0.0024988387987921828
-0.0035155314875885873   -0.08   -0.0025869596198329595
-0.004258019280598632   -0.08   -0.0021980836989981614
-0.0075249312288624805   -0.07874829654964732   -0.0024988387987921828
-0.00862350498731629   -0.07837592447624327   -0.002612186930825714
-0.0035155314875885873   -0.08   -0.0025869596198329595
-0.008170622976379558   -0.07836602845794859   -0.0022616134510511873
-0.004258019280598632   -0.08   -0.0021980836989981614
-0.0029600791832933076   -0.08   -0.0021595947168947093
-0.008170622976379558   -0.07836602845794859   -0.0022616134510511873
-0.0035155314875885873   -0.08   -0.0025869596198329595
-0.004258019280598632   -0.08   -0.0021980836989981614
-0.008170622976379558   -0.07836602845794859   -0.0022616134510511873
-0.0072802119868180986   -0.07872884846492578   -0.0022835365103409814
-0.0075249312288624805   -0.07874829654964732   -0.0024988387987921828
-0.004258019280598632   -0.08   -0.0021980836989981614
-0.008170622976379558   -0.07836602845794859   -0.0022616134510511873
-0.0075249312288624805   -0.07874829654964732   -0.0024988387987921828
-0.0035155314875885873   -0.08   -0.0025869596198329595
-0.004258019280598632   -0.08   -0.0021980836989981614
-0.0072802119868180986   -0.07872884846492578   -0.0022835365103409814
-0.0029600791832933076   -0.08   -0.0021595947168947093
-0.003930810376377494   -0.08   -0.0018897414335333441
-0.0072802119868180986   -0.07872884846492578   -0.0022835365103409814
-0.008170622976379558   -0.07836602845794859   -0.0022616134510511873
-0.0029600791832933076   -0.08   -0.0021595947168947093
-0.00759869186416377   -0.07846051126438897   -0.0018949458355190134
-0.003930810376377494   -0.08   -0.0018897414335333441
-0.002273924005737351   -0.08   -0.0017159426889565119
-0.00759869186416377   -0.07846051126438897   -0.0018949458355190134
-0.0029600791832933076   -0.08   -0.0021595947168947093
-0.003930810376377494   -0.08   -0.0018897414335333441
-0.00759869186416377   -0.07846051126438897   -0.0018949458355190134
-0.007049977961086074   -0.07876264770277681   -0.0020599152934560943
-0.0072802119868180986   -0.07872884846492578   -0.0022835365103409814
-0.003930810376377494   -0.08   -0.0018897414335333441
-0.00759869186416377   -0.07846051126438897   -0.0018949458355190134
-0.0072802119868180986   -0.07872884846492578   -0.0022835365103409814
-0.0029600791832933076   -0.08   -0.0021595947168947093
-0.0056773057471360446   -0.0783483762320281   -0.0016827301884268298
-0.0023147062086518013   -0.07538727039177975   -0.0014540483201642717
-0.006021516064529151   -0.07865189812502267   -0.001987543416652396
-0.005282172501777526   -0.07821187234173875   -0.0019428551029108023
-0.0023147062086518013   -0.07538727039177975   -0.0014540483201642717
-0.0043208227606359745   -0.07561617211994828   -0.0017777964268756116
-0.006021516064529151   -0.07865189812502267   -0.001987543416652396
-0.004210833712680138   -0.07548753586363086   -0.0018768524089577082
-0.005282172501777526   -0.07821187234173875   -0.0019428551029108023
-0.005866638020098757   -0.0785455869816799   -0.002098660142213979
-0.004210833712680138   -0.07548753586363086   -0.0018768524089577082
-0.006021516064529151   -0.07865189812502267   -0.001987543416652396
-0.005282172501777526   -0.07821187234173875   -0.0019428551029108023
-0.004210833712680138   -0.07548753586363086   -0.0018768524089577082
-0.001999719512429104   -0.07522809812677474   -0.0016788275982626594
-0.0023147062086518013   -0.07538727039177975   -0.0014540483201642717
-0.005282172501777526   -0.07821187234173875   -0.0019428551029108023
-0.004210833712680138   -0.07548753586363086   -0.0018768524089577082
-0.0023147062086518013   -0.07538727039177975   -0.0014540483201642717
-0.006021516064529151   -0.07865189812502267   -0.001987543416652396
-0.005282172501777526   -0.07821187234173875   -0.0019428551029108023
-0.001999719512429104   -0.07522809812677474   -0.0016788275982626594
-0.005866638020098757   -0.0785455869816799   -0.002098660142213979
-0.004953260565640474   -0.07816982702533441   -0.002192301504009597
-0.001999719512429104   -0.07522809812677474   -0.0016788275982626594
-0.004210833712680138   -0.07548753586363086   -0.0018768524089577082
-0.005866638020098757   -0.0785455869816799   -0.002098660142213979
-0.004087020064744655   -0.07541622381486458   -0.001966971190840845
-0.004953260565640474   -0.07816982702533441   -0.002192301504009597
-0.005684982020492703   -0.07850632066735114   -0.0022011718730342196
-0.004087020064744655   -0.07541622381486458   -0.001966971190840845
-0.005866638020098757   -0.0785455869816799   -0.002098660142213979
-0.004953260565640474   -0.07816982702533441   -0.002192301504009597
-0.004087020064744655   -0.07541622381486458   -0.001966971190840845
-0.0017518635004320797   -0.07515224595088885   -0.001890359154377002
-0.001999719512429104   -0.07522809812677474   -0.0016788275982626594
-0.004953260565640474   -0.07816982702533441   -0.002192301504009597
-0.004087020064744655   -0.07541622381486458   -0.001966971190840845
-0.001999719512429104   -0.07522809812677474   -0.0016788275982626594
-0.005866638020098757   -0.0785455869816799   -0.002098660142213979
-0.004953260565640474   -0.07816982702533441   -0.002192301504009597
-0.0017518635004320797   -0.07515224595088885   -0.001890359154377002
-0.005684982020492703   -0.07850632066735114   -0.0022011718730342196
-0.0045811422283592515   -0.07820519077371939   -0.002429959862567149
-0.0017518635004320797   -0.07515224595088885   -0.001890359154377002
-0.004087020064744655   -0.07541622381486458   -0.001966971190840845
-0.005684982020492703   -0.07850632066735114   -0.0022011718730342196
-0.003992088307883132   -0.07540024428409484   -0.002048437848170092
-0.0045811422283592515   -0.07820519077371939   -0.002429959862567149
-0.005529363978324329   -0.0785346657890172   -0.002294541871423587
-0.003992088307883132   -0.07540024428409484   -0.002048437848170092
-0.005684982020492703   -0.07850632066735114   -0.0022011718730342196
-0.0045811422283592515   -0.07820519077371939   -0.002429959862567149
-0.003992088307883132   -0.07540024428409484   -0.002048437848170092
-0.0014812093337497492   -0.07513793058087   -0.0020880824043283484
-0.0017518635004320797   -0.07515224595088885   -0.001890359154377002
-0.0045811422283592515   -0.07820519077371939   -0.002429959862567149
-0.003992088307883132   -0.07540024428409484   -0.002048437848170092
-0.0017518635004320797   -0.07515224595088885   -0.001890359154377002
-0.005684982020492703   -0.07850632066735114   -0.0022011718730342196
-0.006021516064529151   -0.07865189812502267   -0.001987543416652396
-0.0043208227606359745   -0.07561617211994828   -0.0017777964268756116
-0.0064874735064380015   -0.07883959336768946   -0.002231264108052052
-0.005866638020098757   -0.0785455869816799   -0.002098660142213979
-0.0043208227606359745   -0.07561617211994828   -0.0017777964268756116
-0.0063009479989095   -0.07569694365282346   -0.002041885117070982
-0.0064874735064380015   -0.07883959336768946   -0.002231264108052052
-0.006208461832660203   -0.07558471745821621   -0.0020473512097340446
-0.005866638020098757   -0.0785455869816799   -0.002098660142213979
-0.006350396067208516   -0.07874466554244851   -0.002234180597277037
-0.006208461832660203   -0.07558471745821621   -0.0020473512097340446
-0.0064874735064380015   -0.07883959336768946   -0.002231264108052052
-0.005866638020098757   -0.0785455869816799   -0.002098660142213979
-0.006208461832660203   -0.07558471745821621   -0.0020473512097340446
-0.004210833712680138   -0.07548753586363086   -0.0018768524089577082
-0.0043208227606359745   -0.07561617211994828   -0.0017777964268756116
-0.005866638020098757   -0.0785455869816799   -0.002098660142213979
-0.006208461832660203   -0.07558471745821621   -0.0020473512097340446
-0.0043208227606359745   -0.07561617211994828   -0.0017777964268756116
-0.0064874735064380015   -0.07883959336768946   -0.002231264108052052
-0.005866638020098757   -0.0785455869816799   -0.002098660142213979
-0.004210833712680138   -0.07548753586363086   -0.0018768524089577082
-0.006350396067208516   -0.07874466554244851   -0.002234180597277037
-0.005684982020492703   -0.07850632066735114   -0.0022011718730342196
-0.004210833712680138   -0.07548753586363086   -0.0018768524089577082
-0.006208461832660203   -0.07558471745821621   -0.0020473512097340446
-0.006350396067208516   -0.07874466554244851   -0.002234180597277037
-0.006112806973345832   -0.07552416723671823   -0.002044540611836798
-0.005684982020492703   -0.07850632066735114   -0.0022011718730342196
-0.006197818183966118   -0.07871046148248445   -0.0022259408519666774
-0.006112806973345832   -0.07552416723671823   -0.002044540611836798
-0.006350396067208516   -0.07874466554244851   -0.002234180597277037
-0.005684982020492703   -0.07850632066735114   -0.0022011718730342196
-0.006112806973345832   -0.07552416723671823   -0.002044540611836798
-0.004087020064744655   -0.07541622381486458   -0.001966971190840845
-0.004210833712680138   -0.07548753586363086   -0.0018768524089577082
-0.005684982020492703   -0.07850632066735114   -0.0022011718730342196
-0.006112806973345832   -0.07552416723671823   -0.002044540611836798
-0.004210833712680138   -0.07548753586363086   -0.0018768524089577082
-0.006350396067208516   -0.07874466554244851   -0.002234180597277037
-0.005684982020492703   -0.07850632066735114   -0.0022011718730342196
-0.004087020064744655   -0.07541622381486458   -0.001966971190840845
-0.006197818183966118   -0.07871046148248445   -0.0022259408519666774
-0.005529363978324329   -0.0785346657890172   -0.002294541871423587
-0.004087020064744655   -0.07541622381486458   -0.001966971190840845
-0.006112806973345832   -0.07552416723671823   -0.002044540611836798
-0.006197818183966118   -0.07871046148248445   -0.0022259408519666774
-0.006020555827330293   -0.07551279976259691   -0.002033374822327854
-0.005529363978324329   -0.0785346657890172   -0.002294541871423587
-0.006042684822236305   -0.07873420434352277   -0.0022089470351948685
-0.006020555827330293   -0.07551279976259691   -0.002033374822327854
-0.006197818183966118   -0.07871046148248445   -0.0022259408519666774
-0.005529363978324329   -0.0785346657890172   -0.002294541871423587
-0.006020555827330293   -0.07551279976259691   -0.002033374822327854
-0.003992088307883132   -0.07540024428409484   -0.002048437848170092
-0.004087020064744655   -0.07541622381486458   -0.001966971190840845
-0.005529363978324329   -0.0785346657890172   -0.002294541871423587
-0.006020555827330293   -0.07551279976259691   -0.002033374822327854
-0.004087020064744655   -0.07541622381486458   -0.001966971190840845
-0.006197818183966118   -0.07871046148248445   -0.0022259408519666774
-0.0064874735064380015   -0.07883959336768946   -0.002231264108052052
-0.0063009479989095   -0.07569694365282346   -0.002041885117070982
-0.006986985364890872   -0.07891855167181062   -0.0024711341113741385
-0.006350396067208516   -0.07874466554244851   -0.002234180597277037
-0.0063009479989095   -0.07569694365282346   -0.002041885117070982
-0.008267350775971042   -0.07562516798791694   -0.0022890410819926942
-0.006986985364890872   -0.07891855167181062   -0.0024711341113741385
-0.00817559519388111   -0.07552550158116685   -0.0022047692941798164
-0.006350396067208516   -0.07874466554244851   -0.002234180597277037
-0.006844988313158594   -0.07882804222097824   -0.0023700098162403984
-0.00817559519388111   -0.07552550158116685   -0.0022047692941798164
-0.006986985364890872   -0.07891855167181062   -0.0024711341113741385
-0.006350396067208516   -0.07874466554244851   -0.002234180597277037
-0.00817559519388111   -0.07552550158116685   -0.0022047692941798164
-0.006208461832660203   -0.07558471745821621   -0.0020473512097340446
-0.0063009479989095   -0.07569694365282346   -0.002041885117070982
-0.006350396067208516   -0.07874466554244851   -0.002234180597277037
-0.00817559519388111   -0.07552550158116685   -0.0022047692941798164
-0.0063009479989095   -0.07569694365282346   -0.002041885117070982
-0.006986985364890872   -0.07891855167181062   -0.0024711341113741385
-0.006350396067208516   -0.07874466554244851   -0.002234180597277037
-0.006208461832660203   -0.07558471745821621   -0.0020473512097340446
-0.006844988313158594   -0.07882804222097824   -0.0023700098162403984
-0.006197818183966118   -0.07871046148248445   -0.0022259408519666774
-0.006208461832660203   -0.07558471745821621   -0.0020473512097340446
-0.00817559519388111   -0.07552550158116685   -0.0022047692941798164
-0.006844988313158594   -0.07882804222097824   -0.0023700098162403984
-0.008072624394535396   -0.07547664308290486   -0.002112342963809018
-0.006197818183966118   -0.07871046148248445   -0.0022259408519666774
-0.006674660066546104   -0.07879924972403347   -0.002255298518500804
-0.008072624394535396   -0.07547664308290486   -0.002112342963809018
-0.006844988313158594   -0.07882804222097824   -0.0023700098162403984
-0.006197818183966118   -0.07871046148248445   -0.0022259408519666774
-0.008072624394535396   -0.07547664308290486   -0.002112342963809018
-0.006112806973345832   -0.07552416723671823   -0.002044540611836798
-0.006208461832660203   -0.07558471745821621   -0.0020473512097340446
-0.006197818183966118   -0.07871046148248445   -0.0022259408519666774
-0.008072624394535396   -0.07547664308290486   -0.002112342963809018
-0.006208461832660203   -0.07558471745821621   -0.0020473512097340446
-0.006844988313158594   -0.07882804222097824   -0.0023700098162403984
-0.006197818183966118   -0.07871046148248445   -0.0022259408519666774
-0.006112806973345832   -0.07552416723671823   -0.002044540611836798
-0.006674660066546104   -0.07879924972403347   -0.002255298518500804
-0.006042684822236305   -0.07873420434352277   -0.0022089470351948685
-0.006112806973345832   -0.07552416723671823   -0.002044540611836798
-0.008072624394535396   -0.07547664308290486   -0.002112342963809018
-0.006674660066546104   -0.07879924972403347   -0.002255298518500804
-0.00796922203287148   -0.07547369703547449   -0.0020107684993796587
-0.006042684822236305   -0.07873420434352277   -0.0022089470351948685
-0.0064994931737304175   -0.07882246977050542   -0.0021331129010290877
-0.00796922203287148   -0.07547369703547449   -0.0020107684993796587
-0.006674660066546104   -0.07879924972403347   -0.002255298518500804
-0.006042684822236305   -0.07873420434352277   -0.0022089470351948685
-0.00796922203287148   -0.07547369703547449   -0.0020107684993796587
-0.006020555827330293   -0.07551279976259691   -0.002033374822327854
-0.006112806973345832   -0.07552416723671823   -0.002044540611836798
-0.006042684822236305   -0.07873420434352277   -0.0022089470351948685
-0.00796922203287148   -0.07547369703547449   -0.0020107684993796587
-0.006112806973345832   -0.07552416723671823   -0.002044540611836798
-0.006674660066546104   -0.07879924972403347   -0.002255298518500804
-0.006986985364890872   -0.07891855167181062   -0.0024711341113741385
-0.008267350775971042   -0.07562516798791694   -0.0022890410819926942
-0.007710412878723553   -0.07883373359903323   -0.002699013735453254
-0.006844988313158594   -0.07882804222097824   -0.0023700098162403984
-0.008267350775971042   -0.07562516798791694   -0.0022890410819926942
-0.010427836908589663   -0.07539133389874471   -0.0025160423391414333
-0.007710412878723553   -0.07883373359903323   -0.002699013735453254
-0.010315530322965498   -0.07530425876022462   -0.0023440369939405894
-0.006844988313158594   -0.07882804222097824   -0.0023700098162403984
-0.0075249312288624805   -0.07874829654964732   -0.0024988387987921828
-0.010315530322965498   -0.07530425876022462   -0.0023440369939405894
-0.007710412878723553   -0.07883373359903323   -0.002699013735453254
-0.006844988313158594   -0.07882804222097824   -0.0023700098162403984
-0.010315530322965498   -0.07530425876022462   -0.0023440369939405894
-0.00817559519388111   -0.07552550158116685   -0.0022047692941798164
-0.008267350775971042   -0.07562516798791694   -0.0022890410819926942
-0.006844988313158594   -0.07882804222097824   -0.0023700098162403984
-0.010315530322965498   -0.07530425876022462   -0.0023440369939405894
-0.008267350775971042   -0.07562516798791694   -0.0022890410819926942
-0.007710412878723553   -0.07883373359903323   -0.002699013735453254
-0.006844988313158594   -0.07882804222097824   -0.0023700098162403984
-0.00817559519388111   -0.07552550158116685   -0.0022047692941798164
-0.0075249312288624805   -0.07874829654964732   -0.0024988387987921828
-0.006674660066546104   -0.07879924972403347   -0.002255298518500804
-0.00817559519388111   -0.07552550158116685   -0.0022047692941798164
-0.010315530322965498   -0.07530425876022462   -0.0023440369939405894
-0.0075249312288624805   -0.07874829654964732   -0.0024988387987921828
-0.01016048686229861   -0.07526704535906979   -0.00216447416058319
-0.006674660066546104   -0.07879924972403347   -0.002255298518500804
-0.0072802119868180986   -0.07872884846492578   -0.0022835365103409814
-0.01016048686229861   -0.07526704535906979   -0.00216447416058319
-0.0075249312288624805   -0.07874829654964732   -0.0024988387987921828
-0.006674660066546104   -0.07879924972403347   -0.002255298518500804
-0.01016048686229861   -0.07526704535906979   -0.00216447416058319
-0.008072624394535396   -0.07547664308290486   -0.002112342963809018
-0.00817559519388111   -0.07552550158116685   -0.0022047692941798164
-0.006674660066546104   -0.07879924972403347   -0.002255298518500804
-0.01016048686229861   -0.07526704535906979   -0.00216447416058319
-0.00817559519388111   -0.07552550158116685   -0.0022047692941798164
-0.0075249312288624805   -0.07874829654964732   -0.0024988387987921828
-0.006674660066546104   -0.07879924972403347   -0.002255298518500804
-0.008072624394535396   -0.07547664308290486   -0.002112342963809018
-0.0072802119868180986   -0.07872884846492578   -0.0022835365103409814
-0.0064994931737304175   -0.07882246977050542   -0.0021331129010290877
-0.008072624394535396   -0.07547664308290486   -0.002112342963809018
-0.01016048686229861   -0.07526704535906979   -0.00216447416058319
-0.0072802119868180986   -0.07872884846492578   -0.0022835365103409814
-0.010025137978720079   -0.07527975400366692   -0.0019723466809583637
-0.0064994931737304175   -0.07882246977050542   -0.0021331129010290877
-0.007049977961086074   -0.07876264770277681   -0.0020599152934560943
-0.010025137978720079   -0.07527975400366692   -0.0019723466809583637
-0.0072802119868180986   -0.07872884846492578   -0.0022835365103409814
-0.0064994931737304175   -0.07882246977050542   -0.0021331129010290877
-0.010025137978720079   -0.07527975400366692   -0.0019723466809583637
-0.00796922203287148   -0.07547369703547449   -0.0020107684993796587
-0.008072624394535396   -0.07547664308290486   -0.002112342963809018
-0.0064994931737304175   -0.07882246977050542   -0.0021331129010290877
-0.010025137978720079   -0.07527975400366692   -0.0019723466809583637
-0.008072624394535396   -0.07547664308290486   -0.002112342963809018
-0.0072802119868180986   -0.07872884846492578   -0.0022835365103409814
-0.007710412878723553   -0.07883373359903323   -0.002699013735453254
-0.010427836908589663   -0.07539133389874471   -0.0025160423391414333
-0.00911635079119309   -0.07844791245492981   -0.002940604928594297
-0.0075249312288624805   -0.07874829654964732   -0.0024988387987921828
-0.010427836908589663   -0.07539133389874471   -0.0025160423391414333
-0.013210042731156469   -0.07501104386259363   -0.0027338463349600717
-0.00911635079119309   -0.07844791245492981   -0.002940604928594297
-0.012848553480127846   -0.0749166731440367   -0.002462287231018437
-0.0075249312288624805   -0.07874829654964732   -0.0024988387987921828
-0.00862350498731629   -0.07837592447624327   -0.002612186930825714
-0.012848553480127846   -0.0749166731440367   -0.002462287231018437
-0.00911635079119309   -0.07844791245492981   -0.002940604928594297
-0.0075249312288624805   -0.07874829654964732   -0.0024988387987921828
-0.012848553480127846   -0.0749166731440367   -0.002462287231018437
-0.010315530322965498   -0.07530425876022462   -0.0023440369939405894
-0.010427836908589663   -0.07539133389874471   -0.0025160423391414333
-0.0075249312288624805   -0.07874829654964732   -0.0024988387987921828
-0.012848553480127846   -0.0749166731440367   -0.002462287231018437
-0.010427836908589663   -0.07539133389874471   -0.0025160423391414333
-0.00911635079119309   -0.07844791245492981   -0.002940604928594297
-0.0075249312288624805   -0.07874829654964732   -0.0024988387987921828
-0.010315530322965498   -0.07530425876022462   -0.0023440369939405894
-0.00862350498731629   -0.07837592447624327   -0.002612186930825714
-0.0072802119868180986   -0.07872884846492578   -0.0022835365103409814
-0.010315530322965498   -0.07530425876022462   -0.0023440369939405894
-0.012848553480127846   -0.0749166731440367   -0.002462287231018437
-0.00862350498731629   -0.07837592447624327   -0.002612186930825714
-0.012524486342554321   -0.0748822518856811   -0.0021748827823872704
-0.0072802119868180986   -0.07872884846492578   -0.0022835365103409814
-0.008170622976379558   -0.07836602845794859   -0.0022616134510511873
-0.012524486342554321   -0.0748822518856811   -0.0021748827823872704
-0.00862350498731629   -0.07837592447624327   -0.002612186930825714
-0.0072802119868180986   -0.07872884846492578   -0.0022835365103409814
-0.012524486342554321   -0.0748822518856811   -0.0021748827823872704
-0.01016048686229861   -0.07526704535906979   -0.00216447416058319
-0.010315530322965498   -0.07530425876022462   -0.0023440369939405894
-0.0072802119868180986   -0.07872884846492578   -0.0022835365103409814
-0.012524486342554321   -0.0748822518856811   -0.0021748827823872704
-0.010315530322965498   -0.07530425876022462   -0.0023440369939405894
-0.00862350498731629   -0.07837592447624327   -0.002612186930825714
-0.0072802119868180986   -0.07872884846492578   -0.0022835365103409814
-0.01016048686229861   -0.07526704535906979   -0.00216447416058319
-0.008170622976379558   -0.07836602845794859   -0.0022616134510511873
-0.007049977961086074   -0.07876264770277681   -0.0020599152934560943
-0.01016048686229861   -0.07526704535906979   -0.00216447416058319
-0.012524486342554321   -0.0748822518856811   -0.0021748827823872704
-0.008170622976379558   -0.07836602845794859   -0.0022616134510511873
-0.012104473517597403   -0.07492552499639012   -0.0018743656657973212
-0.007049977961086074   -0.07876264770277681   -0.0020599152934560943
-0.00759869186416377   -0.07846051126438897   -0.0018949458355190134
-0.012104473517597403   -0.07492552499639012   -0.0018743656657973212
-0.008170622976379558   -0.07836602845794859   -0.0022616134510511873
-0.007049977961086074   -0.07876264770277681   -0.0020599152934560943
-0.012104473517597403   -0.07492552499639012   -0.0018743656657973212
-0.010025137978720079   -0.07527975400366692   -0.0019723466809583637
-0.01016048686229861   -0.07526704535906979   -0.00216447416058319
-0.007049977961086074   -0.07876264770277681   -0.0020599152934560943
-0.012104473517597403   -0.07492552499639012   -0.0018743656657973212
-0.01016048686229861   -0.07526704535906979   -0.00216447416058319
-0.008170622976379558   -0.07836602845794859   -0.0022616134510511873
-0.0023147062086518013   -0.07538727039177975   -0.0014540483201642717
0.0004122786555969105   -0.06993932150204735   -0.001202847670871473
-0.0043208227606359745   -0.07561617211994828   -0.0017777964268756116
-0.001999719512429104   -0.07522809812677474   -0.0016788275982626594
0.0004122786555969105   -0.06993932150204735   -0.001202847670871473
-0.0029706843911035275   -0.07010713266824123   -0.0015206726018452531
-0.0043208227606359745   -0.07561617211994828   -0.0017777964268756116
-0.0029124032414880496   -0.06997232599725821   -0.001599237319382802
-0.001999719512429104   -0.07522809812677474   -0.0016788275982626594
-0.004210833712680138   -0.07548753586363086   -0.0018768524089577082
-0.0029124032414880496   -0.06997232599725821   -0.001599237319382802
-0.0043208227606359745   -0.07561617211994828   -0.0017777964268756116
-0.001999719512429104   -0.07522809812677474   -0.0016788275982626594
-0.0029124032414880496   -0.06997232599725821   -0.001599237319382802
0.0006321673917812671   -0.06977761386731089   -0.001381786555551631
0.0004122786555969105   -0.06993932150204735   -0.001202847670871473
-0.001999719512429104   -0.07522809812677474   -0.0016788275982626594
-0.0029124032414880496   -0.06997232599725821   -0.001599237319382802
0.0004122786555969105   -0.06993932150204735   -0.001202847670871473
-0.0043208227606359745   -0.07561617211994828   -0.0017777964268756116
-0.001999719512429104   -0.07522809812677474   -0.0016788275982626594
0.0006321673917812671   -0.06977761386731089   -0.001381786555551631
-0.004210833712680138   -0.07548753586363086   -0.0018768524089577082
-0.0017518635004320797   -0.07515224595088885   -0.001890359154377002
0.0006321673917812671   -0.06977761386731089   -0.001381786555551631
-0.0029124032414880496   -0.06997232599725821   -0.001599237319382802
-0.004210833712680138   -0.07548753586363086   -0.0018768524089577082
-0.0028460459001220053   -0.06988425211467324   -0.001668643220397334
-0.0017518635004320797   -0.07515224595088885   -0.001890359154377002
-0.004087020064744655   -0.07541622381486458   -0.001966971190840845
-0.0028460459001220053   -0.06988425211467324   -0.001668643220397334
-0.004210833712680138   -0.07548753586363086   -0.0018768524089577082
-0.0017518635004320797   -0.07515224595088885   -0.001890359154377002
-0.0028460459001220053   -0.06988425211467324   -0.001668643220397334
0.0007939113681516217   -0.0696841345416579   -0.0015479061814345652
0.0006321673917812671   -0.06977761386731089   -0.001381786555551631
-0.0017518635004320797   -0.07515224595088885   -0.001890359154377002
-0.0028460459001220053   -0.06988425211467324   -0.001668643220397334
0.0006321673917812671   -0.06977761386731089   -0.001381786555551631
-0.004210833712680138   -0.07548753586363086   -0.0018768524089577082
-0.0017518635004320797   -0.07515224595088885   -0.001890359154377002
0.0007939113681516217   -0.0696841345416579   -0.0015479061814345652
-0.004087020064744655   -0.07541622381486458   -0.001966971190840845
-0.0014812093337497492   -0.07513793058087   -0.0020880824043283484
0.0007939113681516217   -0.0696841345416579   -0.0015479061814345652
-0.0028460459001220053   -0.06988425211467324   -0.001668643220397334
-0.004087020064744655   -0.07541622381486458   -0.001966971190840845
-0.0028063746582377767   -0.06984030582193662   -0.0017297945228267751
-0.0014812093337497492   -0.07513793058087   -0.0020880824043283484
-0.003992088307883132   -0.07540024428409484   -0.002048437848170092
-0.0028063746582377767   -0.06984030582193662   -0.0017297945228267751
-0.004087020064744655   -0.07541622381486458   -0.001966971190840845
-0.0014812093337497492   -0.07513793058087   -0.0020880824043283484
-0.0028063746582377767   -0.06984030582193662   -0.0017297945228267751
0.000967038531220726   -0.06963799738432425   -0.0017011434516295992
0.0007939113681516217   -0.0696841345416579   -0.0015479061814345652
-0.0014812093337497492   -0.07513793058087   -0.0020880824043283484
-0.0028063746582377767   -0.06984030582193662   -0.0017297945228267751
0.0007939113681516217   -0.0696841345416579   -0.0015479061814345652
-0.004087020064744655   -0.07541622381486458   -0.001966971190840845
-0.0043208227606359745   -0.07561617211994828   -0.0017777964268756116
-0.0029706843911035275   -0.07010713266824123   -0.0015206726018452531
-0.0063009479989095   -0.07569694365282346   -0.002041885117070982
-0.004210833712680138   -0.07548753586363086   -0.0018768524089577082
-0.0029706843911035275   -0.07010713266824123   -0.0015206726018452531
-0.0062431867905039925   -0.0701392274059407   -0.0017825824070633498
-0.0063009479989095   -0.07569694365282346   -0.002041885117070982
-0.0062003376111206526   -0.07002349737934543   -0.0017846118575044817
-0.004210833712680138   -0.07548753586363086   -0.0018768524089577082
-0.006208461832660203   -0.07558471745821621   -0.0020473512097340446
-0.0062003376111206526   -0.07002349737934543   -0.0017846118575044817
-0.0063009479989095   -0.07569694365282346   -0.002041885117070982
-0.004210833712680138   -0.07548753586363086   -0.0018768524089577082
-0.0062003376111206526   -0.07002349737934543   -0.0017846118575044817
-0.0029124032414880496   -0.06997232599725821   -0.001599237319382802
-0.0029706843911035275   -0.07010713266824123   -0.0015206726018452531
-0.004210833712680138   -0.07548753586363086   -0.0018768524089577082
-0.0062003376111206526   -0.07002349737934543   -0.0017846118575044817
-0.0029706843911035275   -0.07010713266824123   -0.0015206726018452531
-0.0063009479989095   -0.07569694365282346   -0.002041885117070982
-0.004210833712680138   -0.07548753586363086   -0.0018768524089577082
-0.0029124032414880496   -0.06997232599725821   -0.001599237319382802
-0.006208461832660203   -0.07558471745821621   -0.0020473512097340446
-0.004087020064744655   -0.07541622381486458   -0.001966971190840845
-0.0029124032414880496   -0.06997232599725821   -0.001599237319382802
-0.0062003376111206526   -0.07002349737934543   -0.0017846118575044817
-0.006208461832660203   -0.07558471745821621   -0.0020473512097340446
-0.006156277160128584   -0.06994959632793676   -0.0017778668483070127
-0.004087020064744655   -0.07541622381486458   -0.001966971190840845
-0.006112806973345832   -0.07552416723671823   -0.002044540611836798
-0.006156277160128584   -0.06994959632793676   -0.0017778668483070127
-0.006208461832660203   -0.07558471745821621   -0.0020473512097340446
-0.004087020064744655   -0.07541622381486458   -0.001966971190840845
-0.006156277160128584   -0.06994959632793676   -0.0017778668483070127
-0.0028460459001220053   -0.06988425211467324   -0.001668643220397334
-0.0029124032414880496   -0.06997232599725821   -0.001599237319382802
-0.004087020064744655   -0.07541622381486458   -0.001966971190840845
-0.006156277160128584   -0.06994959632793676   -0.0017778668483070127
-0.0029124032414880496   -0.06997232599725821   -0.001599237319382802
-0.006208461832660203   -0.07558471745821621   -0.0020473512097340446
-0.004087020064744655   -0.07541622381486458   -0.001966971190840845
-0.0028460459001220053   -0.06988425211467324   -0.001668643220397334
-0.006112806973345832   -0.07552416723671823   -0.002044540611836798
-0.003992088307883132   -0.07540024428409484   -0.002048437848170092
-0.0028460459001220053   -0.06988425211467324   -0.001668643220397334
-0.006156277160128584   -0.06994959632793676   -0.0017778668483070127
-0.006112806973345832   -0.07552416723671823   -0.002044540611836798
-0.006117739375563641   -0.0699168324483099   -0.0017629307185351895
-0.003992088307883132   -0.07540024428409484   -0.002048437848170092
-0.006020555827330293   -0.07551279976259691   -0.002033374822327854
-0.006117739375563641   -0.0699168324483099   -0.0017629307185351895
-0.006112806973345832   -0.07552416723671823   -0.002044540611836798
-0.003992088307883132   -0.07540024428409484   -0.002048437848170092
-0.006117739375563641   -0.0699168324483099   -0.0017629307185351895
-0.0028063746582377767   -0.06984030582193662   -0.0017297945228267751
-0.0028460459001220053   -0.06988425211467324   -0.001668643220397334
-0.003992088307883132   -0.07540024428409484   -0.002048437848170092
-0.006117739375563641   -0.0699168324483099   -0.0017629307185351895
-0.0028460459001220053   -0.06988425211467324   -0.001668643220397334
-0.006112806973345832   -0.07552416723671823   -0.002044540611836798
-0.0063009479989095   -0.07569694365282346   -0.002041885117070982
-0.0062431867905039925   -0.0701392274059407   -0.0017825824070633498
-0.008267350775971042   -0.07562516798791694   -0.0022890410819926942
-0.006208461832660203   -0.07558471745821621   -0.0020473512097340446
-0.0062431867905039925   -0.0701392274059407   -0.0017825824070633498
-0.00946421125879918   -0.07003502926828409   -0.002019003486874626
-0.008267350775971042   -0.07562516798791694   -0.0022890410819926942
-0.009424318010445586   -0.06993517539222857   -0.0019463439019225784
-0.006208461832660203   -0.07558471745821621   -0.0020473512097340446
-0.00817559519388111   -0.07552550158116685   -0.0022047692941798164
-0.009424318010445586   -0.06993517539222857   -0.0019463439019225784
-0.008267350775971042   -0.07562516798791694   -0.0022890410819926942
-0.006208461832660203   -0.07558471745821621   -0.0020473512097340446
-0.009424318010445586   -0.06993517539222857   -0.0019463439019225784
-0.0062003376111206526   -0.07002349737934543   -0.0017846118575044817
-0.0062431867905039925   -0.0701392274059407   -0.0017825824070633498
-0.006208461832660203   -0.07558471745821621   -0.0020473512097340446
-0.009424318010445586   -0.06993517539222857   -0.0019463439019225784
-0.0062431867905039925   -0.0701392274059407   -0.0017825824070633498
-0.008267350775971042   -0.07562516798791694   -0.0022890410819926942
-0.006208461832660203   -0.07558471745821621   -0.0020473512097340446
-0.0062003376111206526   -0.07002349737934543   -0.0017846118575044817
-0.00817559519388111   -0.07552550158116685   -0.0022047692941798164
-0.006112806973345832   -0.07552416723671823   -0.002044540611836798
-0.0062003376111206526   -0.07002349737934543   -0.0017846118575044817
-0.009424318010445586   -0.06993517539222857   -0.0019463439019225784
-0.00817559519388111   -0.07552550158116685   -0.0022047692941798164
-0.00937611326260462   -0.06987669016043141   -0.0018650997334959457
-0.006112806973345832   -0.07552416723671823   -0.002044540611836798
-0.008072624394535396   -0.07547664308290486   -0.002112342963809018
-0.00937611326260462   -0.06987669016043141   -0.0018650997334959457
-0.00817559519388111   -0.07552550158116685   -0.0022047692941798164
-0.006112806973345832   -0.07552416723671823   -0.002044540611836798
-0.00937611326260462   -0.06987669016043141   -0.0018650997334959457
-0.006156277160128584   -0.06994959632793676   -0.0017778668483070127
-0.0062003376111206526   -0.07002349737934543   -0.0017846118575044817
-0.006112806973345832   -0.07552416723671823   -0.002044540611836798
-0.00937611326260462   -0.06987669016043141   -0.0018650997334959457
-0.0062003376111206526   -0.07002349737934543   -0.0017846118575044817
-0.00817559519388111   -0.07552550158116685   -0.0022047692941798164
-0.006112806973345832   -0.07552416723671823   -0.002044540611836798
-0.006156277160128584   -0.06994959632793676   -0.0017778668483070127
-0.008072624394535396   -0.07547664308290486   -0.002112342963809018
-0.006020555827330293   -0.07551279976259691   -0.002033374822327854
-0.006156277160128584   -0.06994959632793676   -0.0017778668483070127
-0.00937611326260462   -0.06987669016043141   -0.0018650997334959457
-0.008072624394535396   -0.07547664308290486   -0.002112342963809018
-0.009329225305747557   -0.06985764832695136   -0.0017755354639243121
-0.006020555827330293   -0.07551279976259691   -0.002033374822327854
-0.00796922203287148   -0.07547369703547449   -0.0020107684993796587
-0.009329225305747557   -0.06985764832695136   -0.0017755354639243121
-0.008072624394535396   -0.07547664308290486   -0.002112342963809018
-0.006020555827330293   -0.07551279976259691   -0.002033374822327854
-0.009329225305747557   -0.06985764832695136   -0.0017755354639243121
-0.006117739375563641   -0.0699168324483099   -0.0017629307185351895
-0.006156277160128584   -0.06994959632793676   -0.0017778668483070127
-0.006020555827330293   -0.07551279976259691   -0.002033374822327854
-0.009329225305747557   -0.06985764832695136   -0.0017755354639243121
-0.006156277160128584   -0.06994959632793676   -0.0017778668483070127
-0.008072624394535396   -0.07547664308290486   -0.002112342963809018
-0.008267350775971042   -0.07562516798791694   -0.0022890410819926942
-0.00946421125879918   -0.07003502926828409   -0.002019003486874626
-0.010427836908589663   -0.07539133389874471   -0.0025160423391414333
-0.00817559519388111   -0.07552550158116685   -0.0022047692941798164
-0.00946421125879918   -0.07003502926828409   -0.002019003486874626
-0.01283976953269086   -0.06979823607802564   -0.0022290212565320828
-0.010427836908589663   -0.07539133389874471   -0.0025160423391414333
-0.012787672057027494   -0.06971354476550969   -0.0020815810065720987
-0.00817559519388111   -0.07552550158116685   -0.0022047692941798164
-0.010315530322965498   -0.07530425876022462   -0.0023440369939405894
-0.012787672057027494   -0.06971354476550969   -0.0020815810065720987
-0.010427836908589663   -0.07539133389874471   -0.0025160423391414333
-0.00817559519388111   -0.07552550158116685   -0.0022047692941798164
-0.012787672057027494   -0.06971354476550969   -0.0020815810065720987
-0.009424318010445586   -0.06993517539222857   -0.0019463439019225784
-0.00946421125879918   -0.07003502926828409   -0.002019003486874626
-0.00817559519388111   -0.07552550158116685   -0.0022047692941798164
-0.012787672057027494   -0.06971354476550969   -0.0020815810065720987
-0.00946421125879918   -0.07003502926828409   -0.002019003486874626
-0.010427836908589663   -0.07539133389874471   -0.0025160423391414333
-0.00817559519388111   -0.07552550158116685   -0.0022047692941798164
-0.009424318010445586   -0.06993517539222857   -0.0019463439019225784
-0.010315530322965498   -0.07530425876022462   -0.0023440369939405894
-0.008072624394535396   -0.07547664308290486   -0.002112342963809018
-0.009424318010445586   -0.06993517539222857   -0.0019463439019225784
-0.012787672057027494   -0.06971354476550969   -0.0020815810065720987
-0.010315530322965498   -0.07530425876022462   -0.0023440369939405894
-0.012699360877167299   -0.06966903595564881   -0.0019268746163085498
-0.008072624394535396   -0.07547664308290486   -0.002112342963809018
-0.01016048686229861   -0.07526704535906979   -0.00216447416058319
-0.012699360877167299   -0.06966903595564881   -0.0019268746163085498
-0.010315530322965498   -0.07530425876022462   -0.0023440369939405894
-0.008072624394535396   -0.07547664308290486   -0.002112342963809018
-0.012699360877167299   -0.06966903595564881   -0.0019268746163085498
-0.00937611326260462   -0.06987669016043141   -0.0018650997334959457
-0.009424318010445586   -0.06993517539222857   -0.0019463439019225784
-0.008072624394535396   -0.07547664308290486   -0.002112342963809018
-0.012699360877167299   -0.06966903595564881   -0.0019268746163085498
-0.009424318010445586   -0.06993517539222857   -0.0019463439019225784
-0.010315530322965498   -0.07530425876022462   -0.0023440369939405894
-0.008072624394535396   -0.07547664308290486   -0.002112342963809018
-0.00937611326260462   -0.06987669016043141   -0.0018650997334959457
-0.01016048686229861   -0.07526704535906979   -0.00216447416058319
-0.00796922203287148   -0.07547369703547449   -0.0020107684993796587
-0.00937611326260462   -0.06987669016043141   -0.0018650997334959457
-0.012699360877167299   -0.06966903595564881   -0.0019268746163085498
-0.01016048686229861   -0.07526704535906979   -0.00216447416058319
-0.012627611693906013   -0.06966706098826908   -0.0017626379904186144
-0.00796922203287148   -0.07547369703547449   -0.0020107684993796587
-0.010025137978720079   -0.07527975400366692   -0.0019723466809583637
-0.012627611693906013   -0.06966706098826908   -0.0017626379904186144
-0.01016048686229861   -0.07526704535906979   -0.00216447416058319
-0.00796922203287148   -0.07547369703547449   -0.0020107684993796587
-0.012627611693906013   -0.06966706098826908   -0.0017626379904186144
-0.009329225305747557   -0.06985764832695136   -0.0017755354639243121
-0.00937611326260462   -0.06987669016043141   -0.0018650997334959457
-0.00796922203287148   -0.07547369703547449   -0.0020107684993796587
-0.012627611693906013   -0.06966706098826908   -0.0017626379904186144
-0.00937611326260462   -0.06987669016043141   -0.0018650997334959457
-0.01016048686229861   -0.07526704535906979   -0.00216447416058319
-0.010427836908589663   -0.07539133389874471   -0.0025160423391414333
-0.01283976953269086   -0.06979823607802564   -0.0022290212565320828
-0.013210042731156469   -0.07501104386259363   -0.0027338463349600717
-0.010315530322965498   -0.07530425876022462   -0.0023440369939405894
-0.01283976953269086   -0.06979823607802564   -0.0022290212565320828
-0.016776475547548714   -0.06945733444823401   -0.0024247805637374327
-0.013210042731156469   -0.07501104386259363   -0.0027338463349600717
-0.016509801219376532   -0.06936903550833896   -0.002194012859154238
-0.010315530322965498   -0.07530425876022462   -0.0023440369939405894
-0.012848553480127846   -0.0749166731440367   -0.002462287231018437
-0.016509801219376532   -0.06936903550833896   -0.002194012859154238
-0.013210042731156469   -0.07501104386259363   -0.0027338463349600717
-0.010315530322965498   -0.07530425876022462   -0.0023440369939405894
-0.016509801219376532   -0.06936903550833896   -0.002194012859154238
-0.012787672057027494   -0.06971354476550969   -0.0020815810065720987
-0.01283976953269086   -0.06979823607802564   -0.0022290212565320828
-0.010315530322965498   -0.07530425876022462   -0.0023440369939405894
-0.016509801219376532   -0.06936903550833896   -0.002194012859154238
-0.01283976953269086   -0.06979823607802564   -0.0022290212565320828
-0.013210042731156469   -0.07501104386259363   -0.0027338463349600717
-0.010315530322965498   -0.07530425876022462   -0.0023440369939405894
-0.012787672057027494   -0.06971354476550969   -0.0020815810065720987
-0.012848553480127846   -0.0749166731440367   -0.002462287231018437
-0.01016048686229861   -0.07526704535906979   -0.00216447416058319
-0.012787672057027494   -0.06971354476550969   -0.0020815810065720987
-0.016509801219376532   -0.06936903550833896   -0.002194012859154238
-0.012848553480127846   -0.0749166731440367   -0.002462287231018437
-0.016278318270500008   -0.06932832073236858   -0.0019512669718629964
-0.01016048686229861   -0.07526704535906979   -0.00216447416058319
-0.012524486342554321   -0.0748822518856811   -0.0021748827823872704
-0.016278318270500008   -0.06932832073236858   -0.0019512669718629964
-0.012848553480127846   -0.0749166731440367   -0.002462287231018437
-0.01016048686229861   -0.07526704535906979   -0.00216447416058319
-0.016278318270500008   -0.06932832073236858   -0.0019512669718629964
-0.012699360877167299   -0.06966903595564881   -0.0019268746163085498
-0.012787672057027494   -0.06971354476550969   -0.0020815810065720987
-0.01016048686229861   -0.07526704535906979   -0.00216447416058319
-0.016278318270500008   -0.06932832073236858   -0.0019512669718629964
-0.012787672057027494   -0.06971354476550969   -0.0020815810065720987
-0.012848553480127846   -0.0749166731440367   -0.002462287231018437
-0.01016048686229861   -0.07526704535906979   -0.00216447416058319
-0.012699360877167299   -0.06966903595564881   -0.0019268746163085498
-0.012524486342554321   -0.0748822518856811   -0.0021748827823872704
-0.010025137978720079   -0.07527975400366692   -0.0019723466809583637
-0.012699360877167299   -0.06966903595564881   -0.0019268746163085498
-0.016278318270500008   -0.06932832073236858   -0.0019512669718629964
-0.012524486342554321   -0.0748822518856811   -0.0021748827823872704
-0.01596643494139416   -0.06935262345972303   -0.0016980901584605949
-0.010025137978720079   -0.07527975400366692   -0.0019723466809583637
-0.012104473517597403   -0.07492552499639012   -0.0018743656657973212
-0.01596643494139416   -0.06935262345972303   -0.0016980901584605949
-0.012524486342554321   -0.0748822518856811   -0.0021748827823872704
-0.010025137978720079   -0.07527975400366692   -0.0019723466809583637
-0.01596643494139416   -0.06935262345972303   -0.0016980901584605949
-0.012627611693906013   -0.06966706098826908   -0.0017626379904186144
-0.012699360877167299   -0.06966903595564881   -0.0019268746163085498
-0.010025137978720079   -0.07527975400366692   -0.0019723466809583637
-0.01596643494139416   -0.06935262345972303   -0.0016980901584605949
-0.012699360877167299   -0.06966903595564881   -0.0019268746163085498
-0.012524486342554321   -0.0748822518856811   -0.0021748827823872704
0.0004122786555969105   -0.06993932150204735   -0.001202847670871473
0.002482164106069265   -0.06254422639785191   -0.0009166425503157066
-0.0029706843911035275   -0.07010713266824123   -0.0015206726018452531
0.0006321673917812671   -0.06977761386731089   -0.001381786555551631
0.002482164106069265   -0.06254422639785191   -0.0009166425503157066
-0.0019962065558094847   -0.06265510748155252   -0.0012199991627627799
-0.0029706843911035275   -0.07010713266824123   -0.0015206726018452531
-0.0019841047057999744   -0.0625210235017657   -0.0012744460508594155
0.0006321673917812671   -0.06977761386731089   -0.001381786555551631
-0.0029124032414880496   -0.06997232599725821   -0.001599237319382802
-0.0019841047057999744   -0.0625210235017657   -0.0012744460508594155
-0.0029706843911035275   -0.07010713266824123   -0.0015206726018452531
0.0006321673917812671   -0.06977761386731089   -0.001381786555551631
-0.0019841047057999744   -0.0625210235017657   -0.0012744460508594155
0.002612708286198704   -0.06238643481671625   -0.0010489502268738228
0.002482164106069265   -0.06254422639785191   -0.0009166425503157066
0.0006321673917812671   -0.06977761386731089   -0.001381786555551631
-0.0019841047057999744   -0.0625210235017657   -0.0012744460508594155
0.002482164106069265   -0.06254422639785191   -0.0009166425503157066
-0.0029706843911035275   -0.07010713266824123   -0.0015206726018452531
0.0006321673917812671   -0.06977761386731089   -0.001381786555551631
0.002612708286198704   -0.06238643481671625   -0.0010489502268738228
-0.0029124032414880496   -0.06997232599725821   -0.001599237319382802
0.0007939113681516217   -0.0696841345416579   -0.0015479061814345652
0.002612708286198704   -0.06238643481671625   -0.0010489502268738228
-0.0019841047057999744   -0.0625210235017657   -0.0012744460508594155
-0.0029124032414880496   -0.06997232599725821   -0.001599237319382802
-0.001968714826341064   -0.06242379517027953   -0.0013205251550563518
0.0007939113681516217   -0.0696841345416579   -0.0015479061814345652
-0.0028460459001220053   -0.06988425211467324   -0.001668643220397334
-0.001968714826341064   -0.06242379517027953   -0.0013205251550563518
-0.0029124032414880496   -0.06997232599725821   -0.001599237319382802
0.0007939113681516217   -0.0696841345416579   -0.0015479061814345652
-0.001968714826341064   -0.06242379517027953   -0.0013205251550563518
0.00269615530486548   -0.06228287160715065   -0.0011694334178096535
0.002612708286198704   -0.06238643481671625   -0.0010489502268738228
0.0007939113681516217   -0.0696841345416579   -0.0015479061814345652
-0.001968714826341064   -0.06242379517027953   -0.0013205251550563518
0.002612708286198704   -0.06238643481671625   -0.0010489502268738228
-0.0029124032414880496   -0.06997232599725821   -0.001599237319382802
0.0007939113681516217   -0.0696841345416579   -0.0015479061814345652
0.00269615530486548   -0.06228287160715065   -0.0011694334178096535
-0.0028460459001220053   -0.06988425211467324   -0.001668643220397334
0.000967038531220726   -0.06963799738432425   -0.0017011434516295992
0.00269615530486548   -0.06228287160715065   -0.0011694334178096535
-0.001968714826341064   -0.06242379517027953   -0.0013205251550563518
-0.0028460459001220053   -0.06988425211467324   -0.001668643220397334
-0.00197610335381597   -0.062360312627940506   -0.0013588469339987513
0.000967038531220726   -0.06963799738432425   -0.0017011434516295992
-0.0028063746582377767   -0.06984030582193662   -0.0017297945228267751
-0.00197610335381597   -0.062360312627940506   -0.0013588469339987513
-0.0028460459001220053   -0.06988425211467324   -0.001668643220397334
0.000967038531220726   -0.06963799738432425   -0.0017011434516295992
-0.00197610335381597   -0.062360312627940506   -0.0013588469339987513
0.002781807647108601   -0.062213462181114516   -0.0012783396131345317
0.00269615530486548   -0.06228287160715065   -0.0011694334178096535
0.000967038531220726   -0.06963799738432425   -0.0017011434516295992
-0.00197610335381597   -0.062360312627940506   -0.0013588469339987513
0.00269615530486548   -0.06228287160715065   -0.0011694334178096535
-0.0028460459001220053   -0.06988425211467324   -0.001668643220397334
-0.0029706843911035275   -0.07010713266824123   -0.0015206726018452531
-0.0019962065558094847   -0.06265510748155252   -0.0012199991627627799
-0.0062431867905039925   -0.0701392274059407   -0.0017825824070633498
-0.0029124032414880496   -0.06997232599725821   -0.001599237319382802
-0.0019962065558094847   -0.06265510748155252   -0.0012199991627627799
-0.006305548239662374   -0.06265566385594136   -0.001470232932446525
-0.0062431867905039925   -0.0701392274059407   -0.0017825824070633498
-0.006306112230385148   -0.06254220400466537   -0.0014650951699843213
-0.0029124032414880496   -0.06997232599725821   -0.001599237319382802
-0.0062003376111206526   -0.07002349737934543   -0.0017846118575044817
-0.006306112230385148   -0.06254220400466537   -0.0014650951699843213
-0.0062431867905039925   -0.0701392274059407   -0.0017825824070633498
-0.0029124032414880496   -0.06997232599725821   -0.001599237319382802
-0.006306112230385148   -0.06254220400466537   -0.0014650951699843213
-0.0019841047057999744   -0.0625210235017657   -0.0012744460508594155
-0.0019962065558094847   -0.06265510748155252   -0.0012199991627627799
-0.0029124032414880496   -0.06997232599725821   -0.001599237319382802
-0.006306112230385148   -0.06254220400466537   -0.0014650951699843213
-0.0019962065558094847   -0.06265510748155252   -0.0012199991627627799
-0.0062431867905039925   -0.0701392274059407   -0.0017825824070633498
-0.0029124032414880496   -0.06997232599725821   -0.001599237319382802
-0.0019841047057999744   -0.0625210235017657   -0.0012744460508594155
-0.0062003376111206526   -0.07002349737934543   -0.0017846118575044817
-0.0028460459001220053   -0.06988425211467324   -0.001668643220397334
-0.0019841047057999744   -0.0625210235017657   -0.0012744460508594155
-0.006306112230385148   -0.06254220400466537   -0.0014650951699843213
-0.0062003376111206526   -0.07002349737934543   -0.0017846118575044817
-0.006306387869349003   -0.062461235591143915   -0.0014516228725434048
-0.0028460459001220053   -0.06988425211467324   -0.001668643220397334
-0.006156277160128584   -0.06994959632793676   -0.0017778668483070127
-0.006306387869349003   -0.062461235591143915   -0.0014516228725434048
-0.0062003376111206526   -0.07002349737934543   -0.0017846118575044817
-0.0028460459001220053   -0.06988425211467324   -0.001668643220397334
-0.006306387869349003   -0.062461235591143915   -0.0014516228725434048
-0.001968714826341064   -0.06242379517027953   -0.0013205251550563518
-0.0019841047057999744   -0.0625210235017657   -0.0012744460508594155
-0.0028460459001220053   -0.06988425211467324   -0.001668643220397334
-0.006306387869349003   -0.062461235591143915   -0.0014516228725434048
-0.0019841047057999744   -0.0625210235017657   -0.0012744460508594155
-0.0062003376111206526   -0.07002349737934543   -0.0017846118575044817
-0.0028460459001220053   -0.06988425211467324   -0.001668643220397334
-0.001968714826341064   -0.06242379517027953   -0.0013205251550563518
-0.006156277160128584   -0.06994959632793676   -0.0017778668483070127
-0.0028063746582377767   -0.06984030582193662   -0.0017297945228267751
-0.001968714826341064   -0.06242379517027953   -0.0013205251550563518
-0.006306387869349003   -0.062461235591143915   -0.0014516228725434048
-0.006156277160128584   -0.06994959632793676   -0.0017778668483070127
-0.006312426248765596   -0.06241281575746862   -0.0014302475399034214
-0.0028063746582377767   -0.06984030582193662   -0.0017297945228267751
-0.006117739375563641   -0.0699168324483099   -0.0017629307185351895
-0.006312426248765596   -0.06241281575746862   -0.0014302475399034214
-0.006156277160128584   -0.06994959632793676   -0.0017778668483070127
-0.0028063746582377767   -0.06984030582193662   -0.0017297945228267751
-0.006312426248765596   -0.06241281575746862   -0.0014302475399034214
-0.00197610335381597   -0.062360312627940506   -0.0013588469339987513
-0.001968714826341064   -0.06242379517027953   -0.0013205251550563518
-0.0028063746582377767   -0.06984030582193662   -0.0017297945228267751
-0.006312426248765596   -0.06241281575746862   -0.0014302475399034214
-0.001968714826341064   -0.06242379517027953   -0.0013205251550563518
-0.006156277160128584   -0.06994959632793676   -0.0017778668483070127
-0.0062431867905039925   -0.0701392274059407   -0.0017825824070633498
-0.006305548239662374   -0.06265566385594136   -0.001470232932446525
-0.00946421125879918   -0.07003502926828409   -0.002019003486874626
-0.0062003376111206526   -0.07002349737934543   -0.0017846118575044817
-0.006305548239662374   -0.06265566385594136   -0.001470232932446525
-0.010541659447103457   -0.06254841937510279   -0.0016894454184012545
-0.00946421125879918   -0.07003502926828409   -0.002019003486874626
-0.010545411314807266   -0.062453084985306696   -0.0016254413107290439
-0.0062003376111206526   -0.07002349737934543   -0.0017846118575044817
-0.009424318010445586   -0.06993517539222857   -0.0019463439019225784
-0.010545411314807266   -0.062453084985306696   -0.0016254413107290439
-0.00946421125879918   -0.07003502926828409   -0.002019003486874626
-0.0062003376111206526   -0.07002349737934543   -0.0017846118575044817
-0.010545411314807266   -0.062453084985306696   -0.0016254413107290439
-0.006306112230385148   -0.06254220400466537   -0.0014650951699843213
-0.006305548239662374   -0.06265566385594136   -0.001470232932446525
-0.0062003376111206526   -0.07002349737934543   -0.0017846118575044817
-0.010545411314807266   -0.062453084985306696   -0.0016254413107290439
-0.006305548239662374   -0.06265566385594136   -0.001470232932446525
-0.00946421125879918   -0.07003502926828409   -0.002019003486874626
-0.0062003376111206526   -0.07002349737934543   -0.0017846118575044817
-0.006306112230385148   -0.06254220400466537   -0.0014650951699843213
-0.009424318010445586   -0.06993517539222857   -0.0019463439019225784
-0.006156277160128584   -0.06994959632793676   -0.0017778668483070127
-0.006306112230385148   -0.06254220400466537   -0.0014650951699843213
-0.010545411314807266   -0.062453084985306696   -0.0016254413107290439
-0.009424318010445586   -0.06993517539222857   -0.0019463439019225784
-0.010541942539823523   -0.06238995451841488   -0.0015532639678802495
-0.006156277160128584   -0.06994959632793676   -0.0017778668483070127
-0.00937611326260462   -0.06987669016043141   -0.0018650997334959457
-0.010541942539823523   -0.06238995451841488   -0.0015532639678802495
-0.009424318010445586   -0.06993517539222857   -0.0019463439019225784
-0.006156277160128584   -0.06994959632793676   -0.0017778668483070127
-0.010541942539823523   -0.06238995451841488   -0.0015532639678802495
-0.006306387869349003   -0.062461235591143915   -0.0014516228725434048
-0.006306112230385148   -0.06254220400466537   -0.0014650951699843213
-0.006156277160128584   -0.06994959632793676   -0.0017778668483070127
-0.010541942539823523   -0.06238995451841488   -0.0015532639678802495
-0.006306112230385148   -0.06254220400466537   -0.0014650951699843213
-0.009424318010445586   -0.06993517539222857   -0.0019463439019225784
-0.006156277160128584   -0.06994959632793676   -0.0017778668483070127
-0.006306387869349003   -0.062461235591143915   -0.0014516228725434048
-0.00937611326260462   -0.06987669016043141   -0.0018650997334959457
-0.006117739375563641   -0.0699168324483099   -0.0017629307185351895
-0.006306387869349003   -0.062461235591143915   -0.0014516228725434048
-0.010541942539823523   -0.06238995451841488   -0.0015532639678802495
-0.00937611326260462   -0.06987669016043141   -0.0018650997334959457
-0.010539773624694522   -0.06235846166874216   -0.0014731519427848884
-0.006117739375563641   -0.0699168324483099   -0.0017629307185351895
-0.009329225305747557   -0.06985764832695136   -0.0017755354639243121
-0.010539773624694522   -0.06235846166874216   -0.0014731519427848884
-0.00937611326260462   -0.06987669016043141   -0.0018650997334959457
-0.006117739375563641   -0.0699168324483099   -0.0017629307185351895
-0.010539773624694522   -0.06235846166874216   -0.0014731519427848884
-0.006312426248765596   -0.06241281575746862   -0.0014302475399034214
-0.006306387869349003   -0.062461235591143915   -0.0014516228725434048
-0.006117739375563641   -0.0699168324483099   -0.0017629307185351895
-0.010539773624694522   -0.06235846166874216   -0.0014731519427848884
-0.006306387869349003   -0.062461235591143915   -0.0014516228725434048
-0.00937611326260462   -0.06987669016043141   -0.0018650997334959457
-0.00946421125879918   -0.07003502926828409   -0.002019003486874626
-0.010541659447103457   -0.06254841937510279   -0.0016894454184012545
-0.01283976953269086   -0.06979823607802564   -0.0022290212565320828
-0.009424318010445586   -0.06993517539222857   -0.0019463439019225784
-0.010541659447103457   -0.06254841937510279   -0.0016894454184012545
-0.014909833639612522   -0.06233743968216607   -0.001878041380459329
-0.01283976953269086   -0.06979823607802564   -0.0022290212565320828
-0.014904697707761882   -0.062259467182961804   -0.0017544752061124315
-0.009424318010445586   -0.06993517539222857   -0.0019463439019225784
-0.012787672057027494   -0.06971354476550969   -0.0020815810065720987
-0.014904697707761882   -0.062259467182961804   -0.0017544752061124315
-0.01283976953269086   -0.06979823607802564   -0.0022290212565320828
-0.009424318010445586   -0.06993517539222857   -0.0019463439019225784
-0.014904697707761882   -0.062259467182961804   -0.0017544752061124315
-0.010545411314807266   -0.062453084985306696   -0.0016254413107290439
-0.010541659447103457   -0.06254841937510279   -0.0016894454184012545
-0.009424318010445586   -0.06993517539222857   -0.0019463439019225784
-0.014904697707761882   -0.062259467182961804   -0.0017544752061124315
-0.010541659447103457   -0.06254841937510279   -0.0016894454184012545
-0.01283976953269086   -0.06979823607802564   -0.0022290212565320828
-0.009424318010445586   -0.06993517539222857   -0.0019463439019225784
-0.010545411314807266   -0.062453084985306696   -0.0016254413107290439
-0.012787672057027494   -0.06971354476550969   -0.0020815810065720987
-0.00937611326260462   -0.06987669016043141   -0.0018650997334959457
-0.010545411314807266   -0.062453084985306696   -0.0016254413107290439
-0.014904697707761882   -0.062259467182961804   -0.0017544752061124315
-0.012787672057027494   -0.06971354476550969   -0.0020815810065720987
-0.014868086605525589   -0.06221251057756946   -0.001623967525486049
-0.00937611326260462   -0.06987669016043141   -0.0018650997334959457
-0.012699360877167299   -0.06966903595564881   -0.0019268746163085498
-0.014868086605525589   -0.06221251057756946   -0.001623967525486049
-0.012787672057027494   -0.06971354476550969   -0.0020815810065720987
-0.00937611326260462   -0.06987669016043141   -0.0018650997334959457
-0.014868086605525589   -0.06221251057756946   -0.001623967525486049
-0.010541942539823523   -0.06238995451841488   -0.0015532639678802495
-0.010545411314807266   -0.062453084985306696   -0.0016254413107290439
-0.00937611326260462   -0.06987669016043141   -0.0018650997334959457
-0.014868086605525589   -0.06221251057756946   -0.001623967525486049
-0.010545411314807266   -0.062453084985306696   -0.0016254413107290439
-0.012787672057027494   -0.06971354476550969   -0.0020815810065720987
-0.00937611326260462   -0.06987669016043141   -0.0018650997334959457
-0.010541942539823523   -0.06238995451841488   -0.0015532639678802495
-0.012699360877167299   -0.06966903595564881   -0.0019268746163085498
-0.009329225305747557   -0.06985764832695136   -0.0017755354639243121
-0.010541942539823523   -0.06238995451841488   -0.0015532639678802495
-0.014868086605525589   -0.06221251057756946   -0.001623967525486049
-0.012699360877167299   -0.06966903595564881   -0.0019268746163085498
-0.014843612934340772   -0.062199849447026355   -0.001484888067002957
-0.009329225305747557   -0.06985764832695136   -0.0017755354639243121
-0.012627611693906013   -0.06966706098826908   -0.0017626379904186144
-0.014843612934340772   -0.062199849447026355   -0.001484888067002957
-0.012699360877167299   -0.06966903595564881   -0.0019268746163085498
-0.009329225305747557   -0.06985764832695136   -0.0017755354639243121
-0.014843612934340772   -0.062199849447026355   -0.001484888067002957
-0.010539773624694522   -0.06235846166874216   -0.0014731519427848884
-0.010541942539823523   -0.06238995451841488   -0.0015532639678802495
-0.009329225305747557   -0.06985764832695136   -0.0017755354639243121
-0.014843612934340772   -0.062199849447026355   -0.001484888067002957
-0.010541942539823523   -0.06238995451841488   -0.0015532639678802495
-0.012699360877167299   -0.06966903595564881   -0.0019268746163085498
-0.01283976953269086   -0.06979823607802564   -0.0022290212565320828
-0.014909833639612522   -0.06233743968216607   -0.001878041380459329
-0.016776475547548714   -0.06945733444823401   -0.0024247805637374327
-0.012787672057027494   -0.06971354476550969   -0.0020815810065720987
-0.014909833639612522   -0.06233743968216607   -0.001878041380459329
-0.019789007031821557   -0.06204671909367932   -0.002048069269182171
-0.016776475547548714   -0.06945733444823401   -0.0024247805637374327
-0.0196067244462633   -0.06197021336028589   -0.0018590595858188304
-0.012787672057027494   -0.06971354476550969   -0.0020815810065720987
-0.016509801219376532   -0.06936903550833896   -0.002194012859154238
-0.0196067244462633   -0.06197021336028589   -0.0018590595858188304
-0.016776475547548714   -0.06945733444823401   -0.0024247805637374327
-0.012787672057027494   -0.06971354476550969   -0.0020815810065720987
-0.0196067244462633   -0.06197021336028589   -0.0018590595858188304
-0.014904697707761882   -0.062259467182961804   -0.0017544752061124315
-0.014909833639612522   -0.06233743968216607   -0.001878041380459329
-0.012787672057027494   -0.06971354476550969   -0.0020815810065720987
-0.0196067244462633   -0.06197021336028589   -0.0018590595858188304
-0.014909833639612522   -0.06233743968216607   -0.001878041380459329
-0.016776475547548714   -0.06945733444823401   -0.0024247805637374327
-0.012787672057027494   -0.06971354476550969   -0.0020815810065720987
-0.014904697707761882   -0.062259467182961804   -0.0017544752061124315
-0.016509801219376532   -0.06936903550833896   -0.002194012859154238
-0.012699360877167299   -0.06966903595564881   -0.0019268746163085498
-0.014904697707761882   -0.062259467182961804   -0.0017544752061124315
-0.0196067244462633   -0.06197021336028589   -0.0018590595858188304
-0.016509801219376532   -0.06936903550833896   -0.002194012859154238
-0.019450808126880808   -0.06192915556165504   -0.001658384857337393
-0.012699360877167299   -0.06966903595564881   -0.0019268746163085498
-0.016278318270500008   -0.06932832073236858   -0.0019512669718629964
-0.019450808126880808   -0.06192915556165504   -0.001658384857337393
-0.016509801219376532   -0.06936903550833896   -0.002194012859154238
-0.012699360877167299   -0.06966903595564881   -0.0019268746163085498
-0.019450808126880808   -0.06192915556165504   -0.001658384857337393
-0.014868086605525589   -0.06221251057756946   -0.001623967525486049
-0.014904697707761882   -0.062259467182961804   -0.0017544752061124315
-0.012699360877167299   -0.06966903595564881   -0.0019268746163085498
-0.019450808126880808   -0.06192915556165504   -0.001658384857337393
-0.014904697707761882   -0.062259467182961804   -0.0017544752061124315
-0.016509801219376532   -0.06936903550833896   -0.002194012859154238
-0.012699360877167299   -0.06966903595564881   -0.0019268746163085498
-0.014868086605525589   -0.06221251057756946   -0.001623967525486049
-0.016278318270500008   -0.06932832073236858   -0.0019512669718629964
-0.012627611693906013   -0.06966706098826908   -0.0017626379904186144
-0.014868086605525589   -0.06221251057756946   -0.001623967525486049
-0.019450808126880808   -0.06192915556165504   -0.001658384857337393
-0.016278318270500008   -0.06932832073236858   -0.0019512669718629964
-0.019225760663242428   -0.061942504642323044   -0.001447642954176417
-0.012627611693906013   -0.06966706098826908   -0.0017626379904186144
-0.01596643494139416   -0.06935262345972303   -0.0016980901584605949
-0.019225760663242428   -0.061942504642323044   -0.001447642954176417
-0.016278318270500008   -0.06932832073236858   -0.0019512669718629964
-0.012627611693906013   -0.06966706098826908   -0.0017626379904186144
-0.019225760663242428   -0.061942504642323044   -0.001447642954176417
-0.014843612934340772   -0.062199849447026355   -0.001484888067002957
-0.014868086605525589   -0.06221251057756946   -0.001623967525486049
-0.012627611693906013   -0.06966706098826908   -0.0017626379904186144
-0.019225760663242428   -0.061942504642323044   -0.001447642954176417
-0.014868086605525589   -0.06221251057756946   -0.001623967525486049
-0.016278318270500008   -0.06932832073236858   -0.0019512669718629964
0.002482164106069265   -0.06254422639785191   -0.0009166425503157066
0.003907964897300915   -0.053650289285671754   -0.0006105877422156277
-0.0019962065558094847   -0.06265510748155252   -0.0012199991627627799
0.002612708286198704   -0.06238643481671625   -0.0010489502268738228
0.003907964897300915   -0.053650289285671754   -0.0006105877422156277
-0.0014046043945307406   -0.053704769965775626   -0.0008959983000923655
-0.0019962065558094847   -0.06265510748155252   -0.0012199991627627799
-0.0014296395890005481   -0.05357394960844055   -0.0009253227826472026
0.002612708286198704   -0.06238643481671625   -0.0010489502268738228
-0.0019841047057999744   -0.0625210235017657   -0.0012744460508594155
-0.0014296395890005481   -0.05357394960844055   -0.0009253227826472026
-0.0019962065558094847   -0.06265510748155252   -0.0012199991627627799
0.002612708286198704   -0.06238643481671625   -0.0010489502268738228
-0.0014296395890005481   -0.05357394960844055   -0.0009253227826472026
0.003959464721748679   -0.05349826780564527   -0.0006972305550175772
0.003907964897300915   -0.053650289285671754   -0.0006105877422156277
0.002612708286198704   -0.06238643481671625   -0.0010489502268738228
-0.0014296395890005481   -0.05357394960844055   -0.0009253227826472026
0.003907964897300915   -0.053650289285671754   -0.0006105877422156277
-0.0019962065558094847   -0.06265510748155252   -0.0012199991627627799
0.002612708286198704   -0.06238643481671625   -0.0010489502268738228
0.003959464721748679   -0.05349826780564527   -0.0006972305550175772
-0.0019841047057999744   -0.0625210235017657   -0.0012744460508594155
0.00269615530486548   -0.06228287160715065   -0.0011694334178096535
0.003959464721748679   -0.05349826780564527   -0.0006972305550175772
-0.0014296395890005481   -0.05357394960844055   -0.0009253227826472026
-0.0019841047057999744   -0.0625210235017657   -0.0012744460508594155
-0.0014559562306188996   -0.05347043239848634   -0.000947179575731346
0.00269615530486548   -0.06228287160715065   -0.0011694334178096535
-0.001968714826341064   -0.06242379517027953   -0.0013205251550563518
-0.0014559562306188996   -0.05347043239848634   -0.000947179575731346
-0.0019841047057999744   -0.0625210235017657   -0.0012744460508594155
0.00269615530486548   -0.06228287160715065   -0.0011694334178096535
-0.0014559562306188996   -0.05347043239848634   -0.000947179575731346
0.003975061455640186   -0.053387449331926934   -0.0007728568595628288
0.003959464721748679   -0.05349826780564527   -0.0006972305550175772
0.00269615530486548   -0.06228287160715065   -0.0011694334178096535
-0.0014559562306188996   -0.05347043239848634   -0.000947179575731346
0.003959464721748679   -0.05349826780564527   -0.0006972305550175772
-0.0019841047057999744   -0.0625210235017657   -0.0012744460508594155
0.00269615530486548   -0.06228287160715065   -0.0011694334178096535
0.003975061455640186   -0.053387449331926934   -0.0007728568595628288
-0.001968714826341064   -0.06242379517027953   -0.0013205251550563518
0.002781807647108601   -0.062213462181114516   -0.0012783396131345317
0.003975061455640186   -0.053387449331926934   -0.0007728568595628288
-0.0014559562306188996   -0.05347043239848634   -0.000947179575731346
-0.001968714826341064   -0.06242379517027953   -0.0013205251550563518
-0.00150072873253034   -0.05339096932919321   -0.0009618213141674111
0.002781807647108601   -0.062213462181114516   -0.0012783396131345317
-0.00197610335381597   -0.062360312627940506   -0.0013588469339987513
-0.00150072873253034   -0.05339096932919321   -0.0009618213141674111
-0.001968714826341064   -0.06242379517027953   -0.0013205251550563518
0.002781807647108601   -0.062213462181114516   -0.0012783396131345317
-0.00150072873253034   -0.05339096932919321   -0.0009618213141674111
0.0039837638646358755   -0.053298325569790174   -0.0008379877021582035
0.003975061455640186   -0.053387449331926934   -0.0007728568595628288
0.002781807647108601   -0.062213462181114516   -0.0012783396131345317
-0.00150072873253034   -0.05339096932919321   -0.0009618213141674111
0.003975061455640186   -0.053387449331926934   -0.0007728568595628288
-0.001968714826341064   -0.06242379517027953   -0.0013205251550563518
-0.0019962065558094847   -0.06265510748155252   -0.0012199991627627799
-0.0014046043945307406   -0.053704769965775626   -0.0008959983000923655
-0.006305548239662374   -0.06265566385594136   -0.001470232932446525
-0.0019841047057999744   -0.0625210235017657   -0.0012744460508594155
-0.0014046043945307406   -0.053704769965775626   -0.0008959983000923655
-0.006496783220329342   -0.053676700747809517   -0.0011310813293763985
-0.006305548239662374   -0.06265566385594136   -0.001470232932446525
-0.006531469320314427   -0.05356734852930735   -0.0011173502154446764
-0.0019841047057999744   -0.0625210235017657   -0.0012744460508594155
-0.006306112230385148   -0.06254220400466537   -0.0014650951699843213
-0.006531469320314427   -0.05356734852930735   -0.0011173502154446764
-0.006305548239662374   -0.06265566385594136   -0.001470232932446525
-0.0019841047057999744   -0.0625210235017657   -0.0012744460508594155
-0.006531469320314427   -0.05356734852930735   -0.0011173502154446764
-0.0014296395890005481   -0.05357394960844055   -0.0009253227826472026
-0.0014046043945307406   -0.053704769965775626   -0.0008959983000923655
-0.0019841047057999744   -0.0625210235017657   -0.0012744460508594155
-0.006531469320314427   -0.05356734852930735   -0.0011173502154446764
-0.0014046043945307406   -0.053704769965775626   -0.0008959983000923655
-0.006305548239662374   -0.06265566385594136   -0.001470232932446525
-0.0019841047057999744   -0.0625210235017657   -0.0012744460508594155
-0.0014296395890005481   -0.05357394960844055   -0.0009253227826472026
-0.006306112230385148   -0.06254220400466537   -0.0014650951699843213
-0.001968714826341064   -0.06242379517027953   -0.0013205251550563518
-0.0014296395890005481   -0.05357394960844055   -0.0009253227826472026
-0.006531469320314427   -0.05356734852930735   -0.0011173502154446764
-0.006306112230385148   -0.06254220400466537   -0.0014650951699843213
-0.0065666314269112415   -0.0534814013944051   -0.0010959319562562433
-0.001968714826341064   -0.06242379517027953   -0.0013205251550563518
-0.006306387869349003   -0.062461235591143915   -0.0014516228725434048
-0.0065666314269112415   -0.0534814013944051   -0.0010959319562562433
-0.006306112230385148   -0.06254220400466537   -0.0014650951699843213
-0.001968714826341064   -0.06242379517027953   -0.0013205251550563518
-0.0065666314269112415   -0.0534814013944051   -0.0010959319562562433
-0.0014559562306188996   -0.05347043239848634   -0.000947179575731346
-0.0014296395890005481   -0.05357394960844055   -0.0009253227826472026
-0.001968714826341064   -0.06242379517027953   -0.0013205251550563518
-0.0065666314269112415   -0.0534814013944051   -0.0010959319562562433
-0.0014296395890005481   -0.05357394960844055   -0.0009253227826472026
-0.006306112230385148   -0.06254220400466537   -0.0014650951699843213
-0.001968714826341064   -0.06242379517027953   -0.0013205251550563518
-0.0014559562306188996   -0.05347043239848634   -0.000947179575731346
-0.006306387869349003   -0.062461235591143915   -0.0014516228725434048
-0.00197610335381597   -0.062360312627940506   -0.0013588469339987513
-0.0014559562306188996   -0.05347043239848634   -0.000947179575731346
-0.0065666314269112415   -0.0534814013944051   -0.0010959319562562433
-0.006306387869349003   -0.062461235591143915   -0.0014516228725434048
-0.0066072624797394175   -0.053419257147836345   -0.001067196324756447
-0.00197610335381597   -0.062360312627940506   -0.0013588469339987513
-0.006312426248765596   -0.06241281575746862   -0.0014302475399034214
-0.0066072624797394175   -0.053419257147836345   -0.001067196324756447
-0.006306387869349003   -0.062461235591143915   -0.0014516228725434048
-0.00197610335381597   -0.062360312627940506   -0.0013588469339987513
-0.0066072624797394175   -0.053419257147836345   -0.001067196324756447
-0.00150072873253034   -0.05339096932919321   -0.0009618213141674111
-0.0014559562306188996   -0.05347043239848634   -0.000947179575731346
-0.00197610335381597   -0.062360312627940506   -0.0013588469339987513
-0.0066072624797394175   -0.053419257147836345   -0.001067196324756447
-0.0014559562306188996   -0.05347043239848634   -0.000947179575731346
-0.006306387869349003   -0.062461235591143915   -0.0014516228725434048
-0.006305548239662374   -0.06265566385594136   -0.001470232932446525
-0.006496783220329342   -0.053676700747809517   -0.0011310813293763985
-0.010541659447103457   -0.06254841937510279   -0.0016894454184012545
-0.006306112230385148   -0.06254220400466537   -0.0014650951699843213
-0.006496783220329342   -0.053676700747809517   -0.0011310813293763985
-0.011502849796829123   -0.053571174518033775   -0.0013322570644531424
-0.010541659447103457   -0.06254841937510279   -0.0016894454184012545
-0.01154026389132579   -0.05348133409458121   -0.0012756768766538362
-0.006306112230385148   -0.06254220400466537   -0.0014650951699843213
-0.010545411314807266   -0.062453084985306696   -0.0016254413107290439
-0.01154026389132579   -0.05348133409458121   -0.0012756768766538362
-0.010541659447103457   -0.06254841937510279   -0.0016894454184012545
-0.006306112230385148   -0.06254220400466537   -0.0014650951699843213
-0.01154026389132579   -0.05348133409458121   -0.0012756768766538362
-0.006531469320314427   -0.05356734852930735   -0.0011173502154446764
-0.006496783220329342   -0.053676700747809517   -0.0011310813293763985
-0.006306112230385148   -0.06254220400466537   -0.0014650951699843213
-0.01154026389132579   -0.05348133409458121   -0.0012756768766538362
-0.006496783220329342   -0.053676700747809517   -0.0011310813293763985
-0.010541659447103457   -0.06254841937510279   -0.0016894454184012545
-0.006306112230385148   -0.06254220400466537   -0.0014650951699843213
-0.006531469320314427   -0.05356734852930735   -0.0011173502154446764
-0.010545411314807266   -0.062453084985306696   -0.0016254413107290439
-0.006306387869349003   -0.062461235591143915   -0.0014516228725434048
-0.006531469320314427   -0.05356734852930735   -0.0011173502154446764
-0.01154026389132579   -0.05348133409458121   -0.0012756768766538362
-0.010545411314807266   -0.062453084985306696   -0.0016254413107290439
-0.011571267862805238   -0.053414675056256924   -0.0012115450897537564
-0.006306387869349003   -0.062461235591143915   -0.0014516228725434048
-0.010541942539823523   -0.06238995451841488   -0.0015532639678802495
-0.011571267862805238   -0.053414675056256924   -0.0012115450897537564
-0.010545411314807266   -0.062453084985306696   -0.0016254413107290439
-0.006306387869349003   -0.062461235591143915   -0.0014516228725434048
-0.011571267862805238   -0.053414675056256924   -0.0012115450897537564
-0.0065666314269112415   -0.0534814013944051   -0.0010959319562562433
-0.006531469320314427   -0.05356734852930735   -0.0011173502154446764
-0.006306387869349003   -0.062461235591143915   -0.0014516228725434048
-0.011571267862805238   -0.053414675056256924   -0.0012115450897537564
-0.006531469320314427   -0.05356734852930735   -0.0011173502154446764
-0.010545411314807266   -0.062453084985306696   -0.0016254413107290439
-0.006306387869349003   -0.062461235591143915   -0.0014516228725434048
-0.0065666314269112415   -0.0534814013944051   -0.0010959319562562433
-0.010541942539823523   -0.06238995451841488   -0.0015532639678802495
-0.006312426248765596   -0.06241281575746862   -0.0014302475399034214
-0.0065666314269112415   -0.0534814013944051   -0.0010959319562562433
-0.011571267862805238   -0.053414675056256924   -0.0012115450897537564
-0.010541942539823523   -0.06238995451841488   -0.0015532639678802495
-0.011603171299324377   -0.053371100625628415   -0.0011400843058938124
-0.006312426248765596   -0.06241281575746862   -0.0014302475399034214
-0.010539773624694522   -0.06235846166874216   -0.0014731519427848884
-0.011603171299324377   -0.053371100625628415   -0.0011400843058938124
-0.010541942539823523   -0.06238995451841488   -0.0015532639678802495
-0.006312426248765596   -0.06241281575746862   -0.0014302475399034214
-0.011603171299324377   -0.053371100625628415   -0.0011400843058938124
-0.0066072624797394175   -0.053419257147836345   -0.001067196324756447
-0.0065666314269112415   -0.0534814013944051   -0.0010959319562562433
-0.006312426248765596   -0.06241281575746862   -0.0014302475399034214
-0.011603171299324377   -0.053371100625628415   -0.0011400843058938124
-0.0065666314269112415   -0.0534814013944051   -0.0010959319562562433
-0.010541942539823523   -0.06238995451841488   -0.0015532639678802495
-0.010541659447103457   -0.06254841937510279   -0.0016894454184012545
-0.011502849796829123   -0.053571174518033775   -0.0013322570644531424
-0.014909833639612522   -0.06233743968216607   -0.001878041380459329
-0.010545411314807266   -0.062453084985306696   -0.0016254413107290439
-0.011502849796829123   -0.053571174518033775   -0.0013322570644531424
-0.01662799050401476   -0.05339029825211961   -0.001500284878509076
-0.014909833639612522   -0.06233743968216607   -0.001878041380459329
-0.01665896054163852   -0.05331952181043923   -0.0014002731234263458
-0.010545411314807266   -0.062453084985306696   -0.0016254413107290439
-0.014904697707761882   -0.062259467182961804   -0.0017544752061124315
-0.01665896054163852   -0.05331952181043923   -0.0014002731234263458
-0.014909833639612522   -0.06233743968216607   -0.001878041380459329
-0.010545411314807266   -0.062453084985306696   -0.0016254413107290439
-0.01665896054163852   -0.05331952181043923   -0.0014002731234263458
-0.01154026389132579   -0.05348133409458121   -0.0012756768766538362
-0.011502849796829123   -0.053571174518033775   -0.0013322570644531424
-0.010545411314807266   -0.062453084985306696   -0.0016254413107290439
-0.01665896054163852   -0.05331952181043923   -0.0014002731234263458
-0.011502849796829123   -0.053571174518033775   -0.0013322570644531424
-0.014909833639612522   -0.06233743968216607   -0.001878041380459329
-0.010545411314807266   -0.062453084985306696   -0.0016254413107290439
-0.01154026389132579   -0.05348133409458121   -0.0012756768766538362
-0.014904697707761882   -0.062259467182961804   -0.0017544752061124315
-0.010541942539823523   -0.06238995451841488   -0.0015532639678802495
-0.01154026389132579   -0.05348133409458121   -0.0012756768766538362
-0.01665896054163852   -0.05331952181043923   -0.0014002731234263458
-0.014904697707761882   -0.062259467182961804   -0.0017544752061124315
-0.016662986755395622   -0.05327049913441001   -0.0012937548656134481
-0.010541942539823523   -0.06238995451841488   -0.0015532639678802495
-0.014868086605525589   -0.06221251057756946   -0.001623967525486049
-0.016662986755395622   -0.05327049913441001   -0.0012937548656134481
-0.014904697707761882   -0.062259467182961804   -0.0017544752061124315
-0.010541942539823523   -0.06238995451841488   -0.0015532639678802495
-0.016662986755395622   -0.05327049913441001   -0.0012937548656134481
-0.011571267862805238   -0.053414675056256924   -0.0012115450897537564
-0.01154026389132579   -0.05348133409458121   -0.0012756768766538362
-0.010541942539823523   -0.06238995451841488   -0.0015532639678802495
-0.016662986755395622   -0.05327049913441001   -0.0012937548656134481
-0.01154026389132579   -0.05348133409458121   -0.0012756768766538362
-0.014904697707761882   -0.062259467182961804   -0.0017544752061124315
-0.010541942539823523   -0.06238995451841488   -0.0015532639678802495
-0.011571267862805238   -0.053414675056256924   -0.0012115450897537564
-0.014868086605525589   -0.06221251057756946   -0.001623967525486049
-0.010539773624694522   -0.06235846166874216   -0.0014731519427848884
-0.011571267862805238   -0.053414675056256924   -0.0012115450897537564
-0.016662986755395622   -0.05327049913441001   -0.0012937548656134481
-0.014868086605525589   -0.06221251057756946   -0.001623967525486049
-0.016674647597890023   -0.053246636434086295   -0.0011793525575890913
-0.010539773624694522   -0.06235846166874216   -0.0014731519427848884
-0.014843612934340772   -0.062199849447026355   -0.001484888067002957
-0.016674647597890023   -0.053246636434086295   -0.0011793525575890913
-0.014868086605525589   -0.06221251057756946   -0.001623967525486049
-0.010539773624694522   -0.06235846166874216   -0.0014731519427848884
-0.016674647597890023   -0.053246636434086295   -0.0011793525575890913
-0.011603171299324377   -0.053371100625628415   -0.0011400843058938124
-0.011571267862805238   -0.053414675056256924   -0.0012115450897537564
-0.010539773624694522   -0.06235846166874216   -0.0014731519427848884
-0.016674647597890023   -0.053246636434086295   -0.0011793525575890913
-0.011571267862805238   -0.053414675056256924   -0.0012115450897537564
-0.014868086605525589   -0.06221251057756946   -0.001623967525486049
-0.014909833639612522   -0.06233743968216607   -0.001878041380459329
-0.01662799050401476   -0.05339029825211961   -0.001500284878509076
-0.019789007031821557   -0.06204671909367932   -0.002048069269182171
-0.014904697707761882   -0.062259467182961804   -0.0017544752061124315
-0.01662799050401476   -0.05339029825211961   -0.001500284878509076
-0.02221677065106434   -0.05315309535403673   -0.0016438175457843555
-0.019789007031821557   -0.06204671909367932   -0.002048069269182171
-0.02210996841499995   -0.053088444461900655   -0.001497900208522964
-0.014904697707761882   -0.062259467182961804   -0.0017544752061124315
-0.0196067244462633   -0.06197021336028589   -0.0018590595858188304
-0.02210996841499995   -0.053088444461900655   -0.001497900208522964
-0.019789007031821557   -0.06204671909367932   -0.002048069269182171
-0.014904697707761882   -0.062259467182961804   -0.0017544752061124315
-0.02210996841499995   -0.053088444461900655   -0.001497900208522964
-0.01665896054163852   -0.05331952181043923   -0.0014002731234263458
-0.01662799050401476   -0.05339029825211961   -0.001500284878509076
-0.014904697707761882   -0.062259467182961804   -0.0017544752061124315
-0.02210996841499995   -0.053088444461900655   -0.001497900208522964
-0.01662799050401476   -0.05339029825211961   -0.001500284878509076
-0.019789007031821557   -0.06204671909367932   -0.002048069269182171
-0.014904697707761882   -0.062259467182961804   -0.0017544752061124315
-0.01665896054163852   -0.05331952181043923   -0.0014002731234263458
-0.0196067244462633   -0.06197021336028589   -0.0018590595858188304
-0.014868086605525589   -0.06221251057756946   -0.001623967525486049
-0.01665896054163852   -0.05331952181043923   -0.0014002731234263458
-0.02210996841499995   -0.053088444461900655   -0.001497900208522964
-0.0196067244462633   -0.06197021336028589   -0.0018590595858188304
-0.02201991553868784   -0.053046897621136055   -0.0013406242174302402
-0.014868086605525589   -0.06221251057756946   -0.001623967525486049
-0.019450808126880808   -0.06192915556165504   -0.001658384857337393
-0.02201991553868784   -0.053046897621136055   -0.0013406242174302402
-0.0196067244462633   -0.06197021336028589   -0.0018590595858188304
-0.014868086605525589   -0.06221251057756946   -0.001623967525486049
-0.02201991553868784   -0.053046897621136055   -0.0013406242174302402
-0.016662986755395622   -0.05327049913441001   -0.0012937548656134481
-0.01665896054163852   -0.05331952181043923   -0.0014002731234263458
-0.014868086605525589   -0.06221251057756946   -0.001623967525486049
-0.02201991553868784   -0.053046897621136055   -0.0013406242174302402
-0.01665896054163852   -0.05331952181043923   -0.0014002731234263458
-0.0196067244462633   -0.06197021336028589   -0.0018590595858188304
-0.014868086605525589   -0.06221251057756946   -0.001623967525486049
-0.016662986755395622   -0.05327049913441001   -0.0012937548656134481
-0.019450808126880808   -0.06192915556165504   -0.001658384857337393
-0.014843612934340772   -0.062199849447026355   -0.001484888067002957
-0.016662986755395622   -0.05327049913441001   -0.0012937548656134481
-0.02201991553868784   -0.053046897621136055   -0.0013406242174302402
-0.019450808126880808   -0.06192915556165504   -0.001658384857337393
-0.021871276653009177   -0.05304811294102154   -0.001173405142408468
-0.014843612934340772   -0.062199849447026355   -0.001484888067002957
-0.019225760663242428   -0.061942504642323044   -0.001447642954176417
-0.021871276653009177   -0.05304811294102154   -0.001173405142408468
-0.019450808126880808   -0.06192915556165504   -0.001658384857337393
-0.014843612934340772   -0.062199849447026355   -0.001484888067002957
-0.021871276653009177   -0.05304811294102154   -0.001173405142408468
-0.016674647597890023   -0.053246636434086295   -0.0011793525575890913
-0.016662986755395622   -0.05327049913441001   -0.0012937548656134481
-0.014843612934340772   -0.062199849447026355   -0.001484888067002957
-0.021871276653009177   -0.05304811294102154   -0.001173405142408468
-0.016662986755395622   -0.05327049913441001   -0.0012937548656134481
-0.019450808126880808   -0.06192915556165504   -0.001658384857337393
0.003907964897300915   -0.053650289285671754   -0.0006105877422156277
0.004699341583607139   -0.04367111350000791   -0.0003109123958415473
-0.0014046043945307406   -0.053704769965775626   -0.0008959983000923655
0.003959464721748679   -0.05349826780564527   -0.0006972305550175772
0.004699341583607139   -0.04367111350000791   -0.0003109123958415473
-0.0011978435742270178   -0.04366978736363339   -0.0005755959162973548
-0.0014046043945307406   -0.053704769965775626   -0.0008959983000923655
-0.0012506494663129955   -0.04354324193428303   -0.0005794859356940663
0.003959464721748679   -0.05349826780564527   -0.0006972305550175772
-0.0014296395890005481   -0.05357394960844055   -0.0009253227826472026
-0.0012506494663129955   -0.04354324193428303   -0.0005794859356940663
-0.0014046043945307406   -0.053704769965775626   -0.0008959983000923655
0.003959464721748679   -0.05349826780564527   -0.0006972305550175772
-0.0012506494663129955   -0.04354324193428303   -0.0005794859356940663
0.004682202808248207   -0.043525572913135704   -0.00035241403167896127
0.004699341583607139   -0.04367111350000791   -0.0003109123958415473
0.003959464721748679   -0.05349826780564527   -0.0006972305550175772
-0.0012506494663129955   -0.04354324193428303   -0.0005794859356940663
0.004699341583607139   -0.04367111350000791   -0.0003109123958415473
-0.0014046043945307406   -0.053704769965775626   -0.0008959983000923655
0.003959464721748679   -0.05349826780564527   -0.0006972305550175772
0.004682202808248207   -0.043525572913135704   -0.00035241403167896127
-0.0014296395890005481   -0.05357394960844055   -0.0009253227826472026
0.003975061455640186   -0.053387449331926934   -0.0007728568595628288
0.004682202808248207   -0.043525572913135704   -0.00035241403167896127
-0.0012506494663129955   -0.04354324193428303   -0.0005794859356940663
-0.0014296395890005481   -0.05357394960844055   -0.0009253227826472026
-0.0013093252256688238   -0.04343428530777849   -0.0005767566706946672
0.003975061455640186   -0.053387449331926934   -0.0007728568595628288
-0.0014559562306188996   -0.05347043239848634   -0.000947179575731346
-0.0013093252256688238   -0.04343428530777849   -0.0005767566706946672
-0.0014296395890005481   -0.05357394960844055   -0.0009253227826472026
0.003975061455640186   -0.053387449331926934   -0.0007728568595628288
-0.0013093252256688238   -0.04343428530777849   -0.0005767566706946672
0.004639690341615962   -0.04340842202651772   -0.00038330614193751977
0.004682202808248207   -0.043525572913135704   -0.00035241403167896127
0.003975061455640186   -0.053387449331926934   -0.0007728568595628288
-0.0013093252256688238   -0.04343428530777849   -0.0005767566706946672
0.004682202808248207   -0.043525572913135704   -0.00035241403167896127
-0.0014296395890005481   -0.05357394960844055   -0.0009253227826472026
0.003975061455640186   -0.053387449331926934   -0.0007728568595628288
0.004639690341615962   -0.04340842202651772   -0.00038330614193751977
-0.0014559562306188996   -0.05347043239848634   -0.000947179575731346
0.0039837638646358755   -0.053298325569790174   -0.0008379877021582035
0.004639690341615962   -0.04340842202651772   -0.00038330614193751977
-0.0013093252256688238   -0.04343428530777849   -0.0005767566706946672
-0.0014559562306188996   -0.05347043239848634   -0.000947179575731346
-0.0013821313155318248   -0.04334009801212329   -0.0005671471679335799
0.0039837638646358755   -0.053298325569790174   -0.0008379877021582035
-0.00150072873253034   -0.05339096932919321   -0.0009618213141674111
-0.0013821313155318248   -0.04334009801212329   -0.0005671471679335799
-0.0014559562306188996   -0.05347043239848634   -0.000947179575731346
0.0039837638646358755   -0.053298325569790174   -0.0008379877021582035
-0.0013821313155318248   -0.04334009801212329   -0.0005671471679335799
0.004580356013349071   -0.04330057722789481   -0.00040432962094446857
0.004639690341615962   -0.04340842202651772   -0.00038330614193751977
0.0039837638646358755   -0.053298325569790174   -0.0008379877021582035
-0.0013821313155318248   -0.04334009801212329   -0.0005671471679335799
0.004639690341615962   -0.04340842202651772   -0.00038330614193751977
-0.0014559562306188996   -0.05347043239848634   -0.000947179575731346
-0.0014046043945307406   -0.053704769965775626   -0.0008959983000923655
-0.0011978435742270178   -0.04366978736363339   -0.0005755959162973548
-0.006496783220329342   -0.053676700747809517   -0.0011310813293763985
-0.0014296395890005481   -0.05357394960844055   -0.0009253227826472026
-0.0011978435742270178   -0.04366978736363339   -0.0005755959162973548
-0.006822661925251413   -0.04361645767736729   -0.0007941090145559884
-0.006496783220329342   -0.053676700747809517   -0.0011310813293763985
-0.006881740762762457   -0.04351138262511873   -0.0007710706478302201
-0.0014296395890005481   -0.05357394960844055   -0.0009253227826472026
-0.006531469320314427   -0.05356734852930735   -0.0011173502154446764
-0.006881740762762457   -0.04351138262511873   -0.0007710706478302201
-0.006496783220329342   -0.053676700747809517   -0.0011310813293763985
-0.0014296395890005481   -0.05357394960844055   -0.0009253227826472026
-0.006881740762762457   -0.04351138262511873   -0.0007710706478302201
-0.0012506494663129955   -0.04354324193428303   -0.0005794859356940663
-0.0011978435742270178   -0.04366978736363339   -0.0005755959162973548
-0.0014296395890005481   -0.05357394960844055   -0.0009253227826472026
-0.006881740762762457   -0.04351138262511873   -0.0007710706478302201
-0.0011978435742270178   -0.04366978736363339   -0.0005755959162973548
-0.006496783220329342   -0.053676700747809517   -0.0011310813293763985
-0.0014296395890005481   -0.05357394960844055   -0.0009253227826472026
-0.0012506494663129955   -0.04354324193428303   -0.0005794859356940663
-0.006531469320314427   -0.05356734852930735   -0.0011173502154446764
-0.0014559562306188996   -0.05347043239848634   -0.000947179575731346
-0.0012506494663129955   -0.04354324193428303   -0.0005794859356940663
-0.006881740762762457   -0.04351138262511873   -0.0007710706478302201
-0.006531469320314427   -0.05356734852930735   -0.0011173502154446764
-0.006942006580911824   -0.04342062625114342   -0.0007411379890112935
-0.0014559562306188996   -0.05347043239848634   -0.000947179575731346
-0.0065666314269112415   -0.0534814013944051   -0.0010959319562562433
-0.006942006580911824   -0.04342062625114342   -0.0007411379890112935
-0.006531469320314427   -0.05356734852930735   -0.0011173502154446764
-0.0014559562306188996   -0.05347043239848634   -0.000947179575731346
-0.006942006580911824   -0.04342062625114342   -0.0007411379890112935
-0.0013093252256688238   -0.04343428530777849   -0.0005767566706946672
-0.0012506494663129955   -0.04354324193428303   -0.0005794859356940663
-0.0014559562306188996   -0.05347043239848634   -0.000947179575731346
-0.006942006580911824   -0.04342062625114342   -0.0007411379890112935
-0.0012506494663129955   -0.04354324193428303   -0.0005794859356940663
-0.006531469320314427   -0.05356734852930735   -0.0011173502154446764
-0.0014559562306188996   -0.05347043239848634   -0.000947179575731346
-0.0013093252256688238   -0.04343428530777849   -0.0005767566706946672
-0.0065666314269112415   -0.0534814013944051   -0.0010959319562562433
-0.00150072873253034   -0.05339096932919321   -0.0009618213141674111
-0.0013093252256688238   -0.04343428530777849   -0.0005767566706946672
-0.006942006580911824   -0.04342062625114342   -0.0007411379890112935
-0.0065666314269112415   -0.0534814013944051   -0.0010959319562562433
-0.007007365306995302   -0.043345043267626115   -0.0007046334626406764
-0.00150072873253034   -0.05339096932919321   -0.0009618213141674111
-0.0066072624797394175   -0.053419257147836345   -0.001067196324756447
-0.007007365306995302   -0.043345043267626115   -0.0007046334626406764
-0.0065666314269112415   -0.0534814013944051   -0.0010959319562562433
-0.00150072873253034   -0.05339096932919321   -0.0009618213141674111
-0.007007365306995302   -0.043345043267626115   -0.0007046334626406764
-0.0013821313155318248   -0.04334009801212329   -0.0005671471679335799
-0.0013093252256688238   -0.04343428530777849   -0.0005767566706946672
-0.00150072873253034   -0.05339096932919321   -0.0009618213141674111
-0.007007365306995302   -0.043345043267626115   -0.0007046334626406764
-0.0013093252256688238   -0.04343428530777849   -0.0005767566706946672
-0.0065666314269112415   -0.0534814013944051   -0.0010959319562562433
-0.006496783220329342   -0.053676700747809517   -0.0011310813293763985
-0.006822661925251413   -0.04361645767736729   -0.0007941090145559884
-0.011502849796829123   -0.053571174518033775   -0.0013322570644531424
-0.006531469320314427   -0.05356734852930735   -0.0011173502154446764
-0.006822661925251413   -0.04361645767736729   -0.0007941090145559884
-0.01235237034030817   -0.043516994215557527   -0.0009784924302413697
-0.011502849796829123   -0.053571174518033775   -0.0013322570644531424
-0.012413186123172009   -0.04343171758058357   -0.0009285717922556603
-0.006531469320314427   -0.05356734852930735   -0.0011173502154446764
-0.01154026389132579   -0.05348133409458121   -0.0012756768766538362
-0.012413186123172009   -0.04343171758058357   -0.0009285717922556603
-0.011502849796829123   -0.053571174518033775   -0.0013322570644531424
-0.006531469320314427   -0.05356734852930735   -0.0011173502154446764
-0.012413186123172009   -0.04343171758058357   -0.0009285717922556603
-0.006881740762762457   -0.04351138262511873   -0.0007710706478302201
-0.006822661925251413   -0.04361645767736729   -0.0007941090145559884
-0.006531469320314427   -0.05356734852930735   -0.0011173502154446764
-0.012413186123172009   -0.04343171758058357   -0.0009285717922556603
-0.006822661925251413   -0.04361645767736729   -0.0007941090145559884
-0.011502849796829123   -0.053571174518033775   -0.0013322570644531424
-0.006531469320314427   -0.05356734852930735   -0.0011173502154446764
-0.006881740762762457   -0.04351138262511873   -0.0007710706478302201
-0.01154026389132579   -0.05348133409458121   -0.0012756768766538362
-0.0065666314269112415   -0.0534814013944051   -0.0010959319562562433
-0.006881740762762457   -0.04351138262511873   -0.0007710706478302201
-0.012413186123172009   -0.04343171758058357   -0.0009285717922556603
-0.01154026389132579   -0.05348133409458121   -0.0012756768766538362
-0.012468360184288518   -0.04336065837489561   -0.0008719172705598615
-0.0065666314269112415   -0.0534814013944051   -0.0010959319562562433
-0.011571267862805238   -0.053414675056256924   -0.0012115450897537564
-0.012468360184288518   -0.04336065837489561   -0.0008719172705598615
-0.01154026389132579   -0.05348133409458121   -0.0012756768766538362
-0.0065666314269112415   -0.0534814013944051   -0.0010959319562562433
-0.012468360184288518   -0.04336065837489561   -0.0008719172705598615
-0.006942006580911824   -0.04342062625114342   -0.0007411379890112935
-0.006881740762762457   -0.04351138262511873   -0.0007710706478302201
-0.0065666314269112415   -0.0534814013944051   -0.0010959319562562433
-0.012468360184288518   -0.04336065837489561   -0.0008719172705598615
-0.006881740762762457   -0.04351138262511873   -0.0007710706478302201
-0.01154026389132579   -0.05348133409458121   -0.0012756768766538362
-0.0065666314269112415   -0.0534814013944051   -0.0010959319562562433
-0.006942006580911824   -0.04342062625114342   -0.0007411379890112935
-0.011571267862805238   -0.053414675056256924   -0.0012115450897537564
-0.0066072624797394175   -0.053419257147836345   -0.001067196324756447
-0.006942006580911824   -0.04342062625114342   -0.0007411379890112935
-0.012468360184288518   -0.04336065837489561   -0.0008719172705598615
-0.011571267862805238   -0.053414675056256924   -0.0012115450897537564
-0.012524056982182518   -0.04330393715991118   -0.0008087859519786343
-0.0066072624797394175   -0.053419257147836345   -0.001067196324756447
-0.011603171299324377   -0.053371100625628415   -0.0011400843058938124
-0.012524056982182518   -0.04330393715991118   -0.0008087859519786343
-0.011571267862805238   -0.053414675056256924   -0.0012115450897537564
-0.0066072624797394175   -0.053419257147836345   -0.001067196324756447
-0.012524056982182518   -0.04330393715991118   -0.0008087859519786343
-0.007007365306995302   -0.043345043267626115   -0.0007046334626406764
-0.006942006580911824   -0.04342062625114342   -0.0007411379890112935
-0.0066072624797394175   -0.053419257147836345   -0.001067196324756447
-0.012524056982182518   -0.04330393715991118   -0.0008087859519786343
-0.006942006580911824   -0.04342062625114342   -0.0007411379890112935
-0.011571267862805238   -0.053414675056256924   -0.0012115450897537564
-0.011502849796829123   -0.053571174518033775   -0.0013322570644531424
-0.01235237034030817   -0.043516994215557527   -0.0009784924302413697
-0.01662799050401476   -0.05339029825211961   -0.001500284878509076
-0.01154026389132579   -0.05348133409458121   -0.0012756768766538362
-0.01235237034030817   -0.043516994215557527   -0.0009784924302413697
-0.01799158509221287   -0.04336928026084418   -0.001129155860475079
-0.01662799050401476   -0.05339029825211961   -0.001500284878509076
-0.01804805906891819   -0.043303972280848896   -0.0010521478827983247
-0.01154026389132579   -0.05348133409458121   -0.0012756768766538362
-0.01665896054163852   -0.05331952181043923   -0.0014002731234263458
-0.01804805906891819   -0.043303972280848896   -0.0010521478827983247
-0.01662799050401476   -0.05339029825211961   -0.001500284878509076
-0.01154026389132579   -0.05348133409458121   -0.0012756768766538362
-0.01804805906891819   -0.043303972280848896   -0.0010521478827983247
-0.012413186123172009   -0.04343171758058357   -0.0009285717922556603
-0.01235237034030817   -0.043516994215557527   -0.0009784924302413697
-0.01154026389132579   -0.05348133409458121   -0.0012756768766538362
-0.01804805906891819   -0.043303972280848896   -0.0010521478827983247
-0.01235237034030817   -0.043516994215557527   -0.0009784924302413697
-0.01662799050401476   -0.05339029825211961   -0.001500284878509076
-0.01154026389132579   -0.05348133409458121   -0.0012756768766538362
-0.012413186123172009   -0.04343171758058357   -0.0009285717922556603
-0.01665896054163852   -0.05331952181043923   -0.0014002731234263458
-0.011571267862805238   -0.053414675056256924   -0.0012115450897537564
-0.012413186123172009   -0.04343171758058357   -0.0009285717922556603
-0.01804805906891819   -0.043303972280848896   -0.0010521478827983247
-0.01665896054163852   -0.05331952181043923   -0.0014002731234263458
-0.018082293282943435   -0.04325106411456588   -0.0009693154147017402
-0.011571267862805238   -0.053414675056256924   -0.0012115450897537564
-0.016662986755395622   -0.05327049913441001   -0.0012937548656134481
-0.018082293282943435   -0.04325106411456588   -0.0009693154147017402
-0.01665896054163852   -0.05331952181043923   -0.0014002731234263458
-0.011571267862805238   -0.053414675056256924   -0.0012115450897537564
-0.018082293282943435   -0.04325106411456588   -0.0009693154147017402
-0.012468360184288518   -0.04336065837489561   -0.0008719172705598615
-0.012413186123172009   -0.04343171758058357   -0.0009285717922556603
-0.011571267862805238   -0.053414675056256924   -0.0012115450897537564
-0.018082293282943435   -0.04325106411456588   -0.0009693154147017402
-0.012413186123172009   -0.04343171758058357   -0.0009285717922556603
-0.01665896054163852   -0.05331952181043923   -0.0014002731234263458
-0.011571267862805238   -0.053414675056256924   -0.0012115450897537564
-0.012468360184288518   -0.04336065837489561   -0.0008719172705598615
-0.016662986755395622   -0.05327049913441001   -0.0012937548656134481
-0.011603171299324377   -0.053371100625628415   -0.0011400843058938124
-0.012468360184288518   -0.04336065837489561   -0.0008719172705598615
-0.018082293282943435   -0.04325106411456588   -0.0009693154147017402
-0.016662986755395622   -0.05327049913441001   -0.0012937548656134481
-0.018119881575069607   -0.04321373617928533   -0.0008794538180450287
-0.011603171299324377   -0.053371100625628415   -0.0011400843058938124
-0.016674647597890023   -0.053246636434086295   -0.0011793525575890913
-0.018119881575069607   -0.04321373617928533   -0.0008794538180450287
-0.016662986755395622   -0.05327049913441001   -0.0012937548656134481
-0.011603171299324377   -0.053371100625628415   -0.0011400843058938124
-0.018119881575069607   -0.04321373617928533   -0.0008794538180450287
-0.012524056982182518   -0.04330393715991118   -0.0008087859519786343
-0.012468360184288518   -0.04336065837489561   -0.0008719172705598615
-0.011603171299324377   -0.053371100625628415   -0.0011400843058938124
-0.018119881575069607   -0.04321373617928533   -0.0008794538180450287
-0.012468360184288518   -0.04336065837489561   -0.0008719172705598615
-0.016662986755395622   -0.05327049913441001   -0.0012937548656134481
-0.01662799050401476   -0.05339029825211961   -0.001500284878509076
-0.01799158509221287   -0.04336928026084418   -0.001129155860475079
-0.02221677065106434   -0.05315309535403673   -0.0016438175457843555
-0.01665896054163852   -0.05331952181043923   -0.0014002731234263458
-0.01799158509221287   -0.04336928026084418   -0.001129155860475079
-0.024043773742159172   -0.04318761003310491   -0.0012489659744800495
-0.02221677065106434   -0.05315309535403673   -0.0016438175457843555
-0.024002343911557124   -0.04313254516330136   -0.001146405252457057
-0.01665896054163852   -0.05331952181043923   -0.0014002731234263458
-0.02210996841499995   -0.053088444461900655   -0.001497900208522964
-0.024002343911557124   -0.04313254516330136   -0.001146405252457057
-0.02221677065106434   -0.05315309535403673   -0.0016438175457843555
-0.01665896054163852   -0.05331952181043923   -0.0014002731234263458
-0.024002343911557124   -0.04313254516330136   -0.001146405252457057
-0.01804805906891819   -0.043303972280848896   -0.0010521478827983247
-0.01799158509221287   -0.04336928026084418   -0.001129155860475079
-0.01665896054163852   -0.05331952181043923   -0.0014002731234263458
-0.024002343911557124   -0.04313254516330136   -0.001146405252457057
-0.01799158509221287   -0.04336928026084418   -0.001129155860475079
-0.02221677065106434   -0.05315309535403673   -0.0016438175457843555
-0.01665896054163852   -0.05331952181043923   -0.0014002731234263458
-0.01804805906891819   -0.043303972280848896   -0.0010521478827983247
-0.02210996841499995   -0.053088444461900655   -0.001497900208522964
-0.016662986755395622   -0.05327049913441001   -0.0012937548656134481
-0.01804805906891819   -0.043303972280848896   -0.0010521478827983247
-0.024002343911557124   -0.04313254516330136   -0.001146405252457057
-0.02210996841499995   -0.053088444461900655   -0.001497900208522964
-0.023968584661845888   -0.04308818717997077   -0.001033157035159716
-0.016662986755395622   -0.05327049913441001   -0.0012937548656134481
-0.02201991553868784   -0.053046897621136055   -0.0013406242174302402
-0.023968584661845888   -0.04308818717997077   -0.001033157035159716
-0.02210996841499995   -0.053088444461900655   -0.001497900208522964
-0.016662986755395622   -0.05327049913441001   -0.0012937548656134481
-0.023968584661845888   -0.04308818717997077   -0.001033157035159716
-0.018082293282943435   -0.04325106411456588   -0.0009693154147017402
-0.01804805906891819   -0.043303972280848896   -0.0010521478827983247
-0.016662986755395622   -0.05327049913441001   -0.0012937548656134481
-0.023968584661845888   -0.04308818717997077   -0.001033157035159716
-0.01804805906891819   -0.043303972280848896   -0.0010521478827983247
-0.02210996841499995   -0.053088444461900655   -0.001497900208522964
-0.016662986755395622   -0.05327049913441001   -0.0012937548656134481
-0.018082293282943435   -0.04325106411456588   -0.0009693154147017402
-0.02201991553868784   -0.053046897621136055   -0.0013406242174302402
-0.016674647597890023   -0.053246636434086295   -0.0011793525575890913
-0.018082293282943435   -0.04325106411456588   -0.0009693154147017402
-0.023968584661845888   -0.04308818717997077   -0.001033157035159716
-0.02201991553868784   -0.053046897621136055   -0.0013406242174302402
-0.02388733012158253   -0.04307410157562807   -0.0009104405582404091
-0.016674647597890023   -0.053246636434086295   -0.0011793525575890913
-0.021871276653009177   -0.05304811294102154   -0.001173405142408468
-0.02388733012158253   -0.04307410157562807   -0.0009104405582404091
-0.02201991553868784   -0.053046897621136055   -0.0013406242174302402
-0.016674647597890023   -0.053246636434086295   -0.0011793525575890913
-0.02388733012158253   -0.04307410157562807   -0.0009104405582404091
-0.018119881575069607   -0.04321373617928533   -0.0008794538180450287
-0.018082293282943435   -0.04325106411456588   -0.0009693154147017402
-0.016674647597890023   -0.053246636434086295   -0.0011793525575890913
-0.02388733012158253   -0.04307410157562807   -0.0009104405582404091
-0.018082293282943435   -0.04325106411456588   -0.0009693154147017402
-0.02201991553868784   -0.053046897621136055   -0.0013406242174302402
0.004699341583607139   -0.04367111350000791   -0.0003109123958415473
0.00485674238020804   -0.03300339314549167   -4.843838948152229e-05
-0.0011978435742270178   -0.04366978736363339   -0.0005755959162973548
0.004682202808248207   -0.043525572913135704   -0.00035241403167896127
0.00485674238020804   -0.03300339314549167   -4.843838948152229e-05
-0.0013746170971239546   -0.032948504937639185   -0.0002864419463387686
-0.0011978435742270178   -0.04366978736363339   -0.0005755959162973548
-0.0014470727391186452   -0.032827383145069076   -0.0002649123146656721
0.004682202808248207   -0.043525572913135704   -0.00035241403167896127
-0.0012506494663129955   -0.04354324193428303   -0.0005794859356940663
-0.0014470727391186452   -0.032827383145069076   -0.0002649123146656721
-0.0011978435742270178   -0.04366978736363339   -0.0005755959162973548
0.004682202808248207   -0.043525572913135704   -0.00035241403167896127
-0.0014470727391186452   -0.032827383145069076   -0.0002649123146656721
0.004779786646213497   -0.03286455202874471   -4.40252259355619e-05
0.00485674238020804   -0.03300339314549167   -4.843838948152229e-05
0.004682202808248207   -0.043525572913135704   -0.00035241403167896127
-0.0014470727391186452   -0.032827383145069076   -0.0002649123146656721
0.00485674238020804   -0.03300339314549167   -4.843838948152229e-05
-0.0011978435742270178   -0.04366978736363339   -0.0005755959162973548
0.004682202808248207   -0.043525572913135704   -0.00035241403167896127
0.004779786646213497   -0.03286455202874471   -4.40252259355619e-05
-0.0012506494663129955   -0.04354324193428303   -0.0005794859356940663
0.004639690341615962   -0.04340842202651772   -0.00038330614193751977
0.004779786646213497   -0.03286455202874471   -4.40252259355619e-05
-0.0014470727391186452   -0.032827383145069076   -0.0002649123146656721
-0.0012506494663129955   -0.04354324193428303   -0.0005794859356940663
-0.0015300191471364357   -0.03271303806872455   -0.00023738306112421688
0.004639690341615962   -0.04340842202651772   -0.00038330614193751977
-0.0013093252256688238   -0.04343428530777849   -0.0005767566706946672
-0.0015300191471364357   -0.03271303806872455   -0.00023738306112421688
-0.0012506494663129955   -0.04354324193428303   -0.0005794859356940663
0.004639690341615962   -0.04340842202651772   -0.00038330614193751977
-0.0015300191471364357   -0.03271303806872455   -0.00023738306112421688
0.004685376368751713   -0.03274044668838526   -2.7351502248519713e-05
0.004779786646213497   -0.03286455202874471   -4.40252259355619e-05
0.004639690341615962   -0.04340842202651772   -0.00038330614193751977
-0.0015300191471364357   -0.03271303806872455   -0.00023738306112421688
0.004779786646213497   -0.03286455202874471   -4.40252259355619e-05
-0.0012506494663129955   -0.04354324193428303   -0.0005794859356940663
0.004639690341615962   -0.04340842202651772   -0.00038330614193751977
0.004685376368751713   -0.03274044668838526   -2.7351502248519713e-05
-0.0013093252256688238   -0.04343428530777849   -0.0005767566706946672
0.004580356013349071   -0.04330057722789481   -0.00040432962094446857
0.004685376368751713   -0.03274044668838526   -2.7351502248519713e-05
-0.0015300191471364357   -0.03271303806872455   -0.00023738306112421688
-0.0013093252256688238   -0.04343428530777849   -0.0005767566706946672
-0.0016231044775855102   -0.03260390619900373   -0.00020234990354185234
0.004580356013349071   -0.04330057722789481   -0.00040432962094446857
-0.0013821313155318248   -0.04334009801212329   -0.0005671471679335799
-0.0016231044775855102   -0.03260390619900373   -0.00020234990354185234
-0.0013093252256688238   -0.04343428530777849   -0.0005767566706946672
0.004580356013349071   -0.04330057722789481   -0.00040432962094446857
-0.0016231044775855102   -0.03260390619900373   -0.00020234990354185234
0.0045609391729937165   -0.0326106074887703   1.0274544974714932e-06
0.004685376368751713   -0.03274044668838526   -2.7351502248519713e-05
0.004580356013349071   -0.04330057722789481   -0.00040432962094446857
-0.0016231044775855102   -0.03260390619900373   -0.00020234990354185234
0.004685376368751713   -0.03274044668838526   -2.7351502248519713e-05
-0.0013093252256688238   -0.04343428530777849   -0.0005767566706946672
-0.0011978435742270178   -0.04366978736363339   -0.0005755959162973548
-0.0013746170971239546   -0.032948504937639185   -0.0002864419463387686
-0.006822661925251413   -0.04361645767736729   -0.0007941090145559884
-0.0012506494663129955   -0.04354324193428303   -0.0005794859356940663
-0.0013746170971239546   -0.032948504937639185   -0.0002864419463387686
-0.007279164799650712   -0.032884619811238136   -0.00048792552736786964
-0.006822661925251413   -0.04361645767736729   -0.0007941090145559884
-0.00735305610613056   -0.03278328942773067   -0.00045499444856453845
-0.0012506494663129955   -0.04354324193428303   -0.0005794859356940663
-0.006881740762762457   -0.04351138262511873   -0.0007710706478302201
-0.00735305610613056   -0.03278328942773067   -0.00045499444856453845
-0.006822661925251413   -0.04361645767736729   -0.0007941090145559884
-0.0012506494663129955   -0.04354324193428303   -0.0005794859356940663
-0.00735305610613056   -0.03278328942773067   -0.00045499444856453845
-0.0014470727391186452   -0.032827383145069076   -0.0002649123146656721
-0.0013746170971239546   -0.032948504937639185   -0.0002864419463387686
-0.0012506494663129955   -0.04354324193428303   -0.0005794859356940663
-0.00735305610613056   -0.03278328942773067   -0.00045499444856453845
-0.0013746170971239546   -0.032948504937639185   -0.0002864419463387686
-0.006822661925251413   -0.04361645767736729   -0.0007941090145559884
-0.0012506494663129955   -0.04354324193428303   -0.0005794859356940663
-0.0014470727391186452   -0.032827383145069076   -0.0002649123146656721
-0.006881740762762457   -0.04351138262511873   -0.0007710706478302201
-0.0013093252256688238   -0.04343428530777849   -0.0005767566706946672
-0.0014470727391186452   -0.032827383145069076   -0.0002649123146656721
-0.00735305610613056   -0.03278328942773067   -0.00045499444856453845
-0.006881740762762457   -0.04351138262511873   -0.0007710706478302201
-0.007428599216478661   -0.0326872198684277   -0.00041634741429088395
-0.0013093252256688238   -0.04343428530777849   -0.0005767566706946672
-0.006942006580911824   -0.04342062625114342   -0.0007411379890112935
-0.007428599216478661   -0.0326872198684277   -0.00041634741429088395
-0.006881740762762457   -0.04351138262511873   -0.0007710706478302201
-0.0013093252256688238   -0.04343428530777849   -0.0005767566706946672
-0.007428599216478661   -0.0326872198684277   -0.00041634741429088395
-0.0015300191471364357   -0.03271303806872455   -0.00023738306112421688
-0.0014470727391186452   -0.032827383145069076   -0.0002649123146656721
-0.0013093252256688238   -0.04343428530777849   -0.0005767566706946672
-0.007428599216478661   -0.0326872198684277   -0.00041634741429088395
-0.0014470727391186452   -0.032827383145069076   -0.0002649123146656721
-0.006881740762762457   -0.04351138262511873   -0.0007710706478302201
-0.0013093252256688238   -0.04343428530777849   -0.0005767566706946672
-0.0015300191471364357   -0.03271303806872455   -0.00023738306112421688
-0.006942006580911824   -0.04342062625114342   -0.0007411379890112935
-0.0013821313155318248   -0.04334009801212329   -0.0005671471679335799
-0.0015300191471364357   -0.03271303806872455   -0.00023738306112421688
-0.007428599216478661   -0.0326872198684277   -0.00041634741429088395
-0.006942006580911824   -0.04342062625114342   -0.0007411379890112935
-0.007508941670229091   -0.03259789397888286   -0.0003719214406981198
-0.0013821313155318248   -0.04334009801212329   -0.0005671471679335799
-0.007007365306995302   -0.043345043267626115   -0.0007046334626406764
-0.007508941670229091   -0.03259789397888286   -0.0003719214406981198
-0.006942006580911824   -0.04342062625114342   -0.0007411379890112935
-0.0013821313155318248   -0.04334009801212329   -0.0005671471679335799
-0.007508941670229091   -0.03259789397888286   -0.0003719214406981198
-0.0016231044775855102   -0.03260390619900373   -0.00020234990354185234
-0.0015300191471364357   -0.03271303806872455   -0.00023738306112421688
-0.0013821313155318248   -0.04334009801212329   -0.0005671471679335799
-0.007508941670229091   -0.03259789397888286   -0.0003719214406981198
-0.0015300191471364357   -0.03271303806872455   -0.00023738306112421688
-0.006942006580911824   -0.04342062625114342   -0.0007411379890112935
-0.006822661925251413   -0.04361645767736729   -0.0007941090145559884
-0.007279164799650712   -0.032884619811238136   -0.00048792552736786964
-0.01235237034030817   -0.043516994215557527   -0.0009784924302413697
-0.006881740762762457   -0.04351138262511873   -0.0007710706478302201
-0.007279164799650712   -0.032884619811238136   -0.00048792552736786964
-0.013087701731695878   -0.03280804993418184   -0.0006590716468951511
-0.01235237034030817   -0.043516994215557527   -0.0009784924302413697
-0.013161049709300692   -0.03272506512380775   -0.0006147437337038428
-0.006881740762762457   -0.04351138262511873   -0.0007710706478302201
-0.012413186123172009   -0.04343171758058357   -0.0009285717922556603
-0.013161049709300692   -0.03272506512380775   -0.0006147437337038428
-0.01235237034030817   -0.043516994215557527   -0.0009784924302413697
-0.006881740762762457   -0.04351138262511873   -0.0007710706478302201
-0.013161049709300692   -0.03272506512380775   -0.0006147437337038428
-0.00735305610613056   -0.03278328942773067   -0.00045499444856453845
-0.007279164799650712   -0.032884619811238136   -0.00048792552736786964
-0.006881740762762457   -0.04351138262511873   -0.0007710706478302201
-0.013161049709300692   -0.03272506512380775   -0.0006147437337038428
-0.007279164799650712   -0.032884619811238136   -0.00048792552736786964
-0.01235237034030817   -0.043516994215557527   -0.0009784924302413697
-0.006881740762762457   -0.04351138262511873   -0.0007710706478302201
-0.00735305610613056   -0.03278328942773067   -0.00045499444856453845
-0.012413186123172009   -0.04343171758058357   -0.0009285717922556603
-0.006942006580911824   -0.04342062625114342   -0.0007411379890112935
-0.00735305610613056   -0.03278328942773067   -0.00045499444856453845
-0.013161049709300692   -0.03272506512380775   -0.0006147437337038428
-0.012413186123172009   -0.04343171758058357   -0.0009285717922556603
-0.013229654517389503   -0.03264764155456526   -0.0005648953751838924
-0.006942006580911824   -0.04342062625114342   -0.0007411379890112935
-0.012468360184288518   -0.04336065837489561   -0.0008719172705598615
-0.013229654517389503   -0.03264764155456526   -0.0005648953751838924
-0.012413186123172009   -0.04343171758058357   -0.0009285717922556603
-0.006942006580911824   -0.04342062625114342   -0.0007411379890112935
-0.013229654517389503   -0.03264764155456526   -0.0005648953751838924
-0.007428599216478661   -0.0326872198684277   -0.00041634741429088395
-0.00735305610613056   -0.03278328942773067   -0.00045499444856453845
-0.006942006580911824   -0.04342062625114342   -0.0007411379890112935
-0.013229654517389503   -0.03264764155456526   -0.0005648953751838924
-0.00735305610613056   -0.03278328942773067   -0.00045499444856453845
-0.012413186123172009   -0.04343171758058357   -0.0009285717922556603
-0.006942006580911824   -0.04342062625114342   -0.0007411379890112935
-0.007428599216478661   -0.0326872198684277   -0.00041634741429088395
-0.012468360184288518   -0.04336065837489561   -0.0008719172705598615
-0.007007365306995302   -0.043345043267626115   -0.0007046334626406764
-0.007428599216478661   -0.0326872198684277   -0.00041634741429088395
-0.013229654517389503   -0.03264764155456526   -0.0005648953751838924
-0.012468360184288518   -0.04336065837489561   -0.0008719172705598615
-0.013298504642733092   -0.03257599451161516   -0.0005098003660393214
-0.007007365306995302   -0.043345043267626115   -0.0007046334626406764
-0.012524056982182518   -0.04330393715991118   -0.0008087859519786343
-0.013298504642733092   -0.03257599451161516   -0.0005098003660393214
-0.012468360184288518   -0.04336065837489561   -0.0008719172705598615
-0.007007365306995302   -0.043345043267626115   -0.0007046334626406764
-0.013298504642733092   -0.03257599451161516   -0.0005098003660393214
-0.007508941670229091   -0.03259789397888286   -0.0003719214406981198
-0.007428599216478661   -0.0326872198684277   -0.00041634741429088395
-0.007007365306995302   -0.043345043267626115   -0.0007046334626406764
-0.013298504642733092   -0.03257599451161516   -0.0005098003660393214
-0.007428599216478661   -0.0326872198684277   -0.00041634741429088395
-0.012468360184288518   -0.04336065837489561   -0.0008719172705598615
-0.01235237034030817   -0.043516994215557527   -0.0009784924302413697
-0.013087701731695878   -0.03280804993418184   -0.0006590716468951511
-0.01799158509221287   -0.04336928026084418   -0.001129155860475079
-0.012413186123172009   -0.04343171758058357   -0.0009285717922556603
-0.013087701731695878   -0.03280804993418184   -0.0006590716468951511
-0.019001127477393878   -0.03270456149848717   -0.0007984182675529617
-0.01799158509221287   -0.04336928026084418   -0.001129155860475079
-0.01907137008153697   -0.032640878377819725   -0.0007428288283499942
-0.012413186123172009   -0.04343171758058357   -0.0009285717922556603
-0.01804805906891819   -0.043303972280848896   -0.0010521478827983247
-0.01907137008153697   -0.032640878377819725   -0.0007428288283499942
-0.01799158509221287   -0.04336928026084418   -0.001129155860475079
-0.012413186123172009   -0.04343171758058357   -0.0009285717922556603
-0.01907137008153697   -0.032640878377819725   -0.0007428288283499942
-0.013161049709300692   -0.03272506512380775   -0.0006147437337038428
-0.013087701731695878   -0.03280804993418184   -0.0006590716468951511
-0.012413186123172009   -0.04343171758058357   -0.0009285717922556603
-0.01907137008153697   -0.032640878377819725   -0.0007428288283499942
-0.013087701731695878   -0.03280804993418184   -0.0006590716468951511
-0.01799158509221287   -0.04336928026084418   -0.001129155860475079
-0.012413186123172009   -0.04343171758058357   -0.0009285717922556603
-0.013161049709300692   -0.03272506512380775   -0.0006147437337038428
-0.01804805906891819   -0.043303972280848896   -0.0010521478827983247
-0.012468360184288518   -0.04336065837489561   -0.0008719172705598615
-0.013161049709300692   -0.03272506512380775   -0.0006147437337038428
-0.01907137008153697   -0.032640878377819725   -0.0007428288283499942
-0.01804805906891819   -0.043303972280848896   -0.0010521478827983247
-0.01912464021299242   -0.032580623309284074   -0.0006826316892158209
-0.012468360184288518   -0.04336065837489561   -0.0008719172705598615
-0.018082293282943435   -0.04325106411456588   -0.0009693154147017402
-0.01912464021299242   -0.032580623309284074   -0.0006826316892158209
-0.01804805906891819   -0.043303972280848896   -0.0010521478827983247
-0.012468360184288518   -0.04336065837489561   -0.0008719172705598615
-0.01912464021299242   -0.032580623309284074   -0.0006826316892158209
-0.013229654517389503   -0.03264764155456526   -0.0005648953751838924
-0.013161049709300692   -0.03272506512380775   -0.0006147437337038428
-0.012468360184288518   -0.04336065837489561   -0.0008719172705598615
-0.01912464021299242   -0.032580623309284074   -0.0006826316892158209
-0.013161049709300692   -0.03272506512380775   -0.0006147437337038428
-0.01804805906891819   -0.043303972280848896   -0.0010521478827983247
-0.012468360184288518   -0.04336065837489561   -0.0008719172705598615
-0.013229654517389503   -0.03264764155456526   -0.0005648953751838924
-0.018082293282943435   -0.04325106411456588   -0.0009693154147017402
-0.012524056982182518   -0.04330393715991118   -0.0008087859519786343
-0.013229654517389503   -0.03264764155456526   -0.0005648953751838924
-0.01912464021299242   -0.032580623309284074   -0.0006826316892158209
-0.018082293282943435   -0.04325106411456588   -0.0009693154147017402
-0.01917749099961622   -0.03252646276698403   -0.0006166232112511422
-0.012524056982182518   -0.04330393715991118   -0.0008087859519786343
-0.018119881575069607   -0.04321373617928533   -0.0008794538180450287
-0.01917749099961622   -0.03252646276698403   -0.0006166232112511422
-0.018082293282943435   -0.04325106411456588   -0.0009693154147017402
-0.012524056982182518   -0.04330393715991118   -0.0008087859519786343
-0.01917749099961622   -0.03252646276698403   -0.0006166232112511422
-0.013298504642733092   -0.03257599451161516   -0.0005098003660393214
-0.013229654517389503   -0.03264764155456526   -0.0005648953751838924
-0.012524056982182518   -0.04330393715991118   -0.0008087859519786343
-0.01917749099961622   -0.03252646276698403   -0.0006166232112511422
-0.013229654517389503   -0.03264764155456526   -0.0005648953751838924
-0.018082293282943435   -0.04325106411456588   -0.0009693154147017402
-0.01799158509221287   -0.04336928026084418   -0.001129155860475079
-0.019001127477393878   -0.03270456149848717   -0.0007984182675529617
-0.024043773742159172   -0.04318761003310491   -0.0012489659744800495
-0.01804805906891819   -0.043303972280848896   -0.0010521478827983247
-0.019001127477393878   -0.03270456149848717   -0.0007984182675529617
-0.025268355964398234   -0.03258233911959749   -0.0009018531602082829
-0.024043773742159172   -0.04318761003310491   -0.0012489659744800495
-0.025279201436958353   -0.032531500588963896   -0.0008404727356309077
-0.01804805906891819   -0.043303972280848896   -0.0010521478827983247
-0.024002343911557124   -0.04313254516330136   -0.001146405252457057
-0.025279201436958353   -0.032531500588963896   -0.0008404727356309077
-0.024043773742159172   -0.04318761003310491   -0.0012489659744800495
-0.01804805906891819   -0.043303972280848896   -0.0010521478827983247
-0.025279201436958353   -0.032531500588963896   -0.0008404727356309077
-0.01907137008153697   -0.032640878377819725   -0.0007428288283499942
-0.019001127477393878   -0.03270456149848717   -0.0007984182675529617
-0.01804805906891819   -0.043303972280848896   -0.0010521478827983247
-0.025279201436958353   -0.032531500588963896   -0.0008404727356309077
-0.019001127477393878   -0.03270456149848717   -0.0007984182675529617
-0.024043773742159172   -0.04318761003310491   -0.0012489659744800495
-0.01804805906891819   -0.043303972280848896   -0.0010521478827983247
-0.01907137008153697   -0.032640878377819725   -0.0007428288283499942
-0.024002343911557124   -0.04313254516330136   -0.001146405252457057
-0.018082293282943435   -0.04325106411456588   -0.0009693154147017402
-0.01907137008153697   -0.032640878377819725   -0.0007428288283499942
-0.025279201436958353   -0.032531500588963896   -0.0008404727356309077
-0.024002343911557124   -0.04313254516330136   -0.001146405252457057
-0.02529032906955613   -0.03248006315067543   -0.0007698130368363989
-0.018082293282943435   -0.04325106411456588   -0.0009693154147017402
-0.023968584661845888   -0.04308818717997077   -0.001033157035159716
-0.02529032906955613   -0.03248006315067543   -0.0007698130368363989
-0.024002343911557124   -0.04313254516330136   -0.001146405252457057
-0.018082293282943435   -0.04325106411456588   -0.0009693154147017402
-0.02529032906955613   -0.03248006315067543   -0.0007698130368363989
-0.01912464021299242   -0.032580623309284074   -0.0006826316892158209
-0.01907137008153697   -0.032640878377819725   -0.0007428288283499942
-0.018082293282943435   -0.04325106411456588   -0.0009693154147017402
-0.02529032906955613   -0.03248006315067543   -0.0007698130368363989
-0.01907137008153697   -0.032640878377819725   -0.0007428288283499942
-0.024002343911557124   -0.04313254516330136   -0.001146405252457057
-0.018082293282943435   -0.04325106411456588   -0.0009693154147017402
-0.01912464021299242   -0.032580623309284074   -0.0006826316892158209
-0.023968584661845888   -0.04308818717997077   -0.001033157035159716
-0.018119881575069607   -0.04321373617928533   -0.0008794538180450287
-0.01912464021299242   -0.032580623309284074   -0.0006826316892158209
-0.02529032906955613   -0.03248006315067543   -0.0007698130368363989
-0.023968584661845888   -0.04308818717997077   -0.001033157035159716
-0.02526624452578934   -0.03244613231263932   -0.0006909760638441236
-0.018119881575069607   -0.04321373617928533   -0.0008794538180450287
-0.02388733012158253   -0.04307410157562807   -0.0009104405582404091
-0.02526624452578934   -0.03244613231263932   -0.0006909760638441236
-0.023968584661845888   -0.04308818717997077   -0.001033157035159716
-0.018119881575069607   -0.04321373617928533   -0.0008794538180450287
-0.02526624452578934   -0.03244613231263932   -0.0006909760638441236
-0.01917749099961622   -0.03252646276698403   -0.0006166232112511422
-0.01912464021299242   -0.032580623309284074   -0.0006826316892158209
-0.018119881575069607   -0.04321373617928533   -0.0008794538180450287
-0.02526624452578934   -0.03244613231263932   -0.0006909760638441236
-0.01912464021299242   -0.032580623309284074   -0.0006826316892158209
-0.023968584661845888   -0.04308818717997077   -0.001033157035159716
0.00485674238020804   -0.03300339314549167   -4.843838948152229e-05
0.004352889180447469   -0.02201954875132733   0.0001327137853837964
-0.0013746170971239546   -0.032948504937639185   -0.0002864419463387686
0.004779786646213497   -0.03286455202874471   -4.40252259355619e-05
0.004352889180447469   -0.02201954875132733   0.0001327137853837964
-0.0019245190327236207   -0.02191599797192314   -5.646990241271322e-05
-0.0013746170971239546   -0.032948504937639185   -0.0002864419463387686
-0.0020110614961059213   -0.021806333901029363   -1.1554313378440297e-05
0.004779786646213497   -0.03286455202874471   -4.40252259355619e-05
-0.0014470727391186452   -0.032827383145069076   -0.0002649123146656721
-0.0020110614961059213   -0.021806333901029363   -1.1554313378440297e-05
-0.0013746170971239546   -0.032948504937639185   -0.0002864419463387686
0.004779786646213497   -0.03286455202874471   -4.40252259355619e-05
-0.0020110614961059213   -0.021806333901029363   -1.1554313378440297e-05
0.0042165408547714936   -0.02188725884110052   0.00018865127315297858
0.004352889180447469   -0.02201954875132733   0.0001327137853837964
0.004779786646213497   -0.03286455202874471   -4.40252259355619e-05
-0.0020110614961059213   -0.021806333901029363   -1.1554313378440297e-05
0.004352889180447469   -0.02201954875132733   0.0001327137853837964
-0.0013746170971239546   -0.032948504937639185   -0.0002864419463387686
0.004779786646213497   -0.03286455202874471   -4.40252259355619e-05
0.0042165408547714936   -0.02188725884110052   0.00018865127315297858
-0.0014470727391186452   -0.032827383145069076   -0.0002649123146656721
0.004685376368751713   -0.03274044668838526   -2.7351502248519713e-05
0.0042165408547714936   -0.02188725884110052   0.00018865127315297858
-0.0020110614961059213   -0.021806333901029363   -1.1554313378440297e-05
-0.0014470727391186452   -0.032827383145069076   -0.0002649123146656721
-0.0021122933381382382   -0.02169058417768962   4.134628659692739e-05
0.004685376368751713   -0.03274044668838526   -2.7351502248519713e-05
-0.0015300191471364357   -0.03271303806872455   -0.00023738306112421688
-0.0021122933381382382   -0.02169058417768962   4.134628659692739e-05
-0.0014470727391186452   -0.032827383145069076   -0.0002649123146656721
0.004685376368751713   -0.03274044668838526   -2.7351502248519713e-05
-0.0021122933381382382   -0.02169058417768962   4.134628659692739e-05
0.004064378623968859   -0.021755858460525593   0.0002689657826577151
0.0042165408547714936   -0.02188725884110052   0.00018865127315297858
0.004685376368751713   -0.03274044668838526   -2.7351502248519713e-05
-0.0021122933381382382   -0.02169058417768962   4.134628659692739e-05
0.0042165408547714936   -0.02188725884110052   0.00018865127315297858
-0.0014470727391186452   -0.032827383145069076   -0.0002649123146656721
0.004685376368751713   -0.03274044668838526   -2.7351502248519713e-05
0.004064378623968859   -0.021755858460525593   0.0002689657826577151
-0.0015300191471364357   -0.03271303806872455   -0.00023738306112421688
0.0045609391729937165   -0.0326106074887703   1.0274544974714932e-06
0.004064378623968859   -0.021755858460525593   0.0002689657826577151
-0.0021122933381382382   -0.02169058417768962   4.134628659692739e-05
-0.0015300191471364357   -0.03271303806872455   -0.00023738306112421688
-0.0022169965161990797   -0.021567674684466423   0.00010212407884306296
0.0045609391729937165   -0.0326106074887703   1.0274544974714932e-06
-0.0016231044775855102   -0.03260390619900373   -0.00020234990354185234
-0.0022169965161990797   -0.021567674684466423   0.00010212407884306296
-0.0015300191471364357   -0.03271303806872455   -0.00023738306112421688
0.0045609391729937165   -0.0326106074887703   1.0274544974714932e-06
-0.0022169965161990797   -0.021567674684466423   0.00010212407884306296
0.003878459610577114   -0.02159444951350028   0.0003573360269506763
0.004064378623968859   -0.021755858460525593   0.0002689657826577151
0.0045609391729937165   -0.0326106074887703   1.0274544974714932e-06
-0.0022169965161990797   -0.021567674684466423   0.00010212407884306296
0.004064378623968859   -0.021755858460525593   0.0002689657826577151
-0.0015300191471364357   -0.03271303806872455   -0.00023738306112421688
-0.0013746170971239546   -0.032948504937639185   -0.0002864419463387686
-0.0019245190327236207   -0.02191599797192314   -5.646990241271322e-05
-0.007279164799650712   -0.032884619811238136   -0.00048792552736786964
-0.0014470727391186452   -0.032827383145069076   -0.0002649123146656721
-0.0019245190327236207   -0.02191599797192314   -5.646990241271322e-05
-0.00783588883225678   -0.02188920103264206   -0.00023883927908685613
-0.007279164799650712   -0.032884619811238136   -0.00048792552736786964
-0.007914104682124737   -0.021793473079974434   -0.00019706508246941347
-0.0014470727391186452   -0.032827383145069076   -0.0002649123146656721
-0.00735305610613056   -0.03278328942773067   -0.00045499444856453845
-0.007914104682124737   -0.021793473079974434   -0.00019706508246941347
-0.007279164799650712   -0.032884619811238136   -0.00048792552736786964
-0.0014470727391186452   -0.032827383145069076   -0.0002649123146656721
-0.007914104682124737   -0.021793473079974434   -0.00019706508246941347
-0.0020110614961059213   -0.021806333901029363   -1.1554313378440297e-05
-0.0019245190327236207   -0.02191599797192314   -5.646990241271322e-05
-0.0014470727391186452   -0.032827383145069076   -0.0002649123146656721
-0.007914104682124737   -0.021793473079974434   -0.00019706508246941347
-0.0019245190327236207   -0.02191599797192314   -5.646990241271322e-05
-0.007279164799650712   -0.032884619811238136   -0.00048792552736786964
-0.0014470727391186452   -0.032827383145069076   -0.0002649123146656721
-0.0020110614961059213   -0.021806333901029363   -1.1554313378440297e-05
-0.00735305610613056   -0.03278328942773067   -0.00045499444856453845
-0.0015300191471364357   -0.03271303806872455   -0.00023738306112421688
-0.0020110614961059213   -0.021806333901029363   -1.1554313378440297e-05
-0.007914104682124737   -0.021793473079974434   -0.00019706508246941347
-0.00735305610613056   -0.03278328942773067   -0.00045499444856453845
-0.007995011918867206   -0.02169389455696536   -0.0001511497573705105
-0.0015300191471364357   -0.03271303806872455   -0.00023738306112421688
-0.007428599216478661   -0.0326872198684277   -0.00041634741429088395
-0.007995011918867206   -0.02169389455696536   -0.0001511497573705105
-0.00735305610613056   -0.03278328942773067   -0.00045499444856453845
-0.0015300191471364357   -0.03271303806872455   -0.00023738306112421688
-0.007995011918867206   -0.02169389455696536   -0.0001511497573705105
-0.0021122933381382382   -0.02169058417768962   4.134628659692739e-05
-0.0020110614961059213   -0.021806333901029363   -1.1554313378440297e-05
-0.0015300191471364357   -0.03271303806872455   -0.00023738306112421688
-0.007995011918867206   -0.02169389455696536   -0.0001511497573705105
-0.0020110614961059213   -0.021806333901029363   -1.1554313378440297e-05
-0.00735305610613056   -0.03278328942773067   -0.00045499444856453845
-0.0015300191471364357   -0.03271303806872455   -0.00023738306112421688
-0.0021122933381382382   -0.02169058417768962   4.134628659692739e-05
-0.007428599216478661   -0.0326872198684277   -0.00041634741429088395
-0.0016231044775855102   -0.03260390619900373   -0.00020234990354185234
-0.0021122933381382382   -0.02169058417768962   4.134628659692739e-05
-0.007995011918867206   -0.02169389455696536   -0.0001511497573705105
-0.007428599216478661   -0.0326872198684277   -0.00041634741429088395
-0.008079239645554024   -0.021592242319367516   -0.00010026492664331078
-0.0016231044775855102   -0.03260390619900373   -0.00020234990354185234
-0.007508941670229091   -0.03259789397888286   -0.0003719214406981198
-0.008079239645554024   -0.021592242319367516   -0.00010026492664331078
-0.007428599216478661   -0.0326872198684277   -0.00041634741429088395
-0.0016231044775855102   -0.03260390619900373   -0.00020234990354185234
-0.008079239645554024   -0.021592242319367516   -0.00010026492664331078
-0.0022169965161990797   -0.021567674684466423   0.00010212407884306296
-0.0021122933381382382   -0.02169058417768962   4.134628659692739e-05
-0.0016231044775855102   -0.03260390619900373   -0.00020234990354185234
-0.008079239645554024   -0.021592242319367516   -0.00010026492664331078
-0.0021122933381382382   -0.02169058417768962   4.134628659692739e-05
-0.007428599216478661   -0.0326872198684277   -0.00041634741429088395
-0.007279164799650712   -0.032884619811238136   -0.00048792552736786964
-0.00783588883225678   -0.02188920103264206   -0.00023883927908685613
-0.013087701731695878   -0.03280804993418184   -0.0006590716468951511
-0.00735305610613056   -0.03278328942773067   -0.00045499444856453845
-0.00783588883225678   -0.02188920103264206   -0.00023883927908685613
-0.013686701135656093   -0.021881754228397735   -0.00040369337418024066
-0.013087701731695878   -0.03280804993418184   -0.0006590716468951511
-0.013761469426564312   -0.02179780518124038   -0.0003638557036450787
-0.00735305610613056   -0.03278328942773067   -0.00045499444856453845
-0.013161049709300692   -0.03272506512380775   -0.0006147437337038428
-0.013761469426564312   -0.02179780518124038   -0.0003638557036450787
-0.013087701731695878   -0.03280804993418184   -0.0006590716468951511
-0.00735305610613056   -0.03278328942773067   -0.00045499444856453845
-0.013761469426564312   -0.02179780518124038   -0.0003638557036450787
-0.007914104682124737   -0.021793473079974434   -0.00019706508246941347
-0.00783588883225678   -0.02188920103264206   -0.00023883927908685613
-0.00735305610613056   -0.03278328942773067   -0.00045499444856453845
-0.013761469426564312   -0.02179780518124038   -0.0003638557036450787
-0.00783588883225678   -0.02188920103264206   -0.00023883927908685613
-0.013087701731695878   -0.03280804993418184   -0.0006590716468951511
-0.00735305610613056   -0.03278328942773067   -0.00045499444856453845
-0.007914104682124737   -0.021793473079974434   -0.00019706508246941347
-0.013161049709300692   -0.03272506512380775   -0.0006147437337038428
-0.007428599216478661   -0.0326872198684277   -0.00041634741429088395
-0.007914104682124737   -0.021793473079974434   -0.00019706508246941347
-0.013761469426564312   -0.02179780518124038   -0.0003638557036450787
-0.013161049709300692   -0.03272506512380775   -0.0006147437337038428
-0.013832693799409863   -0.02171233205751259   -0.0003203975202696172
-0.007428599216478661   -0.0326872198684277   -0.00041634741429088395
-0.013229654517389503   -0.03264764155456526   -0.0005648953751838924
-0.013832693799409863   -0.02171233205751259   -0.0003203975202696172
-0.013161049709300692   -0.03272506512380775   -0.0006147437337038428
-0.007428599216478661   -0.0326872198684277   -0.00041634741429088395
-0.013832693799409863   -0.02171233205751259   -0.0003203975202696172
-0.007995011918867206   -0.02169389455696536   -0.0001511497573705105
-0.007914104682124737   -0.021793473079974434   -0.00019706508246941347
-0.007428599216478661   -0.0326872198684277   -0.00041634741429088395
-0.013832693799409863   -0.02171233205751259   -0.0003203975202696172
-0.007914104682124737   -0.021793473079974434   -0.00019706508246941347
-0.013161049709300692   -0.03272506512380775   -0.0006147437337038428
-0.007428599216478661   -0.0326872198684277   -0.00041634741429088395
-0.007995011918867206   -0.02169389455696536   -0.0001511497573705105
-0.013229654517389503   -0.03264764155456526   -0.0005648953751838924
-0.007508941670229091   -0.03259789397888286   -0.0003719214406981198
-0.007995011918867206   -0.02169389455696536   -0.0001511497573705105
-0.013832693799409863   -0.02171233205751259   -0.0003203975202696172
-0.013229654517389503   -0.03264764155456526   -0.0005648953751838924
-0.013903201318466866   -0.021624848212330947   -0.0002735246357242017
-0.007508941670229091   -0.03259789397888286   -0.0003719214406981198
-0.013298504642733092   -0.03257599451161516   -0.0005098003660393214
-0.013903201318466866   -0.021624848212330947   -0.0002735246357242017
-0.013229654517389503   -0.03264764155456526   -0.0005648953751838924
-0.007508941670229091   -0.03259789397888286   -0.0003719214406981198
-0.013903201318466866   -0.021624848212330947   -0.0002735246357242017
-0.008079239645554024   -0.021592242319367516   -0.00010026492664331078
-0.007995011918867206   -0.02169389455696536   -0.0001511497573705105
-0.007508941670229091   -0.03259789397888286   -0.0003719214406981198
-0.013903201318466866   -0.021624848212330947   -0.0002735246357242017
-0.007995011918867206   -0.02169389455696536   -0.0001511497573705105
-0.013229654517389503   -0.03264764155456526   -0.0005648953751838924
-0.013087701731695878   -0.03280804993418184   -0.0006590716468951511
-0.013686701135656093   -0.021881754228397735   -0.00040369337418024066
-0.019001127477393878   -0.03270456149848717   -0.0007984182675529617
-0.013161049709300692   -0.03272506512380775   -0.0006147437337038428
-0.013686701135656093   -0.021881754228397735   -0.00040369337418024066
-0.01966144798439761   -0.021847782791345614   -0.0005421876622091803
-0.019001127477393878   -0.03270456149848717   -0.0007984182675529617
-0.019732726435108015   -0.021779349774200464   -0.0005044857753239713
-0.013161049709300692   -0.03272506512380775   -0.0006147437337038428
-0.01907137008153697   -0.032640878377819725   -0.0007428288283499942
-0.019732726435108015   -0.021779349774200464   -0.0005044857753239713
-0.019001127477393878   -0.03270456149848717   -0.0007984182675529617
-0.013161049709300692   -0.03272506512380775   -0.0006147437337038428
-0.019732726435108015   -0.021779349774200464   -0.0005044857753239713
-0.013761469426564312   -0.02179780518124038   -0.0003638557036450787
-0.013686701135656093   -0.021881754228397735   -0.00040369337418024066
-0.013161049709300692   -0.03272506512380775   -0.0006147437337038428
-0.019732726435108015   -0.021779349774200464   -0.0005044857753239713
-0.013686701135656093   -0.021881754228397735   -0.00040369337418024066
-0.019001127477393878   -0.03270456149848717   -0.0007984182675529617
-0.013161049709300692   -0.03272506512380775   -0.0006147437337038428
-0.013761469426564312   -0.02179780518124038   -0.0003638557036450787
-0.01907137008153697   -0.032640878377819725   -0.0007428288283499942
-0.013229654517389503   -0.03264764155456526   -0.0005648953751838924
-0.013761469426564312   -0.02179780518124038   -0.0003638557036450787
-0.019732726435108015   -0.021779349774200464   -0.0005044857753239713
-0.01907137008153697   -0.032640878377819725   -0.0007428288283499942
-0.019793128480042315   -0.021707161201711275   -0.00046421471810401913
-0.013229654517389503   -0.03264764155456526   -0.0005648953751838924
-0.01912464021299242   -0.032580623309284074   -0.0006826316892158209
-0.019793128480042315   -0.021707161201711275   -0.00046421471810401913
-0.01907137008153697   -0.032640878377819725   -0.0007428288283499942
-0.013229654517389503   -0.03264764155456526   -0.0005648953751838924
-0.019793128480042315   -0.021707161201711275   -0.00046421471810401913
-0.013832693799409863   -0.02171233205751259   -0.0003203975202696172
-0.013761469426564312   -0.02179780518124038   -0.0003638557036450787
-0.013229654517389503   -0.03264764155456526   -0.0005648953751838924
-0.019793128480042315   -0.021707161201711275   -0.00046421471810401913
-0.013761469426564312   -0.02179780518124038   -0.0003638557036450787
-0.01907137008153697   -0.032640878377819725   -0.0007428288283499942
-0.013229654517389503   -0.03264764155456526   -0.0005648953751838924
-0.013832693799409863   -0.02171233205751259   -0.0003203975202696172
-0.01912464021299242   -0.032580623309284074   -0.0006826316892158209
-0.013298504642733092   -0.03257599451161516   -0.0005098003660393214
-0.013832693799409863   -0.02171233205751259   -0.0003203975202696172
-0.019793128480042315   -0.021707161201711275   -0.00046421471810401913
-0.01912464021299242   -0.032580623309284074   -0.0006826316892158209
-0.01985021772633267   -0.021633068033088242   -0.0004202537256083153
-0.013298504642733092   -0.03257599451161516   -0.0005098003660393214
-0.01917749099961622   -0.03252646276698403   -0.0006166232112511422
-0.01985021772633267   -0.021633068033088242   -0.0004202537256083153
-0.01912464021299242   -0.032580623309284074   -0.0006826316892158209
-0.013298504642733092   -0.03257599451161516   -0.0005098003660393214
-0.01985021772633267   -0.021633068033088242   -0.0004202537256083153
-0.013903201318466866   -0.021624848212330947   -0.0002735246357242017
-0.013832693799409863   -0.02171233205751259   -0.0003203975202696172
-0.013298504642733092   -0.03257599451161516   -0.0005098003660393214
-0.01985021772633267   -0.021633068033088242   -0.0004202537256083153
-0.013832693799409863   -0.02171233205751259   -0.0003203975202696172
-0.01912464021299242   -0.032580623309284074   -0.0006826316892158209
-0.019001127477393878   -0.03270456149848717   -0.0007984182675529617
-0.01966144798439761   -0.021847782791345614   -0.0005421876622091803
-0.025268355964398234   -0.03258233911959749   -0.0009018531602082829
-0.01907137008153697   -0.032640878377819725   -0.0007428288283499942
-0.01966144798439761   -0.021847782791345614   -0.0005421876622091803
-0.025919833256653455   -0.021791838599374575   -0.0006446869248934107
-0.025268355964398234   -0.03258233911959749   -0.0009018531602082829
-0.02596417574354505   -0.021734380308579986   -0.000616433499507165
-0.01907137008153697   -0.032640878377819725   -0.0007428288283499942
-0.025279201436958353   -0.032531500588963896   -0.0008404727356309077
-0.02596417574354505   -0.021734380308579986   -0.000616433499507165
-0.025268355964398234   -0.03258233911959749   -0.0009018531602082829
-0.01907137008153697   -0.032640878377819725   -0.0007428288283499942
-0.02596417574354505   -0.021734380308579986   -0.000616433499507165
-0.019732726435108015   -0.021779349774200464   -0.0005044857753239713
-0.01966144798439761   -0.021847782791345614   -0.0005421876622091803
-0.01907137008153697   -0.032640878377819725   -0.0007428288283499942
-0.02596417574354505   -0.021734380308579986   -0.000616433499507165
-0.01966144798439761   -0.021847782791345614   -0.0005421876622091803
-0.025268355964398234   -0.03258233911959749   -0.0009018531602082829
-0.01907137008153697   -0.032640878377819725   -0.0007428288283499942
-0.019732726435108015   -0.021779349774200464   -0.0005044857753239713
-0.025279201436958353   -0.032531500588963896   -0.0008404727356309077
-0.01912464021299242   -0.032580623309284074   -0.0006826316892158209
-0.019732726435108015   -0.021779349774200464   -0.0005044857753239713
-0.02596417574354505   -0.021734380308579986   -0.000616433499507165
-0.025279201436958353   -0.032531500588963896   -0.0008404727356309077
-0.026004721810968134   -0.021669369339906257   -0.0005818736695232246
-0.01912464021299242   -0.032580623309284074   -0.0006826316892158209
-0.02529032906955613   -0.03248006315067543   -0.0007698130368363989
-0.026004721810968134   -0.021669369339906257   -0.0005818736695232246
-0.025279201436958353   -0.032531500588963896   -0.0008404727356309077
-0.01912464021299242   -0.032580623309284074   -0.0006826316892158209
-0.026004721810968134   -0.021669369339906257   -0.0005818736695232246
-0.019793128480042315   -0.021707161201711275   -0.00046421471810401913
-0.019732726435108015   -0.021779349774200464   -0.0005044857753239713
-0.01912464021299242   -0.032580623309284074   -0.0006826316892158209
-0.026004721810968134   -0.021669369339906257   -0.0005818736695232246
-0.019732726435108015   -0.021779349774200464   -0.0005044857753239713
-0.025279201436958353   -0.032531500588963896   -0.0008404727356309077
-0.01912464021299242   -0.032580623309284074   -0.0006826316892158209
-0.019793128480042315   -0.021707161201711275   -0.00046421471810401913
-0.02529032906955613   -0.03248006315067543   -0.0007698130368363989
-0.01917749099961622   -0.03252646276698403   -0.0006166232112511422
-0.019793128480042315   -0.021707161201711275   -0.00046421471810401913
-0.026004721810968134   -0.021669369339906257   -0.0005818736695232246
-0.02529032906955613   -0.03248006315067543   -0.0007698130368363989
-0.026024419912762442   -0.021609695024466264   -0.0005425860515048393
-0.01917749099961622   -0.03252646276698403   -0.0006166232112511422
-0.02526624452578934   -0.03244613231263932   -0.0006909760638441236
-0.026024419912762442   -0.021609695024466264   -0.0005425860515048393
-0.02529032906955613   -0.03248006315067543   -0.0007698130368363989
-0.01917749099961622   -0.03252646276698403   -0.0006166232112511422
-0.026024419912762442   -0.021609695024466264   -0.0005425860515048393
-0.01985021772633267   -0.021633068033088242   -0.0004202537256083153
-0.019793128480042315   -0.021707161201711275   -0.00046421471810401913
-0.01917749099961622   -0.03252646276698403   -0.0006166232112511422
-0.026024419912762442   -0.021609695024466264   -0.0005425860515048393
-0.019793128480042315   -0.021707161201711275   -0.00046421471810401913
-0.02529032906955613   -0.03248006315067543   -0.0007698130368363989
0.004352889180447469   -0.02201954875132733   0.0001327137853837964
0.00304942975570037   -0.011057221975770628   0.00014254388121468712
-0.0019245190327236207   -0.02191599797192314   -5.646990241271322e-05
0.0042165408547714936   -0.02188725884110052   0.00018865127315297858
0.00304942975570037   -0.011057221975770628   0.00014254388121468712
-0.002803828685055744   -0.010913787075867909   7.238931159048325e-05
-0.0019245190327236207   -0.02191599797192314   -5.646990241271322e-05
-0.002889902212335709   -0.010858386630691613   0.0001347743788026901
0.0042165408547714936   -0.02188725884110052   0.00018865127315297858
-0.0020110614961059213   -0.021806333901029363   -1.1554313378440297e-05
-0.002889902212335709   -0.010858386630691613   0.0001347743788026901
-0.0019245190327236207   -0.02191599797192314   -5.646990241271322e-05
0.0042165408547714936   -0.02188725884110052   0.00018865127315297858
-0.002889902212335709   -0.010858386630691613   0.0001347743788026901
0.0027811641286814644   -0.010916711945861886   0.0002969947504905492
0.00304942975570037   -0.011057221975770628   0.00014254388121468712
0.0042165408547714936   -0.02188725884110052   0.00018865127315297858
-0.002889902212335709   -0.010858386630691613   0.0001347743788026901
0.00304942975570037   -0.011057221975770628   0.00014254388121468712
-0.0019245190327236207   -0.02191599797192314   -5.646990241271322e-05
0.0042165408547714936   -0.02188725884110052   0.00018865127315297858
0.0027811641286814644   -0.010916711945861886   0.0002969947504905492
-0.0020110614961059213   -0.021806333901029363   -1.1554313378440297e-05
0.004064378623968859   -0.021755858460525593   0.0002689657826577151
0.0027811641286814644   -0.010916711945861886   0.0002969947504905492
-0.002889902212335709   -0.010858386630691613   0.0001347743788026901
-0.0020110614961059213   -0.021806333901029363   -1.1554313378440297e-05
-0.0030029990230487713   -0.010759808871367089   0.00021052031167805303
0.004064378623968859   -0.021755858460525593   0.0002689657826577151
-0.0021122933381382382   -0.02169058417768962   4.134628659692739e-05
-0.0030029990230487713   -0.010759808871367089   0.00021052031167805303
-0.0020110614961059213   -0.021806333901029363   -1.1554313378440297e-05
0.004064378623968859   -0.021755858460525593   0.0002689657826577151
-0.0030029990230487713   -0.010759808871367089   0.00021052031167805303
0.002624062170418096   -0.010801739627337017   0.0004122701016083573
0.0027811641286814644   -0.010916711945861886   0.0002969947504905492
0.004064378623968859   -0.021755858460525593   0.0002689657826577151
-0.0030029990230487713   -0.010759808871367089   0.00021052031167805303
0.0027811641286814644   -0.010916711945861886   0.0002969947504905492
-0.0020110614961059213   -0.021806333901029363   -1.1554313378440297e-05
0.004064378623968859   -0.021755858460525593   0.0002689657826577151
0.002624062170418096   -0.010801739627337017   0.0004122701016083573
-0.0021122933381382382   -0.02169058417768962   4.134628659692739e-05
0.003878459610577114   -0.02159444951350028   0.0003573360269506763
0.002624062170418096   -0.010801739627337017   0.0004122701016083573
-0.0030029990230487713   -0.010759808871367089   0.00021052031167805303
-0.0021122933381382382   -0.02169058417768962   4.134628659692739e-05
-0.003098072406834831   -0.010653800338845696   0.0002772001155817691
0.003878459610577114   -0.02159444951350028   0.0003573360269506763
-0.0022169965161990797   -0.021567674684466423   0.00010212407884306296
-0.003098072406834831   -0.010653800338845696   0.0002772001155817691
-0.0021122933381382382   -0.02169058417768962   4.134628659692739e-05
0.003878459610577114   -0.02159444951350028   0.0003573360269506763
-0.003098072406834831   -0.010653800338845696   0.0002772001155817691
0.002422748327940601   -0.010626057110473926   0.0005442581436506309
0.002624062170418096   -0.010801739627337017   0.0004122701016083573
0.003878459610577114   -0.02159444951350028   0.0003573360269506763
-0.003098072406834831   -0.010653800338845696   0.0002772001155817691
0.002624062170418096   -0.010801739627337017   0.0004122701016083573
-0.0021122933381382382   -0.02169058417768962   4.134628659692739e-05
-0.0019245190327236207   -0.02191599797192314   -5.646990241271322e-05
-0.002803828685055744   -0.010913787075867909   7.238931159048325e-05
-0.00783588883225678   -0.02188920103264206   -0.00023883927908685613
-0.0020110614961059213   -0.021806333901029363   -1.1554313378440297e-05
-0.002803828685055744   -0.010913787075867909   7.238931159048325e-05
-0.008375099988859519   -0.011075052385837008   -7.276247794572868e-05
-0.00783588883225678   -0.02188920103264206   -0.00023883927908685613
-0.008454332332652817   -0.010990394575498446   -2.858168620048902e-05
-0.0020110614961059213   -0.021806333901029363   -1.1554313378440297e-05
-0.007914104682124737   -0.021793473079974434   -0.00019706508246941347
-0.008454332332652817   -0.010990394575498446   -2.858168620048902e-05
-0.00783588883225678   -0.02188920103264206   -0.00023883927908685613
-0.0020110614961059213   -0.021806333901029363   -1.1554313378440297e-05
-0.008454332332652817   -0.010990394575498446   -2.858168620048902e-05
-0.002889902212335709   -0.010858386630691613   0.0001347743788026901
-0.002803828685055744   -0.010913787075867909   7.238931159048325e-05
-0.0020110614961059213   -0.021806333901029363   -1.1554313378440297e-05
-0.008454332332652817   -0.010990394575498446   -2.858168620048902e-05
-0.002803828685055744   -0.010913787075867909   7.238931159048325e-05
-0.00783588883225678   -0.02188920103264206   -0.00023883927908685613
-0.0020110614961059213   -0.021806333901029363   -1.1554313378440297e-05
-0.002889902212335709   -0.010858386630691613   0.0001347743788026901
-0.007914104682124737   -0.021793473079974434   -0.00019706508246941347
-0.0021122933381382382   -0.02169058417768962   4.134628659692739e-05
-0.002889902212335709   -0.010858386630691613   0.0001347743788026901
-0.008454332332652817   -0.010990394575498446   -2.858168620048902e-05
-0.007914104682124737   -0.021793473079974434   -0.00019706508246941347
-0.008537254567797508   -0.010894823895836032   1.8169301501243183e-05
-0.0021122933381382382   -0.02169058417768962   4.134628659692739e-05
-0.007995011918867206   -0.02169389455696536   -0.0001511497573705105
-0.008537254567797508   -0.010894823895836032   1.8169301501243183e-05
-0.007914104682124737   -0.021793473079974434   -0.00019706508246941347
-0.0021122933381382382   -0.02169058417768962   4.134628659692739e-05
-0.008537254567797508   -0.010894823895836032   1.8169301501243183e-05
-0.0030029990230487713   -0.010759808871367089   0.00021052031167805303
-0.002889902212335709   -0.010858386630691613   0.0001347743788026901
-0.0021122933381382382   -0.02169058417768962   4.134628659692739e-05
-0.008537254567797508   -0.010894823895836032   1.8169301501243183e-05
-0.002889902212335709   -0.010858386630691613   0.0001347743788026901
-0.007914104682124737   -0.021793473079974434   -0.00019706508246941347
-0.0021122933381382382   -0.02169058417768962   4.134628659692739e-05
-0.0030029990230487713   -0.010759808871367089   0.00021052031167805303
-0.007995011918867206   -0.02169389455696536   -0.0001511497573705105
-0.0022169965161990797   -0.021567674684466423   0.00010212407884306296
-0.0030029990230487713   -0.010759808871367089   0.00021052031167805303
-0.008537254567797508   -0.010894823895836032   1.8169301501243183e-05
-0.007995011918867206   -0.02169389455696536   -0.0001511497573705105
-0.008616060969143899   -0.010790078669780703   6.97246210452913e-05
-0.0022169965161990797   -0.021567674684466423   0.00010212407884306296
-0.008079239645554024   -0.021592242319367516   -0.00010026492664331078
-0.008616060969143899   -0.010790078669780703   6.97246210452913e-05
-0.007995011918867206   -0.02169389455696536   -0.0001511497573705105
-0.0022169965161990797   -0.021567674684466423   0.00010212407884306296
-0.008616060969143899   -0.010790078669780703   6.97246210452913e-05
-0.003098072406834831   -0.010653800338845696   0.0002772001155817691
-0.0030029990230487713   -0.010759808871367089   0.00021052031167805303
-0.0022169965161990797   -0.021567674684466423   0.00010212407884306296
-0.008616060969143899   -0.010790078669780703   6.97246210452913e-05
-0.0030029990230487713   -0.010759808871367089   0.00021052031167805303
-0.007995011918867206   -0.02169389455696536   -0.0001511497573705105
-0.00783588883225678   -0.02188920103264206   -0.00023883927908685613
-0.008375099988859519   -0.011075052385837008   -7.276247794572868e-05
-0.013686701135656093   -0.021881754228397735   -0.00040369337418024066
-0.007914104682124737   -0.021793473079974434   -0.00019706508246941347
-0.008375099988859519   -0.011075052385837008   -7.276247794572868e-05
-0.014083152012770578   -0.011201027692105115   -0.00023359687628448834
-0.013686701135656093   -0.021881754228397735   -0.00040369337418024066
-0.014154303975518515   -0.01111411684261647   -0.00019937052525938152
-0.007914104682124737   -0.021793473079974434   -0.00019706508246941347
-0.013761469426564312   -0.02179780518124038   -0.0003638557036450787
-0.014154303975518515   -0.01111411684261647   -0.00019937052525938152
-0.013686701135656093   -0.021881754228397735   -0.00040369337418024066
-0.007914104682124737   -0.021793473079974434   -0.00019706508246941347
-0.014154303975518515   -0.01111411684261647   -0.00019937052525938152
-0.008454332332652817   -0.010990394575498446   -2.858168620048902e-05
-0.008375099988859519   -0.011075052385837008   -7.276247794572868e-05
-0.007914104682124737   -0.021793473079974434   -0.00019706508246941347
-0.014154303975518515   -0.01111411684261647   -0.00019937052525938152
-0.008375099988859519   -0.011075052385837008   -7.276247794572868e-05
-0.013686701135656093   -0.021881754228397735   -0.00040369337418024066
-0.007914104682124737   -0.021793473079974434   -0.00019706508246941347
-0.008454332332652817   -0.010990394575498446   -2.858168620048902e-05
-0.013761469426564312   -0.02179780518124038   -0.0003638557036450787
-0.007995011918867206   -0.02169389455696536   -0.0001511497573705105
-0.008454332332652817   -0.010990394575498446   -2.858168620048902e-05
-0.014154303975518515   -0.01111411684261647   -0.00019937052525938152
-0.013761469426564312   -0.02179780518124038   -0.0003638557036450787
-0.0142224013555859   -0.011022331592263323   -0.00016526052388538277
-0.007995011918867206   -0.02169389455696536   -0.0001511497573705105
-0.013832693799409863   -0.02171233205751259   -0.0003203975202696172
-0.0142224013555859   -0.011022331592263323   -0.00016526052388538277
-0.013761469426564312   -0.02179780518124038   -0.0003638557036450787
-0.007995011918867206   -0.02169389455696536   -0.0001511497573705105
-0.0142224013555859   -0.011022331592263323   -0.00016526052388538277
-0.008537254567797508   -0.010894823895836032   1.8169301501243183e-05
-0.008454332332652817   -0.010990394575498446   -2.858168620048902e-05
-0.007995011918867206   -0.02169389455696536   -0.0001511497573705105
-0.0142224013555859   -0.011022331592263323   -0.00016526052388538277
-0.008454332332652817   -0.010990394575498446   -2.858168620048902e-05
-0.013761469426564312   -0.02179780518124038   -0.0003638557036450787
-0.007995011918867206   -0.02169389455696536   -0.0001511497573705105
-0.008537254567797508   -0.010894823895836032   1.8169301501243183e-05
-0.013832693799409863   -0.02171233205751259   -0.0003203975202696172
-0.008079239645554024   -0.021592242319367516   -0.00010026492664331078
-0.008537254567797508   -0.010894823895836032   1.8169301501243183e-05
-0.0142224013555859   -0.011022331592263323   -0.00016526052388538277
-0.013832693799409863   -0.02171233205751259   -0.0003203975202696172
-0.01428516358091907   -0.010922961495584358   -0.00012813041919385932
-0.008079239645554024   -0.021592242319367516   -0.00010026492664331078
-0.013903201318466866   -0.021624848212330947   -0.0002735246357242017
-0.01428516358091907   -0.010922961495584358   -0.00012813041919385932
-0.013832693799409863   -0.02171233205751259   -0.0003203975202696172
-0.008079239645554024   -0.021592242319367516   -0.00010026492664331078
-0.01428516358091907   -0.010922961495584358   -0.00012813041919385932
-0.008616060969143899   -0.010790078669780703   6.97246210452913e-05
-0.008537254567797508   -0.010894823895836032   1.8169301501243183e-05
-0.008079239645554024   -0.021592242319367516   -0.00010026492664331078
-0.01428516358091907   -0.010922961495584358   -0.00012813041919385932
-0.008537254567797508   -0.010894823895836032   1.8169301501243183e-05
-0.013832693799409863   -0.02171233205751259   -0.0003203975202696172
-0.013686701135656093   -0.021881754228397735   -0.00040369337418024066
-0.014083152012770578   -0.011201027692105115   -0.00023359687628448834
-0.01966144798439761   -0.021847782791345614   -0.0005421876622091803
-0.013761469426564312   -0.02179780518124038   -0.0003638557036450787
-0.014083152012770578   -0.011201027692105115   -0.00023359687628448834
-0.019991699559838143   -0.011252704832048923   -0.0003820875780538399
-0.01966144798439761   -0.021847782791345614   -0.0005421876622091803
-0.020055799236099816   -0.0111746237049108   -0.00035714701478558957
-0.013761469426564312   -0.02179780518124038   -0.0003638557036450787
-0.019732726435108015   -0.021779349774200464   -0.0005044857753239713
-0.020055799236099816   -0.0111746237049108   -0.00035714701478558957
-0.01966144798439761   -0.021847782791345614   -0.0005421876622091803
-0.013761469426564312   -0.02179780518124038   -0.0003638557036450787
-0.020055799236099816   -0.0111746237049108   -0.00035714701478558957
-0.014154303975518515   -0.01111411684261647   -0.00019937052525938152
-0.014083152012770578   -0.011201027692105115   -0.00023359687628448834
-0.013761469426564312   -0.02179780518124038   -0.0003638557036450787
-0.020055799236099816   -0.0111746237049108   -0.00035714701478558957
-0.014083152012770578   -0.011201027692105115   -0.00023359687628448834
-0.01966144798439761   -0.021847782791345614   -0.0005421876622091803
-0.013761469426564312   -0.02179780518124038   -0.0003638557036450787
-0.014154303975518515   -0.01111411684261647   -0.00019937052525938152
-0.019732726435108015   -0.021779349774200464   -0.0005044857753239713
-0.013832693799409863   -0.02171233205751259   -0.0003203975202696172
-0.014154303975518515   -0.01111411684261647   -0.00019937052525938152
-0.020055799236099816   -0.0111746237049108   -0.00035714701478558957
-0.019732726435108015   -0.021779349774200464   -0.0005044857753239713
-0.020112918472640556   -0.01108959282546044   -0.00033292266174241383
-0.013832693799409863   -0.02171233205751259   -0.0003203975202696172
-0.019793128480042315   -0.021707161201711275   -0.00046421471810401913
-0.020112918472640556   -0.01108959282546044   -0.00033292266174241383
-0.019732726435108015   -0.021779349774200464   -0.0005044857753239713
-0.013832693799409863   -0.02171233205751259   -0.0003203975202696172
-0.020112918472640556   -0.01108959282546044   -0.00033292266174241383
-0.0142224013555859   -0.011022331592263323   -0.00016526052388538277
-0.014154303975518515   -0.01111411684261647   -0.00019937052525938152
-0.013832693799409863   -0.02171233205751259   -0.0003203975202696172
-0.020112918472640556   -0.01108959282546044   -0.00033292266174241383
-0.014154303975518515   -0.01111411684261647   -0.00019937052525938152
-0.019732726435108015   -0.021779349774200464   -0.0005044857753239713
-0.013832693799409863   -0.02171233205751259   -0.0003203975202696172
-0.0142224013555859   -0.011022331592263323   -0.00016526052388538277
-0.019793128480042315   -0.021707161201711275   -0.00046421471810401913
-0.013903201318466866   -0.021624848212330947   -0.0002735246357242017
-0.0142224013555859   -0.011022331592263323   -0.00016526052388538277
-0.020112918472640556   -0.01108959282546044   -0.00033292266174241383
-0.019793128480042315   -0.021707161201711275   -0.00046421471810401913
-0.020164639271993585   -0.010999084656784962   -0.000307985099828728
-0.013903201318466866   -0.021624848212330947   -0.0002735246357242017
-0.01985021772633267   -0.021633068033088242   -0.0004202537256083153
-0.020164639271993585   -0.010999084656784962   -0.000307985099828728
-0.019793128480042315   -0.021707161201711275   -0.00046421471810401913
-0.013903201318466866   -0.021624848212330947   -0.0002735246357242017
-0.020164639271993585   -0.010999084656784962   -0.000307985099828728
-0.01428516358091907   -0.010922961495584358   -0.00012813041919385932
-0.0142224013555859   -0.011022331592263323   -0.00016526052388538277
-0.013903201318466866   -0.021624848212330947   -0.0002735246357242017
-0.020164639271993585   -0.010999084656784962   -0.000307985099828728
-0.0142224013555859   -0.011022331592263323   -0.00016526052388538277
-0.019793128480042315   -0.021707161201711275   -0.00046421471810401913
-0.01966144798439761   -0.021847782791345614   -0.0005421876622091803
-0.019991699559838143   -0.011252704832048923   -0.0003820875780538399
-0.025919833256653455   -0.021791838599374575   -0.0006446869248934107
-0.019732726435108015   -0.021779349774200464   -0.0005044857753239713
-0.019991699559838143   -0.011252704832048923   -0.0003820875780538399
-0.026110385645370514   -0.011258512522503051   -0.000505404351335542
-0.025919833256653455   -0.021791838599374575   -0.0006446869248934107
-0.02616548435281403   -0.011182710628950036   -0.0004947165384077294
-0.019732726435108015   -0.021779349774200464   -0.0005044857753239713
-0.02596417574354505   -0.021734380308579986   -0.000616433499507165
-0.02616548435281403   -0.011182710628950036   -0.0004947165384077294
-0.025919833256653455   -0.021791838599374575   -0.0006446869248934107
-0.019732726435108015   -0.021779349774200464   -0.0005044857753239713
-0.02616548435281403   -0.011182710628950036   -0.0004947165384077294
-0.020055799236099816   -0.0111746237049108   -0.00035714701478558957
-0.019991699559838143   -0.011252704832048923   -0.0003820875780538399
-0.019732726435108015   -0.021779349774200464   -0.0005044857753239713
-0.02616548435281403   -0.011182710628950036   -0.0004947165384077294
-0.019991699559838143   -0.011252704832048923   -0.0003820875780538399
-0.025919833256653455   -0.021791838599374575   -0.0006446869248934107
-0.019732726435108015   -0.021779349774200464   -0.0005044857753239713
-0.020055799236099816   -0.0111746237049108   -0.00035714701478558957
-0.02596417574354505   -0.021734380308579986   -0.000616433499507165
-0.019793128480042315   -0.021707161201711275   -0.00046421471810401913
-0.020055799236099816   -0.0111746237049108   -0.00035714701478558957
-0.02616548435281403   -0.011182710628950036   -0.0004947165384077294
-0.02596417574354505   -0.021734380308579986   -0.000616433499507165
-0.026214847938657793   -0.011100768699974116   -0.0004822202139911739
-0.019793128480042315   -0.021707161201711275   -0.00046421471810401913
-0.026004721810968134   -0.021669369339906257   -0.0005818736695232246
-0.026214847938657793   -0.011100768699974116   -0.0004822202139911739
-0.02596417574354505   -0.021734380308579986   -0.000616433499507165
-0.019793128480042315   -0.021707161201711275   -0.00046421471810401913
-0.026214847938657793   -0.011100768699974116   -0.0004822202139911739
-0.020112918472640556   -0.01108959282546044   -0.00033292266174241383
-0.020055799236099816   -0.0111746237049108   -0.00035714701478558957
-0.019793128480042315   -0.021707161201711275   -0.00046421471810401913
-0.026214847938657793   -0.011100768699974116   -0.0004822202139911739
-0.020055799236099816   -0.0111746237049108   -0.00035714701478558957
-0.02596417574354505   -0.021734380308579986   -0.000616433499507165
-0.019793128480042315   -0.021707161201711275   -0.00046421471810401913
-0.020112918472640556   -0.01108959282546044   -0.00033292266174241383
-0.026004721810968134   -0.021669369339906257   -0.0005818736695232246
-0.01985021772633267   -0.021633068033088242   -0.0004202537256083153
-0.020112918472640556   -0.01108959282546044   -0.00033292266174241383
-0.026214847938657793   -0.011100768699974116   -0.0004822202139911739
-0.026004721810968134   -0.021669369339906257   -0.0005818736695232246
-0.02625639006732337   -0.011013997169079118   -0.00047061065879969085
-0.01985021772633267   -0.021633068033088242   -0.0004202537256083153
-0.026024419912762442   -0.021609695024466264   -0.0005425860515048393
-0.02625639006732337   -0.011013997169079118   -0.00047061065879969085
-0.026004721810968134   -0.021669369339906257   -0.0005818736695232246
-0.01985021772633267   -0.021633068033088242   -0.0004202537256083153
-0.02625639006732337   -0.011013997169079118   -0.00047061065879969085
-0.020164639271993585   -0.010999084656784962   -0.000307985099828728
-0.020112918472640556   -0.01108959282546044   -0.00033292266174241383
-0.01985021772633267   -0.021633068033088242   -0.0004202537256083153
-0.02625639006732337   -0.011013997169079118   -0.00047061065879969085
-0.020112918472640556   -0.01108959282546044   -0.00033292266174241383
-0.026004721810968134   -0.021669369339906257   -0.0005818736695232246
0.00304942975570037   -0.011057221975770628   0.00014254388121468712
0.0   0.0   0.0
-0.002803828685055744   -0.010913787075867909   7.238931159048325e-05
0.0027811641286814644   -0.010916711945861886   0.0002969947504905492
0.0   0.0   0.0
-0.003521289975767772   -0.0008904057877314815   -3.024011405253307e-05
-0.002803828685055744   -0.010913787075867909   7.238931159048325e-05
-0.003731626574284864   -0.0006915141741443286   9.081377667571178e-05
0.0027811641286814644   -0.010916711945861886   0.0002969947504905492
-0.002889902212335709   -0.010858386630691613   0.0001347743788026901
-0.003731626574284864   -0.0006915141741443286   9.081377667571178e-05
-0.002803828685055744   -0.010913787075867909   7.238931159048325e-05
0.0027811641286814644   -0.010916711945861886   0.0002969947504905492
-0.003731626574284864   -0.0006915141741443286   9.081377667571178e-05
0.0   0.0   0.0
0.0   0.0   0.0
0.0027811641286814644   -0.010916711945861886   0.0002969947504905492
-0.003731626574284864   -0.0006915141741443286   9.081377667571178e-05
0.0   0.0   0.0
-0.002803828685055744   -0.010913787075867909   7.238931159048325e-05
0.0027811641286814644   -0.010916711945861886   0.0002969947504905492
0.0   0.0   0.0
-0.002889902212335709   -0.010858386630691613   0.0001347743788026901
0.002624062170418096   -0.010801739627337017   0.0004122701016083573
0.0   0.0   0.0
-0.003731626574284864   -0.0006915141741443286   9.081377667571178e-05
-0.002889902212335709   -0.010858386630691613   0.0001347743788026901
-0.003863560501894125   -0.0005956034036261906   0.00016061270379323674
0.002624062170418096   -0.010801739627337017   0.0004122701016083573
-0.0030029990230487713   -0.010759808871367089   0.00021052031167805303
-0.003863560501894125   -0.0005956034036261906   0.00016061270379323674
-0.002889902212335709   -0.010858386630691613   0.0001347743788026901
0.002624062170418096   -0.010801739627337017   0.0004122701016083573
-0.003863560501894125   -0.0005956034036261906   0.00016061270379323674
0.0   0.0   0.0
0.0   0.0   0.0
0.002624062170418096   -0.010801739627337017   0.0004122701016083573
-0.003863560501894125   -0.0005956034036261906   0.00016061270379323674
0.0   0.0   0.0
-0.002889902212335709   -0.010858386630691613   0.0001347743788026901
0.002624062170418096   -0.010801739627337017   0.0004122701016083573
0.0   0.0   0.0
-0.0030029990230487713   -0.010759808871367089   0.00021052031167805303
0.002422748327940601   -0.010626057110473926   0.0005442581436506309
0.0   0.0   0.0
-0.003863560501894125   -0.0005956034036261906   0.00016061270379323674
-0.0030029990230487713   -0.010759808871367089   0.00021052031167805303
-0.0040403219591721275   -0.0004682818529258677   0.00024071493283906543
0.002422748327940601   -0.010626057110473926   0.0005442581436506309
-0.003098072406834831   -0.010653800338845696   0.0002772001155817691
-0.0040403219591721275   -0.0004682818529258677   0.00024071493283906543
-0.0030029990230487713   -0.010759808871367089   0.00021052031167805303
0.002422748327940601   -0.010626057110473926   0.0005442581436506309
-0.0040403219591721275   -0.0004682818529258677   0.00024071493283906543
0.0   0.0   0.0
0.0   0.0   0.0
0.002422748327940601   -0.010626057110473926   0.0005442581436506309
-0.0040403219591721275   -0.0004682818529258677   0.00024071493283906543
0.0   0.0   0.0
-0.0030029990230487713   -0.010759808871367089   0.00021052031167805303
-0.002803828685055744   -0.010913787075867909   7.238931159048325e-05
-0.003521289975767772   -0.0008904057877314815   -3.024011405253307e-05
-0.008375099988859519   -0.011075052385837008   -7.276247794572868e-05
-0.002889902212335709   -0.010858386630691613   0.0001347743788026901
-0.003521289975767772   -0.0008904057877314815   -3.024011405253307e-05
-0.008625189003698151   -0.0011654182350429134   -2.9377921242098045e-05
-0.008375099988859519   -0.011075052385837008   -7.276247794572868e-05
-0.008733476978891045   -0.001056556133714615   1.5275525628615526e-06
-0.002889902212335709   -0.010858386630691613   0.0001347743788026901
-0.008454332332652817   -0.010990394575498446   -2.858168620048902e-05
-0.008733476978891045   -0.001056556133714615   1.5275525628615526e-06
-0.008375099988859519   -0.011075052385837008   -7.276247794572868e-05
-0.002889902212335709   -0.010858386630691613   0.0001347743788026901
-0.008733476978891045   -0.001056556133714615   1.5275525628615526e-06
-0.003731626574284864   -0.0006915141741443286   9.081377667571178e-05
-0.003521289975767772   -0.0008904057877314815   -3.024011405253307e-05
-0.002889902212335709   -0.010858386630691613   0.0001347743788026901
-0.008733476978891045   -0.001056556133714615   1.5275525628615526e-06
-0.003521289975767772   -0.0008904057877314815   -3.024011405253307e-05
-0.008375099988859519   -0.011075052385837008   -7.276247794572868e-05
-0.002889902212335709   -0.010858386630691613   0.0001347743788026901
-0.003731626574284864   -0.0006915141741443286   9.081377667571178e-05
-0.008454332332652817   -0.010990394575498446   -2.858168620048902e-05
-0.0030029990230487713   -0.010759808871367089   0.00021052031167805303
-0.003731626574284864   -0.0006915141741443286   9.081377667571178e-05
-0.008733476978891045   -0.001056556133714615   1.5275525628615526e-06
-0.008454332332652817   -0.010990394575498446   -2.858168620048902e-05
-0.00884127495890175   -0.0009292264326082635   5.698280680457237e-05
-0.0030029990230487713   -0.010759808871367089   0.00021052031167805303
-0.008537254567797508   -0.010894823895836032   1.8169301501243183e-05
-0.00884127495890175   -0.0009292264326082635   5.698280680457237e-05
-0.008454332332652817   -0.010990394575498446   -2.858168620048902e-05
-0.0030029990230487713   -0.010759808871367089   0.00021052031167805303
-0.00884127495890175   -0.0009292264326082635   5.698280680457237e-05
-0.003863560501894125   -0.0005956034036261906   0.00016061270379323674
-0.003731626574284864   -0.0006915141741443286   9.081377667571178e-05
-0.0030029990230487713   -0.010759808871367089   0.00021052031167805303
-0.00884127495890175   -0.0009292264326082635   5.698280680457237e-05
-0.003731626574284864   -0.0006915141741443286   9.081377667571178e-05
-0.008454332332652817   -0.010990394575498446   -2.858168620048902e-05
-0.0030029990230487713   -0.010759808871367089   0.00021052031167805303
-0.003863560501894125   -0.0005956034036261906   0.00016061270379323674
-0.008537254567797508   -0.010894823895836032   1.8169301501243183e-05
-0.003098072406834831   -0.010653800338845696   0.0002772001155817691
-0.003863560501894125   -0.0005956034036261906   0.00016061270379323674
-0.00884127495890175   -0.0009292264326082635   5.698280680457237e-05
-0.008537254567797508   -0.010894823895836032   1.8169301501243183e-05
-0.008960507467428304   -0.0007821128046151662   0.00011002132934427749
-0.003098072406834831   -0.010653800338845696   0.0002772001155817691
-0.008616060969143899   -0.010790078669780703   6.97246210452913e-05
-0.008960507467428304   -0.0007821128046151662   0.00011002132934427749
-0.008537254567797508   -0.010894823895836032   1.8169301501243183e-05
-0.003098072406834831   -0.010653800338845696   0.0002772001155817691
-0.008960507467428304   -0.0007821128046151662   0.00011002132934427749
-0.0040403219591721275   -0.0004682818529258677   0.00024071493283906543
-0.003863560501894125   -0.0005956034036261906   0.00016061270379323674
-0.003098072406834831   -0.010653800338845696   0.0002772001155817691
-0.008960507467428304   -0.0007821128046151662   0.00011002132934427749
-0.003863560501894125   -0.0005956034036261906   0.00016061270379323674
-0.008537254567797508   -0.010894823895836032   1.8169301501243183e-05
-0.008375099988859519   -0.011075052385837008   -7.276247794572868e-05
-0.008625189003698151   -0.0011654182350429134   -2.9377921242098045e-05
-0.014083152012770578   -0.011201027692105115   -0.00023359687628448834
-0.008454332332652817   -0.010990394575498446   -2.858168620048902e-05
-0.008625189003698151   -0.0011654182350429134   -2.9377921242098045e-05
-0.014222579256766415   -0.001241679679858967   -0.0001315227748129867
-0.014083152012770578   -0.011201027692105115   -0.00023359687628448834
-0.014288203770048004   -0.0011565670811335075   -0.00012305165077787327
-0.008454332332652817   -0.010990394575498446   -2.858168620048902e-05
-0.014154303975518515   -0.01111411684261647   -0.00019937052525938152
-0.014288203770048004   -0.0011565670811335075   -0.00012305165077787327
-0.014083152012770578   -0.011201027692105115   -0.00023359687628448834
-0.008454332332652817   -0.010990394575498446   -2.858168620048902e-05
-0.014288203770048004   -0.0011565670811335075   -0.00012305165077787327
-0.008733476978891045   -0.001056556133714615   1.5275525628615526e-06
-0.008625189003698151   -0.0011654182350429134   -2.9377921242098045e-05
-0.008454332332652817   -0.010990394575498446   -2.858168620048902e-05
-0.014288203770048004   -0.0011565670811335075   -0.00012305165077787327
-0.008625189003698151   -0.0011654182350429134   -2.9377921242098045e-05
-0.014083152012770578   -0.011201027692105115   -0.00023359687628448834
-0.008454332332652817   -0.010990394575498446   -2.858168620048902e-05
-0.008733476978891045   -0.001056556133714615   1.5275525628615526e-06
-0.014154303975518515   -0.01111411684261647   -0.00019937052525938152
-0.008537254567797508   -0.010894823895836032   1.8169301501243183e-05
-0.008733476978891045   -0.001056556133714615   1.5275525628615526e-06
-0.014288203770048004   -0.0011565670811335075   -0.00012305165077787327
-0.014154303975518515   -0.01111411684261647   -0.00019937052525938152
-0.014356426673292231   -0.0010578924575405234   -0.00010813374412956046
-0.008537254567797508   -0.010894823895836032   1.8169301501243183e-05
-0.0142224013555859   -0.011022331592263323   -0.00016526052388538277
-0.014356426673292231   -0.0010578924575405234   -0.00010813374412956046
-0.014154303975518515   -0.01111411684261647   -0.00019937052525938152
-0.008537254567797508   -0.010894823895836032   1.8169301501243183e-05
-0.014356426673292231   -0.0010578924575405234   -0.00010813374412956046
-0.00884127495890175   -0.0009292264326082635   5.698280680457237e-05
-0.008733476978891045   -0.001056556133714615   1.5275525628615526e-06
-0.008537254567797508   -0.010894823895836032   1.8169301501243183e-05
-0.014356426673292231   -0.0010578924575405234   -0.00010813374412956046
-0.008733476978891045   -0.001056556133714615   1.5275525628615526e-06
-0.014154303975518515   -0.01111411684261647   -0.00019937052525938152
-0.008537254567797508   -0.010894823895836032   1.8169301501243183e-05
-0.00884127495890175   -0.0009292264326082635   5.698280680457237e-05
-0.0142224013555859   -0.011022331592263323   -0.00016526052388538277
-0.008616060969143899   -0.010790078669780703   6.97246210452913e-05
-0.00884127495890175   -0.0009292264326082635   5.698280680457237e-05
-0.014356426673292231   -0.0010578924575405234   -0.00010813374412956046
-0.0142224013555859   -0.011022331592263323   -0.00016526052388538277
-0.014421045579170746   -0.0009380207840276936   -8.83959780222361e-05
-0.008616060969143899   -0.010790078669780703   6.97246210452913e-05
-0.01428516358091907   -0.010922961495584358   -0.00012813041919385932
-0.014421045579170746   -0.0009380207840276936   -8.83959780222361e-05
-0.0142224013555859   -0.011022331592263323   -0.00016526052388538277
-0.008616060969143899   -0.010790078669780703   6.97246210452913e-05
-0.014421045579170746   -0.0009380207840276936   -8.83959780222361e-05
-0.008960507467428304   -0.0007821128046151662   0.00011002132934427749
-0.00884127495890175   -0.0009292264326082635   5.698280680457237e-05
-0.008616060969143899   -0.010790078669780703   6.97246210452913e-05
-0.014421045579170746   -0.0009380207840276936   -8.83959780222361e-05
-0.00884127495890175   -0.0009292264326082635   5.698280680457237e-05
-0.0142224013555859   -0.011022331592263323   -0.00016526052388538277
-0.014083152012770578   -0.011201027692105115   -0.00023359687628448834
-0.014222579256766415   -0.001241679679858967   -0.0001315227748129867
-0.019991699559838143   -0.011252704832048923   -0.0003820875780538399
-0.014154303975518515   -0.01111411684261647   -0.00019937052525938152
-0.014222579256766415   -0.001241679679858967   -0.0001315227748129867
-0.02009504339308273   -0.0012279038017424526   -0.00027786291766627395
-0.019991699559838143   -0.011252704832048923   -0.0003820875780538399
-0.02013934703298478   -0.0011512540401713322   -0.00027424968133704956
-0.014154303975518515   -0.01111411684261647   -0.00019937052525938152
-0.020055799236099816   -0.0111746237049108   -0.00035714701478558957
-0.02013934703298478   -0.0011512540401713322   -0.00027424968133704956
-0.019991699559838143   -0.011252704832048923   -0.0003820875780538399
-0.014154303975518515   -0.01111411684261647   -0.00019937052525938152
-0.02013934703298478   -0.0011512540401713322   -0.00027424968133704956
-0.014288203770048004   -0.0011565670811335075   -0.00012305165077787327
-0.014222579256766415   -0.001241679679858967   -0.0001315227748129867
-0.014154303975518515   -0.01111411684261647   -0.00019937052525938152
-0.02013934703298478   -0.0011512540401713322   -0.00027424968133704956
-0.014222579256766415   -0.001241679679858967   -0.0001315227748129867
-0.019991699559838143   -0.011252704832048923   -0.0003820875780538399
-0.014154303975518515   -0.01111411684261647   -0.00019937052525938152
-0.014288203770048004   -0.0011565670811335075   -0.00012305165077787327
-0.020055799236099816   -0.0111746237049108   -0.00035714701478558957
-0.0142224013555859   -0.011022331592263323   -0.00016526052388538277
-0.014288203770048004   -0.0011565670811335075   -0.00012305165077787327
-0.02013934703298478   -0.0011512540401713322   -0.00027424968133704956
-0.020055799236099816   -0.0111746237049108   -0.00035714701478558957
-0.02018557343281918   -0.0010660460816038   -0.00027181181218122316
-0.0142224013555859   -0.011022331592263323   -0.00016526052388538277
-0.020112918472640556   -0.01108959282546044   -0.00033292266174241383
-0.02018557343281918   -0.0010660460816038   -0.00027181181218122316
-0.020055799236099816   -0.0111746237049108   -0.00035714701478558957
-0.0142224013555859   -0.011022331592263323   -0.00016526052388538277
-0.02018557343281918   -0.0010660460816038   -0.00027181181218122316
-0.014356426673292231   -0.0010578924575405234   -0.00010813374412956046
-0.014288203770048004   -0.0011565670811335075   -0.00012305165077787327
-0.0142224013555859   -0.011022331592263323   -0.00016526052388538277
-0.02018557343281918   -0.0010660460816038   -0.00027181181218122316
-0.014288203770048004   -0.0011565670811335075   -0.00012305165077787327
-0.020055799236099816   -0.0111746237049108   -0.00035714701478558957
-0.0142224013555859   -0.011022331592263323   -0.00016526052388538277
-0.014356426673292231   -0.0010578924575405234   -0.00010813374412956046
-0.020112918472640556   -0.01108959282546044   -0.00033292266174241383
-0.01428516358091907   -0.010922961495584358   -0.00012813041919385932
-0.014356426673292231   -0.0010578924575405234   -0.00010813374412956046
-0.02018557343281918   -0.0010660460816038   -0.00027181181218122316
-0.020112918472640556   -0.01108959282546044   -0.00033292266174241383
-0.02022058156083143   -0.0009738969580241594   -0.0002707532302513181
-0.01428516358091907   -0.010922961495584358   -0.00012813041919385932
-0.020164639271993585   -0.010999084656784962   -0.000307985099828728
-0.02022058156083143   -0.0009738969580241594   -0.0002707532302513181
-0.020112918472640556   -0.01108959282546044   -0.00033292266174241383
-0.01428516358091907   -0.010922961495584358   -0.00012813041919385932
-0.02022058156083143   -0.0009738969580241594   -0.0002707532302513181
-0.014421045579170746   -0.0009380207840276936   -8.83959780222361e-05
-0.014356426673292231   -0.0010578924575405234   -0.00010813374412956046
-0.01428516358091907   -0.010922961495584358   -0.00012813041919385932
-0.02022058156083143   -0.0009738969580241594   -0.0002707532302513181
-0.014356426673292231   -0.0010578924575405234   -0.00010813374412956046
-0.020112918472640556   -0.01108959282546044   -0.00033292266174241383
-0.019991699559838143   -0.011252704832048923   -0.0003820875780538399
-0.02009504339308273   -0.0012279038017424526   -0.00027786291766627395
-0.026110385645370514   -0.011258512522503051   -0.000505404351335542
-0.020055799236099816   -0.0111746237049108   -0.00035714701478558957
-0.02009504339308273   -0.0012279038017424526   -0.00027786291766627395
-0.026129402908434275   -0.0012189756076322706   -0.00042187468762945525
-0.026110385645370514   -0.011258512522503051   -0.000505404351335542
-0.02616505480769304   -0.0011357883408993534   -0.00042184337578171253
-0.020055799236099816   -0.0111746237049108   -0.00035714701478558957
-0.02616548435281403   -0.011182710628950036   -0.0004947165384077294
-0.02616505480769304   -0.0011357883408993534   -0.00042184337578171253
-0.026110385645370514   -0.011258512522503051   -0.000505404351335542
-0.020055799236099816   -0.0111746237049108   -0.00035714701478558957
-0.02616505480769304   -0.0011357883408993534   -0.00042184337578171253
-0.02013934703298478   -0.0011512540401713322   -0.00027424968133704956
-0.02009504339308273   -0.0012279038017424526   -0.00027786291766627395
-0.020055799236099816   -0.0111746237049108   -0.00035714701478558957
-0.02616505480769304   -0.0011357883408993534   -0.00042184337578171253
-0.02009504339308273   -0.0012279038017424526   -0.00027786291766627395
-0.026110385645370514   -0.011258512522503051   -0.000505404351335542
-0.020055799236099816   -0.0111746237049108   -0.00035714701478558957
-0.02013934703298478   -0.0011512540401713322   -0.00027424968133704956
-0.02616548435281403   -0.011182710628950036   -0.0004947165384077294
-0.020112918472640556   -0.01108959282546044   -0.00033292266174241383
-0.02013934703298478   -0.0011512540401713322   -0.00027424968133704956
-0.02616505480769304   -0.0011357883408993534   -0.00042184337578171253
-0.02616548435281403   -0.011182710628950036   -0.0004947165384077294
-0.026204200350122473   -0.0010527555326530456   -0.00042829929944121937
-0.020112918472640556   -0.01108959282546044   -0.00033292266174241383
-0.026214847938657793   -0.011100768699974116   -0.0004822202139911739
-0.026204200350122473   -0.0010527555326530456   -0.00042829929944121937
-0.02616548435281403   -0.011182710628950036   -0.0004947165384077294
-0.020112918472640556   -0.01108959282546044   -0.00033292266174241383
-0.026204200350122473   -0.0010527555326530456   -0.00042829929944121937
-0.02018557343281918   -0.0010660460816038   -0.00027181181218122316
-0.02013934703298478   -0.0011512540401713322   -0.00027424968133704956
-0.020112918472640556   -0.01108959282546044   -0.00033292266174241383
-0.026204200350122473   -0.0010527555326530456   -0.00042829929944121937
-0.02013934703298478   -0.0011512540401713322   -0.00027424968133704956
-0.02616548435281403   -0.011182710628950036   -0.0004947165384077294
-0.020112918472640556   -0.01108959282546044   -0.00033292266174241383
-0.02018557343281918   -0.0010660460816038   -0.00027181181218122316
-0.026214847938657793   -0.011100768699974116   -0.0004822202139911739
-0.020164639271993585   -0.010999084656784962   -0.000307985099828728
-0.02018557343281918   -0.0010660460816038   -0.00027181181218122316
-0.026204200350122473   -0.0010527555326530456   -0.00042829929944121937
-0.026214847938657793   -0.011100768699974116   -0.0004822202139911739
-0.026233006706622757   -0.0009624068314662515   -0.00043518054050762744
-0.020164639271993585   -0.010999084656784962   -0.000307985099828728
-0.02625639006732337   -0.011013997169079118   -0.00047061065879969085
-0.026233006706622757   -0.0009624068314662515   -0.00043518054050762744
-0.026214847938657793   -0.011100768699974116   -0.0004822202139911739
-0.020164639271993585   -0.010999084656784962   -0.000307985099828728
-0.026233006706622757   -0.0009624068314662515   -0.00043518054050762744
-0.02022058156083143   -0.0009738969580241594   -0.0002707532302513181
-0.02018557343281918   -0.0010660460816038   -0.00027181181218122316
-0.020164639271993585   -0.010999084656784962   -0.000307985099828728
-0.026233006706622757   -0.0009624068314662515   -0.00043518054050762744
-0.02018557343281918   -0.0010660460816038   -0.00027181181218122316
-0.026214847938657793   -0.011100768699974116   -0.0004822202139911739
              </DataArray>   
          </PointData>  
       </Piece>  
   </UnstructuredGrid> 
</VTKFile> 
