<?xml version="1.0"?> 
<VTKFile type="UnstructuredGrid"> 
   <UnstructuredGrid> 
      <Piece NumberOfPoints="6000"  NumberOfCells="1500">  
          <Points>  
             <DataArray type="Float64" NumberOfComponents="3" format="ascii">   
-500.0   0.0   0.0
-450.0   0.0   0.0
-500.0   30.0   0.0
-500.0   0.0   16.666666666666668
-450.0   0.0   0.0
-450.0   30.0   0.0
-500.0   30.0   0.0
-450.0   30.0   16.666666666666668
-500.0   0.0   16.666666666666668
-500.0   30.0   16.666666666666668
-450.0   30.0   16.666666666666668
-500.0   30.0   0.0
-500.0   0.0   16.666666666666668
-450.0   30.0   16.666666666666668
-450.0   0.0   16.666666666666668
-450.0   0.0   0.0
-500.0   0.0   16.666666666666668
-450.0   30.0   16.666666666666668
-450.0   0.0   0.0
-500.0   30.0   0.0
-500.0   0.0   16.666666666666668
-450.0   0.0   16.666666666666668
-500.0   30.0   16.666666666666668
-500.0   0.0   33.333333333333336
-450.0   0.0   16.666666666666668
-450.0   30.0   16.666666666666668
-500.0   30.0   16.666666666666668
-450.0   30.0   33.333333333333336
-500.0   0.0   33.333333333333336
-500.0   30.0   33.333333333333336
-450.0   30.0   33.333333333333336
-500.0   30.0   16.666666666666668
-500.0   0.0   33.333333333333336
-450.0   30.0   33.333333333333336
-450.0   0.0   33.333333333333336
-450.0   0.0   16.666666666666668
-500.0   0.0   33.333333333333336
-450.0   30.0   33.333333333333336
-450.0   0.0   16.666666666666668
-500.0   30.0   16.666666666666668
-500.0   0.0   33.333333333333336
-450.0   0.0   33.333333333333336
-500.0   30.0   33.333333333333336
-500.0   0.0   50.0
-450.0   0.0   33.333333333333336
-450.0   30.0   33.333333333333336
-500.0   30.0   33.333333333333336
-450.0   30.0   50.0
-500.0   0.0   50.0
-500.0   30.0   50.0
-450.0   30.0   50.0
-500.0   30.0   33.333333333333336
-500.0   0.0   50.0
-450.0   30.0   50.0
-450.0   0.0   50.0
-450.0   0.0   33.333333333333336
-500.0   0.0   50.0
-450.0   30.0   50.0
-450.0   0.0   33.333333333333336
-500.0   30.0   33.333333333333336
-500.0   30.0   0.0
-450.0   30.0   0.0
-500.0   60.0   0.0
-500.0   30.0   16.666666666666668
-450.0   30.0   0.0
-450.0   60.0   0.0
-500.0   60.0   0.0
-450.0   60.0   16.666666666666668
-500.0   30.0   16.666666666666668
-500.0   60.0   16.666666666666668
-450.0   60.0   16.666666666666668
-500.0   60.0   0.0
-500.0   30.0   16.666666666666668
-450.0   60.0   16.666666666666668
-450.0   30.0   16.666666666666668
-450.0   30.0   0.0
-500.0   30.0   16.666666666666668
-450.0   60.0   16.666666666666668
-450.0   30.0   0.0
-500.0   60.0   0.0
-500.0   30.0   16.666666666666668
-450.0   30.0   16.666666666666668
-500.0   60.0   16.666666666666668
-500.0   30.0   33.333333333333336
-450.0   30.0   16.666666666666668
-450.0   60.0   16.666666666666668
-500.0   60.0   16.666666666666668
-450.0   60.0   33.333333333333336
-500.0   30.0   33.333333333333336
-500.0   60.0   33.333333333333336
-450.0   60.0   33.333333333333336
-500.0   60.0   16.666666666666668
-500.0   30.0   33.333333333333336
-450.0   60.0   33.333333333333336
-450.0   30.0   33.333333333333336
-450.0   30.0   16.666666666666668
-500.0   30.0   33.333333333333336
-450.0   60.0   33.333333333333336
-450.0   30.0   16.666666666666668
-500.0   60.0   16.666666666666668
-500.0   30.0   33.333333333333336
-450.0   30.0   33.333333333333336
-500.0   60.0   33.333333333333336
-500.0   30.0   50.0
-450.0   30.0   33.333333333333336
-450.0   60.0   33.333333333333336
-500.0   60.0   33.333333333333336
-450.0   60.0   50.0
-500.0   30.0   50.0
-500.0   60.0   50.0
-450.0   60.0   50.0
-500.0   60.0   33.333333333333336
-500.0   30.0   50.0
-450.0   60.0   50.0
-450.0   30.0   50.0
-450.0   30.0   33.333333333333336
-500.0   30.0   50.0
-450.0   60.0   50.0
-450.0   30.0   33.333333333333336
-500.0   60.0   33.333333333333336
-500.0   60.0   0.0
-450.0   60.0   0.0
-500.0   90.0   0.0
-500.0   60.0   16.666666666666668
-450.0   60.0   0.0
-450.0   90.0   0.0
-500.0   90.0   0.0
-450.0   90.0   16.666666666666668
-500.0   60.0   16.666666666666668
-500.0   90.0   16.666666666666668
-450.0   90.0   16.666666666666668
-500.0   90.0   0.0
-500.0   60.0   16.666666666666668
-450.0   90.0   16.666666666666668
-450.0   60.0   16.666666666666668
-450.0   60.0   0.0
-500.0   60.0   16.666666666666668
-450.0   90.0   16.666666666666668
-450.0   60.0   0.0
-500.0   90.0   0.0
-500.0   60.0   16.666666666666668
-450.0   60.0   16.666666666666668
-500.0   90.0   16.666666666666668
-500.0   60.0   33.333333333333336
-450.0   60.0   16.666666666666668
-450.0   90.0   16.666666666666668
-500.0   90.0   16.666666666666668
-450.0   90.0   33.333333333333336
-500.0   60.0   33.333333333333336
-500.0   90.0   33.333333333333336
-450.0   90.0   33.333333333333336
-500.0   90.0   16.666666666666668
-500.0   60.0   33.333333333333336
-450.0   90.0   33.333333333333336
-450.0   60.0   33.333333333333336
-450.0   60.0   16.666666666666668
-500.0   60.0   33.333333333333336
-450.0   90.0   33.333333333333336
-450.0   60.0   16.666666666666668
-500.0   90.0   16.666666666666668
-500.0   60.0   33.333333333333336
-450.0   60.0   33.333333333333336
-500.0   90.0   33.333333333333336
-500.0   60.0   50.0
-450.0   60.0   33.333333333333336
-450.0   90.0   33.333333333333336
-500.0   90.0   33.333333333333336
-450.0   90.0   50.0
-500.0   60.0   50.0
-500.0   90.0   50.0
-450.0   90.0   50.0
-500.0   90.0   33.333333333333336
-500.0   60.0   50.0
-450.0   90.0   50.0
-450.0   60.0   50.0
-450.0   60.0   33.333333333333336
-500.0   60.0   50.0
-450.0   90.0   50.0
-450.0   60.0   33.333333333333336
-500.0   90.0   33.333333333333336
-500.0   90.0   0.0
-450.0   90.0   0.0
-500.0   120.0   0.0
-500.0   90.0   16.666666666666668
-450.0   90.0   0.0
-450.0   120.0   0.0
-500.0   120.0   0.0
-450.0   120.0   16.666666666666668
-500.0   90.0   16.666666666666668
-500.0   120.0   16.666666666666668
-450.0   120.0   16.666666666666668
-500.0   120.0   0.0
-500.0   90.0   16.666666666666668
-450.0   120.0   16.666666666666668
-450.0   90.0   16.666666666666668
-450.0   90.0   0.0
-500.0   90.0   16.666666666666668
-450.0   120.0   16.666666666666668
-450.0   90.0   0.0
-500.0   120.0   0.0
-500.0   90.0   16.666666666666668
-450.0   90.0   16.666666666666668
-500.0   120.0   16.666666666666668
-500.0   90.0   33.333333333333336
-450.0   90.0   16.666666666666668
-450.0   120.0   16.666666666666668
-500.0   120.0   16.666666666666668
-450.0   120.0   33.333333333333336
-500.0   90.0   33.333333333333336
-500.0   120.0   33.333333333333336
-450.0   120.0   33.333333333333336
-500.0   120.0   16.666666666666668
-500.0   90.0   33.333333333333336
-450.0   120.0   33.333333333333336
-450.0   90.0   33.333333333333336
-450.0   90.0   16.666666666666668
-500.0   90.0   33.333333333333336
-450.0   120.0   33.333333333333336
-450.0   90.0   16.666666666666668
-500.0   120.0   16.666666666666668
-500.0   90.0   33.333333333333336
-450.0   90.0   33.333333333333336
-500.0   120.0   33.333333333333336
-500.0   90.0   50.0
-450.0   90.0   33.333333333333336
-450.0   120.0   33.333333333333336
-500.0   120.0   33.333333333333336
-450.0   120.0   50.0
-500.0   90.0   50.0
-500.0   120.0   50.0
-450.0   120.0   50.0
-500.0   120.0   33.333333333333336
-500.0   90.0   50.0
-450.0   120.0   50.0
-450.0   90.0   50.0
-450.0   90.0   33.333333333333336
-500.0   90.0   50.0
-450.0   120.0   50.0
-450.0   90.0   33.333333333333336
-500.0   120.0   33.333333333333336
-500.0   120.0   0.0
-450.0   120.0   0.0
-500.0   150.0   0.0
-500.0   120.0   16.666666666666668
-450.0   120.0   0.0
-450.0   150.0   0.0
-500.0   150.0   0.0
-450.0   150.0   16.666666666666668
-500.0   120.0   16.666666666666668
-500.0   150.0   16.666666666666668
-450.0   150.0   16.666666666666668
-500.0   150.0   0.0
-500.0   120.0   16.666666666666668
-450.0   150.0   16.666666666666668
-450.0   120.0   16.666666666666668
-450.0   120.0   0.0
-500.0   120.0   16.666666666666668
-450.0   150.0   16.666666666666668
-450.0   120.0   0.0
-500.0   150.0   0.0
-500.0   120.0   16.666666666666668
-450.0   120.0   16.666666666666668
-500.0   150.0   16.666666666666668
-500.0   120.0   33.333333333333336
-450.0   120.0   16.666666666666668
-450.0   150.0   16.666666666666668
-500.0   150.0   16.666666666666668
-450.0   150.0   33.333333333333336
-500.0   120.0   33.333333333333336
-500.0   150.0   33.333333333333336
-450.0   150.0   33.333333333333336
-500.0   150.0   16.666666666666668
-500.0   120.0   33.333333333333336
-450.0   150.0   33.333333333333336
-450.0   120.0   33.333333333333336
-450.0   120.0   16.666666666666668
-500.0   120.0   33.333333333333336
-450.0   150.0   33.333333333333336
-450.0   120.0   16.666666666666668
-500.0   150.0   16.666666666666668
-500.0   120.0   33.333333333333336
-450.0   120.0   33.333333333333336
-500.0   150.0   33.333333333333336
-500.0   120.0   50.0
-450.0   120.0   33.333333333333336
-450.0   150.0   33.333333333333336
-500.0   150.0   33.333333333333336
-450.0   150.0   50.0
-500.0   120.0   50.0
-500.0   150.0   50.0
-450.0   150.0   50.0
-500.0   150.0   33.333333333333336
-500.0   120.0   50.0
-450.0   150.0   50.0
-450.0   120.0   50.0
-450.0   120.0   33.333333333333336
-500.0   120.0   50.0
-450.0   150.0   50.0
-450.0   120.0   33.333333333333336
-500.0   150.0   33.333333333333336
-450.0   0.0   0.0
-400.0   0.0   0.0
-450.0   30.0   0.0
-450.0   0.0   16.666666666666668
-400.0   0.0   0.0
-400.0   30.0   0.0
-450.0   30.0   0.0
-400.0   30.0   16.666666666666668
-450.0   0.0   16.666666666666668
-450.0   30.0   16.666666666666668
-400.0   30.0   16.666666666666668
-450.0   30.0   0.0
-450.0   0.0   16.666666666666668
-400.0   30.0   16.666666666666668
-400.0   0.0   16.666666666666668
-400.0   0.0   0.0
-450.0   0.0   16.666666666666668
-400.0   30.0   16.666666666666668
-400.0   0.0   0.0
-450.0   30.0   0.0
-450.0   0.0   16.666666666666668
-400.0   0.0   16.666666666666668
-450.0   30.0   16.666666666666668
-450.0   0.0   33.333333333333336
-400.0   0.0   16.666666666666668
-400.0   30.0   16.666666666666668
-450.0   30.0   16.666666666666668
-400.0   30.0   33.333333333333336
-450.0   0.0   33.333333333333336
-450.0   30.0   33.333333333333336
-400.0   30.0   33.333333333333336
-450.0   30.0   16.666666666666668
-450.0   0.0   33.333333333333336
-400.0   30.0   33.333333333333336
-400.0   0.0   33.333333333333336
-400.0   0.0   16.666666666666668
-450.0   0.0   33.333333333333336
-400.0   30.0   33.333333333333336
-400.0   0.0   16.666666666666668
-450.0   30.0   16.666666666666668
-450.0   0.0   33.333333333333336
-400.0   0.0   33.333333333333336
-450.0   30.0   33.333333333333336
-450.0   0.0   50.0
-400.0   0.0   33.333333333333336
-400.0   30.0   33.333333333333336
-450.0   30.0   33.333333333333336
-400.0   30.0   50.0
-450.0   0.0   50.0
-450.0   30.0   50.0
-400.0   30.0   50.0
-450.0   30.0   33.333333333333336
-450.0   0.0   50.0
-400.0   30.0   50.0
-400.0   0.0   50.0
-400.0   0.0   33.333333333333336
-450.0   0.0   50.0
-400.0   30.0   50.0
-400.0   0.0   33.333333333333336
-450.0   30.0   33.333333333333336
-450.0   30.0   0.0
-400.0   30.0   0.0
-450.0   60.0   0.0
-450.0   30.0   16.666666666666668
-400.0   30.0   0.0
-400.0   60.0   0.0
-450.0   60.0   0.0
-400.0   60.0   16.666666666666668
-450.0   30.0   16.666666666666668
-450.0   60.0   16.666666666666668
-400.0   60.0   16.666666666666668
-450.0   60.0   0.0
-450.0   30.0   16.666666666666668
-400.0   60.0   16.666666666666668
-400.0   30.0   16.666666666666668
-400.0   30.0   0.0
-450.0   30.0   16.666666666666668
-400.0   60.0   16.666666666666668
-400.0   30.0   0.0
-450.0   60.0   0.0
-450.0   30.0   16.666666666666668
-400.0   30.0   16.666666666666668
-450.0   60.0   16.666666666666668
-450.0   30.0   33.333333333333336
-400.0   30.0   16.666666666666668
-400.0   60.0   16.666666666666668
-450.0   60.0   16.666666666666668
-400.0   60.0   33.333333333333336
-450.0   30.0   33.333333333333336
-450.0   60.0   33.333333333333336
-400.0   60.0   33.333333333333336
-450.0   60.0   16.666666666666668
-450.0   30.0   33.333333333333336
-400.0   60.0   33.333333333333336
-400.0   30.0   33.333333333333336
-400.0   30.0   16.666666666666668
-450.0   30.0   33.333333333333336
-400.0   60.0   33.333333333333336
-400.0   30.0   16.666666666666668
-450.0   60.0   16.666666666666668
-450.0   30.0   33.333333333333336
-400.0   30.0   33.333333333333336
-450.0   60.0   33.333333333333336
-450.0   30.0   50.0
-400.0   30.0   33.333333333333336
-400.0   60.0   33.333333333333336
-450.0   60.0   33.333333333333336
-400.0   60.0   50.0
-450.0   30.0   50.0
-450.0   60.0   50.0
-400.0   60.0   50.0
-450.0   60.0   33.333333333333336
-450.0   30.0   50.0
-400.0   60.0   50.0
-400.0   30.0   50.0
-400.0   30.0   33.333333333333336
-450.0   30.0   50.0
-400.0   60.0   50.0
-400.0   30.0   33.333333333333336
-450.0   60.0   33.333333333333336
-450.0   60.0   0.0
-400.0   60.0   0.0
-450.0   90.0   0.0
-450.0   60.0   16.666666666666668
-400.0   60.0   0.0
-400.0   90.0   0.0
-450.0   90.0   0.0
-400.0   90.0   16.666666666666668
-450.0   60.0   16.666666666666668
-450.0   90.0   16.666666666666668
-400.0   90.0   16.666666666666668
-450.0   90.0   0.0
-450.0   60.0   16.666666666666668
-400.0   90.0   16.666666666666668
-400.0   60.0   16.666666666666668
-400.0   60.0   0.0
-450.0   60.0   16.666666666666668
-400.0   90.0   16.666666666666668
-400.0   60.0   0.0
-450.0   90.0   0.0
-450.0   60.0   16.666666666666668
-400.0   60.0   16.666666666666668
-450.0   90.0   16.666666666666668
-450.0   60.0   33.333333333333336
-400.0   60.0   16.666666666666668
-400.0   90.0   16.666666666666668
-450.0   90.0   16.666666666666668
-400.0   90.0   33.333333333333336
-450.0   60.0   33.333333333333336
-450.0   90.0   33.333333333333336
-400.0   90.0   33.333333333333336
-450.0   90.0   16.666666666666668
-450.0   60.0   33.333333333333336
-400.0   90.0   33.333333333333336
-400.0   60.0   33.333333333333336
-400.0   60.0   16.666666666666668
-450.0   60.0   33.333333333333336
-400.0   90.0   33.333333333333336
-400.0   60.0   16.666666666666668
-450.0   90.0   16.666666666666668
-450.0   60.0   33.333333333333336
-400.0   60.0   33.333333333333336
-450.0   90.0   33.333333333333336
-450.0   60.0   50.0
-400.0   60.0   33.333333333333336
-400.0   90.0   33.333333333333336
-450.0   90.0   33.333333333333336
-400.0   90.0   50.0
-450.0   60.0   50.0
-450.0   90.0   50.0
-400.0   90.0   50.0
-450.0   90.0   33.333333333333336
-450.0   60.0   50.0
-400.0   90.0   50.0
-400.0   60.0   50.0
-400.0   60.0   33.333333333333336
-450.0   60.0   50.0
-400.0   90.0   50.0
-400.0   60.0   33.333333333333336
-450.0   90.0   33.333333333333336
-450.0   90.0   0.0
-400.0   90.0   0.0
-450.0   120.0   0.0
-450.0   90.0   16.666666666666668
-400.0   90.0   0.0
-400.0   120.0   0.0
-450.0   120.0   0.0
-400.0   120.0   16.666666666666668
-450.0   90.0   16.666666666666668
-450.0   120.0   16.666666666666668
-400.0   120.0   16.666666666666668
-450.0   120.0   0.0
-450.0   90.0   16.666666666666668
-400.0   120.0   16.666666666666668
-400.0   90.0   16.666666666666668
-400.0   90.0   0.0
-450.0   90.0   16.666666666666668
-400.0   120.0   16.666666666666668
-400.0   90.0   0.0
-450.0   120.0   0.0
-450.0   90.0   16.666666666666668
-400.0   90.0   16.666666666666668
-450.0   120.0   16.666666666666668
-450.0   90.0   33.333333333333336
-400.0   90.0   16.666666666666668
-400.0   120.0   16.666666666666668
-450.0   120.0   16.666666666666668
-400.0   120.0   33.333333333333336
-450.0   90.0   33.333333333333336
-450.0   120.0   33.333333333333336
-400.0   120.0   33.333333333333336
-450.0   120.0   16.666666666666668
-450.0   90.0   33.333333333333336
-400.0   120.0   33.333333333333336
-400.0   90.0   33.333333333333336
-400.0   90.0   16.666666666666668
-450.0   90.0   33.333333333333336
-400.0   120.0   33.333333333333336
-400.0   90.0   16.666666666666668
-450.0   120.0   16.666666666666668
-450.0   90.0   33.333333333333336
-400.0   90.0   33.333333333333336
-450.0   120.0   33.333333333333336
-450.0   90.0   50.0
-400.0   90.0   33.333333333333336
-400.0   120.0   33.333333333333336
-450.0   120.0   33.333333333333336
-400.0   120.0   50.0
-450.0   90.0   50.0
-450.0   120.0   50.0
-400.0   120.0   50.0
-450.0   120.0   33.333333333333336
-450.0   90.0   50.0
-400.0   120.0   50.0
-400.0   90.0   50.0
-400.0   90.0   33.333333333333336
-450.0   90.0   50.0
-400.0   120.0   50.0
-400.0   90.0   33.333333333333336
-450.0   120.0   33.333333333333336
-450.0   120.0   0.0
-400.0   120.0   0.0
-450.0   150.0   0.0
-450.0   120.0   16.666666666666668
-400.0   120.0   0.0
-400.0   150.0   0.0
-450.0   150.0   0.0
-400.0   150.0   16.666666666666668
-450.0   120.0   16.666666666666668
-450.0   150.0   16.666666666666668
-400.0   150.0   16.666666666666668
-450.0   150.0   0.0
-450.0   120.0   16.666666666666668
-400.0   150.0   16.666666666666668
-400.0   120.0   16.666666666666668
-400.0   120.0   0.0
-450.0   120.0   16.666666666666668
-400.0   150.0   16.666666666666668
-400.0   120.0   0.0
-450.0   150.0   0.0
-450.0   120.0   16.666666666666668
-400.0   120.0   16.666666666666668
-450.0   150.0   16.666666666666668
-450.0   120.0   33.333333333333336
-400.0   120.0   16.666666666666668
-400.0   150.0   16.666666666666668
-450.0   150.0   16.666666666666668
-400.0   150.0   33.333333333333336
-450.0   120.0   33.333333333333336
-450.0   150.0   33.333333333333336
-400.0   150.0   33.333333333333336
-450.0   150.0   16.666666666666668
-450.0   120.0   33.333333333333336
-400.0   150.0   33.333333333333336
-400.0   120.0   33.333333333333336
-400.0   120.0   16.666666666666668
-450.0   120.0   33.333333333333336
-400.0   150.0   33.333333333333336
-400.0   120.0   16.666666666666668
-450.0   150.0   16.666666666666668
-450.0   120.0   33.333333333333336
-400.0   120.0   33.333333333333336
-450.0   150.0   33.333333333333336
-450.0   120.0   50.0
-400.0   120.0   33.333333333333336
-400.0   150.0   33.333333333333336
-450.0   150.0   33.333333333333336
-400.0   150.0   50.0
-450.0   120.0   50.0
-450.0   150.0   50.0
-400.0   150.0   50.0
-450.0   150.0   33.333333333333336
-450.0   120.0   50.0
-400.0   150.0   50.0
-400.0   120.0   50.0
-400.0   120.0   33.333333333333336
-450.0   120.0   50.0
-400.0   150.0   50.0
-400.0   120.0   33.333333333333336
-450.0   150.0   33.333333333333336
-400.0   0.0   0.0
-350.0   0.0   0.0
-400.0   30.0   0.0
-400.0   0.0   16.666666666666668
-350.0   0.0   0.0
-350.0   30.0   0.0
-400.0   30.0   0.0
-350.0   30.0   16.666666666666668
-400.0   0.0   16.666666666666668
-400.0   30.0   16.666666666666668
-350.0   30.0   16.666666666666668
-400.0   30.0   0.0
-400.0   0.0   16.666666666666668
-350.0   30.0   16.666666666666668
-350.0   0.0   16.666666666666668
-350.0   0.0   0.0
-400.0   0.0   16.666666666666668
-350.0   30.0   16.666666666666668
-350.0   0.0   0.0
-400.0   30.0   0.0
-400.0   0.0   16.666666666666668
-350.0   0.0   16.666666666666668
-400.0   30.0   16.666666666666668
-400.0   0.0   33.333333333333336
-350.0   0.0   16.666666666666668
-350.0   30.0   16.666666666666668
-400.0   30.0   16.666666666666668
-350.0   30.0   33.333333333333336
-400.0   0.0   33.333333333333336
-400.0   30.0   33.333333333333336
-350.0   30.0   33.333333333333336
-400.0   30.0   16.666666666666668
-400.0   0.0   33.333333333333336
-350.0   30.0   33.333333333333336
-350.0   0.0   33.333333333333336
-350.0   0.0   16.666666666666668
-400.0   0.0   33.333333333333336
-350.0   30.0   33.333333333333336
-350.0   0.0   16.666666666666668
-400.0   30.0   16.666666666666668
-400.0   0.0   33.333333333333336
-350.0   0.0   33.333333333333336
-400.0   30.0   33.333333333333336
-400.0   0.0   50.0
-350.0   0.0   33.333333333333336
-350.0   30.0   33.333333333333336
-400.0   30.0   33.333333333333336
-350.0   30.0   50.0
-400.0   0.0   50.0
-400.0   30.0   50.0
-350.0   30.0   50.0
-400.0   30.0   33.333333333333336
-400.0   0.0   50.0
-350.0   30.0   50.0
-350.0   0.0   50.0
-350.0   0.0   33.333333333333336
-400.0   0.0   50.0
-350.0   30.0   50.0
-350.0   0.0   33.333333333333336
-400.0   30.0   33.333333333333336
-400.0   30.0   0.0
-350.0   30.0   0.0
-400.0   60.0   0.0
-400.0   30.0   16.666666666666668
-350.0   30.0   0.0
-350.0   60.0   0.0
-400.0   60.0   0.0
-350.0   60.0   16.666666666666668
-400.0   30.0   16.666666666666668
-400.0   60.0   16.666666666666668
-350.0   60.0   16.666666666666668
-400.0   60.0   0.0
-400.0   30.0   16.666666666666668
-350.0   60.0   16.666666666666668
-350.0   30.0   16.666666666666668
-350.0   30.0   0.0
-400.0   30.0   16.666666666666668
-350.0   60.0   16.666666666666668
-350.0   30.0   0.0
-400.0   60.0   0.0
-400.0   30.0   16.666666666666668
-350.0   30.0   16.666666666666668
-400.0   60.0   16.666666666666668
-400.0   30.0   33.333333333333336
-350.0   30.0   16.666666666666668
-350.0   60.0   16.666666666666668
-400.0   60.0   16.666666666666668
-350.0   60.0   33.333333333333336
-400.0   30.0   33.333333333333336
-400.0   60.0   33.333333333333336
-350.0   60.0   33.333333333333336
-400.0   60.0   16.666666666666668
-400.0   30.0   33.333333333333336
-350.0   60.0   33.333333333333336
-350.0   30.0   33.333333333333336
-350.0   30.0   16.666666666666668
-400.0   30.0   33.333333333333336
-350.0   60.0   33.333333333333336
-350.0   30.0   16.666666666666668
-400.0   60.0   16.666666666666668
-400.0   30.0   33.333333333333336
-350.0   30.0   33.333333333333336
-400.0   60.0   33.333333333333336
-400.0   30.0   50.0
-350.0   30.0   33.333333333333336
-350.0   60.0   33.333333333333336
-400.0   60.0   33.333333333333336
-350.0   60.0   50.0
-400.0   30.0   50.0
-400.0   60.0   50.0
-350.0   60.0   50.0
-400.0   60.0   33.333333333333336
-400.0   30.0   50.0
-350.0   60.0   50.0
-350.0   30.0   50.0
-350.0   30.0   33.333333333333336
-400.0   30.0   50.0
-350.0   60.0   50.0
-350.0   30.0   33.333333333333336
-400.0   60.0   33.333333333333336
-400.0   60.0   0.0
-350.0   60.0   0.0
-400.0   90.0   0.0
-400.0   60.0   16.666666666666668
-350.0   60.0   0.0
-350.0   90.0   0.0
-400.0   90.0   0.0
-350.0   90.0   16.666666666666668
-400.0   60.0   16.666666666666668
-400.0   90.0   16.666666666666668
-350.0   90.0   16.666666666666668
-400.0   90.0   0.0
-400.0   60.0   16.666666666666668
-350.0   90.0   16.666666666666668
-350.0   60.0   16.666666666666668
-350.0   60.0   0.0
-400.0   60.0   16.666666666666668
-350.0   90.0   16.666666666666668
-350.0   60.0   0.0
-400.0   90.0   0.0
-400.0   60.0   16.666666666666668
-350.0   60.0   16.666666666666668
-400.0   90.0   16.666666666666668
-400.0   60.0   33.333333333333336
-350.0   60.0   16.666666666666668
-350.0   90.0   16.666666666666668
-400.0   90.0   16.666666666666668
-350.0   90.0   33.333333333333336
-400.0   60.0   33.333333333333336
-400.0   90.0   33.333333333333336
-350.0   90.0   33.333333333333336
-400.0   90.0   16.666666666666668
-400.0   60.0   33.333333333333336
-350.0   90.0   33.333333333333336
-350.0   60.0   33.333333333333336
-350.0   60.0   16.666666666666668
-400.0   60.0   33.333333333333336
-350.0   90.0   33.333333333333336
-350.0   60.0   16.666666666666668
-400.0   90.0   16.666666666666668
-400.0   60.0   33.333333333333336
-350.0   60.0   33.333333333333336
-400.0   90.0   33.333333333333336
-400.0   60.0   50.0
-350.0   60.0   33.333333333333336
-350.0   90.0   33.333333333333336
-400.0   90.0   33.333333333333336
-350.0   90.0   50.0
-400.0   60.0   50.0
-400.0   90.0   50.0
-350.0   90.0   50.0
-400.0   90.0   33.333333333333336
-400.0   60.0   50.0
-350.0   90.0   50.0
-350.0   60.0   50.0
-350.0   60.0   33.333333333333336
-400.0   60.0   50.0
-350.0   90.0   50.0
-350.0   60.0   33.333333333333336
-400.0   90.0   33.333333333333336
-400.0   90.0   0.0
-350.0   90.0   0.0
-400.0   120.0   0.0
-400.0   90.0   16.666666666666668
-350.0   90.0   0.0
-350.0   120.0   0.0
-400.0   120.0   0.0
-350.0   120.0   16.666666666666668
-400.0   90.0   16.666666666666668
-400.0   120.0   16.666666666666668
-350.0   120.0   16.666666666666668
-400.0   120.0   0.0
-400.0   90.0   16.666666666666668
-350.0   120.0   16.666666666666668
-350.0   90.0   16.666666666666668
-350.0   90.0   0.0
-400.0   90.0   16.666666666666668
-350.0   120.0   16.666666666666668
-350.0   90.0   0.0
-400.0   120.0   0.0
-400.0   90.0   16.666666666666668
-350.0   90.0   16.666666666666668
-400.0   120.0   16.666666666666668
-400.0   90.0   33.333333333333336
-350.0   90.0   16.666666666666668
-350.0   120.0   16.666666666666668
-400.0   120.0   16.666666666666668
-350.0   120.0   33.333333333333336
-400.0   90.0   33.333333333333336
-400.0   120.0   33.333333333333336
-350.0   120.0   33.333333333333336
-400.0   120.0   16.666666666666668
-400.0   90.0   33.333333333333336
-350.0   120.0   33.333333333333336
-350.0   90.0   33.333333333333336
-350.0   90.0   16.666666666666668
-400.0   90.0   33.333333333333336
-350.0   120.0   33.333333333333336
-350.0   90.0   16.666666666666668
-400.0   120.0   16.666666666666668
-400.0   90.0   33.333333333333336
-350.0   90.0   33.333333333333336
-400.0   120.0   33.333333333333336
-400.0   90.0   50.0
-350.0   90.0   33.333333333333336
-350.0   120.0   33.333333333333336
-400.0   120.0   33.333333333333336
-350.0   120.0   50.0
-400.0   90.0   50.0
-400.0   120.0   50.0
-350.0   120.0   50.0
-400.0   120.0   33.333333333333336
-400.0   90.0   50.0
-350.0   120.0   50.0
-350.0   90.0   50.0
-350.0   90.0   33.333333333333336
-400.0   90.0   50.0
-350.0   120.0   50.0
-350.0   90.0   33.333333333333336
-400.0   120.0   33.333333333333336
-400.0   120.0   0.0
-350.0   120.0   0.0
-400.0   150.0   0.0
-400.0   120.0   16.666666666666668
-350.0   120.0   0.0
-350.0   150.0   0.0
-400.0   150.0   0.0
-350.0   150.0   16.666666666666668
-400.0   120.0   16.666666666666668
-400.0   150.0   16.666666666666668
-350.0   150.0   16.666666666666668
-400.0   150.0   0.0
-400.0   120.0   16.666666666666668
-350.0   150.0   16.666666666666668
-350.0   120.0   16.666666666666668
-350.0   120.0   0.0
-400.0   120.0   16.666666666666668
-350.0   150.0   16.666666666666668
-350.0   120.0   0.0
-400.0   150.0   0.0
-400.0   120.0   16.666666666666668
-350.0   120.0   16.666666666666668
-400.0   150.0   16.666666666666668
-400.0   120.0   33.333333333333336
-350.0   120.0   16.666666666666668
-350.0   150.0   16.666666666666668
-400.0   150.0   16.666666666666668
-350.0   150.0   33.333333333333336
-400.0   120.0   33.333333333333336
-400.0   150.0   33.333333333333336
-350.0   150.0   33.333333333333336
-400.0   150.0   16.666666666666668
-400.0   120.0   33.333333333333336
-350.0   150.0   33.333333333333336
-350.0   120.0   33.333333333333336
-350.0   120.0   16.666666666666668
-400.0   120.0   33.333333333333336
-350.0   150.0   33.333333333333336
-350.0   120.0   16.666666666666668
-400.0   150.0   16.666666666666668
-400.0   120.0   33.333333333333336
-350.0   120.0   33.333333333333336
-400.0   150.0   33.333333333333336
-400.0   120.0   50.0
-350.0   120.0   33.333333333333336
-350.0   150.0   33.333333333333336
-400.0   150.0   33.333333333333336
-350.0   150.0   50.0
-400.0   120.0   50.0
-400.0   150.0   50.0
-350.0   150.0   50.0
-400.0   150.0   33.333333333333336
-400.0   120.0   50.0
-350.0   150.0   50.0
-350.0   120.0   50.0
-350.0   120.0   33.333333333333336
-400.0   120.0   50.0
-350.0   150.0   50.0
-350.0   120.0   33.333333333333336
-400.0   150.0   33.333333333333336
-350.0   0.0   0.0
-300.0   0.0   0.0
-350.0   30.0   0.0
-350.0   0.0   16.666666666666668
-300.0   0.0   0.0
-300.0   30.0   0.0
-350.0   30.0   0.0
-300.0   30.0   16.666666666666668
-350.0   0.0   16.666666666666668
-350.0   30.0   16.666666666666668
-300.0   30.0   16.666666666666668
-350.0   30.0   0.0
-350.0   0.0   16.666666666666668
-300.0   30.0   16.666666666666668
-300.0   0.0   16.666666666666668
-300.0   0.0   0.0
-350.0   0.0   16.666666666666668
-300.0   30.0   16.666666666666668
-300.0   0.0   0.0
-350.0   30.0   0.0
-350.0   0.0   16.666666666666668
-300.0   0.0   16.666666666666668
-350.0   30.0   16.666666666666668
-350.0   0.0   33.333333333333336
-300.0   0.0   16.666666666666668
-300.0   30.0   16.666666666666668
-350.0   30.0   16.666666666666668
-300.0   30.0   33.333333333333336
-350.0   0.0   33.333333333333336
-350.0   30.0   33.333333333333336
-300.0   30.0   33.333333333333336
-350.0   30.0   16.666666666666668
-350.0   0.0   33.333333333333336
-300.0   30.0   33.333333333333336
-300.0   0.0   33.333333333333336
-300.0   0.0   16.666666666666668
-350.0   0.0   33.333333333333336
-300.0   30.0   33.333333333333336
-300.0   0.0   16.666666666666668
-350.0   30.0   16.666666666666668
-350.0   0.0   33.333333333333336
-300.0   0.0   33.333333333333336
-350.0   30.0   33.333333333333336
-350.0   0.0   50.0
-300.0   0.0   33.333333333333336
-300.0   30.0   33.333333333333336
-350.0   30.0   33.333333333333336
-300.0   30.0   50.0
-350.0   0.0   50.0
-350.0   30.0   50.0
-300.0   30.0   50.0
-350.0   30.0   33.333333333333336
-350.0   0.0   50.0
-300.0   30.0   50.0
-300.0   0.0   50.0
-300.0   0.0   33.333333333333336
-350.0   0.0   50.0
-300.0   30.0   50.0
-300.0   0.0   33.333333333333336
-350.0   30.0   33.333333333333336
-350.0   30.0   0.0
-300.0   30.0   0.0
-350.0   60.0   0.0
-350.0   30.0   16.666666666666668
-300.0   30.0   0.0
-300.0   60.0   0.0
-350.0   60.0   0.0
-300.0   60.0   16.666666666666668
-350.0   30.0   16.666666666666668
-350.0   60.0   16.666666666666668
-300.0   60.0   16.666666666666668
-350.0   60.0   0.0
-350.0   30.0   16.666666666666668
-300.0   60.0   16.666666666666668
-300.0   30.0   16.666666666666668
-300.0   30.0   0.0
-350.0   30.0   16.666666666666668
-300.0   60.0   16.666666666666668
-300.0   30.0   0.0
-350.0   60.0   0.0
-350.0   30.0   16.666666666666668
-300.0   30.0   16.666666666666668
-350.0   60.0   16.666666666666668
-350.0   30.0   33.333333333333336
-300.0   30.0   16.666666666666668
-300.0   60.0   16.666666666666668
-350.0   60.0   16.666666666666668
-300.0   60.0   33.333333333333336
-350.0   30.0   33.333333333333336
-350.0   60.0   33.333333333333336
-300.0   60.0   33.333333333333336
-350.0   60.0   16.666666666666668
-350.0   30.0   33.333333333333336
-300.0   60.0   33.333333333333336
-300.0   30.0   33.333333333333336
-300.0   30.0   16.666666666666668
-350.0   30.0   33.333333333333336
-300.0   60.0   33.333333333333336
-300.0   30.0   16.666666666666668
-350.0   60.0   16.666666666666668
-350.0   30.0   33.333333333333336
-300.0   30.0   33.333333333333336
-350.0   60.0   33.333333333333336
-350.0   30.0   50.0
-300.0   30.0   33.333333333333336
-300.0   60.0   33.333333333333336
-350.0   60.0   33.333333333333336
-300.0   60.0   50.0
-350.0   30.0   50.0
-350.0   60.0   50.0
-300.0   60.0   50.0
-350.0   60.0   33.333333333333336
-350.0   30.0   50.0
-300.0   60.0   50.0
-300.0   30.0   50.0
-300.0   30.0   33.333333333333336
-350.0   30.0   50.0
-300.0   60.0   50.0
-300.0   30.0   33.333333333333336
-350.0   60.0   33.333333333333336
-350.0   60.0   0.0
-300.0   60.0   0.0
-350.0   90.0   0.0
-350.0   60.0   16.666666666666668
-300.0   60.0   0.0
-300.0   90.0   0.0
-350.0   90.0   0.0
-300.0   90.0   16.666666666666668
-350.0   60.0   16.666666666666668
-350.0   90.0   16.666666666666668
-300.0   90.0   16.666666666666668
-350.0   90.0   0.0
-350.0   60.0   16.666666666666668
-300.0   90.0   16.666666666666668
-300.0   60.0   16.666666666666668
-300.0   60.0   0.0
-350.0   60.0   16.666666666666668
-300.0   90.0   16.666666666666668
-300.0   60.0   0.0
-350.0   90.0   0.0
-350.0   60.0   16.666666666666668
-300.0   60.0   16.666666666666668
-350.0   90.0   16.666666666666668
-350.0   60.0   33.333333333333336
-300.0   60.0   16.666666666666668
-300.0   90.0   16.666666666666668
-350.0   90.0   16.666666666666668
-300.0   90.0   33.333333333333336
-350.0   60.0   33.333333333333336
-350.0   90.0   33.333333333333336
-300.0   90.0   33.333333333333336
-350.0   90.0   16.666666666666668
-350.0   60.0   33.333333333333336
-300.0   90.0   33.333333333333336
-300.0   60.0   33.333333333333336
-300.0   60.0   16.666666666666668
-350.0   60.0   33.333333333333336
-300.0   90.0   33.333333333333336
-300.0   60.0   16.666666666666668
-350.0   90.0   16.666666666666668
-350.0   60.0   33.333333333333336
-300.0   60.0   33.333333333333336
-350.0   90.0   33.333333333333336
-350.0   60.0   50.0
-300.0   60.0   33.333333333333336
-300.0   90.0   33.333333333333336
-350.0   90.0   33.333333333333336
-300.0   90.0   50.0
-350.0   60.0   50.0
-350.0   90.0   50.0
-300.0   90.0   50.0
-350.0   90.0   33.333333333333336
-350.0   60.0   50.0
-300.0   90.0   50.0
-300.0   60.0   50.0
-300.0   60.0   33.333333333333336
-350.0   60.0   50.0
-300.0   90.0   50.0
-300.0   60.0   33.333333333333336
-350.0   90.0   33.333333333333336
-350.0   90.0   0.0
-300.0   90.0   0.0
-350.0   120.0   0.0
-350.0   90.0   16.666666666666668
-300.0   90.0   0.0
-300.0   120.0   0.0
-350.0   120.0   0.0
-300.0   120.0   16.666666666666668
-350.0   90.0   16.666666666666668
-350.0   120.0   16.666666666666668
-300.0   120.0   16.666666666666668
-350.0   120.0   0.0
-350.0   90.0   16.666666666666668
-300.0   120.0   16.666666666666668
-300.0   90.0   16.666666666666668
-300.0   90.0   0.0
-350.0   90.0   16.666666666666668
-300.0   120.0   16.666666666666668
-300.0   90.0   0.0
-350.0   120.0   0.0
-350.0   90.0   16.666666666666668
-300.0   90.0   16.666666666666668
-350.0   120.0   16.666666666666668
-350.0   90.0   33.333333333333336
-300.0   90.0   16.666666666666668
-300.0   120.0   16.666666666666668
-350.0   120.0   16.666666666666668
-300.0   120.0   33.333333333333336
-350.0   90.0   33.333333333333336
-350.0   120.0   33.333333333333336
-300.0   120.0   33.333333333333336
-350.0   120.0   16.666666666666668
-350.0   90.0   33.333333333333336
-300.0   120.0   33.333333333333336
-300.0   90.0   33.333333333333336
-300.0   90.0   16.666666666666668
-350.0   90.0   33.333333333333336
-300.0   120.0   33.333333333333336
-300.0   90.0   16.666666666666668
-350.0   120.0   16.666666666666668
-350.0   90.0   33.333333333333336
-300.0   90.0   33.333333333333336
-350.0   120.0   33.333333333333336
-350.0   90.0   50.0
-300.0   90.0   33.333333333333336
-300.0   120.0   33.333333333333336
-350.0   120.0   33.333333333333336
-300.0   120.0   50.0
-350.0   90.0   50.0
-350.0   120.0   50.0
-300.0   120.0   50.0
-350.0   120.0   33.333333333333336
-350.0   90.0   50.0
-300.0   120.0   50.0
-300.0   90.0   50.0
-300.0   90.0   33.333333333333336
-350.0   90.0   50.0
-300.0   120.0   50.0
-300.0   90.0   33.333333333333336
-350.0   120.0   33.333333333333336
-350.0   120.0   0.0
-300.0   120.0   0.0
-350.0   150.0   0.0
-350.0   120.0   16.666666666666668
-300.0   120.0   0.0
-300.0   150.0   0.0
-350.0   150.0   0.0
-300.0   150.0   16.666666666666668
-350.0   120.0   16.666666666666668
-350.0   150.0   16.666666666666668
-300.0   150.0   16.666666666666668
-350.0   150.0   0.0
-350.0   120.0   16.666666666666668
-300.0   150.0   16.666666666666668
-300.0   120.0   16.666666666666668
-300.0   120.0   0.0
-350.0   120.0   16.666666666666668
-300.0   150.0   16.666666666666668
-300.0   120.0   0.0
-350.0   150.0   0.0
-350.0   120.0   16.666666666666668
-300.0   120.0   16.666666666666668
-350.0   150.0   16.666666666666668
-350.0   120.0   33.333333333333336
-300.0   120.0   16.666666666666668
-300.0   150.0   16.666666666666668
-350.0   150.0   16.666666666666668
-300.0   150.0   33.333333333333336
-350.0   120.0   33.333333333333336
-350.0   150.0   33.333333333333336
-300.0   150.0   33.333333333333336
-350.0   150.0   16.666666666666668
-350.0   120.0   33.333333333333336
-300.0   150.0   33.333333333333336
-300.0   120.0   33.333333333333336
-300.0   120.0   16.666666666666668
-350.0   120.0   33.333333333333336
-300.0   150.0   33.333333333333336
-300.0   120.0   16.666666666666668
-350.0   150.0   16.666666666666668
-350.0   120.0   33.333333333333336
-300.0   120.0   33.333333333333336
-350.0   150.0   33.333333333333336
-350.0   120.0   50.0
-300.0   120.0   33.333333333333336
-300.0   150.0   33.333333333333336
-350.0   150.0   33.333333333333336
-300.0   150.0   50.0
-350.0   120.0   50.0
-350.0   150.0   50.0
-300.0   150.0   50.0
-350.0   150.0   33.333333333333336
-350.0   120.0   50.0
-300.0   150.0   50.0
-300.0   120.0   50.0
-300.0   120.0   33.333333333333336
-350.0   120.0   50.0
-300.0   150.0   50.0
-300.0   120.0   33.333333333333336
-350.0   150.0   33.333333333333336
-300.0   0.0   0.0
-250.0   0.0   0.0
-300.0   30.0   0.0
-300.0   0.0   16.666666666666668
-250.0   0.0   0.0
-250.0   30.0   0.0
-300.0   30.0   0.0
-250.0   30.0   16.666666666666668
-300.0   0.0   16.666666666666668
-300.0   30.0   16.666666666666668
-250.0   30.0   16.666666666666668
-300.0   30.0   0.0
-300.0   0.0   16.666666666666668
-250.0   30.0   16.666666666666668
-250.0   0.0   16.666666666666668
-250.0   0.0   0.0
-300.0   0.0   16.666666666666668
-250.0   30.0   16.666666666666668
-250.0   0.0   0.0
-300.0   30.0   0.0
-300.0   0.0   16.666666666666668
-250.0   0.0   16.666666666666668
-300.0   30.0   16.666666666666668
-300.0   0.0   33.333333333333336
-250.0   0.0   16.666666666666668
-250.0   30.0   16.666666666666668
-300.0   30.0   16.666666666666668
-250.0   30.0   33.333333333333336
-300.0   0.0   33.333333333333336
-300.0   30.0   33.333333333333336
-250.0   30.0   33.333333333333336
-300.0   30.0   16.666666666666668
-300.0   0.0   33.333333333333336
-250.0   30.0   33.333333333333336
-250.0   0.0   33.333333333333336
-250.0   0.0   16.666666666666668
-300.0   0.0   33.333333333333336
-250.0   30.0   33.333333333333336
-250.0   0.0   16.666666666666668
-300.0   30.0   16.666666666666668
-300.0   0.0   33.333333333333336
-250.0   0.0   33.333333333333336
-300.0   30.0   33.333333333333336
-300.0   0.0   50.0
-250.0   0.0   33.333333333333336
-250.0   30.0   33.333333333333336
-300.0   30.0   33.333333333333336
-250.0   30.0   50.0
-300.0   0.0   50.0
-300.0   30.0   50.0
-250.0   30.0   50.0
-300.0   30.0   33.333333333333336
-300.0   0.0   50.0
-250.0   30.0   50.0
-250.0   0.0   50.0
-250.0   0.0   33.333333333333336
-300.0   0.0   50.0
-250.0   30.0   50.0
-250.0   0.0   33.333333333333336
-300.0   30.0   33.333333333333336
-300.0   30.0   0.0
-250.0   30.0   0.0
-300.0   60.0   0.0
-300.0   30.0   16.666666666666668
-250.0   30.0   0.0
-250.0   60.0   0.0
-300.0   60.0   0.0
-250.0   60.0   16.666666666666668
-300.0   30.0   16.666666666666668
-300.0   60.0   16.666666666666668
-250.0   60.0   16.666666666666668
-300.0   60.0   0.0
-300.0   30.0   16.666666666666668
-250.0   60.0   16.666666666666668
-250.0   30.0   16.666666666666668
-250.0   30.0   0.0
-300.0   30.0   16.666666666666668
-250.0   60.0   16.666666666666668
-250.0   30.0   0.0
-300.0   60.0   0.0
-300.0   30.0   16.666666666666668
-250.0   30.0   16.666666666666668
-300.0   60.0   16.666666666666668
-300.0   30.0   33.333333333333336
-250.0   30.0   16.666666666666668
-250.0   60.0   16.666666666666668
-300.0   60.0   16.666666666666668
-250.0   60.0   33.333333333333336
-300.0   30.0   33.333333333333336
-300.0   60.0   33.333333333333336
-250.0   60.0   33.333333333333336
-300.0   60.0   16.666666666666668
-300.0   30.0   33.333333333333336
-250.0   60.0   33.333333333333336
-250.0   30.0   33.333333333333336
-250.0   30.0   16.666666666666668
-300.0   30.0   33.333333333333336
-250.0   60.0   33.333333333333336
-250.0   30.0   16.666666666666668
-300.0   60.0   16.666666666666668
-300.0   30.0   33.333333333333336
-250.0   30.0   33.333333333333336
-300.0   60.0   33.333333333333336
-300.0   30.0   50.0
-250.0   30.0   33.333333333333336
-250.0   60.0   33.333333333333336
-300.0   60.0   33.333333333333336
-250.0   60.0   50.0
-300.0   30.0   50.0
-300.0   60.0   50.0
-250.0   60.0   50.0
-300.0   60.0   33.333333333333336
-300.0   30.0   50.0
-250.0   60.0   50.0
-250.0   30.0   50.0
-250.0   30.0   33.333333333333336
-300.0   30.0   50.0
-250.0   60.0   50.0
-250.0   30.0   33.333333333333336
-300.0   60.0   33.333333333333336
-300.0   60.0   0.0
-250.0   60.0   0.0
-300.0   90.0   0.0
-300.0   60.0   16.666666666666668
-250.0   60.0   0.0
-250.0   90.0   0.0
-300.0   90.0   0.0
-250.0   90.0   16.666666666666668
-300.0   60.0   16.666666666666668
-300.0   90.0   16.666666666666668
-250.0   90.0   16.666666666666668
-300.0   90.0   0.0
-300.0   60.0   16.666666666666668
-250.0   90.0   16.666666666666668
-250.0   60.0   16.666666666666668
-250.0   60.0   0.0
-300.0   60.0   16.666666666666668
-250.0   90.0   16.666666666666668
-250.0   60.0   0.0
-300.0   90.0   0.0
-300.0   60.0   16.666666666666668
-250.0   60.0   16.666666666666668
-300.0   90.0   16.666666666666668
-300.0   60.0   33.333333333333336
-250.0   60.0   16.666666666666668
-250.0   90.0   16.666666666666668
-300.0   90.0   16.666666666666668
-250.0   90.0   33.333333333333336
-300.0   60.0   33.333333333333336
-300.0   90.0   33.333333333333336
-250.0   90.0   33.333333333333336
-300.0   90.0   16.666666666666668
-300.0   60.0   33.333333333333336
-250.0   90.0   33.333333333333336
-250.0   60.0   33.333333333333336
-250.0   60.0   16.666666666666668
-300.0   60.0   33.333333333333336
-250.0   90.0   33.333333333333336
-250.0   60.0   16.666666666666668
-300.0   90.0   16.666666666666668
-300.0   60.0   33.333333333333336
-250.0   60.0   33.333333333333336
-300.0   90.0   33.333333333333336
-300.0   60.0   50.0
-250.0   60.0   33.333333333333336
-250.0   90.0   33.333333333333336
-300.0   90.0   33.333333333333336
-250.0   90.0   50.0
-300.0   60.0   50.0
-300.0   90.0   50.0
-250.0   90.0   50.0
-300.0   90.0   33.333333333333336
-300.0   60.0   50.0
-250.0   90.0   50.0
-250.0   60.0   50.0
-250.0   60.0   33.333333333333336
-300.0   60.0   50.0
-250.0   90.0   50.0
-250.0   60.0   33.333333333333336
-300.0   90.0   33.333333333333336
-300.0   90.0   0.0
-250.0   90.0   0.0
-300.0   120.0   0.0
-300.0   90.0   16.666666666666668
-250.0   90.0   0.0
-250.0   120.0   0.0
-300.0   120.0   0.0
-250.0   120.0   16.666666666666668
-300.0   90.0   16.666666666666668
-300.0   120.0   16.666666666666668
-250.0   120.0   16.666666666666668
-300.0   120.0   0.0
-300.0   90.0   16.666666666666668
-250.0   120.0   16.666666666666668
-250.0   90.0   16.666666666666668
-250.0   90.0   0.0
-300.0   90.0   16.666666666666668
-250.0   120.0   16.666666666666668
-250.0   90.0   0.0
-300.0   120.0   0.0
-300.0   90.0   16.666666666666668
-250.0   90.0   16.666666666666668
-300.0   120.0   16.666666666666668
-300.0   90.0   33.333333333333336
-250.0   90.0   16.666666666666668
-250.0   120.0   16.666666666666668
-300.0   120.0   16.666666666666668
-250.0   120.0   33.333333333333336
-300.0   90.0   33.333333333333336
-300.0   120.0   33.333333333333336
-250.0   120.0   33.333333333333336
-300.0   120.0   16.666666666666668
-300.0   90.0   33.333333333333336
-250.0   120.0   33.333333333333336
-250.0   90.0   33.333333333333336
-250.0   90.0   16.666666666666668
-300.0   90.0   33.333333333333336
-250.0   120.0   33.333333333333336
-250.0   90.0   16.666666666666668
-300.0   120.0   16.666666666666668
-300.0   90.0   33.333333333333336
-250.0   90.0   33.333333333333336
-300.0   120.0   33.333333333333336
-300.0   90.0   50.0
-250.0   90.0   33.333333333333336
-250.0   120.0   33.333333333333336
-300.0   120.0   33.333333333333336
-250.0   120.0   50.0
-300.0   90.0   50.0
-300.0   120.0   50.0
-250.0   120.0   50.0
-300.0   120.0   33.333333333333336
-300.0   90.0   50.0
-250.0   120.0   50.0
-250.0   90.0   50.0
-250.0   90.0   33.333333333333336
-300.0   90.0   50.0
-250.0   120.0   50.0
-250.0   90.0   33.333333333333336
-300.0   120.0   33.333333333333336
-300.0   120.0   0.0
-250.0   120.0   0.0
-300.0   150.0   0.0
-300.0   120.0   16.666666666666668
-250.0   120.0   0.0
-250.0   150.0   0.0
-300.0   150.0   0.0
-250.0   150.0   16.666666666666668
-300.0   120.0   16.666666666666668
-300.0   150.0   16.666666666666668
-250.0   150.0   16.666666666666668
-300.0   150.0   0.0
-300.0   120.0   16.666666666666668
-250.0   150.0   16.666666666666668
-250.0   120.0   16.666666666666668
-250.0   120.0   0.0
-300.0   120.0   16.666666666666668
-250.0   150.0   16.666666666666668
-250.0   120.0   0.0
-300.0   150.0   0.0
-300.0   120.0   16.666666666666668
-250.0   120.0   16.666666666666668
-300.0   150.0   16.666666666666668
-300.0   120.0   33.333333333333336
-250.0   120.0   16.666666666666668
-250.0   150.0   16.666666666666668
-300.0   150.0   16.666666666666668
-250.0   150.0   33.333333333333336
-300.0   120.0   33.333333333333336
-300.0   150.0   33.333333333333336
-250.0   150.0   33.333333333333336
-300.0   150.0   16.666666666666668
-300.0   120.0   33.333333333333336
-250.0   150.0   33.333333333333336
-250.0   120.0   33.333333333333336
-250.0   120.0   16.666666666666668
-300.0   120.0   33.333333333333336
-250.0   150.0   33.333333333333336
-250.0   120.0   16.666666666666668
-300.0   150.0   16.666666666666668
-300.0   120.0   33.333333333333336
-250.0   120.0   33.333333333333336
-300.0   150.0   33.333333333333336
-300.0   120.0   50.0
-250.0   120.0   33.333333333333336
-250.0   150.0   33.333333333333336
-300.0   150.0   33.333333333333336
-250.0   150.0   50.0
-300.0   120.0   50.0
-300.0   150.0   50.0
-250.0   150.0   50.0
-300.0   150.0   33.333333333333336
-300.0   120.0   50.0
-250.0   150.0   50.0
-250.0   120.0   50.0
-250.0   120.0   33.333333333333336
-300.0   120.0   50.0
-250.0   150.0   50.0
-250.0   120.0   33.333333333333336
-300.0   150.0   33.333333333333336
-250.0   0.0   0.0
-200.0   0.0   0.0
-250.0   30.0   0.0
-250.0   0.0   16.666666666666668
-200.0   0.0   0.0
-200.0   30.0   0.0
-250.0   30.0   0.0
-200.0   30.0   16.666666666666668
-250.0   0.0   16.666666666666668
-250.0   30.0   16.666666666666668
-200.0   30.0   16.666666666666668
-250.0   30.0   0.0
-250.0   0.0   16.666666666666668
-200.0   30.0   16.666666666666668
-200.0   0.0   16.666666666666668
-200.0   0.0   0.0
-250.0   0.0   16.666666666666668
-200.0   30.0   16.666666666666668
-200.0   0.0   0.0
-250.0   30.0   0.0
-250.0   0.0   16.666666666666668
-200.0   0.0   16.666666666666668
-250.0   30.0   16.666666666666668
-250.0   0.0   33.333333333333336
-200.0   0.0   16.666666666666668
-200.0   30.0   16.666666666666668
-250.0   30.0   16.666666666666668
-200.0   30.0   33.333333333333336
-250.0   0.0   33.333333333333336
-250.0   30.0   33.333333333333336
-200.0   30.0   33.333333333333336
-250.0   30.0   16.666666666666668
-250.0   0.0   33.333333333333336
-200.0   30.0   33.333333333333336
-200.0   0.0   33.333333333333336
-200.0   0.0   16.666666666666668
-250.0   0.0   33.333333333333336
-200.0   30.0   33.333333333333336
-200.0   0.0   16.666666666666668
-250.0   30.0   16.666666666666668
-250.0   0.0   33.333333333333336
-200.0   0.0   33.333333333333336
-250.0   30.0   33.333333333333336
-250.0   0.0   50.0
-200.0   0.0   33.333333333333336
-200.0   30.0   33.333333333333336
-250.0   30.0   33.333333333333336
-200.0   30.0   50.0
-250.0   0.0   50.0
-250.0   30.0   50.0
-200.0   30.0   50.0
-250.0   30.0   33.333333333333336
-250.0   0.0   50.0
-200.0   30.0   50.0
-200.0   0.0   50.0
-200.0   0.0   33.333333333333336
-250.0   0.0   50.0
-200.0   30.0   50.0
-200.0   0.0   33.333333333333336
-250.0   30.0   33.333333333333336
-250.0   30.0   0.0
-200.0   30.0   0.0
-250.0   60.0   0.0
-250.0   30.0   16.666666666666668
-200.0   30.0   0.0
-200.0   60.0   0.0
-250.0   60.0   0.0
-200.0   60.0   16.666666666666668
-250.0   30.0   16.666666666666668
-250.0   60.0   16.666666666666668
-200.0   60.0   16.666666666666668
-250.0   60.0   0.0
-250.0   30.0   16.666666666666668
-200.0   60.0   16.666666666666668
-200.0   30.0   16.666666666666668
-200.0   30.0   0.0
-250.0   30.0   16.666666666666668
-200.0   60.0   16.666666666666668
-200.0   30.0   0.0
-250.0   60.0   0.0
-250.0   30.0   16.666666666666668
-200.0   30.0   16.666666666666668
-250.0   60.0   16.666666666666668
-250.0   30.0   33.333333333333336
-200.0   30.0   16.666666666666668
-200.0   60.0   16.666666666666668
-250.0   60.0   16.666666666666668
-200.0   60.0   33.333333333333336
-250.0   30.0   33.333333333333336
-250.0   60.0   33.333333333333336
-200.0   60.0   33.333333333333336
-250.0   60.0   16.666666666666668
-250.0   30.0   33.333333333333336
-200.0   60.0   33.333333333333336
-200.0   30.0   33.333333333333336
-200.0   30.0   16.666666666666668
-250.0   30.0   33.333333333333336
-200.0   60.0   33.333333333333336
-200.0   30.0   16.666666666666668
-250.0   60.0   16.666666666666668
-250.0   30.0   33.333333333333336
-200.0   30.0   33.333333333333336
-250.0   60.0   33.333333333333336
-250.0   30.0   50.0
-200.0   30.0   33.333333333333336
-200.0   60.0   33.333333333333336
-250.0   60.0   33.333333333333336
-200.0   60.0   50.0
-250.0   30.0   50.0
-250.0   60.0   50.0
-200.0   60.0   50.0
-250.0   60.0   33.333333333333336
-250.0   30.0   50.0
-200.0   60.0   50.0
-200.0   30.0   50.0
-200.0   30.0   33.333333333333336
-250.0   30.0   50.0
-200.0   60.0   50.0
-200.0   30.0   33.333333333333336
-250.0   60.0   33.333333333333336
-250.0   60.0   0.0
-200.0   60.0   0.0
-250.0   90.0   0.0
-250.0   60.0   16.666666666666668
-200.0   60.0   0.0
-200.0   90.0   0.0
-250.0   90.0   0.0
-200.0   90.0   16.666666666666668
-250.0   60.0   16.666666666666668
-250.0   90.0   16.666666666666668
-200.0   90.0   16.666666666666668
-250.0   90.0   0.0
-250.0   60.0   16.666666666666668
-200.0   90.0   16.666666666666668
-200.0   60.0   16.666666666666668
-200.0   60.0   0.0
-250.0   60.0   16.666666666666668
-200.0   90.0   16.666666666666668
-200.0   60.0   0.0
-250.0   90.0   0.0
-250.0   60.0   16.666666666666668
-200.0   60.0   16.666666666666668
-250.0   90.0   16.666666666666668
-250.0   60.0   33.333333333333336
-200.0   60.0   16.666666666666668
-200.0   90.0   16.666666666666668
-250.0   90.0   16.666666666666668
-200.0   90.0   33.333333333333336
-250.0   60.0   33.333333333333336
-250.0   90.0   33.333333333333336
-200.0   90.0   33.333333333333336
-250.0   90.0   16.666666666666668
-250.0   60.0   33.333333333333336
-200.0   90.0   33.333333333333336
-200.0   60.0   33.333333333333336
-200.0   60.0   16.666666666666668
-250.0   60.0   33.333333333333336
-200.0   90.0   33.333333333333336
-200.0   60.0   16.666666666666668
-250.0   90.0   16.666666666666668
-250.0   60.0   33.333333333333336
-200.0   60.0   33.333333333333336
-250.0   90.0   33.333333333333336
-250.0   60.0   50.0
-200.0   60.0   33.333333333333336
-200.0   90.0   33.333333333333336
-250.0   90.0   33.333333333333336
-200.0   90.0   50.0
-250.0   60.0   50.0
-250.0   90.0   50.0
-200.0   90.0   50.0
-250.0   90.0   33.333333333333336
-250.0   60.0   50.0
-200.0   90.0   50.0
-200.0   60.0   50.0
-200.0   60.0   33.333333333333336
-250.0   60.0   50.0
-200.0   90.0   50.0
-200.0   60.0   33.333333333333336
-250.0   90.0   33.333333333333336
-250.0   90.0   0.0
-200.0   90.0   0.0
-250.0   120.0   0.0
-250.0   90.0   16.666666666666668
-200.0   90.0   0.0
-200.0   120.0   0.0
-250.0   120.0   0.0
-200.0   120.0   16.666666666666668
-250.0   90.0   16.666666666666668
-250.0   120.0   16.666666666666668
-200.0   120.0   16.666666666666668
-250.0   120.0   0.0
-250.0   90.0   16.666666666666668
-200.0   120.0   16.666666666666668
-200.0   90.0   16.666666666666668
-200.0   90.0   0.0
-250.0   90.0   16.666666666666668
-200.0   120.0   16.666666666666668
-200.0   90.0   0.0
-250.0   120.0   0.0
-250.0   90.0   16.666666666666668
-200.0   90.0   16.666666666666668
-250.0   120.0   16.666666666666668
-250.0   90.0   33.333333333333336
-200.0   90.0   16.666666666666668
-200.0   120.0   16.666666666666668
-250.0   120.0   16.666666666666668
-200.0   120.0   33.333333333333336
-250.0   90.0   33.333333333333336
-250.0   120.0   33.333333333333336
-200.0   120.0   33.333333333333336
-250.0   120.0   16.666666666666668
-250.0   90.0   33.333333333333336
-200.0   120.0   33.333333333333336
-200.0   90.0   33.333333333333336
-200.0   90.0   16.666666666666668
-250.0   90.0   33.333333333333336
-200.0   120.0   33.333333333333336
-200.0   90.0   16.666666666666668
-250.0   120.0   16.666666666666668
-250.0   90.0   33.333333333333336
-200.0   90.0   33.333333333333336
-250.0   120.0   33.333333333333336
-250.0   90.0   50.0
-200.0   90.0   33.333333333333336
-200.0   120.0   33.333333333333336
-250.0   120.0   33.333333333333336
-200.0   120.0   50.0
-250.0   90.0   50.0
-250.0   120.0   50.0
-200.0   120.0   50.0
-250.0   120.0   33.333333333333336
-250.0   90.0   50.0
-200.0   120.0   50.0
-200.0   90.0   50.0
-200.0   90.0   33.333333333333336
-250.0   90.0   50.0
-200.0   120.0   50.0
-200.0   90.0   33.333333333333336
-250.0   120.0   33.333333333333336
-250.0   120.0   0.0
-200.0   120.0   0.0
-250.0   150.0   0.0
-250.0   120.0   16.666666666666668
-200.0   120.0   0.0
-200.0   150.0   0.0
-250.0   150.0   0.0
-200.0   150.0   16.666666666666668
-250.0   120.0   16.666666666666668
-250.0   150.0   16.666666666666668
-200.0   150.0   16.666666666666668
-250.0   150.0   0.0
-250.0   120.0   16.666666666666668
-200.0   150.0   16.666666666666668
-200.0   120.0   16.666666666666668
-200.0   120.0   0.0
-250.0   120.0   16.666666666666668
-200.0   150.0   16.666666666666668
-200.0   120.0   0.0
-250.0   150.0   0.0
-250.0   120.0   16.666666666666668
-200.0   120.0   16.666666666666668
-250.0   150.0   16.666666666666668
-250.0   120.0   33.333333333333336
-200.0   120.0   16.666666666666668
-200.0   150.0   16.666666666666668
-250.0   150.0   16.666666666666668
-200.0   150.0   33.333333333333336
-250.0   120.0   33.333333333333336
-250.0   150.0   33.333333333333336
-200.0   150.0   33.333333333333336
-250.0   150.0   16.666666666666668
-250.0   120.0   33.333333333333336
-200.0   150.0   33.333333333333336
-200.0   120.0   33.333333333333336
-200.0   120.0   16.666666666666668
-250.0   120.0   33.333333333333336
-200.0   150.0   33.333333333333336
-200.0   120.0   16.666666666666668
-250.0   150.0   16.666666666666668
-250.0   120.0   33.333333333333336
-200.0   120.0   33.333333333333336
-250.0   150.0   33.333333333333336
-250.0   120.0   50.0
-200.0   120.0   33.333333333333336
-200.0   150.0   33.333333333333336
-250.0   150.0   33.333333333333336
-200.0   150.0   50.0
-250.0   120.0   50.0
-250.0   150.0   50.0
-200.0   150.0   50.0
-250.0   150.0   33.333333333333336
-250.0   120.0   50.0
-200.0   150.0   50.0
-200.0   120.0   50.0
-200.0   120.0   33.333333333333336
-250.0   120.0   50.0
-200.0   150.0   50.0
-200.0   120.0   33.333333333333336
-250.0   150.0   33.333333333333336
-200.0   0.0   0.0
-150.0   0.0   0.0
-200.0   30.0   0.0
-200.0   0.0   16.666666666666668
-150.0   0.0   0.0
-150.0   30.0   0.0
-200.0   30.0   0.0
-150.0   30.0   16.666666666666668
-200.0   0.0   16.666666666666668
-200.0   30.0   16.666666666666668
-150.0   30.0   16.666666666666668
-200.0   30.0   0.0
-200.0   0.0   16.666666666666668
-150.0   30.0   16.666666666666668
-150.0   0.0   16.666666666666668
-150.0   0.0   0.0
-200.0   0.0   16.666666666666668
-150.0   30.0   16.666666666666668
-150.0   0.0   0.0
-200.0   30.0   0.0
-200.0   0.0   16.666666666666668
-150.0   0.0   16.666666666666668
-200.0   30.0   16.666666666666668
-200.0   0.0   33.333333333333336
-150.0   0.0   16.666666666666668
-150.0   30.0   16.666666666666668
-200.0   30.0   16.666666666666668
-150.0   30.0   33.333333333333336
-200.0   0.0   33.333333333333336
-200.0   30.0   33.333333333333336
-150.0   30.0   33.333333333333336
-200.0   30.0   16.666666666666668
-200.0   0.0   33.333333333333336
-150.0   30.0   33.333333333333336
-150.0   0.0   33.333333333333336
-150.0   0.0   16.666666666666668
-200.0   0.0   33.333333333333336
-150.0   30.0   33.333333333333336
-150.0   0.0   16.666666666666668
-200.0   30.0   16.666666666666668
-200.0   0.0   33.333333333333336
-150.0   0.0   33.333333333333336
-200.0   30.0   33.333333333333336
-200.0   0.0   50.0
-150.0   0.0   33.333333333333336
-150.0   30.0   33.333333333333336
-200.0   30.0   33.333333333333336
-150.0   30.0   50.0
-200.0   0.0   50.0
-200.0   30.0   50.0
-150.0   30.0   50.0
-200.0   30.0   33.333333333333336
-200.0   0.0   50.0
-150.0   30.0   50.0
-150.0   0.0   50.0
-150.0   0.0   33.333333333333336
-200.0   0.0   50.0
-150.0   30.0   50.0
-150.0   0.0   33.333333333333336
-200.0   30.0   33.333333333333336
-200.0   30.0   0.0
-150.0   30.0   0.0
-200.0   60.0   0.0
-200.0   30.0   16.666666666666668
-150.0   30.0   0.0
-150.0   60.0   0.0
-200.0   60.0   0.0
-150.0   60.0   16.666666666666668
-200.0   30.0   16.666666666666668
-200.0   60.0   16.666666666666668
-150.0   60.0   16.666666666666668
-200.0   60.0   0.0
-200.0   30.0   16.666666666666668
-150.0   60.0   16.666666666666668
-150.0   30.0   16.666666666666668
-150.0   30.0   0.0
-200.0   30.0   16.666666666666668
-150.0   60.0   16.666666666666668
-150.0   30.0   0.0
-200.0   60.0   0.0
-200.0   30.0   16.666666666666668
-150.0   30.0   16.666666666666668
-200.0   60.0   16.666666666666668
-200.0   30.0   33.333333333333336
-150.0   30.0   16.666666666666668
-150.0   60.0   16.666666666666668
-200.0   60.0   16.666666666666668
-150.0   60.0   33.333333333333336
-200.0   30.0   33.333333333333336
-200.0   60.0   33.333333333333336
-150.0   60.0   33.333333333333336
-200.0   60.0   16.666666666666668
-200.0   30.0   33.333333333333336
-150.0   60.0   33.333333333333336
-150.0   30.0   33.333333333333336
-150.0   30.0   16.666666666666668
-200.0   30.0   33.333333333333336
-150.0   60.0   33.333333333333336
-150.0   30.0   16.666666666666668
-200.0   60.0   16.666666666666668
-200.0   30.0   33.333333333333336
-150.0   30.0   33.333333333333336
-200.0   60.0   33.333333333333336
-200.0   30.0   50.0
-150.0   30.0   33.333333333333336
-150.0   60.0   33.333333333333336
-200.0   60.0   33.333333333333336
-150.0   60.0   50.0
-200.0   30.0   50.0
-200.0   60.0   50.0
-150.0   60.0   50.0
-200.0   60.0   33.333333333333336
-200.0   30.0   50.0
-150.0   60.0   50.0
-150.0   30.0   50.0
-150.0   30.0   33.333333333333336
-200.0   30.0   50.0
-150.0   60.0   50.0
-150.0   30.0   33.333333333333336
-200.0   60.0   33.333333333333336
-200.0   60.0   0.0
-150.0   60.0   0.0
-200.0   90.0   0.0
-200.0   60.0   16.666666666666668
-150.0   60.0   0.0
-150.0   90.0   0.0
-200.0   90.0   0.0
-150.0   90.0   16.666666666666668
-200.0   60.0   16.666666666666668
-200.0   90.0   16.666666666666668
-150.0   90.0   16.666666666666668
-200.0   90.0   0.0
-200.0   60.0   16.666666666666668
-150.0   90.0   16.666666666666668
-150.0   60.0   16.666666666666668
-150.0   60.0   0.0
-200.0   60.0   16.666666666666668
-150.0   90.0   16.666666666666668
-150.0   60.0   0.0
-200.0   90.0   0.0
-200.0   60.0   16.666666666666668
-150.0   60.0   16.666666666666668
-200.0   90.0   16.666666666666668
-200.0   60.0   33.333333333333336
-150.0   60.0   16.666666666666668
-150.0   90.0   16.666666666666668
-200.0   90.0   16.666666666666668
-150.0   90.0   33.333333333333336
-200.0   60.0   33.333333333333336
-200.0   90.0   33.333333333333336
-150.0   90.0   33.333333333333336
-200.0   90.0   16.666666666666668
-200.0   60.0   33.333333333333336
-150.0   90.0   33.333333333333336
-150.0   60.0   33.333333333333336
-150.0   60.0   16.666666666666668
-200.0   60.0   33.333333333333336
-150.0   90.0   33.333333333333336
-150.0   60.0   16.666666666666668
-200.0   90.0   16.666666666666668
-200.0   60.0   33.333333333333336
-150.0   60.0   33.333333333333336
-200.0   90.0   33.333333333333336
-200.0   60.0   50.0
-150.0   60.0   33.333333333333336
-150.0   90.0   33.333333333333336
-200.0   90.0   33.333333333333336
-150.0   90.0   50.0
-200.0   60.0   50.0
-200.0   90.0   50.0
-150.0   90.0   50.0
-200.0   90.0   33.333333333333336
-200.0   60.0   50.0
-150.0   90.0   50.0
-150.0   60.0   50.0
-150.0   60.0   33.333333333333336
-200.0   60.0   50.0
-150.0   90.0   50.0
-150.0   60.0   33.333333333333336
-200.0   90.0   33.333333333333336
-200.0   90.0   0.0
-150.0   90.0   0.0
-200.0   120.0   0.0
-200.0   90.0   16.666666666666668
-150.0   90.0   0.0
-150.0   120.0   0.0
-200.0   120.0   0.0
-150.0   120.0   16.666666666666668
-200.0   90.0   16.666666666666668
-200.0   120.0   16.666666666666668
-150.0   120.0   16.666666666666668
-200.0   120.0   0.0
-200.0   90.0   16.666666666666668
-150.0   120.0   16.666666666666668
-150.0   90.0   16.666666666666668
-150.0   90.0   0.0
-200.0   90.0   16.666666666666668
-150.0   120.0   16.666666666666668
-150.0   90.0   0.0
-200.0   120.0   0.0
-200.0   90.0   16.666666666666668
-150.0   90.0   16.666666666666668
-200.0   120.0   16.666666666666668
-200.0   90.0   33.333333333333336
-150.0   90.0   16.666666666666668
-150.0   120.0   16.666666666666668
-200.0   120.0   16.666666666666668
-150.0   120.0   33.333333333333336
-200.0   90.0   33.333333333333336
-200.0   120.0   33.333333333333336
-150.0   120.0   33.333333333333336
-200.0   120.0   16.666666666666668
-200.0   90.0   33.333333333333336
-150.0   120.0   33.333333333333336
-150.0   90.0   33.333333333333336
-150.0   90.0   16.666666666666668
-200.0   90.0   33.333333333333336
-150.0   120.0   33.333333333333336
-150.0   90.0   16.666666666666668
-200.0   120.0   16.666666666666668
-200.0   90.0   33.333333333333336
-150.0   90.0   33.333333333333336
-200.0   120.0   33.333333333333336
-200.0   90.0   50.0
-150.0   90.0   33.333333333333336
-150.0   120.0   33.333333333333336
-200.0   120.0   33.333333333333336
-150.0   120.0   50.0
-200.0   90.0   50.0
-200.0   120.0   50.0
-150.0   120.0   50.0
-200.0   120.0   33.333333333333336
-200.0   90.0   50.0
-150.0   120.0   50.0
-150.0   90.0   50.0
-150.0   90.0   33.333333333333336
-200.0   90.0   50.0
-150.0   120.0   50.0
-150.0   90.0   33.333333333333336
-200.0   120.0   33.333333333333336
-200.0   120.0   0.0
-150.0   120.0   0.0
-200.0   150.0   0.0
-200.0   120.0   16.666666666666668
-150.0   120.0   0.0
-150.0   150.0   0.0
-200.0   150.0   0.0
-150.0   150.0   16.666666666666668
-200.0   120.0   16.666666666666668
-200.0   150.0   16.666666666666668
-150.0   150.0   16.666666666666668
-200.0   150.0   0.0
-200.0   120.0   16.666666666666668
-150.0   150.0   16.666666666666668
-150.0   120.0   16.666666666666668
-150.0   120.0   0.0
-200.0   120.0   16.666666666666668
-150.0   150.0   16.666666666666668
-150.0   120.0   0.0
-200.0   150.0   0.0
-200.0   120.0   16.666666666666668
-150.0   120.0   16.666666666666668
-200.0   150.0   16.666666666666668
-200.0   120.0   33.333333333333336
-150.0   120.0   16.666666666666668
-150.0   150.0   16.666666666666668
-200.0   150.0   16.666666666666668
-150.0   150.0   33.333333333333336
-200.0   120.0   33.333333333333336
-200.0   150.0   33.333333333333336
-150.0   150.0   33.333333333333336
-200.0   150.0   16.666666666666668
-200.0   120.0   33.333333333333336
-150.0   150.0   33.333333333333336
-150.0   120.0   33.333333333333336
-150.0   120.0   16.666666666666668
-200.0   120.0   33.333333333333336
-150.0   150.0   33.333333333333336
-150.0   120.0   16.666666666666668
-200.0   150.0   16.666666666666668
-200.0   120.0   33.333333333333336
-150.0   120.0   33.333333333333336
-200.0   150.0   33.333333333333336
-200.0   120.0   50.0
-150.0   120.0   33.333333333333336
-150.0   150.0   33.333333333333336
-200.0   150.0   33.333333333333336
-150.0   150.0   50.0
-200.0   120.0   50.0
-200.0   150.0   50.0
-150.0   150.0   50.0
-200.0   150.0   33.333333333333336
-200.0   120.0   50.0
-150.0   150.0   50.0
-150.0   120.0   50.0
-150.0   120.0   33.333333333333336
-200.0   120.0   50.0
-150.0   150.0   50.0
-150.0   120.0   33.333333333333336
-200.0   150.0   33.333333333333336
-150.0   0.0   0.0
-100.0   0.0   0.0
-150.0   30.0   0.0
-150.0   0.0   16.666666666666668
-100.0   0.0   0.0
-100.0   30.0   0.0
-150.0   30.0   0.0
-100.0   30.0   16.666666666666668
-150.0   0.0   16.666666666666668
-150.0   30.0   16.666666666666668
-100.0   30.0   16.666666666666668
-150.0   30.0   0.0
-150.0   0.0   16.666666666666668
-100.0   30.0   16.666666666666668
-100.0   0.0   16.666666666666668
-100.0   0.0   0.0
-150.0   0.0   16.666666666666668
-100.0   30.0   16.666666666666668
-100.0   0.0   0.0
-150.0   30.0   0.0
-150.0   0.0   16.666666666666668
-100.0   0.0   16.666666666666668
-150.0   30.0   16.666666666666668
-150.0   0.0   33.333333333333336
-100.0   0.0   16.666666666666668
-100.0   30.0   16.666666666666668
-150.0   30.0   16.666666666666668
-100.0   30.0   33.333333333333336
-150.0   0.0   33.333333333333336
-150.0   30.0   33.333333333333336
-100.0   30.0   33.333333333333336
-150.0   30.0   16.666666666666668
-150.0   0.0   33.333333333333336
-100.0   30.0   33.333333333333336
-100.0   0.0   33.333333333333336
-100.0   0.0   16.666666666666668
-150.0   0.0   33.333333333333336
-100.0   30.0   33.333333333333336
-100.0   0.0   16.666666666666668
-150.0   30.0   16.666666666666668
-150.0   0.0   33.333333333333336
-100.0   0.0   33.333333333333336
-150.0   30.0   33.333333333333336
-150.0   0.0   50.0
-100.0   0.0   33.333333333333336
-100.0   30.0   33.333333333333336
-150.0   30.0   33.333333333333336
-100.0   30.0   50.0
-150.0   0.0   50.0
-150.0   30.0   50.0
-100.0   30.0   50.0
-150.0   30.0   33.333333333333336
-150.0   0.0   50.0
-100.0   30.0   50.0
-100.0   0.0   50.0
-100.0   0.0   33.333333333333336
-150.0   0.0   50.0
-100.0   30.0   50.0
-100.0   0.0   33.333333333333336
-150.0   30.0   33.333333333333336
-150.0   30.0   0.0
-100.0   30.0   0.0
-150.0   60.0   0.0
-150.0   30.0   16.666666666666668
-100.0   30.0   0.0
-100.0   60.0   0.0
-150.0   60.0   0.0
-100.0   60.0   16.666666666666668
-150.0   30.0   16.666666666666668
-150.0   60.0   16.666666666666668
-100.0   60.0   16.666666666666668
-150.0   60.0   0.0
-150.0   30.0   16.666666666666668
-100.0   60.0   16.666666666666668
-100.0   30.0   16.666666666666668
-100.0   30.0   0.0
-150.0   30.0   16.666666666666668
-100.0   60.0   16.666666666666668
-100.0   30.0   0.0
-150.0   60.0   0.0
-150.0   30.0   16.666666666666668
-100.0   30.0   16.666666666666668
-150.0   60.0   16.666666666666668
-150.0   30.0   33.333333333333336
-100.0   30.0   16.666666666666668
-100.0   60.0   16.666666666666668
-150.0   60.0   16.666666666666668
-100.0   60.0   33.333333333333336
-150.0   30.0   33.333333333333336
-150.0   60.0   33.333333333333336
-100.0   60.0   33.333333333333336
-150.0   60.0   16.666666666666668
-150.0   30.0   33.333333333333336
-100.0   60.0   33.333333333333336
-100.0   30.0   33.333333333333336
-100.0   30.0   16.666666666666668
-150.0   30.0   33.333333333333336
-100.0   60.0   33.333333333333336
-100.0   30.0   16.666666666666668
-150.0   60.0   16.666666666666668
-150.0   30.0   33.333333333333336
-100.0   30.0   33.333333333333336
-150.0   60.0   33.333333333333336
-150.0   30.0   50.0
-100.0   30.0   33.333333333333336
-100.0   60.0   33.333333333333336
-150.0   60.0   33.333333333333336
-100.0   60.0   50.0
-150.0   30.0   50.0
-150.0   60.0   50.0
-100.0   60.0   50.0
-150.0   60.0   33.333333333333336
-150.0   30.0   50.0
-100.0   60.0   50.0
-100.0   30.0   50.0
-100.0   30.0   33.333333333333336
-150.0   30.0   50.0
-100.0   60.0   50.0
-100.0   30.0   33.333333333333336
-150.0   60.0   33.333333333333336
-150.0   60.0   0.0
-100.0   60.0   0.0
-150.0   90.0   0.0
-150.0   60.0   16.666666666666668
-100.0   60.0   0.0
-100.0   90.0   0.0
-150.0   90.0   0.0
-100.0   90.0   16.666666666666668
-150.0   60.0   16.666666666666668
-150.0   90.0   16.666666666666668
-100.0   90.0   16.666666666666668
-150.0   90.0   0.0
-150.0   60.0   16.666666666666668
-100.0   90.0   16.666666666666668
-100.0   60.0   16.666666666666668
-100.0   60.0   0.0
-150.0   60.0   16.666666666666668
-100.0   90.0   16.666666666666668
-100.0   60.0   0.0
-150.0   90.0   0.0
-150.0   60.0   16.666666666666668
-100.0   60.0   16.666666666666668
-150.0   90.0   16.666666666666668
-150.0   60.0   33.333333333333336
-100.0   60.0   16.666666666666668
-100.0   90.0   16.666666666666668
-150.0   90.0   16.666666666666668
-100.0   90.0   33.333333333333336
-150.0   60.0   33.333333333333336
-150.0   90.0   33.333333333333336
-100.0   90.0   33.333333333333336
-150.0   90.0   16.666666666666668
-150.0   60.0   33.333333333333336
-100.0   90.0   33.333333333333336
-100.0   60.0   33.333333333333336
-100.0   60.0   16.666666666666668
-150.0   60.0   33.333333333333336
-100.0   90.0   33.333333333333336
-100.0   60.0   16.666666666666668
-150.0   90.0   16.666666666666668
-150.0   60.0   33.333333333333336
-100.0   60.0   33.333333333333336
-150.0   90.0   33.333333333333336
-150.0   60.0   50.0
-100.0   60.0   33.333333333333336
-100.0   90.0   33.333333333333336
-150.0   90.0   33.333333333333336
-100.0   90.0   50.0
-150.0   60.0   50.0
-150.0   90.0   50.0
-100.0   90.0   50.0
-150.0   90.0   33.333333333333336
-150.0   60.0   50.0
-100.0   90.0   50.0
-100.0   60.0   50.0
-100.0   60.0   33.333333333333336
-150.0   60.0   50.0
-100.0   90.0   50.0
-100.0   60.0   33.333333333333336
-150.0   90.0   33.333333333333336
-150.0   90.0   0.0
-100.0   90.0   0.0
-150.0   120.0   0.0
-150.0   90.0   16.666666666666668
-100.0   90.0   0.0
-100.0   120.0   0.0
-150.0   120.0   0.0
-100.0   120.0   16.666666666666668
-150.0   90.0   16.666666666666668
-150.0   120.0   16.666666666666668
-100.0   120.0   16.666666666666668
-150.0   120.0   0.0
-150.0   90.0   16.666666666666668
-100.0   120.0   16.666666666666668
-100.0   90.0   16.666666666666668
-100.0   90.0   0.0
-150.0   90.0   16.666666666666668
-100.0   120.0   16.666666666666668
-100.0   90.0   0.0
-150.0   120.0   0.0
-150.0   90.0   16.666666666666668
-100.0   90.0   16.666666666666668
-150.0   120.0   16.666666666666668
-150.0   90.0   33.333333333333336
-100.0   90.0   16.666666666666668
-100.0   120.0   16.666666666666668
-150.0   120.0   16.666666666666668
-100.0   120.0   33.333333333333336
-150.0   90.0   33.333333333333336
-150.0   120.0   33.333333333333336
-100.0   120.0   33.333333333333336
-150.0   120.0   16.666666666666668
-150.0   90.0   33.333333333333336
-100.0   120.0   33.333333333333336
-100.0   90.0   33.333333333333336
-100.0   90.0   16.666666666666668
-150.0   90.0   33.333333333333336
-100.0   120.0   33.333333333333336
-100.0   90.0   16.666666666666668
-150.0   120.0   16.666666666666668
-150.0   90.0   33.333333333333336
-100.0   90.0   33.333333333333336
-150.0   120.0   33.333333333333336
-150.0   90.0   50.0
-100.0   90.0   33.333333333333336
-100.0   120.0   33.333333333333336
-150.0   120.0   33.333333333333336
-100.0   120.0   50.0
-150.0   90.0   50.0
-150.0   120.0   50.0
-100.0   120.0   50.0
-150.0   120.0   33.333333333333336
-150.0   90.0   50.0
-100.0   120.0   50.0
-100.0   90.0   50.0
-100.0   90.0   33.333333333333336
-150.0   90.0   50.0
-100.0   120.0   50.0
-100.0   90.0   33.333333333333336
-150.0   120.0   33.333333333333336
-150.0   120.0   0.0
-100.0   120.0   0.0
-150.0   150.0   0.0
-150.0   120.0   16.666666666666668
-100.0   120.0   0.0
-100.0   150.0   0.0
-150.0   150.0   0.0
-100.0   150.0   16.666666666666668
-150.0   120.0   16.666666666666668
-150.0   150.0   16.666666666666668
-100.0   150.0   16.666666666666668
-150.0   150.0   0.0
-150.0   120.0   16.666666666666668
-100.0   150.0   16.666666666666668
-100.0   120.0   16.666666666666668
-100.0   120.0   0.0
-150.0   120.0   16.666666666666668
-100.0   150.0   16.666666666666668
-100.0   120.0   0.0
-150.0   150.0   0.0
-150.0   120.0   16.666666666666668
-100.0   120.0   16.666666666666668
-150.0   150.0   16.666666666666668
-150.0   120.0   33.333333333333336
-100.0   120.0   16.666666666666668
-100.0   150.0   16.666666666666668
-150.0   150.0   16.666666666666668
-100.0   150.0   33.333333333333336
-150.0   120.0   33.333333333333336
-150.0   150.0   33.333333333333336
-100.0   150.0   33.333333333333336
-150.0   150.0   16.666666666666668
-150.0   120.0   33.333333333333336
-100.0   150.0   33.333333333333336
-100.0   120.0   33.333333333333336
-100.0   120.0   16.666666666666668
-150.0   120.0   33.333333333333336
-100.0   150.0   33.333333333333336
-100.0   120.0   16.666666666666668
-150.0   150.0   16.666666666666668
-150.0   120.0   33.333333333333336
-100.0   120.0   33.333333333333336
-150.0   150.0   33.333333333333336
-150.0   120.0   50.0
-100.0   120.0   33.333333333333336
-100.0   150.0   33.333333333333336
-150.0   150.0   33.333333333333336
-100.0   150.0   50.0
-150.0   120.0   50.0
-150.0   150.0   50.0
-100.0   150.0   50.0
-150.0   150.0   33.333333333333336
-150.0   120.0   50.0
-100.0   150.0   50.0
-100.0   120.0   50.0
-100.0   120.0   33.333333333333336
-150.0   120.0   50.0
-100.0   150.0   50.0
-100.0   120.0   33.333333333333336
-150.0   150.0   33.333333333333336
-100.0   0.0   0.0
-50.0   0.0   0.0
-100.0   30.0   0.0
-100.0   0.0   16.666666666666668
-50.0   0.0   0.0
-50.0   30.0   0.0
-100.0   30.0   0.0
-50.0   30.0   16.666666666666668
-100.0   0.0   16.666666666666668
-100.0   30.0   16.666666666666668
-50.0   30.0   16.666666666666668
-100.0   30.0   0.0
-100.0   0.0   16.666666666666668
-50.0   30.0   16.666666666666668
-50.0   0.0   16.666666666666668
-50.0   0.0   0.0
-100.0   0.0   16.666666666666668
-50.0   30.0   16.666666666666668
-50.0   0.0   0.0
-100.0   30.0   0.0
-100.0   0.0   16.666666666666668
-50.0   0.0   16.666666666666668
-100.0   30.0   16.666666666666668
-100.0   0.0   33.333333333333336
-50.0   0.0   16.666666666666668
-50.0   30.0   16.666666666666668
-100.0   30.0   16.666666666666668
-50.0   30.0   33.333333333333336
-100.0   0.0   33.333333333333336
-100.0   30.0   33.333333333333336
-50.0   30.0   33.333333333333336
-100.0   30.0   16.666666666666668
-100.0   0.0   33.333333333333336
-50.0   30.0   33.333333333333336
-50.0   0.0   33.333333333333336
-50.0   0.0   16.666666666666668
-100.0   0.0   33.333333333333336
-50.0   30.0   33.333333333333336
-50.0   0.0   16.666666666666668
-100.0   30.0   16.666666666666668
-100.0   0.0   33.333333333333336
-50.0   0.0   33.333333333333336
-100.0   30.0   33.333333333333336
-100.0   0.0   50.0
-50.0   0.0   33.333333333333336
-50.0   30.0   33.333333333333336
-100.0   30.0   33.333333333333336
-50.0   30.0   50.0
-100.0   0.0   50.0
-100.0   30.0   50.0
-50.0   30.0   50.0
-100.0   30.0   33.333333333333336
-100.0   0.0   50.0
-50.0   30.0   50.0
-50.0   0.0   50.0
-50.0   0.0   33.333333333333336
-100.0   0.0   50.0
-50.0   30.0   50.0
-50.0   0.0   33.333333333333336
-100.0   30.0   33.333333333333336
-100.0   30.0   0.0
-50.0   30.0   0.0
-100.0   60.0   0.0
-100.0   30.0   16.666666666666668
-50.0   30.0   0.0
-50.0   60.0   0.0
-100.0   60.0   0.0
-50.0   60.0   16.666666666666668
-100.0   30.0   16.666666666666668
-100.0   60.0   16.666666666666668
-50.0   60.0   16.666666666666668
-100.0   60.0   0.0
-100.0   30.0   16.666666666666668
-50.0   60.0   16.666666666666668
-50.0   30.0   16.666666666666668
-50.0   30.0   0.0
-100.0   30.0   16.666666666666668
-50.0   60.0   16.666666666666668
-50.0   30.0   0.0
-100.0   60.0   0.0
-100.0   30.0   16.666666666666668
-50.0   30.0   16.666666666666668
-100.0   60.0   16.666666666666668
-100.0   30.0   33.333333333333336
-50.0   30.0   16.666666666666668
-50.0   60.0   16.666666666666668
-100.0   60.0   16.666666666666668
-50.0   60.0   33.333333333333336
-100.0   30.0   33.333333333333336
-100.0   60.0   33.333333333333336
-50.0   60.0   33.333333333333336
-100.0   60.0   16.666666666666668
-100.0   30.0   33.333333333333336
-50.0   60.0   33.333333333333336
-50.0   30.0   33.333333333333336
-50.0   30.0   16.666666666666668
-100.0   30.0   33.333333333333336
-50.0   60.0   33.333333333333336
-50.0   30.0   16.666666666666668
-100.0   60.0   16.666666666666668
-100.0   30.0   33.333333333333336
-50.0   30.0   33.333333333333336
-100.0   60.0   33.333333333333336
-100.0   30.0   50.0
-50.0   30.0   33.333333333333336
-50.0   60.0   33.333333333333336
-100.0   60.0   33.333333333333336
-50.0   60.0   50.0
-100.0   30.0   50.0
-100.0   60.0   50.0
-50.0   60.0   50.0
-100.0   60.0   33.333333333333336
-100.0   30.0   50.0
-50.0   60.0   50.0
-50.0   30.0   50.0
-50.0   30.0   33.333333333333336
-100.0   30.0   50.0
-50.0   60.0   50.0
-50.0   30.0   33.333333333333336
-100.0   60.0   33.333333333333336
-100.0   60.0   0.0
-50.0   60.0   0.0
-100.0   90.0   0.0
-100.0   60.0   16.666666666666668
-50.0   60.0   0.0
-50.0   90.0   0.0
-100.0   90.0   0.0
-50.0   90.0   16.666666666666668
-100.0   60.0   16.666666666666668
-100.0   90.0   16.666666666666668
-50.0   90.0   16.666666666666668
-100.0   90.0   0.0
-100.0   60.0   16.666666666666668
-50.0   90.0   16.666666666666668
-50.0   60.0   16.666666666666668
-50.0   60.0   0.0
-100.0   60.0   16.666666666666668
-50.0   90.0   16.666666666666668
-50.0   60.0   0.0
-100.0   90.0   0.0
-100.0   60.0   16.666666666666668
-50.0   60.0   16.666666666666668
-100.0   90.0   16.666666666666668
-100.0   60.0   33.333333333333336
-50.0   60.0   16.666666666666668
-50.0   90.0   16.666666666666668
-100.0   90.0   16.666666666666668
-50.0   90.0   33.333333333333336
-100.0   60.0   33.333333333333336
-100.0   90.0   33.333333333333336
-50.0   90.0   33.333333333333336
-100.0   90.0   16.666666666666668
-100.0   60.0   33.333333333333336
-50.0   90.0   33.333333333333336
-50.0   60.0   33.333333333333336
-50.0   60.0   16.666666666666668
-100.0   60.0   33.333333333333336
-50.0   90.0   33.333333333333336
-50.0   60.0   16.666666666666668
-100.0   90.0   16.666666666666668
-100.0   60.0   33.333333333333336
-50.0   60.0   33.333333333333336
-100.0   90.0   33.333333333333336
-100.0   60.0   50.0
-50.0   60.0   33.333333333333336
-50.0   90.0   33.333333333333336
-100.0   90.0   33.333333333333336
-50.0   90.0   50.0
-100.0   60.0   50.0
-100.0   90.0   50.0
-50.0   90.0   50.0
-100.0   90.0   33.333333333333336
-100.0   60.0   50.0
-50.0   90.0   50.0
-50.0   60.0   50.0
-50.0   60.0   33.333333333333336
-100.0   60.0   50.0
-50.0   90.0   50.0
-50.0   60.0   33.333333333333336
-100.0   90.0   33.333333333333336
-100.0   90.0   0.0
-50.0   90.0   0.0
-100.0   120.0   0.0
-100.0   90.0   16.666666666666668
-50.0   90.0   0.0
-50.0   120.0   0.0
-100.0   120.0   0.0
-50.0   120.0   16.666666666666668
-100.0   90.0   16.666666666666668
-100.0   120.0   16.666666666666668
-50.0   120.0   16.666666666666668
-100.0   120.0   0.0
-100.0   90.0   16.666666666666668
-50.0   120.0   16.666666666666668
-50.0   90.0   16.666666666666668
-50.0   90.0   0.0
-100.0   90.0   16.666666666666668
-50.0   120.0   16.666666666666668
-50.0   90.0   0.0
-100.0   120.0   0.0
-100.0   90.0   16.666666666666668
-50.0   90.0   16.666666666666668
-100.0   120.0   16.666666666666668
-100.0   90.0   33.333333333333336
-50.0   90.0   16.666666666666668
-50.0   120.0   16.666666666666668
-100.0   120.0   16.666666666666668
-50.0   120.0   33.333333333333336
-100.0   90.0   33.333333333333336
-100.0   120.0   33.333333333333336
-50.0   120.0   33.333333333333336
-100.0   120.0   16.666666666666668
-100.0   90.0   33.333333333333336
-50.0   120.0   33.333333333333336
-50.0   90.0   33.333333333333336
-50.0   90.0   16.666666666666668
-100.0   90.0   33.333333333333336
-50.0   120.0   33.333333333333336
-50.0   90.0   16.666666666666668
-100.0   120.0   16.666666666666668
-100.0   90.0   33.333333333333336
-50.0   90.0   33.333333333333336
-100.0   120.0   33.333333333333336
-100.0   90.0   50.0
-50.0   90.0   33.333333333333336
-50.0   120.0   33.333333333333336
-100.0   120.0   33.333333333333336
-50.0   120.0   50.0
-100.0   90.0   50.0
-100.0   120.0   50.0
-50.0   120.0   50.0
-100.0   120.0   33.333333333333336
-100.0   90.0   50.0
-50.0   120.0   50.0
-50.0   90.0   50.0
-50.0   90.0   33.333333333333336
-100.0   90.0   50.0
-50.0   120.0   50.0
-50.0   90.0   33.333333333333336
-100.0   120.0   33.333333333333336
-100.0   120.0   0.0
-50.0   120.0   0.0
-100.0   150.0   0.0
-100.0   120.0   16.666666666666668
-50.0   120.0   0.0
-50.0   150.0   0.0
-100.0   150.0   0.0
-50.0   150.0   16.666666666666668
-100.0   120.0   16.666666666666668
-100.0   150.0   16.666666666666668
-50.0   150.0   16.666666666666668
-100.0   150.0   0.0
-100.0   120.0   16.666666666666668
-50.0   150.0   16.666666666666668
-50.0   120.0   16.666666666666668
-50.0   120.0   0.0
-100.0   120.0   16.666666666666668
-50.0   150.0   16.666666666666668
-50.0   120.0   0.0
-100.0   150.0   0.0
-100.0   120.0   16.666666666666668
-50.0   120.0   16.666666666666668
-100.0   150.0   16.666666666666668
-100.0   120.0   33.333333333333336
-50.0   120.0   16.666666666666668
-50.0   150.0   16.666666666666668
-100.0   150.0   16.666666666666668
-50.0   150.0   33.333333333333336
-100.0   120.0   33.333333333333336
-100.0   150.0   33.333333333333336
-50.0   150.0   33.333333333333336
-100.0   150.0   16.666666666666668
-100.0   120.0   33.333333333333336
-50.0   150.0   33.333333333333336
-50.0   120.0   33.333333333333336
-50.0   120.0   16.666666666666668
-100.0   120.0   33.333333333333336
-50.0   150.0   33.333333333333336
-50.0   120.0   16.666666666666668
-100.0   150.0   16.666666666666668
-100.0   120.0   33.333333333333336
-50.0   120.0   33.333333333333336
-100.0   150.0   33.333333333333336
-100.0   120.0   50.0
-50.0   120.0   33.333333333333336
-50.0   150.0   33.333333333333336
-100.0   150.0   33.333333333333336
-50.0   150.0   50.0
-100.0   120.0   50.0
-100.0   150.0   50.0
-50.0   150.0   50.0
-100.0   150.0   33.333333333333336
-100.0   120.0   50.0
-50.0   150.0   50.0
-50.0   120.0   50.0
-50.0   120.0   33.333333333333336
-100.0   120.0   50.0
-50.0   150.0   50.0
-50.0   120.0   33.333333333333336
-100.0   150.0   33.333333333333336
-50.0   0.0   0.0
0.0   0.0   0.0
-50.0   30.0   0.0
-50.0   0.0   16.666666666666668
0.0   0.0   0.0
0.0   30.0   0.0
-50.0   30.0   0.0
0.0   30.0   16.666666666666668
-50.0   0.0   16.666666666666668
-50.0   30.0   16.666666666666668
0.0   30.0   16.666666666666668
-50.0   30.0   0.0
-50.0   0.0   16.666666666666668
0.0   30.0   16.666666666666668
0.0   0.0   16.666666666666668
0.0   0.0   0.0
-50.0   0.0   16.666666666666668
0.0   30.0   16.666666666666668
0.0   0.0   0.0
-50.0   30.0   0.0
-50.0   0.0   16.666666666666668
0.0   0.0   16.666666666666668
-50.0   30.0   16.666666666666668
-50.0   0.0   33.333333333333336
0.0   0.0   16.666666666666668
0.0   30.0   16.666666666666668
-50.0   30.0   16.666666666666668
0.0   30.0   33.333333333333336
-50.0   0.0   33.333333333333336
-50.0   30.0   33.333333333333336
0.0   30.0   33.333333333333336
-50.0   30.0   16.666666666666668
-50.0   0.0   33.333333333333336
0.0   30.0   33.333333333333336
0.0   0.0   33.333333333333336
0.0   0.0   16.666666666666668
-50.0   0.0   33.333333333333336
0.0   30.0   33.333333333333336
0.0   0.0   16.666666666666668
-50.0   30.0   16.666666666666668
-50.0   0.0   33.333333333333336
0.0   0.0   33.333333333333336
-50.0   30.0   33.333333333333336
-50.0   0.0   50.0
0.0   0.0   33.333333333333336
0.0   30.0   33.333333333333336
-50.0   30.0   33.333333333333336
0.0   30.0   50.0
-50.0   0.0   50.0
-50.0   30.0   50.0
0.0   30.0   50.0
-50.0   30.0   33.333333333333336
-50.0   0.0   50.0
0.0   30.0   50.0
0.0   0.0   50.0
0.0   0.0   33.333333333333336
-50.0   0.0   50.0
0.0   30.0   50.0
0.0   0.0   33.333333333333336
-50.0   30.0   33.333333333333336
-50.0   30.0   0.0
0.0   30.0   0.0
-50.0   60.0   0.0
-50.0   30.0   16.666666666666668
0.0   30.0   0.0
0.0   60.0   0.0
-50.0   60.0   0.0
0.0   60.0   16.666666666666668
-50.0   30.0   16.666666666666668
-50.0   60.0   16.666666666666668
0.0   60.0   16.666666666666668
-50.0   60.0   0.0
-50.0   30.0   16.666666666666668
0.0   60.0   16.666666666666668
0.0   30.0   16.666666666666668
0.0   30.0   0.0
-50.0   30.0   16.666666666666668
0.0   60.0   16.666666666666668
0.0   30.0   0.0
-50.0   60.0   0.0
-50.0   30.0   16.666666666666668
0.0   30.0   16.666666666666668
-50.0   60.0   16.666666666666668
-50.0   30.0   33.333333333333336
0.0   30.0   16.666666666666668
0.0   60.0   16.666666666666668
-50.0   60.0   16.666666666666668
0.0   60.0   33.333333333333336
-50.0   30.0   33.333333333333336
-50.0   60.0   33.333333333333336
0.0   60.0   33.333333333333336
-50.0   60.0   16.666666666666668
-50.0   30.0   33.333333333333336
0.0   60.0   33.333333333333336
0.0   30.0   33.333333333333336
0.0   30.0   16.666666666666668
-50.0   30.0   33.333333333333336
0.0   60.0   33.333333333333336
0.0   30.0   16.666666666666668
-50.0   60.0   16.666666666666668
-50.0   30.0   33.333333333333336
0.0   30.0   33.333333333333336
-50.0   60.0   33.333333333333336
-50.0   30.0   50.0
0.0   30.0   33.333333333333336
0.0   60.0   33.333333333333336
-50.0   60.0   33.333333333333336
0.0   60.0   50.0
-50.0   30.0   50.0
-50.0   60.0   50.0
0.0   60.0   50.0
-50.0   60.0   33.333333333333336
-50.0   30.0   50.0
0.0   60.0   50.0
0.0   30.0   50.0
0.0   30.0   33.333333333333336
-50.0   30.0   50.0
0.0   60.0   50.0
0.0   30.0   33.333333333333336
-50.0   60.0   33.333333333333336
-50.0   60.0   0.0
0.0   60.0   0.0
-50.0   90.0   0.0
-50.0   60.0   16.666666666666668
0.0   60.0   0.0
0.0   90.0   0.0
-50.0   90.0   0.0
0.0   90.0   16.666666666666668
-50.0   60.0   16.666666666666668
-50.0   90.0   16.666666666666668
0.0   90.0   16.666666666666668
-50.0   90.0   0.0
-50.0   60.0   16.666666666666668
0.0   90.0   16.666666666666668
0.0   60.0   16.666666666666668
0.0   60.0   0.0
-50.0   60.0   16.666666666666668
0.0   90.0   16.666666666666668
0.0   60.0   0.0
-50.0   90.0   0.0
-50.0   60.0   16.666666666666668
0.0   60.0   16.666666666666668
-50.0   90.0   16.666666666666668
-50.0   60.0   33.333333333333336
0.0   60.0   16.666666666666668
0.0   90.0   16.666666666666668
-50.0   90.0   16.666666666666668
0.0   90.0   33.333333333333336
-50.0   60.0   33.333333333333336
-50.0   90.0   33.333333333333336
0.0   90.0   33.333333333333336
-50.0   90.0   16.666666666666668
-50.0   60.0   33.333333333333336
0.0   90.0   33.333333333333336
0.0   60.0   33.333333333333336
0.0   60.0   16.666666666666668
-50.0   60.0   33.333333333333336
0.0   90.0   33.333333333333336
0.0   60.0   16.666666666666668
-50.0   90.0   16.666666666666668
-50.0   60.0   33.333333333333336
0.0   60.0   33.333333333333336
-50.0   90.0   33.333333333333336
-50.0   60.0   50.0
0.0   60.0   33.333333333333336
0.0   90.0   33.333333333333336
-50.0   90.0   33.333333333333336
0.0   90.0   50.0
-50.0   60.0   50.0
-50.0   90.0   50.0
0.0   90.0   50.0
-50.0   90.0   33.333333333333336
-50.0   60.0   50.0
0.0   90.0   50.0
0.0   60.0   50.0
0.0   60.0   33.333333333333336
-50.0   60.0   50.0
0.0   90.0   50.0
0.0   60.0   33.333333333333336
-50.0   90.0   33.333333333333336
-50.0   90.0   0.0
0.0   90.0   0.0
-50.0   120.0   0.0
-50.0   90.0   16.666666666666668
0.0   90.0   0.0
0.0   120.0   0.0
-50.0   120.0   0.0
0.0   120.0   16.666666666666668
-50.0   90.0   16.666666666666668
-50.0   120.0   16.666666666666668
0.0   120.0   16.666666666666668
-50.0   120.0   0.0
-50.0   90.0   16.666666666666668
0.0   120.0   16.666666666666668
0.0   90.0   16.666666666666668
0.0   90.0   0.0
-50.0   90.0   16.666666666666668
0.0   120.0   16.666666666666668
0.0   90.0   0.0
-50.0   120.0   0.0
-50.0   90.0   16.666666666666668
0.0   90.0   16.666666666666668
-50.0   120.0   16.666666666666668
-50.0   90.0   33.333333333333336
0.0   90.0   16.666666666666668
0.0   120.0   16.666666666666668
-50.0   120.0   16.666666666666668
0.0   120.0   33.333333333333336
-50.0   90.0   33.333333333333336
-50.0   120.0   33.333333333333336
0.0   120.0   33.333333333333336
-50.0   120.0   16.666666666666668
-50.0   90.0   33.333333333333336
0.0   120.0   33.333333333333336
0.0   90.0   33.333333333333336
0.0   90.0   16.666666666666668
-50.0   90.0   33.333333333333336
0.0   120.0   33.333333333333336
0.0   90.0   16.666666666666668
-50.0   120.0   16.666666666666668
-50.0   90.0   33.333333333333336
0.0   90.0   33.333333333333336
-50.0   120.0   33.333333333333336
-50.0   90.0   50.0
0.0   90.0   33.333333333333336
0.0   120.0   33.333333333333336
-50.0   120.0   33.333333333333336
0.0   120.0   50.0
-50.0   90.0   50.0
-50.0   120.0   50.0
0.0   120.0   50.0
-50.0   120.0   33.333333333333336
-50.0   90.0   50.0
0.0   120.0   50.0
0.0   90.0   50.0
0.0   90.0   33.333333333333336
-50.0   90.0   50.0
0.0   120.0   50.0
0.0   90.0   33.333333333333336
-50.0   120.0   33.333333333333336
-50.0   120.0   0.0
0.0   120.0   0.0
-50.0   150.0   0.0
-50.0   120.0   16.666666666666668
0.0   120.0   0.0
0.0   150.0   0.0
-50.0   150.0   0.0
0.0   150.0   16.666666666666668
-50.0   120.0   16.666666666666668
-50.0   150.0   16.666666666666668
0.0   150.0   16.666666666666668
-50.0   150.0   0.0
-50.0   120.0   16.666666666666668
0.0   150.0   16.666666666666668
0.0   120.0   16.666666666666668
0.0   120.0   0.0
-50.0   120.0   16.666666666666668
0.0   150.0   16.666666666666668
0.0   120.0   0.0
-50.0   150.0   0.0
-50.0   120.0   16.666666666666668
0.0   120.0   16.666666666666668
-50.0   150.0   16.666666666666668
-50.0   120.0   33.333333333333336
0.0   120.0   16.666666666666668
0.0   150.0   16.666666666666668
-50.0   150.0   16.666666666666668
0.0   150.0   33.333333333333336
-50.0   120.0   33.333333333333336
-50.0   150.0   33.333333333333336
0.0   150.0   33.333333333333336
-50.0   150.0   16.666666666666668
-50.0   120.0   33.333333333333336
0.0   150.0   33.333333333333336
0.0   120.0   33.333333333333336
0.0   120.0   16.666666666666668
-50.0   120.0   33.333333333333336
0.0   150.0   33.333333333333336
0.0   120.0   16.666666666666668
-50.0   150.0   16.666666666666668
-50.0   120.0   33.333333333333336
0.0   120.0   33.333333333333336
-50.0   150.0   33.333333333333336
-50.0   120.0   50.0
0.0   120.0   33.333333333333336
0.0   150.0   33.333333333333336
-50.0   150.0   33.333333333333336
0.0   150.0   50.0
-50.0   120.0   50.0
-50.0   150.0   50.0
0.0   150.0   50.0
-50.0   150.0   33.333333333333336
-50.0   120.0   50.0
0.0   150.0   50.0
0.0   120.0   50.0
0.0   120.0   33.333333333333336
-50.0   120.0   50.0
0.0   150.0   50.0
0.0   120.0   33.333333333333336
-50.0   150.0   33.333333333333336
0.0   0.0   0.0
50.0   0.0   0.0
0.0   30.0   0.0
0.0   0.0   16.666666666666668
50.0   0.0   0.0
50.0   30.0   0.0
0.0   30.0   0.0
50.0   30.0   16.666666666666668
0.0   0.0   16.666666666666668
0.0   30.0   16.666666666666668
50.0   30.0   16.666666666666668
0.0   30.0   0.0
0.0   0.0   16.666666666666668
50.0   30.0   16.666666666666668
50.0   0.0   16.666666666666668
50.0   0.0   0.0
0.0   0.0   16.666666666666668
50.0   30.0   16.666666666666668
50.0   0.0   0.0
0.0   30.0   0.0
0.0   0.0   16.666666666666668
50.0   0.0   16.666666666666668
0.0   30.0   16.666666666666668
0.0   0.0   33.333333333333336
50.0   0.0   16.666666666666668
50.0   30.0   16.666666666666668
0.0   30.0   16.666666666666668
50.0   30.0   33.333333333333336
0.0   0.0   33.333333333333336
0.0   30.0   33.333333333333336
50.0   30.0   33.333333333333336
0.0   30.0   16.666666666666668
0.0   0.0   33.333333333333336
50.0   30.0   33.333333333333336
50.0   0.0   33.333333333333336
50.0   0.0   16.666666666666668
0.0   0.0   33.333333333333336
50.0   30.0   33.333333333333336
50.0   0.0   16.666666666666668
0.0   30.0   16.666666666666668
0.0   0.0   33.333333333333336
50.0   0.0   33.333333333333336
0.0   30.0   33.333333333333336
0.0   0.0   50.0
50.0   0.0   33.333333333333336
50.0   30.0   33.333333333333336
0.0   30.0   33.333333333333336
50.0   30.0   50.0
0.0   0.0   50.0
0.0   30.0   50.0
50.0   30.0   50.0
0.0   30.0   33.333333333333336
0.0   0.0   50.0
50.0   30.0   50.0
50.0   0.0   50.0
50.0   0.0   33.333333333333336
0.0   0.0   50.0
50.0   30.0   50.0
50.0   0.0   33.333333333333336
0.0   30.0   33.333333333333336
0.0   30.0   0.0
50.0   30.0   0.0
0.0   60.0   0.0
0.0   30.0   16.666666666666668
50.0   30.0   0.0
50.0   60.0   0.0
0.0   60.0   0.0
50.0   60.0   16.666666666666668
0.0   30.0   16.666666666666668
0.0   60.0   16.666666666666668
50.0   60.0   16.666666666666668
0.0   60.0   0.0
0.0   30.0   16.666666666666668
50.0   60.0   16.666666666666668
50.0   30.0   16.666666666666668
50.0   30.0   0.0
0.0   30.0   16.666666666666668
50.0   60.0   16.666666666666668
50.0   30.0   0.0
0.0   60.0   0.0
0.0   30.0   16.666666666666668
50.0   30.0   16.666666666666668
0.0   60.0   16.666666666666668
0.0   30.0   33.333333333333336
50.0   30.0   16.666666666666668
50.0   60.0   16.666666666666668
0.0   60.0   16.666666666666668
50.0   60.0   33.333333333333336
0.0   30.0   33.333333333333336
0.0   60.0   33.333333333333336
50.0   60.0   33.333333333333336
0.0   60.0   16.666666666666668
0.0   30.0   33.333333333333336
50.0   60.0   33.333333333333336
50.0   30.0   33.333333333333336
50.0   30.0   16.666666666666668
0.0   30.0   33.333333333333336
50.0   60.0   33.333333333333336
50.0   30.0   16.666666666666668
0.0   60.0   16.666666666666668
0.0   30.0   33.333333333333336
50.0   30.0   33.333333333333336
0.0   60.0   33.333333333333336
0.0   30.0   50.0
50.0   30.0   33.333333333333336
50.0   60.0   33.333333333333336
0.0   60.0   33.333333333333336
50.0   60.0   50.0
0.0   30.0   50.0
0.0   60.0   50.0
50.0   60.0   50.0
0.0   60.0   33.333333333333336
0.0   30.0   50.0
50.0   60.0   50.0
50.0   30.0   50.0
50.0   30.0   33.333333333333336
0.0   30.0   50.0
50.0   60.0   50.0
50.0   30.0   33.333333333333336
0.0   60.0   33.333333333333336
0.0   60.0   0.0
50.0   60.0   0.0
0.0   90.0   0.0
0.0   60.0   16.666666666666668
50.0   60.0   0.0
50.0   90.0   0.0
0.0   90.0   0.0
50.0   90.0   16.666666666666668
0.0   60.0   16.666666666666668
0.0   90.0   16.666666666666668
50.0   90.0   16.666666666666668
0.0   90.0   0.0
0.0   60.0   16.666666666666668
50.0   90.0   16.666666666666668
50.0   60.0   16.666666666666668
50.0   60.0   0.0
0.0   60.0   16.666666666666668
50.0   90.0   16.666666666666668
50.0   60.0   0.0
0.0   90.0   0.0
0.0   60.0   16.666666666666668
50.0   60.0   16.666666666666668
0.0   90.0   16.666666666666668
0.0   60.0   33.333333333333336
50.0   60.0   16.666666666666668
50.0   90.0   16.666666666666668
0.0   90.0   16.666666666666668
50.0   90.0   33.333333333333336
0.0   60.0   33.333333333333336
0.0   90.0   33.333333333333336
50.0   90.0   33.333333333333336
0.0   90.0   16.666666666666668
0.0   60.0   33.333333333333336
50.0   90.0   33.333333333333336
50.0   60.0   33.333333333333336
50.0   60.0   16.666666666666668
0.0   60.0   33.333333333333336
50.0   90.0   33.333333333333336
50.0   60.0   16.666666666666668
0.0   90.0   16.666666666666668
0.0   60.0   33.333333333333336
50.0   60.0   33.333333333333336
0.0   90.0   33.333333333333336
0.0   60.0   50.0
50.0   60.0   33.333333333333336
50.0   90.0   33.333333333333336
0.0   90.0   33.333333333333336
50.0   90.0   50.0
0.0   60.0   50.0
0.0   90.0   50.0
50.0   90.0   50.0
0.0   90.0   33.333333333333336
0.0   60.0   50.0
50.0   90.0   50.0
50.0   60.0   50.0
50.0   60.0   33.333333333333336
0.0   60.0   50.0
50.0   90.0   50.0
50.0   60.0   33.333333333333336
0.0   90.0   33.333333333333336
0.0   90.0   0.0
50.0   90.0   0.0
0.0   120.0   0.0
0.0   90.0   16.666666666666668
50.0   90.0   0.0
50.0   120.0   0.0
0.0   120.0   0.0
50.0   120.0   16.666666666666668
0.0   90.0   16.666666666666668
0.0   120.0   16.666666666666668
50.0   120.0   16.666666666666668
0.0   120.0   0.0
0.0   90.0   16.666666666666668
50.0   120.0   16.666666666666668
50.0   90.0   16.666666666666668
50.0   90.0   0.0
0.0   90.0   16.666666666666668
50.0   120.0   16.666666666666668
50.0   90.0   0.0
0.0   120.0   0.0
0.0   90.0   16.666666666666668
50.0   90.0   16.666666666666668
0.0   120.0   16.666666666666668
0.0   90.0   33.333333333333336
50.0   90.0   16.666666666666668
50.0   120.0   16.666666666666668
0.0   120.0   16.666666666666668
50.0   120.0   33.333333333333336
0.0   90.0   33.333333333333336
0.0   120.0   33.333333333333336
50.0   120.0   33.333333333333336
0.0   120.0   16.666666666666668
0.0   90.0   33.333333333333336
50.0   120.0   33.333333333333336
50.0   90.0   33.333333333333336
50.0   90.0   16.666666666666668
0.0   90.0   33.333333333333336
50.0   120.0   33.333333333333336
50.0   90.0   16.666666666666668
0.0   120.0   16.666666666666668
0.0   90.0   33.333333333333336
50.0   90.0   33.333333333333336
0.0   120.0   33.333333333333336
0.0   90.0   50.0
50.0   90.0   33.333333333333336
50.0   120.0   33.333333333333336
0.0   120.0   33.333333333333336
50.0   120.0   50.0
0.0   90.0   50.0
0.0   120.0   50.0
50.0   120.0   50.0
0.0   120.0   33.333333333333336
0.0   90.0   50.0
50.0   120.0   50.0
50.0   90.0   50.0
50.0   90.0   33.333333333333336
0.0   90.0   50.0
50.0   120.0   50.0
50.0   90.0   33.333333333333336
0.0   120.0   33.333333333333336
0.0   120.0   0.0
50.0   120.0   0.0
0.0   150.0   0.0
0.0   120.0   16.666666666666668
50.0   120.0   0.0
50.0   150.0   0.0
0.0   150.0   0.0
50.0   150.0   16.666666666666668
0.0   120.0   16.666666666666668
0.0   150.0   16.666666666666668
50.0   150.0   16.666666666666668
0.0   150.0   0.0
0.0   120.0   16.666666666666668
50.0   150.0   16.666666666666668
50.0   120.0   16.666666666666668
50.0   120.0   0.0
0.0   120.0   16.666666666666668
50.0   150.0   16.666666666666668
50.0   120.0   0.0
0.0   150.0   0.0
0.0   120.0   16.666666666666668
50.0   120.0   16.666666666666668
0.0   150.0   16.666666666666668
0.0   120.0   33.333333333333336
50.0   120.0   16.666666666666668
50.0   150.0   16.666666666666668
0.0   150.0   16.666666666666668
50.0   150.0   33.333333333333336
0.0   120.0   33.333333333333336
0.0   150.0   33.333333333333336
50.0   150.0   33.333333333333336
0.0   150.0   16.666666666666668
0.0   120.0   33.333333333333336
50.0   150.0   33.333333333333336
50.0   120.0   33.333333333333336
50.0   120.0   16.666666666666668
0.0   120.0   33.333333333333336
50.0   150.0   33.333333333333336
50.0   120.0   16.666666666666668
0.0   150.0   16.666666666666668
0.0   120.0   33.333333333333336
50.0   120.0   33.333333333333336
0.0   150.0   33.333333333333336
0.0   120.0   50.0
50.0   120.0   33.333333333333336
50.0   150.0   33.333333333333336
0.0   150.0   33.333333333333336
50.0   150.0   50.0
0.0   120.0   50.0
0.0   150.0   50.0
50.0   150.0   50.0
0.0   150.0   33.333333333333336
0.0   120.0   50.0
50.0   150.0   50.0
50.0   120.0   50.0
50.0   120.0   33.333333333333336
0.0   120.0   50.0
50.0   150.0   50.0
50.0   120.0   33.333333333333336
0.0   150.0   33.333333333333336
50.0   0.0   0.0
100.0   0.0   0.0
50.0   30.0   0.0
50.0   0.0   16.666666666666668
100.0   0.0   0.0
100.0   30.0   0.0
50.0   30.0   0.0
100.0   30.0   16.666666666666668
50.0   0.0   16.666666666666668
50.0   30.0   16.666666666666668
100.0   30.0   16.666666666666668
50.0   30.0   0.0
50.0   0.0   16.666666666666668
100.0   30.0   16.666666666666668
100.0   0.0   16.666666666666668
100.0   0.0   0.0
50.0   0.0   16.666666666666668
100.0   30.0   16.666666666666668
100.0   0.0   0.0
50.0   30.0   0.0
50.0   0.0   16.666666666666668
100.0   0.0   16.666666666666668
50.0   30.0   16.666666666666668
50.0   0.0   33.333333333333336
100.0   0.0   16.666666666666668
100.0   30.0   16.666666666666668
50.0   30.0   16.666666666666668
100.0   30.0   33.333333333333336
50.0   0.0   33.333333333333336
50.0   30.0   33.333333333333336
100.0   30.0   33.333333333333336
50.0   30.0   16.666666666666668
50.0   0.0   33.333333333333336
100.0   30.0   33.333333333333336
100.0   0.0   33.333333333333336
100.0   0.0   16.666666666666668
50.0   0.0   33.333333333333336
100.0   30.0   33.333333333333336
100.0   0.0   16.666666666666668
50.0   30.0   16.666666666666668
50.0   0.0   33.333333333333336
100.0   0.0   33.333333333333336
50.0   30.0   33.333333333333336
50.0   0.0   50.0
100.0   0.0   33.333333333333336
100.0   30.0   33.333333333333336
50.0   30.0   33.333333333333336
100.0   30.0   50.0
50.0   0.0   50.0
50.0   30.0   50.0
100.0   30.0   50.0
50.0   30.0   33.333333333333336
50.0   0.0   50.0
100.0   30.0   50.0
100.0   0.0   50.0
100.0   0.0   33.333333333333336
50.0   0.0   50.0
100.0   30.0   50.0
100.0   0.0   33.333333333333336
50.0   30.0   33.333333333333336
50.0   30.0   0.0
100.0   30.0   0.0
50.0   60.0   0.0
50.0   30.0   16.666666666666668
100.0   30.0   0.0
100.0   60.0   0.0
50.0   60.0   0.0
100.0   60.0   16.666666666666668
50.0   30.0   16.666666666666668
50.0   60.0   16.666666666666668
100.0   60.0   16.666666666666668
50.0   60.0   0.0
50.0   30.0   16.666666666666668
100.0   60.0   16.666666666666668
100.0   30.0   16.666666666666668
100.0   30.0   0.0
50.0   30.0   16.666666666666668
100.0   60.0   16.666666666666668
100.0   30.0   0.0
50.0   60.0   0.0
50.0   30.0   16.666666666666668
100.0   30.0   16.666666666666668
50.0   60.0   16.666666666666668
50.0   30.0   33.333333333333336
100.0   30.0   16.666666666666668
100.0   60.0   16.666666666666668
50.0   60.0   16.666666666666668
100.0   60.0   33.333333333333336
50.0   30.0   33.333333333333336
50.0   60.0   33.333333333333336
100.0   60.0   33.333333333333336
50.0   60.0   16.666666666666668
50.0   30.0   33.333333333333336
100.0   60.0   33.333333333333336
100.0   30.0   33.333333333333336
100.0   30.0   16.666666666666668
50.0   30.0   33.333333333333336
100.0   60.0   33.333333333333336
100.0   30.0   16.666666666666668
50.0   60.0   16.666666666666668
50.0   30.0   33.333333333333336
100.0   30.0   33.333333333333336
50.0   60.0   33.333333333333336
50.0   30.0   50.0
100.0   30.0   33.333333333333336
100.0   60.0   33.333333333333336
50.0   60.0   33.333333333333336
100.0   60.0   50.0
50.0   30.0   50.0
50.0   60.0   50.0
100.0   60.0   50.0
50.0   60.0   33.333333333333336
50.0   30.0   50.0
100.0   60.0   50.0
100.0   30.0   50.0
100.0   30.0   33.333333333333336
50.0   30.0   50.0
100.0   60.0   50.0
100.0   30.0   33.333333333333336
50.0   60.0   33.333333333333336
50.0   60.0   0.0
100.0   60.0   0.0
50.0   90.0   0.0
50.0   60.0   16.666666666666668
100.0   60.0   0.0
100.0   90.0   0.0
50.0   90.0   0.0
100.0   90.0   16.666666666666668
50.0   60.0   16.666666666666668
50.0   90.0   16.666666666666668
100.0   90.0   16.666666666666668
50.0   90.0   0.0
50.0   60.0   16.666666666666668
100.0   90.0   16.666666666666668
100.0   60.0   16.666666666666668
100.0   60.0   0.0
50.0   60.0   16.666666666666668
100.0   90.0   16.666666666666668
100.0   60.0   0.0
50.0   90.0   0.0
50.0   60.0   16.666666666666668
100.0   60.0   16.666666666666668
50.0   90.0   16.666666666666668
50.0   60.0   33.333333333333336
100.0   60.0   16.666666666666668
100.0   90.0   16.666666666666668
50.0   90.0   16.666666666666668
100.0   90.0   33.333333333333336
50.0   60.0   33.333333333333336
50.0   90.0   33.333333333333336
100.0   90.0   33.333333333333336
50.0   90.0   16.666666666666668
50.0   60.0   33.333333333333336
100.0   90.0   33.333333333333336
100.0   60.0   33.333333333333336
100.0   60.0   16.666666666666668
50.0   60.0   33.333333333333336
100.0   90.0   33.333333333333336
100.0   60.0   16.666666666666668
50.0   90.0   16.666666666666668
50.0   60.0   33.333333333333336
100.0   60.0   33.333333333333336
50.0   90.0   33.333333333333336
50.0   60.0   50.0
100.0   60.0   33.333333333333336
100.0   90.0   33.333333333333336
50.0   90.0   33.333333333333336
100.0   90.0   50.0
50.0   60.0   50.0
50.0   90.0   50.0
100.0   90.0   50.0
50.0   90.0   33.333333333333336
50.0   60.0   50.0
100.0   90.0   50.0
100.0   60.0   50.0
100.0   60.0   33.333333333333336
50.0   60.0   50.0
100.0   90.0   50.0
100.0   60.0   33.333333333333336
50.0   90.0   33.333333333333336
50.0   90.0   0.0
100.0   90.0   0.0
50.0   120.0   0.0
50.0   90.0   16.666666666666668
100.0   90.0   0.0
100.0   120.0   0.0
50.0   120.0   0.0
100.0   120.0   16.666666666666668
50.0   90.0   16.666666666666668
50.0   120.0   16.666666666666668
100.0   120.0   16.666666666666668
50.0   120.0   0.0
50.0   90.0   16.666666666666668
100.0   120.0   16.666666666666668
100.0   90.0   16.666666666666668
100.0   90.0   0.0
50.0   90.0   16.666666666666668
100.0   120.0   16.666666666666668
100.0   90.0   0.0
50.0   120.0   0.0
50.0   90.0   16.666666666666668
100.0   90.0   16.666666666666668
50.0   120.0   16.666666666666668
50.0   90.0   33.333333333333336
100.0   90.0   16.666666666666668
100.0   120.0   16.666666666666668
50.0   120.0   16.666666666666668
100.0   120.0   33.333333333333336
50.0   90.0   33.333333333333336
50.0   120.0   33.333333333333336
100.0   120.0   33.333333333333336
50.0   120.0   16.666666666666668
50.0   90.0   33.333333333333336
100.0   120.0   33.333333333333336
100.0   90.0   33.333333333333336
100.0   90.0   16.666666666666668
50.0   90.0   33.333333333333336
100.0   120.0   33.333333333333336
100.0   90.0   16.666666666666668
50.0   120.0   16.666666666666668
50.0   90.0   33.333333333333336
100.0   90.0   33.333333333333336
50.0   120.0   33.333333333333336
50.0   90.0   50.0
100.0   90.0   33.333333333333336
100.0   120.0   33.333333333333336
50.0   120.0   33.333333333333336
100.0   120.0   50.0
50.0   90.0   50.0
50.0   120.0   50.0
100.0   120.0   50.0
50.0   120.0   33.333333333333336
50.0   90.0   50.0
100.0   120.0   50.0
100.0   90.0   50.0
100.0   90.0   33.333333333333336
50.0   90.0   50.0
100.0   120.0   50.0
100.0   90.0   33.333333333333336
50.0   120.0   33.333333333333336
50.0   120.0   0.0
100.0   120.0   0.0
50.0   150.0   0.0
50.0   120.0   16.666666666666668
100.0   120.0   0.0
100.0   150.0   0.0
50.0   150.0   0.0
100.0   150.0   16.666666666666668
50.0   120.0   16.666666666666668
50.0   150.0   16.666666666666668
100.0   150.0   16.666666666666668
50.0   150.0   0.0
50.0   120.0   16.666666666666668
100.0   150.0   16.666666666666668
100.0   120.0   16.666666666666668
100.0   120.0   0.0
50.0   120.0   16.666666666666668
100.0   150.0   16.666666666666668
100.0   120.0   0.0
50.0   150.0   0.0
50.0   120.0   16.666666666666668
100.0   120.0   16.666666666666668
50.0   150.0   16.666666666666668
50.0   120.0   33.333333333333336
100.0   120.0   16.666666666666668
100.0   150.0   16.666666666666668
50.0   150.0   16.666666666666668
100.0   150.0   33.333333333333336
50.0   120.0   33.333333333333336
50.0   150.0   33.333333333333336
100.0   150.0   33.333333333333336
50.0   150.0   16.666666666666668
50.0   120.0   33.333333333333336
100.0   150.0   33.333333333333336
100.0   120.0   33.333333333333336
100.0   120.0   16.666666666666668
50.0   120.0   33.333333333333336
100.0   150.0   33.333333333333336
100.0   120.0   16.666666666666668
50.0   150.0   16.666666666666668
50.0   120.0   33.333333333333336
100.0   120.0   33.333333333333336
50.0   150.0   33.333333333333336
50.0   120.0   50.0
100.0   120.0   33.333333333333336
100.0   150.0   33.333333333333336
50.0   150.0   33.333333333333336
100.0   150.0   50.0
50.0   120.0   50.0
50.0   150.0   50.0
100.0   150.0   50.0
50.0   150.0   33.333333333333336
50.0   120.0   50.0
100.0   150.0   50.0
100.0   120.0   50.0
100.0   120.0   33.333333333333336
50.0   120.0   50.0
100.0   150.0   50.0
100.0   120.0   33.333333333333336
50.0   150.0   33.333333333333336
100.0   0.0   0.0
150.0   0.0   0.0
100.0   30.0   0.0
100.0   0.0   16.666666666666668
150.0   0.0   0.0
150.0   30.0   0.0
100.0   30.0   0.0
150.0   30.0   16.666666666666668
100.0   0.0   16.666666666666668
100.0   30.0   16.666666666666668
150.0   30.0   16.666666666666668
100.0   30.0   0.0
100.0   0.0   16.666666666666668
150.0   30.0   16.666666666666668
150.0   0.0   16.666666666666668
150.0   0.0   0.0
100.0   0.0   16.666666666666668
150.0   30.0   16.666666666666668
150.0   0.0   0.0
100.0   30.0   0.0
100.0   0.0   16.666666666666668
150.0   0.0   16.666666666666668
100.0   30.0   16.666666666666668
100.0   0.0   33.333333333333336
150.0   0.0   16.666666666666668
150.0   30.0   16.666666666666668
100.0   30.0   16.666666666666668
150.0   30.0   33.333333333333336
100.0   0.0   33.333333333333336
100.0   30.0   33.333333333333336
150.0   30.0   33.333333333333336
100.0   30.0   16.666666666666668
100.0   0.0   33.333333333333336
150.0   30.0   33.333333333333336
150.0   0.0   33.333333333333336
150.0   0.0   16.666666666666668
100.0   0.0   33.333333333333336
150.0   30.0   33.333333333333336
150.0   0.0   16.666666666666668
100.0   30.0   16.666666666666668
100.0   0.0   33.333333333333336
150.0   0.0   33.333333333333336
100.0   30.0   33.333333333333336
100.0   0.0   50.0
150.0   0.0   33.333333333333336
150.0   30.0   33.333333333333336
100.0   30.0   33.333333333333336
150.0   30.0   50.0
100.0   0.0   50.0
100.0   30.0   50.0
150.0   30.0   50.0
100.0   30.0   33.333333333333336
100.0   0.0   50.0
150.0   30.0   50.0
150.0   0.0   50.0
150.0   0.0   33.333333333333336
100.0   0.0   50.0
150.0   30.0   50.0
150.0   0.0   33.333333333333336
100.0   30.0   33.333333333333336
100.0   30.0   0.0
150.0   30.0   0.0
100.0   60.0   0.0
100.0   30.0   16.666666666666668
150.0   30.0   0.0
150.0   60.0   0.0
100.0   60.0   0.0
150.0   60.0   16.666666666666668
100.0   30.0   16.666666666666668
100.0   60.0   16.666666666666668
150.0   60.0   16.666666666666668
100.0   60.0   0.0
100.0   30.0   16.666666666666668
150.0   60.0   16.666666666666668
150.0   30.0   16.666666666666668
150.0   30.0   0.0
100.0   30.0   16.666666666666668
150.0   60.0   16.666666666666668
150.0   30.0   0.0
100.0   60.0   0.0
100.0   30.0   16.666666666666668
150.0   30.0   16.666666666666668
100.0   60.0   16.666666666666668
100.0   30.0   33.333333333333336
150.0   30.0   16.666666666666668
150.0   60.0   16.666666666666668
100.0   60.0   16.666666666666668
150.0   60.0   33.333333333333336
100.0   30.0   33.333333333333336
100.0   60.0   33.333333333333336
150.0   60.0   33.333333333333336
100.0   60.0   16.666666666666668
100.0   30.0   33.333333333333336
150.0   60.0   33.333333333333336
150.0   30.0   33.333333333333336
150.0   30.0   16.666666666666668
100.0   30.0   33.333333333333336
150.0   60.0   33.333333333333336
150.0   30.0   16.666666666666668
100.0   60.0   16.666666666666668
100.0   30.0   33.333333333333336
150.0   30.0   33.333333333333336
100.0   60.0   33.333333333333336
100.0   30.0   50.0
150.0   30.0   33.333333333333336
150.0   60.0   33.333333333333336
100.0   60.0   33.333333333333336
150.0   60.0   50.0
100.0   30.0   50.0
100.0   60.0   50.0
150.0   60.0   50.0
100.0   60.0   33.333333333333336
100.0   30.0   50.0
150.0   60.0   50.0
150.0   30.0   50.0
150.0   30.0   33.333333333333336
100.0   30.0   50.0
150.0   60.0   50.0
150.0   30.0   33.333333333333336
100.0   60.0   33.333333333333336
100.0   60.0   0.0
150.0   60.0   0.0
100.0   90.0   0.0
100.0   60.0   16.666666666666668
150.0   60.0   0.0
150.0   90.0   0.0
100.0   90.0   0.0
150.0   90.0   16.666666666666668
100.0   60.0   16.666666666666668
100.0   90.0   16.666666666666668
150.0   90.0   16.666666666666668
100.0   90.0   0.0
100.0   60.0   16.666666666666668
150.0   90.0   16.666666666666668
150.0   60.0   16.666666666666668
150.0   60.0   0.0
100.0   60.0   16.666666666666668
150.0   90.0   16.666666666666668
150.0   60.0   0.0
100.0   90.0   0.0
100.0   60.0   16.666666666666668
150.0   60.0   16.666666666666668
100.0   90.0   16.666666666666668
100.0   60.0   33.333333333333336
150.0   60.0   16.666666666666668
150.0   90.0   16.666666666666668
100.0   90.0   16.666666666666668
150.0   90.0   33.333333333333336
100.0   60.0   33.333333333333336
100.0   90.0   33.333333333333336
150.0   90.0   33.333333333333336
100.0   90.0   16.666666666666668
100.0   60.0   33.333333333333336
150.0   90.0   33.333333333333336
150.0   60.0   33.333333333333336
150.0   60.0   16.666666666666668
100.0   60.0   33.333333333333336
150.0   90.0   33.333333333333336
150.0   60.0   16.666666666666668
100.0   90.0   16.666666666666668
100.0   60.0   33.333333333333336
150.0   60.0   33.333333333333336
100.0   90.0   33.333333333333336
100.0   60.0   50.0
150.0   60.0   33.333333333333336
150.0   90.0   33.333333333333336
100.0   90.0   33.333333333333336
150.0   90.0   50.0
100.0   60.0   50.0
100.0   90.0   50.0
150.0   90.0   50.0
100.0   90.0   33.333333333333336
100.0   60.0   50.0
150.0   90.0   50.0
150.0   60.0   50.0
150.0   60.0   33.333333333333336
100.0   60.0   50.0
150.0   90.0   50.0
150.0   60.0   33.333333333333336
100.0   90.0   33.333333333333336
100.0   90.0   0.0
150.0   90.0   0.0
100.0   120.0   0.0
100.0   90.0   16.666666666666668
150.0   90.0   0.0
150.0   120.0   0.0
100.0   120.0   0.0
150.0   120.0   16.666666666666668
100.0   90.0   16.666666666666668
100.0   120.0   16.666666666666668
150.0   120.0   16.666666666666668
100.0   120.0   0.0
100.0   90.0   16.666666666666668
150.0   120.0   16.666666666666668
150.0   90.0   16.666666666666668
150.0   90.0   0.0
100.0   90.0   16.666666666666668
150.0   120.0   16.666666666666668
150.0   90.0   0.0
100.0   120.0   0.0
100.0   90.0   16.666666666666668
150.0   90.0   16.666666666666668
100.0   120.0   16.666666666666668
100.0   90.0   33.333333333333336
150.0   90.0   16.666666666666668
150.0   120.0   16.666666666666668
100.0   120.0   16.666666666666668
150.0   120.0   33.333333333333336
100.0   90.0   33.333333333333336
100.0   120.0   33.333333333333336
150.0   120.0   33.333333333333336
100.0   120.0   16.666666666666668
100.0   90.0   33.333333333333336
150.0   120.0   33.333333333333336
150.0   90.0   33.333333333333336
150.0   90.0   16.666666666666668
100.0   90.0   33.333333333333336
150.0   120.0   33.333333333333336
150.0   90.0   16.666666666666668
100.0   120.0   16.666666666666668
100.0   90.0   33.333333333333336
150.0   90.0   33.333333333333336
100.0   120.0   33.333333333333336
100.0   90.0   50.0
150.0   90.0   33.333333333333336
150.0   120.0   33.333333333333336
100.0   120.0   33.333333333333336
150.0   120.0   50.0
100.0   90.0   50.0
100.0   120.0   50.0
150.0   120.0   50.0
100.0   120.0   33.333333333333336
100.0   90.0   50.0
150.0   120.0   50.0
150.0   90.0   50.0
150.0   90.0   33.333333333333336
100.0   90.0   50.0
150.0   120.0   50.0
150.0   90.0   33.333333333333336
100.0   120.0   33.333333333333336
100.0   120.0   0.0
150.0   120.0   0.0
100.0   150.0   0.0
100.0   120.0   16.666666666666668
150.0   120.0   0.0
150.0   150.0   0.0
100.0   150.0   0.0
150.0   150.0   16.666666666666668
100.0   120.0   16.666666666666668
100.0   150.0   16.666666666666668
150.0   150.0   16.666666666666668
100.0   150.0   0.0
100.0   120.0   16.666666666666668
150.0   150.0   16.666666666666668
150.0   120.0   16.666666666666668
150.0   120.0   0.0
100.0   120.0   16.666666666666668
150.0   150.0   16.666666666666668
150.0   120.0   0.0
100.0   150.0   0.0
100.0   120.0   16.666666666666668
150.0   120.0   16.666666666666668
100.0   150.0   16.666666666666668
100.0   120.0   33.333333333333336
150.0   120.0   16.666666666666668
150.0   150.0   16.666666666666668
100.0   150.0   16.666666666666668
150.0   150.0   33.333333333333336
100.0   120.0   33.333333333333336
100.0   150.0   33.333333333333336
150.0   150.0   33.333333333333336
100.0   150.0   16.666666666666668
100.0   120.0   33.333333333333336
150.0   150.0   33.333333333333336
150.0   120.0   33.333333333333336
150.0   120.0   16.666666666666668
100.0   120.0   33.333333333333336
150.0   150.0   33.333333333333336
150.0   120.0   16.666666666666668
100.0   150.0   16.666666666666668
100.0   120.0   33.333333333333336
150.0   120.0   33.333333333333336
100.0   150.0   33.333333333333336
100.0   120.0   50.0
150.0   120.0   33.333333333333336
150.0   150.0   33.333333333333336
100.0   150.0   33.333333333333336
150.0   150.0   50.0
100.0   120.0   50.0
100.0   150.0   50.0
150.0   150.0   50.0
100.0   150.0   33.333333333333336
100.0   120.0   50.0
150.0   150.0   50.0
150.0   120.0   50.0
150.0   120.0   33.333333333333336
100.0   120.0   50.0
150.0   150.0   50.0
150.0   120.0   33.333333333333336
100.0   150.0   33.333333333333336
150.0   0.0   0.0
200.0   0.0   0.0
150.0   30.0   0.0
150.0   0.0   16.666666666666668
200.0   0.0   0.0
200.0   30.0   0.0
150.0   30.0   0.0
200.0   30.0   16.666666666666668
150.0   0.0   16.666666666666668
150.0   30.0   16.666666666666668
200.0   30.0   16.666666666666668
150.0   30.0   0.0
150.0   0.0   16.666666666666668
200.0   30.0   16.666666666666668
200.0   0.0   16.666666666666668
200.0   0.0   0.0
150.0   0.0   16.666666666666668
200.0   30.0   16.666666666666668
200.0   0.0   0.0
150.0   30.0   0.0
150.0   0.0   16.666666666666668
200.0   0.0   16.666666666666668
150.0   30.0   16.666666666666668
150.0   0.0   33.333333333333336
200.0   0.0   16.666666666666668
200.0   30.0   16.666666666666668
150.0   30.0   16.666666666666668
200.0   30.0   33.333333333333336
150.0   0.0   33.333333333333336
150.0   30.0   33.333333333333336
200.0   30.0   33.333333333333336
150.0   30.0   16.666666666666668
150.0   0.0   33.333333333333336
200.0   30.0   33.333333333333336
200.0   0.0   33.333333333333336
200.0   0.0   16.666666666666668
150.0   0.0   33.333333333333336
200.0   30.0   33.333333333333336
200.0   0.0   16.666666666666668
150.0   30.0   16.666666666666668
150.0   0.0   33.333333333333336
200.0   0.0   33.333333333333336
150.0   30.0   33.333333333333336
150.0   0.0   50.0
200.0   0.0   33.333333333333336
200.0   30.0   33.333333333333336
150.0   30.0   33.333333333333336
200.0   30.0   50.0
150.0   0.0   50.0
150.0   30.0   50.0
200.0   30.0   50.0
150.0   30.0   33.333333333333336
150.0   0.0   50.0
200.0   30.0   50.0
200.0   0.0   50.0
200.0   0.0   33.333333333333336
150.0   0.0   50.0
200.0   30.0   50.0
200.0   0.0   33.333333333333336
150.0   30.0   33.333333333333336
150.0   30.0   0.0
200.0   30.0   0.0
150.0   60.0   0.0
150.0   30.0   16.666666666666668
200.0   30.0   0.0
200.0   60.0   0.0
150.0   60.0   0.0
200.0   60.0   16.666666666666668
150.0   30.0   16.666666666666668
150.0   60.0   16.666666666666668
200.0   60.0   16.666666666666668
150.0   60.0   0.0
150.0   30.0   16.666666666666668
200.0   60.0   16.666666666666668
200.0   30.0   16.666666666666668
200.0   30.0   0.0
150.0   30.0   16.666666666666668
200.0   60.0   16.666666666666668
200.0   30.0   0.0
150.0   60.0   0.0
150.0   30.0   16.666666666666668
200.0   30.0   16.666666666666668
150.0   60.0   16.666666666666668
150.0   30.0   33.333333333333336
200.0   30.0   16.666666666666668
200.0   60.0   16.666666666666668
150.0   60.0   16.666666666666668
200.0   60.0   33.333333333333336
150.0   30.0   33.333333333333336
150.0   60.0   33.333333333333336
200.0   60.0   33.333333333333336
150.0   60.0   16.666666666666668
150.0   30.0   33.333333333333336
200.0   60.0   33.333333333333336
200.0   30.0   33.333333333333336
200.0   30.0   16.666666666666668
150.0   30.0   33.333333333333336
200.0   60.0   33.333333333333336
200.0   30.0   16.666666666666668
150.0   60.0   16.666666666666668
150.0   30.0   33.333333333333336
200.0   30.0   33.333333333333336
150.0   60.0   33.333333333333336
150.0   30.0   50.0
200.0   30.0   33.333333333333336
200.0   60.0   33.333333333333336
150.0   60.0   33.333333333333336
200.0   60.0   50.0
150.0   30.0   50.0
150.0   60.0   50.0
200.0   60.0   50.0
150.0   60.0   33.333333333333336
150.0   30.0   50.0
200.0   60.0   50.0
200.0   30.0   50.0
200.0   30.0   33.333333333333336
150.0   30.0   50.0
200.0   60.0   50.0
200.0   30.0   33.333333333333336
150.0   60.0   33.333333333333336
150.0   60.0   0.0
200.0   60.0   0.0
150.0   90.0   0.0
150.0   60.0   16.666666666666668
200.0   60.0   0.0
200.0   90.0   0.0
150.0   90.0   0.0
200.0   90.0   16.666666666666668
150.0   60.0   16.666666666666668
150.0   90.0   16.666666666666668
200.0   90.0   16.666666666666668
150.0   90.0   0.0
150.0   60.0   16.666666666666668
200.0   90.0   16.666666666666668
200.0   60.0   16.666666666666668
200.0   60.0   0.0
150.0   60.0   16.666666666666668
200.0   90.0   16.666666666666668
200.0   60.0   0.0
150.0   90.0   0.0
150.0   60.0   16.666666666666668
200.0   60.0   16.666666666666668
150.0   90.0   16.666666666666668
150.0   60.0   33.333333333333336
200.0   60.0   16.666666666666668
200.0   90.0   16.666666666666668
150.0   90.0   16.666666666666668
200.0   90.0   33.333333333333336
150.0   60.0   33.333333333333336
150.0   90.0   33.333333333333336
200.0   90.0   33.333333333333336
150.0   90.0   16.666666666666668
150.0   60.0   33.333333333333336
200.0   90.0   33.333333333333336
200.0   60.0   33.333333333333336
200.0   60.0   16.666666666666668
150.0   60.0   33.333333333333336
200.0   90.0   33.333333333333336
200.0   60.0   16.666666666666668
150.0   90.0   16.666666666666668
150.0   60.0   33.333333333333336
200.0   60.0   33.333333333333336
150.0   90.0   33.333333333333336
150.0   60.0   50.0
200.0   60.0   33.333333333333336
200.0   90.0   33.333333333333336
150.0   90.0   33.333333333333336
200.0   90.0   50.0
150.0   60.0   50.0
150.0   90.0   50.0
200.0   90.0   50.0
150.0   90.0   33.333333333333336
150.0   60.0   50.0
200.0   90.0   50.0
200.0   60.0   50.0
200.0   60.0   33.333333333333336
150.0   60.0   50.0
200.0   90.0   50.0
200.0   60.0   33.333333333333336
150.0   90.0   33.333333333333336
150.0   90.0   0.0
200.0   90.0   0.0
150.0   120.0   0.0
150.0   90.0   16.666666666666668
200.0   90.0   0.0
200.0   120.0   0.0
150.0   120.0   0.0
200.0   120.0   16.666666666666668
150.0   90.0   16.666666666666668
150.0   120.0   16.666666666666668
200.0   120.0   16.666666666666668
150.0   120.0   0.0
150.0   90.0   16.666666666666668
200.0   120.0   16.666666666666668
200.0   90.0   16.666666666666668
200.0   90.0   0.0
150.0   90.0   16.666666666666668
200.0   120.0   16.666666666666668
200.0   90.0   0.0
150.0   120.0   0.0
150.0   90.0   16.666666666666668
200.0   90.0   16.666666666666668
150.0   120.0   16.666666666666668
150.0   90.0   33.333333333333336
200.0   90.0   16.666666666666668
200.0   120.0   16.666666666666668
150.0   120.0   16.666666666666668
200.0   120.0   33.333333333333336
150.0   90.0   33.333333333333336
150.0   120.0   33.333333333333336
200.0   120.0   33.333333333333336
150.0   120.0   16.666666666666668
150.0   90.0   33.333333333333336
200.0   120.0   33.333333333333336
200.0   90.0   33.333333333333336
200.0   90.0   16.666666666666668
150.0   90.0   33.333333333333336
200.0   120.0   33.333333333333336
200.0   90.0   16.666666666666668
150.0   120.0   16.666666666666668
150.0   90.0   33.333333333333336
200.0   90.0   33.333333333333336
150.0   120.0   33.333333333333336
150.0   90.0   50.0
200.0   90.0   33.333333333333336
200.0   120.0   33.333333333333336
150.0   120.0   33.333333333333336
200.0   120.0   50.0
150.0   90.0   50.0
150.0   120.0   50.0
200.0   120.0   50.0
150.0   120.0   33.333333333333336
150.0   90.0   50.0
200.0   120.0   50.0
200.0   90.0   50.0
200.0   90.0   33.333333333333336
150.0   90.0   50.0
200.0   120.0   50.0
200.0   90.0   33.333333333333336
150.0   120.0   33.333333333333336
150.0   120.0   0.0
200.0   120.0   0.0
150.0   150.0   0.0
150.0   120.0   16.666666666666668
200.0   120.0   0.0
200.0   150.0   0.0
150.0   150.0   0.0
200.0   150.0   16.666666666666668
150.0   120.0   16.666666666666668
150.0   150.0   16.666666666666668
200.0   150.0   16.666666666666668
150.0   150.0   0.0
150.0   120.0   16.666666666666668
200.0   150.0   16.666666666666668
200.0   120.0   16.666666666666668
200.0   120.0   0.0
150.0   120.0   16.666666666666668
200.0   150.0   16.666666666666668
200.0   120.0   0.0
150.0   150.0   0.0
150.0   120.0   16.666666666666668
200.0   120.0   16.666666666666668
150.0   150.0   16.666666666666668
150.0   120.0   33.333333333333336
200.0   120.0   16.666666666666668
200.0   150.0   16.666666666666668
150.0   150.0   16.666666666666668
200.0   150.0   33.333333333333336
150.0   120.0   33.333333333333336
150.0   150.0   33.333333333333336
200.0   150.0   33.333333333333336
150.0   150.0   16.666666666666668
150.0   120.0   33.333333333333336
200.0   150.0   33.333333333333336
200.0   120.0   33.333333333333336
200.0   120.0   16.666666666666668
150.0   120.0   33.333333333333336
200.0   150.0   33.333333333333336
200.0   120.0   16.666666666666668
150.0   150.0   16.666666666666668
150.0   120.0   33.333333333333336
200.0   120.0   33.333333333333336
150.0   150.0   33.333333333333336
150.0   120.0   50.0
200.0   120.0   33.333333333333336
200.0   150.0   33.333333333333336
150.0   150.0   33.333333333333336
200.0   150.0   50.0
150.0   120.0   50.0
150.0   150.0   50.0
200.0   150.0   50.0
150.0   150.0   33.333333333333336
150.0   120.0   50.0
200.0   150.0   50.0
200.0   120.0   50.0
200.0   120.0   33.333333333333336
150.0   120.0   50.0
200.0   150.0   50.0
200.0   120.0   33.333333333333336
150.0   150.0   33.333333333333336
200.0   0.0   0.0
250.0   0.0   0.0
200.0   30.0   0.0
200.0   0.0   16.666666666666668
250.0   0.0   0.0
250.0   30.0   0.0
200.0   30.0   0.0
250.0   30.0   16.666666666666668
200.0   0.0   16.666666666666668
200.0   30.0   16.666666666666668
250.0   30.0   16.666666666666668
200.0   30.0   0.0
200.0   0.0   16.666666666666668
250.0   30.0   16.666666666666668
250.0   0.0   16.666666666666668
250.0   0.0   0.0
200.0   0.0   16.666666666666668
250.0   30.0   16.666666666666668
250.0   0.0   0.0
200.0   30.0   0.0
200.0   0.0   16.666666666666668
250.0   0.0   16.666666666666668
200.0   30.0   16.666666666666668
200.0   0.0   33.333333333333336
250.0   0.0   16.666666666666668
250.0   30.0   16.666666666666668
200.0   30.0   16.666666666666668
250.0   30.0   33.333333333333336
200.0   0.0   33.333333333333336
200.0   30.0   33.333333333333336
250.0   30.0   33.333333333333336
200.0   30.0   16.666666666666668
200.0   0.0   33.333333333333336
250.0   30.0   33.333333333333336
250.0   0.0   33.333333333333336
250.0   0.0   16.666666666666668
200.0   0.0   33.333333333333336
250.0   30.0   33.333333333333336
250.0   0.0   16.666666666666668
200.0   30.0   16.666666666666668
200.0   0.0   33.333333333333336
250.0   0.0   33.333333333333336
200.0   30.0   33.333333333333336
200.0   0.0   50.0
250.0   0.0   33.333333333333336
250.0   30.0   33.333333333333336
200.0   30.0   33.333333333333336
250.0   30.0   50.0
200.0   0.0   50.0
200.0   30.0   50.0
250.0   30.0   50.0
200.0   30.0   33.333333333333336
200.0   0.0   50.0
250.0   30.0   50.0
250.0   0.0   50.0
250.0   0.0   33.333333333333336
200.0   0.0   50.0
250.0   30.0   50.0
250.0   0.0   33.333333333333336
200.0   30.0   33.333333333333336
200.0   30.0   0.0
250.0   30.0   0.0
200.0   60.0   0.0
200.0   30.0   16.666666666666668
250.0   30.0   0.0
250.0   60.0   0.0
200.0   60.0   0.0
250.0   60.0   16.666666666666668
200.0   30.0   16.666666666666668
200.0   60.0   16.666666666666668
250.0   60.0   16.666666666666668
200.0   60.0   0.0
200.0   30.0   16.666666666666668
250.0   60.0   16.666666666666668
250.0   30.0   16.666666666666668
250.0   30.0   0.0
200.0   30.0   16.666666666666668
250.0   60.0   16.666666666666668
250.0   30.0   0.0
200.0   60.0   0.0
200.0   30.0   16.666666666666668
250.0   30.0   16.666666666666668
200.0   60.0   16.666666666666668
200.0   30.0   33.333333333333336
250.0   30.0   16.666666666666668
250.0   60.0   16.666666666666668
200.0   60.0   16.666666666666668
250.0   60.0   33.333333333333336
200.0   30.0   33.333333333333336
200.0   60.0   33.333333333333336
250.0   60.0   33.333333333333336
200.0   60.0   16.666666666666668
200.0   30.0   33.333333333333336
250.0   60.0   33.333333333333336
250.0   30.0   33.333333333333336
250.0   30.0   16.666666666666668
200.0   30.0   33.333333333333336
250.0   60.0   33.333333333333336
250.0   30.0   16.666666666666668
200.0   60.0   16.666666666666668
200.0   30.0   33.333333333333336
250.0   30.0   33.333333333333336
200.0   60.0   33.333333333333336
200.0   30.0   50.0
250.0   30.0   33.333333333333336
250.0   60.0   33.333333333333336
200.0   60.0   33.333333333333336
250.0   60.0   50.0
200.0   30.0   50.0
200.0   60.0   50.0
250.0   60.0   50.0
200.0   60.0   33.333333333333336
200.0   30.0   50.0
250.0   60.0   50.0
250.0   30.0   50.0
250.0   30.0   33.333333333333336
200.0   30.0   50.0
250.0   60.0   50.0
250.0   30.0   33.333333333333336
200.0   60.0   33.333333333333336
200.0   60.0   0.0
250.0   60.0   0.0
200.0   90.0   0.0
200.0   60.0   16.666666666666668
250.0   60.0   0.0
250.0   90.0   0.0
200.0   90.0   0.0
250.0   90.0   16.666666666666668
200.0   60.0   16.666666666666668
200.0   90.0   16.666666666666668
250.0   90.0   16.666666666666668
200.0   90.0   0.0
200.0   60.0   16.666666666666668
250.0   90.0   16.666666666666668
250.0   60.0   16.666666666666668
250.0   60.0   0.0
200.0   60.0   16.666666666666668
250.0   90.0   16.666666666666668
250.0   60.0   0.0
200.0   90.0   0.0
200.0   60.0   16.666666666666668
250.0   60.0   16.666666666666668
200.0   90.0   16.666666666666668
200.0   60.0   33.333333333333336
250.0   60.0   16.666666666666668
250.0   90.0   16.666666666666668
200.0   90.0   16.666666666666668
250.0   90.0   33.333333333333336
200.0   60.0   33.333333333333336
200.0   90.0   33.333333333333336
250.0   90.0   33.333333333333336
200.0   90.0   16.666666666666668
200.0   60.0   33.333333333333336
250.0   90.0   33.333333333333336
250.0   60.0   33.333333333333336
250.0   60.0   16.666666666666668
200.0   60.0   33.333333333333336
250.0   90.0   33.333333333333336
250.0   60.0   16.666666666666668
200.0   90.0   16.666666666666668
200.0   60.0   33.333333333333336
250.0   60.0   33.333333333333336
200.0   90.0   33.333333333333336
200.0   60.0   50.0
250.0   60.0   33.333333333333336
250.0   90.0   33.333333333333336
200.0   90.0   33.333333333333336
250.0   90.0   50.0
200.0   60.0   50.0
200.0   90.0   50.0
250.0   90.0   50.0
200.0   90.0   33.333333333333336
200.0   60.0   50.0
250.0   90.0   50.0
250.0   60.0   50.0
250.0   60.0   33.333333333333336
200.0   60.0   50.0
250.0   90.0   50.0
250.0   60.0   33.333333333333336
200.0   90.0   33.333333333333336
200.0   90.0   0.0
250.0   90.0   0.0
200.0   120.0   0.0
200.0   90.0   16.666666666666668
250.0   90.0   0.0
250.0   120.0   0.0
200.0   120.0   0.0
250.0   120.0   16.666666666666668
200.0   90.0   16.666666666666668
200.0   120.0   16.666666666666668
250.0   120.0   16.666666666666668
200.0   120.0   0.0
200.0   90.0   16.666666666666668
250.0   120.0   16.666666666666668
250.0   90.0   16.666666666666668
250.0   90.0   0.0
200.0   90.0   16.666666666666668
250.0   120.0   16.666666666666668
250.0   90.0   0.0
200.0   120.0   0.0
200.0   90.0   16.666666666666668
250.0   90.0   16.666666666666668
200.0   120.0   16.666666666666668
200.0   90.0   33.333333333333336
250.0   90.0   16.666666666666668
250.0   120.0   16.666666666666668
200.0   120.0   16.666666666666668
250.0   120.0   33.333333333333336
200.0   90.0   33.333333333333336
200.0   120.0   33.333333333333336
250.0   120.0   33.333333333333336
200.0   120.0   16.666666666666668
200.0   90.0   33.333333333333336
250.0   120.0   33.333333333333336
250.0   90.0   33.333333333333336
250.0   90.0   16.666666666666668
200.0   90.0   33.333333333333336
250.0   120.0   33.333333333333336
250.0   90.0   16.666666666666668
200.0   120.0   16.666666666666668
200.0   90.0   33.333333333333336
250.0   90.0   33.333333333333336
200.0   120.0   33.333333333333336
200.0   90.0   50.0
250.0   90.0   33.333333333333336
250.0   120.0   33.333333333333336
200.0   120.0   33.333333333333336
250.0   120.0   50.0
200.0   90.0   50.0
200.0   120.0   50.0
250.0   120.0   50.0
200.0   120.0   33.333333333333336
200.0   90.0   50.0
250.0   120.0   50.0
250.0   90.0   50.0
250.0   90.0   33.333333333333336
200.0   90.0   50.0
250.0   120.0   50.0
250.0   90.0   33.333333333333336
200.0   120.0   33.333333333333336
200.0   120.0   0.0
250.0   120.0   0.0
200.0   150.0   0.0
200.0   120.0   16.666666666666668
250.0   120.0   0.0
250.0   150.0   0.0
200.0   150.0   0.0
250.0   150.0   16.666666666666668
200.0   120.0   16.666666666666668
200.0   150.0   16.666666666666668
250.0   150.0   16.666666666666668
200.0   150.0   0.0
200.0   120.0   16.666666666666668
250.0   150.0   16.666666666666668
250.0   120.0   16.666666666666668
250.0   120.0   0.0
200.0   120.0   16.666666666666668
250.0   150.0   16.666666666666668
250.0   120.0   0.0
200.0   150.0   0.0
200.0   120.0   16.666666666666668
250.0   120.0   16.666666666666668
200.0   150.0   16.666666666666668
200.0   120.0   33.333333333333336
250.0   120.0   16.666666666666668
250.0   150.0   16.666666666666668
200.0   150.0   16.666666666666668
250.0   150.0   33.333333333333336
200.0   120.0   33.333333333333336
200.0   150.0   33.333333333333336
250.0   150.0   33.333333333333336
200.0   150.0   16.666666666666668
200.0   120.0   33.333333333333336
250.0   150.0   33.333333333333336
250.0   120.0   33.333333333333336
250.0   120.0   16.666666666666668
200.0   120.0   33.333333333333336
250.0   150.0   33.333333333333336
250.0   120.0   16.666666666666668
200.0   150.0   16.666666666666668
200.0   120.0   33.333333333333336
250.0   120.0   33.333333333333336
200.0   150.0   33.333333333333336
200.0   120.0   50.0
250.0   120.0   33.333333333333336
250.0   150.0   33.333333333333336
200.0   150.0   33.333333333333336
250.0   150.0   50.0
200.0   120.0   50.0
200.0   150.0   50.0
250.0   150.0   50.0
200.0   150.0   33.333333333333336
200.0   120.0   50.0
250.0   150.0   50.0
250.0   120.0   50.0
250.0   120.0   33.333333333333336
200.0   120.0   50.0
250.0   150.0   50.0
250.0   120.0   33.333333333333336
200.0   150.0   33.333333333333336
250.0   0.0   0.0
300.0   0.0   0.0
250.0   30.0   0.0
250.0   0.0   16.666666666666668
300.0   0.0   0.0
300.0   30.0   0.0
250.0   30.0   0.0
300.0   30.0   16.666666666666668
250.0   0.0   16.666666666666668
250.0   30.0   16.666666666666668
300.0   30.0   16.666666666666668
250.0   30.0   0.0
250.0   0.0   16.666666666666668
300.0   30.0   16.666666666666668
300.0   0.0   16.666666666666668
300.0   0.0   0.0
250.0   0.0   16.666666666666668
300.0   30.0   16.666666666666668
300.0   0.0   0.0
250.0   30.0   0.0
250.0   0.0   16.666666666666668
300.0   0.0   16.666666666666668
250.0   30.0   16.666666666666668
250.0   0.0   33.333333333333336
300.0   0.0   16.666666666666668
300.0   30.0   16.666666666666668
250.0   30.0   16.666666666666668
300.0   30.0   33.333333333333336
250.0   0.0   33.333333333333336
250.0   30.0   33.333333333333336
300.0   30.0   33.333333333333336
250.0   30.0   16.666666666666668
250.0   0.0   33.333333333333336
300.0   30.0   33.333333333333336
300.0   0.0   33.333333333333336
300.0   0.0   16.666666666666668
250.0   0.0   33.333333333333336
300.0   30.0   33.333333333333336
300.0   0.0   16.666666666666668
250.0   30.0   16.666666666666668
250.0   0.0   33.333333333333336
300.0   0.0   33.333333333333336
250.0   30.0   33.333333333333336
250.0   0.0   50.0
300.0   0.0   33.333333333333336
300.0   30.0   33.333333333333336
250.0   30.0   33.333333333333336
300.0   30.0   50.0
250.0   0.0   50.0
250.0   30.0   50.0
300.0   30.0   50.0
250.0   30.0   33.333333333333336
250.0   0.0   50.0
300.0   30.0   50.0
300.0   0.0   50.0
300.0   0.0   33.333333333333336
250.0   0.0   50.0
300.0   30.0   50.0
300.0   0.0   33.333333333333336
250.0   30.0   33.333333333333336
250.0   30.0   0.0
300.0   30.0   0.0
250.0   60.0   0.0
250.0   30.0   16.666666666666668
300.0   30.0   0.0
300.0   60.0   0.0
250.0   60.0   0.0
300.0   60.0   16.666666666666668
250.0   30.0   16.666666666666668
250.0   60.0   16.666666666666668
300.0   60.0   16.666666666666668
250.0   60.0   0.0
250.0   30.0   16.666666666666668
300.0   60.0   16.666666666666668
300.0   30.0   16.666666666666668
300.0   30.0   0.0
250.0   30.0   16.666666666666668
300.0   60.0   16.666666666666668
300.0   30.0   0.0
250.0   60.0   0.0
250.0   30.0   16.666666666666668
300.0   30.0   16.666666666666668
250.0   60.0   16.666666666666668
250.0   30.0   33.333333333333336
300.0   30.0   16.666666666666668
300.0   60.0   16.666666666666668
250.0   60.0   16.666666666666668
300.0   60.0   33.333333333333336
250.0   30.0   33.333333333333336
250.0   60.0   33.333333333333336
300.0   60.0   33.333333333333336
250.0   60.0   16.666666666666668
250.0   30.0   33.333333333333336
300.0   60.0   33.333333333333336
300.0   30.0   33.333333333333336
300.0   30.0   16.666666666666668
250.0   30.0   33.333333333333336
300.0   60.0   33.333333333333336
300.0   30.0   16.666666666666668
250.0   60.0   16.666666666666668
250.0   30.0   33.333333333333336
300.0   30.0   33.333333333333336
250.0   60.0   33.333333333333336
250.0   30.0   50.0
300.0   30.0   33.333333333333336
300.0   60.0   33.333333333333336
250.0   60.0   33.333333333333336
300.0   60.0   50.0
250.0   30.0   50.0
250.0   60.0   50.0
300.0   60.0   50.0
250.0   60.0   33.333333333333336
250.0   30.0   50.0
300.0   60.0   50.0
300.0   30.0   50.0
300.0   30.0   33.333333333333336
250.0   30.0   50.0
300.0   60.0   50.0
300.0   30.0   33.333333333333336
250.0   60.0   33.333333333333336
250.0   60.0   0.0
300.0   60.0   0.0
250.0   90.0   0.0
250.0   60.0   16.666666666666668
300.0   60.0   0.0
300.0   90.0   0.0
250.0   90.0   0.0
300.0   90.0   16.666666666666668
250.0   60.0   16.666666666666668
250.0   90.0   16.666666666666668
300.0   90.0   16.666666666666668
250.0   90.0   0.0
250.0   60.0   16.666666666666668
300.0   90.0   16.666666666666668
300.0   60.0   16.666666666666668
300.0   60.0   0.0
250.0   60.0   16.666666666666668
300.0   90.0   16.666666666666668
300.0   60.0   0.0
250.0   90.0   0.0
250.0   60.0   16.666666666666668
300.0   60.0   16.666666666666668
250.0   90.0   16.666666666666668
250.0   60.0   33.333333333333336
300.0   60.0   16.666666666666668
300.0   90.0   16.666666666666668
250.0   90.0   16.666666666666668
300.0   90.0   33.333333333333336
250.0   60.0   33.333333333333336
250.0   90.0   33.333333333333336
300.0   90.0   33.333333333333336
250.0   90.0   16.666666666666668
250.0   60.0   33.333333333333336
300.0   90.0   33.333333333333336
300.0   60.0   33.333333333333336
300.0   60.0   16.666666666666668
250.0   60.0   33.333333333333336
300.0   90.0   33.333333333333336
300.0   60.0   16.666666666666668
250.0   90.0   16.666666666666668
250.0   60.0   33.333333333333336
300.0   60.0   33.333333333333336
250.0   90.0   33.333333333333336
250.0   60.0   50.0
300.0   60.0   33.333333333333336
300.0   90.0   33.333333333333336
250.0   90.0   33.333333333333336
300.0   90.0   50.0
250.0   60.0   50.0
250.0   90.0   50.0
300.0   90.0   50.0
250.0   90.0   33.333333333333336
250.0   60.0   50.0
300.0   90.0   50.0
300.0   60.0   50.0
300.0   60.0   33.333333333333336
250.0   60.0   50.0
300.0   90.0   50.0
300.0   60.0   33.333333333333336
250.0   90.0   33.333333333333336
250.0   90.0   0.0
300.0   90.0   0.0
250.0   120.0   0.0
250.0   90.0   16.666666666666668
300.0   90.0   0.0
300.0   120.0   0.0
250.0   120.0   0.0
300.0   120.0   16.666666666666668
250.0   90.0   16.666666666666668
250.0   120.0   16.666666666666668
300.0   120.0   16.666666666666668
250.0   120.0   0.0
250.0   90.0   16.666666666666668
300.0   120.0   16.666666666666668
300.0   90.0   16.666666666666668
300.0   90.0   0.0
250.0   90.0   16.666666666666668
300.0   120.0   16.666666666666668
300.0   90.0   0.0
250.0   120.0   0.0
250.0   90.0   16.666666666666668
300.0   90.0   16.666666666666668
250.0   120.0   16.666666666666668
250.0   90.0   33.333333333333336
300.0   90.0   16.666666666666668
300.0   120.0   16.666666666666668
250.0   120.0   16.666666666666668
300.0   120.0   33.333333333333336
250.0   90.0   33.333333333333336
250.0   120.0   33.333333333333336
300.0   120.0   33.333333333333336
250.0   120.0   16.666666666666668
250.0   90.0   33.333333333333336
300.0   120.0   33.333333333333336
300.0   90.0   33.333333333333336
300.0   90.0   16.666666666666668
250.0   90.0   33.333333333333336
300.0   120.0   33.333333333333336
300.0   90.0   16.666666666666668
250.0   120.0   16.666666666666668
250.0   90.0   33.333333333333336
300.0   90.0   33.333333333333336
250.0   120.0   33.333333333333336
250.0   90.0   50.0
300.0   90.0   33.333333333333336
300.0   120.0   33.333333333333336
250.0   120.0   33.333333333333336
300.0   120.0   50.0
250.0   90.0   50.0
250.0   120.0   50.0
300.0   120.0   50.0
250.0   120.0   33.333333333333336
250.0   90.0   50.0
300.0   120.0   50.0
300.0   90.0   50.0
300.0   90.0   33.333333333333336
250.0   90.0   50.0
300.0   120.0   50.0
300.0   90.0   33.333333333333336
250.0   120.0   33.333333333333336
250.0   120.0   0.0
300.0   120.0   0.0
250.0   150.0   0.0
250.0   120.0   16.666666666666668
300.0   120.0   0.0
300.0   150.0   0.0
250.0   150.0   0.0
300.0   150.0   16.666666666666668
250.0   120.0   16.666666666666668
250.0   150.0   16.666666666666668
300.0   150.0   16.666666666666668
250.0   150.0   0.0
250.0   120.0   16.666666666666668
300.0   150.0   16.666666666666668
300.0   120.0   16.666666666666668
300.0   120.0   0.0
250.0   120.0   16.666666666666668
300.0   150.0   16.666666666666668
300.0   120.0   0.0
250.0   150.0   0.0
250.0   120.0   16.666666666666668
300.0   120.0   16.666666666666668
250.0   150.0   16.666666666666668
250.0   120.0   33.333333333333336
300.0   120.0   16.666666666666668
300.0   150.0   16.666666666666668
250.0   150.0   16.666666666666668
300.0   150.0   33.333333333333336
250.0   120.0   33.333333333333336
250.0   150.0   33.333333333333336
300.0   150.0   33.333333333333336
250.0   150.0   16.666666666666668
250.0   120.0   33.333333333333336
300.0   150.0   33.333333333333336
300.0   120.0   33.333333333333336
300.0   120.0   16.666666666666668
250.0   120.0   33.333333333333336
300.0   150.0   33.333333333333336
300.0   120.0   16.666666666666668
250.0   150.0   16.666666666666668
250.0   120.0   33.333333333333336
300.0   120.0   33.333333333333336
250.0   150.0   33.333333333333336
250.0   120.0   50.0
300.0   120.0   33.333333333333336
300.0   150.0   33.333333333333336
250.0   150.0   33.333333333333336
300.0   150.0   50.0
250.0   120.0   50.0
250.0   150.0   50.0
300.0   150.0   50.0
250.0   150.0   33.333333333333336
250.0   120.0   50.0
300.0   150.0   50.0
300.0   120.0   50.0
300.0   120.0   33.333333333333336
250.0   120.0   50.0
300.0   150.0   50.0
300.0   120.0   33.333333333333336
250.0   150.0   33.333333333333336
300.0   0.0   0.0
350.0   0.0   0.0
300.0   30.0   0.0
300.0   0.0   16.666666666666668
350.0   0.0   0.0
350.0   30.0   0.0
300.0   30.0   0.0
350.0   30.0   16.666666666666668
300.0   0.0   16.666666666666668
300.0   30.0   16.666666666666668
350.0   30.0   16.666666666666668
300.0   30.0   0.0
300.0   0.0   16.666666666666668
350.0   30.0   16.666666666666668
350.0   0.0   16.666666666666668
350.0   0.0   0.0
300.0   0.0   16.666666666666668
350.0   30.0   16.666666666666668
350.0   0.0   0.0
300.0   30.0   0.0
300.0   0.0   16.666666666666668
350.0   0.0   16.666666666666668
300.0   30.0   16.666666666666668
300.0   0.0   33.333333333333336
350.0   0.0   16.666666666666668
350.0   30.0   16.666666666666668
300.0   30.0   16.666666666666668
350.0   30.0   33.333333333333336
300.0   0.0   33.333333333333336
300.0   30.0   33.333333333333336
350.0   30.0   33.333333333333336
300.0   30.0   16.666666666666668
300.0   0.0   33.333333333333336
350.0   30.0   33.333333333333336
350.0   0.0   33.333333333333336
350.0   0.0   16.666666666666668
300.0   0.0   33.333333333333336
350.0   30.0   33.333333333333336
350.0   0.0   16.666666666666668
300.0   30.0   16.666666666666668
300.0   0.0   33.333333333333336
350.0   0.0   33.333333333333336
300.0   30.0   33.333333333333336
300.0   0.0   50.0
350.0   0.0   33.333333333333336
350.0   30.0   33.333333333333336
300.0   30.0   33.333333333333336
350.0   30.0   50.0
300.0   0.0   50.0
300.0   30.0   50.0
350.0   30.0   50.0
300.0   30.0   33.333333333333336
300.0   0.0   50.0
350.0   30.0   50.0
350.0   0.0   50.0
350.0   0.0   33.333333333333336
300.0   0.0   50.0
350.0   30.0   50.0
350.0   0.0   33.333333333333336
300.0   30.0   33.333333333333336
300.0   30.0   0.0
350.0   30.0   0.0
300.0   60.0   0.0
300.0   30.0   16.666666666666668
350.0   30.0   0.0
350.0   60.0   0.0
300.0   60.0   0.0
350.0   60.0   16.666666666666668
300.0   30.0   16.666666666666668
300.0   60.0   16.666666666666668
350.0   60.0   16.666666666666668
300.0   60.0   0.0
300.0   30.0   16.666666666666668
350.0   60.0   16.666666666666668
350.0   30.0   16.666666666666668
350.0   30.0   0.0
300.0   30.0   16.666666666666668
350.0   60.0   16.666666666666668
350.0   30.0   0.0
300.0   60.0   0.0
300.0   30.0   16.666666666666668
350.0   30.0   16.666666666666668
300.0   60.0   16.666666666666668
300.0   30.0   33.333333333333336
350.0   30.0   16.666666666666668
350.0   60.0   16.666666666666668
300.0   60.0   16.666666666666668
350.0   60.0   33.333333333333336
300.0   30.0   33.333333333333336
300.0   60.0   33.333333333333336
350.0   60.0   33.333333333333336
300.0   60.0   16.666666666666668
300.0   30.0   33.333333333333336
350.0   60.0   33.333333333333336
350.0   30.0   33.333333333333336
350.0   30.0   16.666666666666668
300.0   30.0   33.333333333333336
350.0   60.0   33.333333333333336
350.0   30.0   16.666666666666668
300.0   60.0   16.666666666666668
300.0   30.0   33.333333333333336
350.0   30.0   33.333333333333336
300.0   60.0   33.333333333333336
300.0   30.0   50.0
350.0   30.0   33.333333333333336
350.0   60.0   33.333333333333336
300.0   60.0   33.333333333333336
350.0   60.0   50.0
300.0   30.0   50.0
300.0   60.0   50.0
350.0   60.0   50.0
300.0   60.0   33.333333333333336
300.0   30.0   50.0
350.0   60.0   50.0
350.0   30.0   50.0
350.0   30.0   33.333333333333336
300.0   30.0   50.0
350.0   60.0   50.0
350.0   30.0   33.333333333333336
300.0   60.0   33.333333333333336
300.0   60.0   0.0
350.0   60.0   0.0
300.0   90.0   0.0
300.0   60.0   16.666666666666668
350.0   60.0   0.0
350.0   90.0   0.0
300.0   90.0   0.0
350.0   90.0   16.666666666666668
300.0   60.0   16.666666666666668
300.0   90.0   16.666666666666668
350.0   90.0   16.666666666666668
300.0   90.0   0.0
300.0   60.0   16.666666666666668
350.0   90.0   16.666666666666668
350.0   60.0   16.666666666666668
350.0   60.0   0.0
300.0   60.0   16.666666666666668
350.0   90.0   16.666666666666668
350.0   60.0   0.0
300.0   90.0   0.0
300.0   60.0   16.666666666666668
350.0   60.0   16.666666666666668
300.0   90.0   16.666666666666668
300.0   60.0   33.333333333333336
350.0   60.0   16.666666666666668
350.0   90.0   16.666666666666668
300.0   90.0   16.666666666666668
350.0   90.0   33.333333333333336
300.0   60.0   33.333333333333336
300.0   90.0   33.333333333333336
350.0   90.0   33.333333333333336
300.0   90.0   16.666666666666668
300.0   60.0   33.333333333333336
350.0   90.0   33.333333333333336
350.0   60.0   33.333333333333336
350.0   60.0   16.666666666666668
300.0   60.0   33.333333333333336
350.0   90.0   33.333333333333336
350.0   60.0   16.666666666666668
300.0   90.0   16.666666666666668
300.0   60.0   33.333333333333336
350.0   60.0   33.333333333333336
300.0   90.0   33.333333333333336
300.0   60.0   50.0
350.0   60.0   33.333333333333336
350.0   90.0   33.333333333333336
300.0   90.0   33.333333333333336
350.0   90.0   50.0
300.0   60.0   50.0
300.0   90.0   50.0
350.0   90.0   50.0
300.0   90.0   33.333333333333336
300.0   60.0   50.0
350.0   90.0   50.0
350.0   60.0   50.0
350.0   60.0   33.333333333333336
300.0   60.0   50.0
350.0   90.0   50.0
350.0   60.0   33.333333333333336
300.0   90.0   33.333333333333336
300.0   90.0   0.0
350.0   90.0   0.0
300.0   120.0   0.0
300.0   90.0   16.666666666666668
350.0   90.0   0.0
350.0   120.0   0.0
300.0   120.0   0.0
350.0   120.0   16.666666666666668
300.0   90.0   16.666666666666668
300.0   120.0   16.666666666666668
350.0   120.0   16.666666666666668
300.0   120.0   0.0
300.0   90.0   16.666666666666668
350.0   120.0   16.666666666666668
350.0   90.0   16.666666666666668
350.0   90.0   0.0
300.0   90.0   16.666666666666668
350.0   120.0   16.666666666666668
350.0   90.0   0.0
300.0   120.0   0.0
300.0   90.0   16.666666666666668
350.0   90.0   16.666666666666668
300.0   120.0   16.666666666666668
300.0   90.0   33.333333333333336
350.0   90.0   16.666666666666668
350.0   120.0   16.666666666666668
300.0   120.0   16.666666666666668
350.0   120.0   33.333333333333336
300.0   90.0   33.333333333333336
300.0   120.0   33.333333333333336
350.0   120.0   33.333333333333336
300.0   120.0   16.666666666666668
300.0   90.0   33.333333333333336
350.0   120.0   33.333333333333336
350.0   90.0   33.333333333333336
350.0   90.0   16.666666666666668
300.0   90.0   33.333333333333336
350.0   120.0   33.333333333333336
350.0   90.0   16.666666666666668
300.0   120.0   16.666666666666668
300.0   90.0   33.333333333333336
350.0   90.0   33.333333333333336
300.0   120.0   33.333333333333336
300.0   90.0   50.0
350.0   90.0   33.333333333333336
350.0   120.0   33.333333333333336
300.0   120.0   33.333333333333336
350.0   120.0   50.0
300.0   90.0   50.0
300.0   120.0   50.0
350.0   120.0   50.0
300.0   120.0   33.333333333333336
300.0   90.0   50.0
350.0   120.0   50.0
350.0   90.0   50.0
350.0   90.0   33.333333333333336
300.0   90.0   50.0
350.0   120.0   50.0
350.0   90.0   33.333333333333336
300.0   120.0   33.333333333333336
300.0   120.0   0.0
350.0   120.0   0.0
300.0   150.0   0.0
300.0   120.0   16.666666666666668
350.0   120.0   0.0
350.0   150.0   0.0
300.0   150.0   0.0
350.0   150.0   16.666666666666668
300.0   120.0   16.666666666666668
300.0   150.0   16.666666666666668
350.0   150.0   16.666666666666668
300.0   150.0   0.0
300.0   120.0   16.666666666666668
350.0   150.0   16.666666666666668
350.0   120.0   16.666666666666668
350.0   120.0   0.0
300.0   120.0   16.666666666666668
350.0   150.0   16.666666666666668
350.0   120.0   0.0
300.0   150.0   0.0
300.0   120.0   16.666666666666668
350.0   120.0   16.666666666666668
300.0   150.0   16.666666666666668
300.0   120.0   33.333333333333336
350.0   120.0   16.666666666666668
350.0   150.0   16.666666666666668
300.0   150.0   16.666666666666668
350.0   150.0   33.333333333333336
300.0   120.0   33.333333333333336
300.0   150.0   33.333333333333336
350.0   150.0   33.333333333333336
300.0   150.0   16.666666666666668
300.0   120.0   33.333333333333336
350.0   150.0   33.333333333333336
350.0   120.0   33.333333333333336
350.0   120.0   16.666666666666668
300.0   120.0   33.333333333333336
350.0   150.0   33.333333333333336
350.0   120.0   16.666666666666668
300.0   150.0   16.666666666666668
300.0   120.0   33.333333333333336
350.0   120.0   33.333333333333336
300.0   150.0   33.333333333333336
300.0   120.0   50.0
350.0   120.0   33.333333333333336
350.0   150.0   33.333333333333336
300.0   150.0   33.333333333333336
350.0   150.0   50.0
300.0   120.0   50.0
300.0   150.0   50.0
350.0   150.0   50.0
300.0   150.0   33.333333333333336
300.0   120.0   50.0
350.0   150.0   50.0
350.0   120.0   50.0
350.0   120.0   33.333333333333336
300.0   120.0   50.0
350.0   150.0   50.0
350.0   120.0   33.333333333333336
300.0   150.0   33.333333333333336
350.0   0.0   0.0
400.0   0.0   0.0
350.0   30.0   0.0
350.0   0.0   16.666666666666668
400.0   0.0   0.0
400.0   30.0   0.0
350.0   30.0   0.0
400.0   30.0   16.666666666666668
350.0   0.0   16.666666666666668
350.0   30.0   16.666666666666668
400.0   30.0   16.666666666666668
350.0   30.0   0.0
350.0   0.0   16.666666666666668
400.0   30.0   16.666666666666668
400.0   0.0   16.666666666666668
400.0   0.0   0.0
350.0   0.0   16.666666666666668
400.0   30.0   16.666666666666668
400.0   0.0   0.0
350.0   30.0   0.0
350.0   0.0   16.666666666666668
400.0   0.0   16.666666666666668
350.0   30.0   16.666666666666668
350.0   0.0   33.333333333333336
400.0   0.0   16.666666666666668
400.0   30.0   16.666666666666668
350.0   30.0   16.666666666666668
400.0   30.0   33.333333333333336
350.0   0.0   33.333333333333336
350.0   30.0   33.333333333333336
400.0   30.0   33.333333333333336
350.0   30.0   16.666666666666668
350.0   0.0   33.333333333333336
400.0   30.0   33.333333333333336
400.0   0.0   33.333333333333336
400.0   0.0   16.666666666666668
350.0   0.0   33.333333333333336
400.0   30.0   33.333333333333336
400.0   0.0   16.666666666666668
350.0   30.0   16.666666666666668
350.0   0.0   33.333333333333336
400.0   0.0   33.333333333333336
350.0   30.0   33.333333333333336
350.0   0.0   50.0
400.0   0.0   33.333333333333336
400.0   30.0   33.333333333333336
350.0   30.0   33.333333333333336
400.0   30.0   50.0
350.0   0.0   50.0
350.0   30.0   50.0
400.0   30.0   50.0
350.0   30.0   33.333333333333336
350.0   0.0   50.0
400.0   30.0   50.0
400.0   0.0   50.0
400.0   0.0   33.333333333333336
350.0   0.0   50.0
400.0   30.0   50.0
400.0   0.0   33.333333333333336
350.0   30.0   33.333333333333336
350.0   30.0   0.0
400.0   30.0   0.0
350.0   60.0   0.0
350.0   30.0   16.666666666666668
400.0   30.0   0.0
400.0   60.0   0.0
350.0   60.0   0.0
400.0   60.0   16.666666666666668
350.0   30.0   16.666666666666668
350.0   60.0   16.666666666666668
400.0   60.0   16.666666666666668
350.0   60.0   0.0
350.0   30.0   16.666666666666668
400.0   60.0   16.666666666666668
400.0   30.0   16.666666666666668
400.0   30.0   0.0
350.0   30.0   16.666666666666668
400.0   60.0   16.666666666666668
400.0   30.0   0.0
350.0   60.0   0.0
350.0   30.0   16.666666666666668
400.0   30.0   16.666666666666668
350.0   60.0   16.666666666666668
350.0   30.0   33.333333333333336
400.0   30.0   16.666666666666668
400.0   60.0   16.666666666666668
350.0   60.0   16.666666666666668
400.0   60.0   33.333333333333336
350.0   30.0   33.333333333333336
350.0   60.0   33.333333333333336
400.0   60.0   33.333333333333336
350.0   60.0   16.666666666666668
350.0   30.0   33.333333333333336
400.0   60.0   33.333333333333336
400.0   30.0   33.333333333333336
400.0   30.0   16.666666666666668
350.0   30.0   33.333333333333336
400.0   60.0   33.333333333333336
400.0   30.0   16.666666666666668
350.0   60.0   16.666666666666668
350.0   30.0   33.333333333333336
400.0   30.0   33.333333333333336
350.0   60.0   33.333333333333336
350.0   30.0   50.0
400.0   30.0   33.333333333333336
400.0   60.0   33.333333333333336
350.0   60.0   33.333333333333336
400.0   60.0   50.0
350.0   30.0   50.0
350.0   60.0   50.0
400.0   60.0   50.0
350.0   60.0   33.333333333333336
350.0   30.0   50.0
400.0   60.0   50.0
400.0   30.0   50.0
400.0   30.0   33.333333333333336
350.0   30.0   50.0
400.0   60.0   50.0
400.0   30.0   33.333333333333336
350.0   60.0   33.333333333333336
350.0   60.0   0.0
400.0   60.0   0.0
350.0   90.0   0.0
350.0   60.0   16.666666666666668
400.0   60.0   0.0
400.0   90.0   0.0
350.0   90.0   0.0
400.0   90.0   16.666666666666668
350.0   60.0   16.666666666666668
350.0   90.0   16.666666666666668
400.0   90.0   16.666666666666668
350.0   90.0   0.0
350.0   60.0   16.666666666666668
400.0   90.0   16.666666666666668
400.0   60.0   16.666666666666668
400.0   60.0   0.0
350.0   60.0   16.666666666666668
400.0   90.0   16.666666666666668
400.0   60.0   0.0
350.0   90.0   0.0
350.0   60.0   16.666666666666668
400.0   60.0   16.666666666666668
350.0   90.0   16.666666666666668
350.0   60.0   33.333333333333336
400.0   60.0   16.666666666666668
400.0   90.0   16.666666666666668
350.0   90.0   16.666666666666668
400.0   90.0   33.333333333333336
350.0   60.0   33.333333333333336
350.0   90.0   33.333333333333336
400.0   90.0   33.333333333333336
350.0   90.0   16.666666666666668
350.0   60.0   33.333333333333336
400.0   90.0   33.333333333333336
400.0   60.0   33.333333333333336
400.0   60.0   16.666666666666668
350.0   60.0   33.333333333333336
400.0   90.0   33.333333333333336
400.0   60.0   16.666666666666668
350.0   90.0   16.666666666666668
350.0   60.0   33.333333333333336
400.0   60.0   33.333333333333336
350.0   90.0   33.333333333333336
350.0   60.0   50.0
400.0   60.0   33.333333333333336
400.0   90.0   33.333333333333336
350.0   90.0   33.333333333333336
400.0   90.0   50.0
350.0   60.0   50.0
350.0   90.0   50.0
400.0   90.0   50.0
350.0   90.0   33.333333333333336
350.0   60.0   50.0
400.0   90.0   50.0
400.0   60.0   50.0
400.0   60.0   33.333333333333336
350.0   60.0   50.0
400.0   90.0   50.0
400.0   60.0   33.333333333333336
350.0   90.0   33.333333333333336
350.0   90.0   0.0
400.0   90.0   0.0
350.0   120.0   0.0
350.0   90.0   16.666666666666668
400.0   90.0   0.0
400.0   120.0   0.0
350.0   120.0   0.0
400.0   120.0   16.666666666666668
350.0   90.0   16.666666666666668
350.0   120.0   16.666666666666668
400.0   120.0   16.666666666666668
350.0   120.0   0.0
350.0   90.0   16.666666666666668
400.0   120.0   16.666666666666668
400.0   90.0   16.666666666666668
400.0   90.0   0.0
350.0   90.0   16.666666666666668
400.0   120.0   16.666666666666668
400.0   90.0   0.0
350.0   120.0   0.0
350.0   90.0   16.666666666666668
400.0   90.0   16.666666666666668
350.0   120.0   16.666666666666668
350.0   90.0   33.333333333333336
400.0   90.0   16.666666666666668
400.0   120.0   16.666666666666668
350.0   120.0   16.666666666666668
400.0   120.0   33.333333333333336
350.0   90.0   33.333333333333336
350.0   120.0   33.333333333333336
400.0   120.0   33.333333333333336
350.0   120.0   16.666666666666668
350.0   90.0   33.333333333333336
400.0   120.0   33.333333333333336
400.0   90.0   33.333333333333336
400.0   90.0   16.666666666666668
350.0   90.0   33.333333333333336
400.0   120.0   33.333333333333336
400.0   90.0   16.666666666666668
350.0   120.0   16.666666666666668
350.0   90.0   33.333333333333336
400.0   90.0   33.333333333333336
350.0   120.0   33.333333333333336
350.0   90.0   50.0
400.0   90.0   33.333333333333336
400.0   120.0   33.333333333333336
350.0   120.0   33.333333333333336
400.0   120.0   50.0
350.0   90.0   50.0
350.0   120.0   50.0
400.0   120.0   50.0
350.0   120.0   33.333333333333336
350.0   90.0   50.0
400.0   120.0   50.0
400.0   90.0   50.0
400.0   90.0   33.333333333333336
350.0   90.0   50.0
400.0   120.0   50.0
400.0   90.0   33.333333333333336
350.0   120.0   33.333333333333336
350.0   120.0   0.0
400.0   120.0   0.0
350.0   150.0   0.0
350.0   120.0   16.666666666666668
400.0   120.0   0.0
400.0   150.0   0.0
350.0   150.0   0.0
400.0   150.0   16.666666666666668
350.0   120.0   16.666666666666668
350.0   150.0   16.666666666666668
400.0   150.0   16.666666666666668
350.0   150.0   0.0
350.0   120.0   16.666666666666668
400.0   150.0   16.666666666666668
400.0   120.0   16.666666666666668
400.0   120.0   0.0
350.0   120.0   16.666666666666668
400.0   150.0   16.666666666666668
400.0   120.0   0.0
350.0   150.0   0.0
350.0   120.0   16.666666666666668
400.0   120.0   16.666666666666668
350.0   150.0   16.666666666666668
350.0   120.0   33.333333333333336
400.0   120.0   16.666666666666668
400.0   150.0   16.666666666666668
350.0   150.0   16.666666666666668
400.0   150.0   33.333333333333336
350.0   120.0   33.333333333333336
350.0   150.0   33.333333333333336
400.0   150.0   33.333333333333336
350.0   150.0   16.666666666666668
350.0   120.0   33.333333333333336
400.0   150.0   33.333333333333336
400.0   120.0   33.333333333333336
400.0   120.0   16.666666666666668
350.0   120.0   33.333333333333336
400.0   150.0   33.333333333333336
400.0   120.0   16.666666666666668
350.0   150.0   16.666666666666668
350.0   120.0   33.333333333333336
400.0   120.0   33.333333333333336
350.0   150.0   33.333333333333336
350.0   120.0   50.0
400.0   120.0   33.333333333333336
400.0   150.0   33.333333333333336
350.0   150.0   33.333333333333336
400.0   150.0   50.0
350.0   120.0   50.0
350.0   150.0   50.0
400.0   150.0   50.0
350.0   150.0   33.333333333333336
350.0   120.0   50.0
400.0   150.0   50.0
400.0   120.0   50.0
400.0   120.0   33.333333333333336
350.0   120.0   50.0
400.0   150.0   50.0
400.0   120.0   33.333333333333336
350.0   150.0   33.333333333333336
400.0   0.0   0.0
450.0   0.0   0.0
400.0   30.0   0.0
400.0   0.0   16.666666666666668
450.0   0.0   0.0
450.0   30.0   0.0
400.0   30.0   0.0
450.0   30.0   16.666666666666668
400.0   0.0   16.666666666666668
400.0   30.0   16.666666666666668
450.0   30.0   16.666666666666668
400.0   30.0   0.0
400.0   0.0   16.666666666666668
450.0   30.0   16.666666666666668
450.0   0.0   16.666666666666668
450.0   0.0   0.0
400.0   0.0   16.666666666666668
450.0   30.0   16.666666666666668
450.0   0.0   0.0
400.0   30.0   0.0
400.0   0.0   16.666666666666668
450.0   0.0   16.666666666666668
400.0   30.0   16.666666666666668
400.0   0.0   33.333333333333336
450.0   0.0   16.666666666666668
450.0   30.0   16.666666666666668
400.0   30.0   16.666666666666668
450.0   30.0   33.333333333333336
400.0   0.0   33.333333333333336
400.0   30.0   33.333333333333336
450.0   30.0   33.333333333333336
400.0   30.0   16.666666666666668
400.0   0.0   33.333333333333336
450.0   30.0   33.333333333333336
450.0   0.0   33.333333333333336
450.0   0.0   16.666666666666668
400.0   0.0   33.333333333333336
450.0   30.0   33.333333333333336
450.0   0.0   16.666666666666668
400.0   30.0   16.666666666666668
400.0   0.0   33.333333333333336
450.0   0.0   33.333333333333336
400.0   30.0   33.333333333333336
400.0   0.0   50.0
450.0   0.0   33.333333333333336
450.0   30.0   33.333333333333336
400.0   30.0   33.333333333333336
450.0   30.0   50.0
400.0   0.0   50.0
400.0   30.0   50.0
450.0   30.0   50.0
400.0   30.0   33.333333333333336
400.0   0.0   50.0
450.0   30.0   50.0
450.0   0.0   50.0
450.0   0.0   33.333333333333336
400.0   0.0   50.0
450.0   30.0   50.0
450.0   0.0   33.333333333333336
400.0   30.0   33.333333333333336
400.0   30.0   0.0
450.0   30.0   0.0
400.0   60.0   0.0
400.0   30.0   16.666666666666668
450.0   30.0   0.0
450.0   60.0   0.0
400.0   60.0   0.0
450.0   60.0   16.666666666666668
400.0   30.0   16.666666666666668
400.0   60.0   16.666666666666668
450.0   60.0   16.666666666666668
400.0   60.0   0.0
400.0   30.0   16.666666666666668
450.0   60.0   16.666666666666668
450.0   30.0   16.666666666666668
450.0   30.0   0.0
400.0   30.0   16.666666666666668
450.0   60.0   16.666666666666668
450.0   30.0   0.0
400.0   60.0   0.0
400.0   30.0   16.666666666666668
450.0   30.0   16.666666666666668
400.0   60.0   16.666666666666668
400.0   30.0   33.333333333333336
450.0   30.0   16.666666666666668
450.0   60.0   16.666666666666668
400.0   60.0   16.666666666666668
450.0   60.0   33.333333333333336
400.0   30.0   33.333333333333336
400.0   60.0   33.333333333333336
450.0   60.0   33.333333333333336
400.0   60.0   16.666666666666668
400.0   30.0   33.333333333333336
450.0   60.0   33.333333333333336
450.0   30.0   33.333333333333336
450.0   30.0   16.666666666666668
400.0   30.0   33.333333333333336
450.0   60.0   33.333333333333336
450.0   30.0   16.666666666666668
400.0   60.0   16.666666666666668
400.0   30.0   33.333333333333336
450.0   30.0   33.333333333333336
400.0   60.0   33.333333333333336
400.0   30.0   50.0
450.0   30.0   33.333333333333336
450.0   60.0   33.333333333333336
400.0   60.0   33.333333333333336
450.0   60.0   50.0
400.0   30.0   50.0
400.0   60.0   50.0
450.0   60.0   50.0
400.0   60.0   33.333333333333336
400.0   30.0   50.0
450.0   60.0   50.0
450.0   30.0   50.0
450.0   30.0   33.333333333333336
400.0   30.0   50.0
450.0   60.0   50.0
450.0   30.0   33.333333333333336
400.0   60.0   33.333333333333336
400.0   60.0   0.0
450.0   60.0   0.0
400.0   90.0   0.0
400.0   60.0   16.666666666666668
450.0   60.0   0.0
450.0   90.0   0.0
400.0   90.0   0.0
450.0   90.0   16.666666666666668
400.0   60.0   16.666666666666668
400.0   90.0   16.666666666666668
450.0   90.0   16.666666666666668
400.0   90.0   0.0
400.0   60.0   16.666666666666668
450.0   90.0   16.666666666666668
450.0   60.0   16.666666666666668
450.0   60.0   0.0
400.0   60.0   16.666666666666668
450.0   90.0   16.666666666666668
450.0   60.0   0.0
400.0   90.0   0.0
400.0   60.0   16.666666666666668
450.0   60.0   16.666666666666668
400.0   90.0   16.666666666666668
400.0   60.0   33.333333333333336
450.0   60.0   16.666666666666668
450.0   90.0   16.666666666666668
400.0   90.0   16.666666666666668
450.0   90.0   33.333333333333336
400.0   60.0   33.333333333333336
400.0   90.0   33.333333333333336
450.0   90.0   33.333333333333336
400.0   90.0   16.666666666666668
400.0   60.0   33.333333333333336
450.0   90.0   33.333333333333336
450.0   60.0   33.333333333333336
450.0   60.0   16.666666666666668
400.0   60.0   33.333333333333336
450.0   90.0   33.333333333333336
450.0   60.0   16.666666666666668
400.0   90.0   16.666666666666668
400.0   60.0   33.333333333333336
450.0   60.0   33.333333333333336
400.0   90.0   33.333333333333336
400.0   60.0   50.0
450.0   60.0   33.333333333333336
450.0   90.0   33.333333333333336
400.0   90.0   33.333333333333336
450.0   90.0   50.0
400.0   60.0   50.0
400.0   90.0   50.0
450.0   90.0   50.0
400.0   90.0   33.333333333333336
400.0   60.0   50.0
450.0   90.0   50.0
450.0   60.0   50.0
450.0   60.0   33.333333333333336
400.0   60.0   50.0
450.0   90.0   50.0
450.0   60.0   33.333333333333336
400.0   90.0   33.333333333333336
400.0   90.0   0.0
450.0   90.0   0.0
400.0   120.0   0.0
400.0   90.0   16.666666666666668
450.0   90.0   0.0
450.0   120.0   0.0
400.0   120.0   0.0
450.0   120.0   16.666666666666668
400.0   90.0   16.666666666666668
400.0   120.0   16.666666666666668
450.0   120.0   16.666666666666668
400.0   120.0   0.0
400.0   90.0   16.666666666666668
450.0   120.0   16.666666666666668
450.0   90.0   16.666666666666668
450.0   90.0   0.0
400.0   90.0   16.666666666666668
450.0   120.0   16.666666666666668
450.0   90.0   0.0
400.0   120.0   0.0
400.0   90.0   16.666666666666668
450.0   90.0   16.666666666666668
400.0   120.0   16.666666666666668
400.0   90.0   33.333333333333336
450.0   90.0   16.666666666666668
450.0   120.0   16.666666666666668
400.0   120.0   16.666666666666668
450.0   120.0   33.333333333333336
400.0   90.0   33.333333333333336
400.0   120.0   33.333333333333336
450.0   120.0   33.333333333333336
400.0   120.0   16.666666666666668
400.0   90.0   33.333333333333336
450.0   120.0   33.333333333333336
450.0   90.0   33.333333333333336
450.0   90.0   16.666666666666668
400.0   90.0   33.333333333333336
450.0   120.0   33.333333333333336
450.0   90.0   16.666666666666668
400.0   120.0   16.666666666666668
400.0   90.0   33.333333333333336
450.0   90.0   33.333333333333336
400.0   120.0   33.333333333333336
400.0   90.0   50.0
450.0   90.0   33.333333333333336
450.0   120.0   33.333333333333336
400.0   120.0   33.333333333333336
450.0   120.0   50.0
400.0   90.0   50.0
400.0   120.0   50.0
450.0   120.0   50.0
400.0   120.0   33.333333333333336
400.0   90.0   50.0
450.0   120.0   50.0
450.0   90.0   50.0
450.0   90.0   33.333333333333336
400.0   90.0   50.0
450.0   120.0   50.0
450.0   90.0   33.333333333333336
400.0   120.0   33.333333333333336
400.0   120.0   0.0
450.0   120.0   0.0
400.0   150.0   0.0
400.0   120.0   16.666666666666668
450.0   120.0   0.0
450.0   150.0   0.0
400.0   150.0   0.0
450.0   150.0   16.666666666666668
400.0   120.0   16.666666666666668
400.0   150.0   16.666666666666668
450.0   150.0   16.666666666666668
400.0   150.0   0.0
400.0   120.0   16.666666666666668
450.0   150.0   16.666666666666668
450.0   120.0   16.666666666666668
450.0   120.0   0.0
400.0   120.0   16.666666666666668
450.0   150.0   16.666666666666668
450.0   120.0   0.0
400.0   150.0   0.0
400.0   120.0   16.666666666666668
450.0   120.0   16.666666666666668
400.0   150.0   16.666666666666668
400.0   120.0   33.333333333333336
450.0   120.0   16.666666666666668
450.0   150.0   16.666666666666668
400.0   150.0   16.666666666666668
450.0   150.0   33.333333333333336
400.0   120.0   33.333333333333336
400.0   150.0   33.333333333333336
450.0   150.0   33.333333333333336
400.0   150.0   16.666666666666668
400.0   120.0   33.333333333333336
450.0   150.0   33.333333333333336
450.0   120.0   33.333333333333336
450.0   120.0   16.666666666666668
400.0   120.0   33.333333333333336
450.0   150.0   33.333333333333336
450.0   120.0   16.666666666666668
400.0   150.0   16.666666666666668
400.0   120.0   33.333333333333336
450.0   120.0   33.333333333333336
400.0   150.0   33.333333333333336
400.0   120.0   50.0
450.0   120.0   33.333333333333336
450.0   150.0   33.333333333333336
400.0   150.0   33.333333333333336
450.0   150.0   50.0
400.0   120.0   50.0
400.0   150.0   50.0
450.0   150.0   50.0
400.0   150.0   33.333333333333336
400.0   120.0   50.0
450.0   150.0   50.0
450.0   120.0   50.0
450.0   120.0   33.333333333333336
400.0   120.0   50.0
450.0   150.0   50.0
450.0   120.0   33.333333333333336
400.0   150.0   33.333333333333336
450.0   0.0   0.0
500.0   0.0   0.0
450.0   30.0   0.0
450.0   0.0   16.666666666666668
500.0   0.0   0.0
500.0   30.0   0.0
450.0   30.0   0.0
500.0   30.0   16.666666666666668
450.0   0.0   16.666666666666668
450.0   30.0   16.666666666666668
500.0   30.0   16.666666666666668
450.0   30.0   0.0
450.0   0.0   16.666666666666668
500.0   30.0   16.666666666666668
500.0   0.0   16.666666666666668
500.0   0.0   0.0
450.0   0.0   16.666666666666668
500.0   30.0   16.666666666666668
500.0   0.0   0.0
450.0   30.0   0.0
450.0   0.0   16.666666666666668
500.0   0.0   16.666666666666668
450.0   30.0   16.666666666666668
450.0   0.0   33.333333333333336
500.0   0.0   16.666666666666668
500.0   30.0   16.666666666666668
450.0   30.0   16.666666666666668
500.0   30.0   33.333333333333336
450.0   0.0   33.333333333333336
450.0   30.0   33.333333333333336
500.0   30.0   33.333333333333336
450.0   30.0   16.666666666666668
450.0   0.0   33.333333333333336
500.0   30.0   33.333333333333336
500.0   0.0   33.333333333333336
500.0   0.0   16.666666666666668
450.0   0.0   33.333333333333336
500.0   30.0   33.333333333333336
500.0   0.0   16.666666666666668
450.0   30.0   16.666666666666668
450.0   0.0   33.333333333333336
500.0   0.0   33.333333333333336
450.0   30.0   33.333333333333336
450.0   0.0   50.0
500.0   0.0   33.333333333333336
500.0   30.0   33.333333333333336
450.0   30.0   33.333333333333336
500.0   30.0   50.0
450.0   0.0   50.0
450.0   30.0   50.0
500.0   30.0   50.0
450.0   30.0   33.333333333333336
450.0   0.0   50.0
500.0   30.0   50.0
500.0   0.0   50.0
500.0   0.0   33.333333333333336
450.0   0.0   50.0
500.0   30.0   50.0
500.0   0.0   33.333333333333336
450.0   30.0   33.333333333333336
450.0   30.0   0.0
500.0   30.0   0.0
450.0   60.0   0.0
450.0   30.0   16.666666666666668
500.0   30.0   0.0
500.0   60.0   0.0
450.0   60.0   0.0
500.0   60.0   16.666666666666668
450.0   30.0   16.666666666666668
450.0   60.0   16.666666666666668
500.0   60.0   16.666666666666668
450.0   60.0   0.0
450.0   30.0   16.666666666666668
500.0   60.0   16.666666666666668
500.0   30.0   16.666666666666668
500.0   30.0   0.0
450.0   30.0   16.666666666666668
500.0   60.0   16.666666666666668
500.0   30.0   0.0
450.0   60.0   0.0
450.0   30.0   16.666666666666668
500.0   30.0   16.666666666666668
450.0   60.0   16.666666666666668
450.0   30.0   33.333333333333336
500.0   30.0   16.666666666666668
500.0   60.0   16.666666666666668
450.0   60.0   16.666666666666668
500.0   60.0   33.333333333333336
450.0   30.0   33.333333333333336
450.0   60.0   33.333333333333336
500.0   60.0   33.333333333333336
450.0   60.0   16.666666666666668
450.0   30.0   33.333333333333336
500.0   60.0   33.333333333333336
500.0   30.0   33.333333333333336
500.0   30.0   16.666666666666668
450.0   30.0   33.333333333333336
500.0   60.0   33.333333333333336
500.0   30.0   16.666666666666668
450.0   60.0   16.666666666666668
450.0   30.0   33.333333333333336
500.0   30.0   33.333333333333336
450.0   60.0   33.333333333333336
450.0   30.0   50.0
500.0   30.0   33.333333333333336
500.0   60.0   33.333333333333336
450.0   60.0   33.333333333333336
500.0   60.0   50.0
450.0   30.0   50.0
450.0   60.0   50.0
500.0   60.0   50.0
450.0   60.0   33.333333333333336
450.0   30.0   50.0
500.0   60.0   50.0
500.0   30.0   50.0
500.0   30.0   33.333333333333336
450.0   30.0   50.0
500.0   60.0   50.0
500.0   30.0   33.333333333333336
450.0   60.0   33.333333333333336
450.0   60.0   0.0
500.0   60.0   0.0
450.0   90.0   0.0
450.0   60.0   16.666666666666668
500.0   60.0   0.0
500.0   90.0   0.0
450.0   90.0   0.0
500.0   90.0   16.666666666666668
450.0   60.0   16.666666666666668
450.0   90.0   16.666666666666668
500.0   90.0   16.666666666666668
450.0   90.0   0.0
450.0   60.0   16.666666666666668
500.0   90.0   16.666666666666668
500.0   60.0   16.666666666666668
500.0   60.0   0.0
450.0   60.0   16.666666666666668
500.0   90.0   16.666666666666668
500.0   60.0   0.0
450.0   90.0   0.0
450.0   60.0   16.666666666666668
500.0   60.0   16.666666666666668
450.0   90.0   16.666666666666668
450.0   60.0   33.333333333333336
500.0   60.0   16.666666666666668
500.0   90.0   16.666666666666668
450.0   90.0   16.666666666666668
500.0   90.0   33.333333333333336
450.0   60.0   33.333333333333336
450.0   90.0   33.333333333333336
500.0   90.0   33.333333333333336
450.0   90.0   16.666666666666668
450.0   60.0   33.333333333333336
500.0   90.0   33.333333333333336
500.0   60.0   33.333333333333336
500.0   60.0   16.666666666666668
450.0   60.0   33.333333333333336
500.0   90.0   33.333333333333336
500.0   60.0   16.666666666666668
450.0   90.0   16.666666666666668
450.0   60.0   33.333333333333336
500.0   60.0   33.333333333333336
450.0   90.0   33.333333333333336
450.0   60.0   50.0
500.0   60.0   33.333333333333336
500.0   90.0   33.333333333333336
450.0   90.0   33.333333333333336
500.0   90.0   50.0
450.0   60.0   50.0
450.0   90.0   50.0
500.0   90.0   50.0
450.0   90.0   33.333333333333336
450.0   60.0   50.0
500.0   90.0   50.0
500.0   60.0   50.0
500.0   60.0   33.333333333333336
450.0   60.0   50.0
500.0   90.0   50.0
500.0   60.0   33.333333333333336
450.0   90.0   33.333333333333336
450.0   90.0   0.0
500.0   90.0   0.0
450.0   120.0   0.0
450.0   90.0   16.666666666666668
500.0   90.0   0.0
500.0   120.0   0.0
450.0   120.0   0.0
500.0   120.0   16.666666666666668
450.0   90.0   16.666666666666668
450.0   120.0   16.666666666666668
500.0   120.0   16.666666666666668
450.0   120.0   0.0
450.0   90.0   16.666666666666668
500.0   120.0   16.666666666666668
500.0   90.0   16.666666666666668
500.0   90.0   0.0
450.0   90.0   16.666666666666668
500.0   120.0   16.666666666666668
500.0   90.0   0.0
450.0   120.0   0.0
450.0   90.0   16.666666666666668
500.0   90.0   16.666666666666668
450.0   120.0   16.666666666666668
450.0   90.0   33.333333333333336
500.0   90.0   16.666666666666668
500.0   120.0   16.666666666666668
450.0   120.0   16.666666666666668
500.0   120.0   33.333333333333336
450.0   90.0   33.333333333333336
450.0   120.0   33.333333333333336
500.0   120.0   33.333333333333336
450.0   120.0   16.666666666666668
450.0   90.0   33.333333333333336
500.0   120.0   33.333333333333336
500.0   90.0   33.333333333333336
500.0   90.0   16.666666666666668
450.0   90.0   33.333333333333336
500.0   120.0   33.333333333333336
500.0   90.0   16.666666666666668
450.0   120.0   16.666666666666668
450.0   90.0   33.333333333333336
500.0   90.0   33.333333333333336
450.0   120.0   33.333333333333336
450.0   90.0   50.0
500.0   90.0   33.333333333333336
500.0   120.0   33.333333333333336
450.0   120.0   33.333333333333336
500.0   120.0   50.0
450.0   90.0   50.0
450.0   120.0   50.0
500.0   120.0   50.0
450.0   120.0   33.333333333333336
450.0   90.0   50.0
500.0   120.0   50.0
500.0   90.0   50.0
500.0   90.0   33.333333333333336
450.0   90.0   50.0
500.0   120.0   50.0
500.0   90.0   33.333333333333336
450.0   120.0   33.333333333333336
450.0   120.0   0.0
500.0   120.0   0.0
450.0   150.0   0.0
450.0   120.0   16.666666666666668
500.0   120.0   0.0
500.0   150.0   0.0
450.0   150.0   0.0
500.0   150.0   16.666666666666668
450.0   120.0   16.666666666666668
450.0   150.0   16.666666666666668
500.0   150.0   16.666666666666668
450.0   150.0   0.0
450.0   120.0   16.666666666666668
500.0   150.0   16.666666666666668
500.0   120.0   16.666666666666668
500.0   120.0   0.0
450.0   120.0   16.666666666666668
500.0   150.0   16.666666666666668
500.0   120.0   0.0
450.0   150.0   0.0
450.0   120.0   16.666666666666668
500.0   120.0   16.666666666666668
450.0   150.0   16.666666666666668
450.0   120.0   33.333333333333336
500.0   120.0   16.666666666666668
500.0   150.0   16.666666666666668
450.0   150.0   16.666666666666668
500.0   150.0   33.333333333333336
450.0   120.0   33.333333333333336
450.0   150.0   33.333333333333336
500.0   150.0   33.333333333333336
450.0   150.0   16.666666666666668
450.0   120.0   33.333333333333336
500.0   150.0   33.333333333333336
500.0   120.0   33.333333333333336
500.0   120.0   16.666666666666668
450.0   120.0   33.333333333333336
500.0   150.0   33.333333333333336
500.0   120.0   16.666666666666668
450.0   150.0   16.666666666666668
450.0   120.0   33.333333333333336
500.0   120.0   33.333333333333336
450.0   150.0   33.333333333333336
450.0   120.0   50.0
500.0   120.0   33.333333333333336
500.0   150.0   33.333333333333336
450.0   150.0   33.333333333333336
500.0   150.0   50.0
450.0   120.0   50.0
450.0   150.0   50.0
500.0   150.0   50.0
450.0   150.0   33.333333333333336
450.0   120.0   50.0
500.0   150.0   50.0
500.0   120.0   50.0
500.0   120.0   33.333333333333336
450.0   120.0   50.0
500.0   150.0   50.0
500.0   120.0   33.333333333333336
450.0   150.0   33.333333333333336
             </DataArray>   
          </Points>  
          <Cells>  
             <DataArray type="Int32" Name="connectivity" format="ascii">   
0   1   2   3
4   5   6   7
8   9   10   11
12   13   14   15
16   17   18   19
20   21   22   23
24   25   26   27
28   29   30   31
32   33   34   35
36   37   38   39
40   41   42   43
44   45   46   47
48   49   50   51
52   53   54   55
56   57   58   59
60   61   62   63
64   65   66   67
68   69   70   71
72   73   74   75
76   77   78   79
80   81   82   83
84   85   86   87
88   89   90   91
92   93   94   95
96   97   98   99
100   101   102   103
104   105   106   107
108   109   110   111
112   113   114   115
116   117   118   119
120   121   122   123
124   125   126   127
128   129   130   131
132   133   134   135
136   137   138   139
140   141   142   143
144   145   146   147
148   149   150   151
152   153   154   155
156   157   158   159
160   161   162   163
164   165   166   167
168   169   170   171
172   173   174   175
176   177   178   179
180   181   182   183
184   185   186   187
188   189   190   191
192   193   194   195
196   197   198   199
200   201   202   203
204   205   206   207
208   209   210   211
212   213   214   215
216   217   218   219
220   221   222   223
224   225   226   227
228   229   230   231
232   233   234   235
236   237   238   239
240   241   242   243
244   245   246   247
248   249   250   251
252   253   254   255
256   257   258   259
260   261   262   263
264   265   266   267
268   269   270   271
272   273   274   275
276   277   278   279
280   281   282   283
284   285   286   287
288   289   290   291
292   293   294   295
296   297   298   299
300   301   302   303
304   305   306   307
308   309   310   311
312   313   314   315
316   317   318   319
320   321   322   323
324   325   326   327
328   329   330   331
332   333   334   335
336   337   338   339
340   341   342   343
344   345   346   347
348   349   350   351
352   353   354   355
356   357   358   359
360   361   362   363
364   365   366   367
368   369   370   371
372   373   374   375
376   377   378   379
380   381   382   383
384   385   386   387
388   389   390   391
392   393   394   395
396   397   398   399
400   401   402   403
404   405   406   407
408   409   410   411
412   413   414   415
416   417   418   419
420   421   422   423
424   425   426   427
428   429   430   431
432   433   434   435
436   437   438   439
440   441   442   443
444   445   446   447
448   449   450   451
452   453   454   455
456   457   458   459
460   461   462   463
464   465   466   467
468   469   470   471
472   473   474   475
476   477   478   479
480   481   482   483
484   485   486   487
488   489   490   491
492   493   494   495
496   497   498   499
500   501   502   503
504   505   506   507
508   509   510   511
512   513   514   515
516   517   518   519
520   521   522   523
524   525   526   527
528   529   530   531
532   533   534   535
536   537   538   539
540   541   542   543
544   545   546   547
548   549   550   551
552   553   554   555
556   557   558   559
560   561   562   563
564   565   566   567
568   569   570   571
572   573   574   575
576   577   578   579
580   581   582   583
584   585   586   587
588   589   590   591
592   593   594   595
596   597   598   599
600   601   602   603
604   605   606   607
608   609   610   611
612   613   614   615
616   617   618   619
620   621   622   623
624   625   626   627
628   629   630   631
632   633   634   635
636   637   638   639
640   641   642   643
644   645   646   647
648   649   650   651
652   653   654   655
656   657   658   659
660   661   662   663
664   665   666   667
668   669   670   671
672   673   674   675
676   677   678   679
680   681   682   683
684   685   686   687
688   689   690   691
692   693   694   695
696   697   698   699
700   701   702   703
704   705   706   707
708   709   710   711
712   713   714   715
716   717   718   719
720   721   722   723
724   725   726   727
728   729   730   731
732   733   734   735
736   737   738   739
740   741   742   743
744   745   746   747
748   749   750   751
752   753   754   755
756   757   758   759
760   761   762   763
764   765   766   767
768   769   770   771
772   773   774   775
776   777   778   779
780   781   782   783
784   785   786   787
788   789   790   791
792   793   794   795
796   797   798   799
800   801   802   803
804   805   806   807
808   809   810   811
812   813   814   815
816   817   818   819
820   821   822   823
824   825   826   827
828   829   830   831
832   833   834   835
836   837   838   839
840   841   842   843
844   845   846   847
848   849   850   851
852   853   854   855
856   857   858   859
860   861   862   863
864   865   866   867
868   869   870   871
872   873   874   875
876   877   878   879
880   881   882   883
884   885   886   887
888   889   890   891
892   893   894   895
896   897   898   899
900   901   902   903
904   905   906   907
908   909   910   911
912   913   914   915
916   917   918   919
920   921   922   923
924   925   926   927
928   929   930   931
932   933   934   935
936   937   938   939
940   941   942   943
944   945   946   947
948   949   950   951
952   953   954   955
956   957   958   959
960   961   962   963
964   965   966   967
968   969   970   971
972   973   974   975
976   977   978   979
980   981   982   983
984   985   986   987
988   989   990   991
992   993   994   995
996   997   998   999
1000   1001   1002   1003
1004   1005   1006   1007
1008   1009   1010   1011
1012   1013   1014   1015
1016   1017   1018   1019
1020   1021   1022   1023
1024   1025   1026   1027
1028   1029   1030   1031
1032   1033   1034   1035
1036   1037   1038   1039
1040   1041   1042   1043
1044   1045   1046   1047
1048   1049   1050   1051
1052   1053   1054   1055
1056   1057   1058   1059
1060   1061   1062   1063
1064   1065   1066   1067
1068   1069   1070   1071
1072   1073   1074   1075
1076   1077   1078   1079
1080   1081   1082   1083
1084   1085   1086   1087
1088   1089   1090   1091
1092   1093   1094   1095
1096   1097   1098   1099
1100   1101   1102   1103
1104   1105   1106   1107
1108   1109   1110   1111
1112   1113   1114   1115
1116   1117   1118   1119
1120   1121   1122   1123
1124   1125   1126   1127
1128   1129   1130   1131
1132   1133   1134   1135
1136   1137   1138   1139
1140   1141   1142   1143
1144   1145   1146   1147
1148   1149   1150   1151
1152   1153   1154   1155
1156   1157   1158   1159
1160   1161   1162   1163
1164   1165   1166   1167
1168   1169   1170   1171
1172   1173   1174   1175
1176   1177   1178   1179
1180   1181   1182   1183
1184   1185   1186   1187
1188   1189   1190   1191
1192   1193   1194   1195
1196   1197   1198   1199
1200   1201   1202   1203
1204   1205   1206   1207
1208   1209   1210   1211
1212   1213   1214   1215
1216   1217   1218   1219
1220   1221   1222   1223
1224   1225   1226   1227
1228   1229   1230   1231
1232   1233   1234   1235
1236   1237   1238   1239
1240   1241   1242   1243
1244   1245   1246   1247
1248   1249   1250   1251
1252   1253   1254   1255
1256   1257   1258   1259
1260   1261   1262   1263
1264   1265   1266   1267
1268   1269   1270   1271
1272   1273   1274   1275
1276   1277   1278   1279
1280   1281   1282   1283
1284   1285   1286   1287
1288   1289   1290   1291
1292   1293   1294   1295
1296   1297   1298   1299
1300   1301   1302   1303
1304   1305   1306   1307
1308   1309   1310   1311
1312   1313   1314   1315
1316   1317   1318   1319
1320   1321   1322   1323
1324   1325   1326   1327
1328   1329   1330   1331
1332   1333   1334   1335
1336   1337   1338   1339
1340   1341   1342   1343
1344   1345   1346   1347
1348   1349   1350   1351
1352   1353   1354   1355
1356   1357   1358   1359
1360   1361   1362   1363
1364   1365   1366   1367
1368   1369   1370   1371
1372   1373   1374   1375
1376   1377   1378   1379
1380   1381   1382   1383
1384   1385   1386   1387
1388   1389   1390   1391
1392   1393   1394   1395
1396   1397   1398   1399
1400   1401   1402   1403
1404   1405   1406   1407
1408   1409   1410   1411
1412   1413   1414   1415
1416   1417   1418   1419
1420   1421   1422   1423
1424   1425   1426   1427
1428   1429   1430   1431
1432   1433   1434   1435
1436   1437   1438   1439
1440   1441   1442   1443
1444   1445   1446   1447
1448   1449   1450   1451
1452   1453   1454   1455
1456   1457   1458   1459
1460   1461   1462   1463
1464   1465   1466   1467
1468   1469   1470   1471
1472   1473   1474   1475
1476   1477   1478   1479
1480   1481   1482   1483
1484   1485   1486   1487
1488   1489   1490   1491
1492   1493   1494   1495
1496   1497   1498   1499
1500   1501   1502   1503
1504   1505   1506   1507
1508   1509   1510   1511
1512   1513   1514   1515
1516   1517   1518   1519
1520   1521   1522   1523
1524   1525   1526   1527
1528   1529   1530   1531
1532   1533   1534   1535
1536   1537   1538   1539
1540   1541   1542   1543
1544   1545   1546   1547
1548   1549   1550   1551
1552   1553   1554   1555
1556   1557   1558   1559
1560   1561   1562   1563
1564   1565   1566   1567
1568   1569   1570   1571
1572   1573   1574   1575
1576   1577   1578   1579
1580   1581   1582   1583
1584   1585   1586   1587
1588   1589   1590   1591
1592   1593   1594   1595
1596   1597   1598   1599
1600   1601   1602   1603
1604   1605   1606   1607
1608   1609   1610   1611
1612   1613   1614   1615
1616   1617   1618   1619
1620   1621   1622   1623
1624   1625   1626   1627
1628   1629   1630   1631
1632   1633   1634   1635
1636   1637   1638   1639
1640   1641   1642   1643
1644   1645   1646   1647
1648   1649   1650   1651
1652   1653   1654   1655
1656   1657   1658   1659
1660   1661   1662   1663
1664   1665   1666   1667
1668   1669   1670   1671
1672   1673   1674   1675
1676   1677   1678   1679
1680   1681   1682   1683
1684   1685   1686   1687
1688   1689   1690   1691
1692   1693   1694   1695
1696   1697   1698   1699
1700   1701   1702   1703
1704   1705   1706   1707
1708   1709   1710   1711
1712   1713   1714   1715
1716   1717   1718   1719
1720   1721   1722   1723
1724   1725   1726   1727
1728   1729   1730   1731
1732   1733   1734   1735
1736   1737   1738   1739
1740   1741   1742   1743
1744   1745   1746   1747
1748   1749   1750   1751
1752   1753   1754   1755
1756   1757   1758   1759
1760   1761   1762   1763
1764   1765   1766   1767
1768   1769   1770   1771
1772   1773   1774   1775
1776   1777   1778   1779
1780   1781   1782   1783
1784   1785   1786   1787
1788   1789   1790   1791
1792   1793   1794   1795
1796   1797   1798   1799
1800   1801   1802   1803
1804   1805   1806   1807
1808   1809   1810   1811
1812   1813   1814   1815
1816   1817   1818   1819
1820   1821   1822   1823
1824   1825   1826   1827
1828   1829   1830   1831
1832   1833   1834   1835
1836   1837   1838   1839
1840   1841   1842   1843
1844   1845   1846   1847
1848   1849   1850   1851
1852   1853   1854   1855
1856   1857   1858   1859
1860   1861   1862   1863
1864   1865   1866   1867
1868   1869   1870   1871
1872   1873   1874   1875
1876   1877   1878   1879
1880   1881   1882   1883
1884   1885   1886   1887
1888   1889   1890   1891
1892   1893   1894   1895
1896   1897   1898   1899
1900   1901   1902   1903
1904   1905   1906   1907
1908   1909   1910   1911
1912   1913   1914   1915
1916   1917   1918   1919
1920   1921   1922   1923
1924   1925   1926   1927
1928   1929   1930   1931
1932   1933   1934   1935
1936   1937   1938   1939
1940   1941   1942   1943
1944   1945   1946   1947
1948   1949   1950   1951
1952   1953   1954   1955
1956   1957   1958   1959
1960   1961   1962   1963
1964   1965   1966   1967
1968   1969   1970   1971
1972   1973   1974   1975
1976   1977   1978   1979
1980   1981   1982   1983
1984   1985   1986   1987
1988   1989   1990   1991
1992   1993   1994   1995
1996   1997   1998   1999
2000   2001   2002   2003
2004   2005   2006   2007
2008   2009   2010   2011
2012   2013   2014   2015
2016   2017   2018   2019
2020   2021   2022   2023
2024   2025   2026   2027
2028   2029   2030   2031
2032   2033   2034   2035
2036   2037   2038   2039
2040   2041   2042   2043
2044   2045   2046   2047
2048   2049   2050   2051
2052   2053   2054   2055
2056   2057   2058   2059
2060   2061   2062   2063
2064   2065   2066   2067
2068   2069   2070   2071
2072   2073   2074   2075
2076   2077   2078   2079
2080   2081   2082   2083
2084   2085   2086   2087
2088   2089   2090   2091
2092   2093   2094   2095
2096   2097   2098   2099
2100   2101   2102   2103
2104   2105   2106   2107
2108   2109   2110   2111
2112   2113   2114   2115
2116   2117   2118   2119
2120   2121   2122   2123
2124   2125   2126   2127
2128   2129   2130   2131
2132   2133   2134   2135
2136   2137   2138   2139
2140   2141   2142   2143
2144   2145   2146   2147
2148   2149   2150   2151
2152   2153   2154   2155
2156   2157   2158   2159
2160   2161   2162   2163
2164   2165   2166   2167
2168   2169   2170   2171
2172   2173   2174   2175
2176   2177   2178   2179
2180   2181   2182   2183
2184   2185   2186   2187
2188   2189   2190   2191
2192   2193   2194   2195
2196   2197   2198   2199
2200   2201   2202   2203
2204   2205   2206   2207
2208   2209   2210   2211
2212   2213   2214   2215
2216   2217   2218   2219
2220   2221   2222   2223
2224   2225   2226   2227
2228   2229   2230   2231
2232   2233   2234   2235
2236   2237   2238   2239
2240   2241   2242   2243
2244   2245   2246   2247
2248   2249   2250   2251
2252   2253   2254   2255
2256   2257   2258   2259
2260   2261   2262   2263
2264   2265   2266   2267
2268   2269   2270   2271
2272   2273   2274   2275
2276   2277   2278   2279
2280   2281   2282   2283
2284   2285   2286   2287
2288   2289   2290   2291
2292   2293   2294   2295
2296   2297   2298   2299
2300   2301   2302   2303
2304   2305   2306   2307
2308   2309   2310   2311
2312   2313   2314   2315
2316   2317   2318   2319
2320   2321   2322   2323
2324   2325   2326   2327
2328   2329   2330   2331
2332   2333   2334   2335
2336   2337   2338   2339
2340   2341   2342   2343
2344   2345   2346   2347
2348   2349   2350   2351
2352   2353   2354   2355
2356   2357   2358   2359
2360   2361   2362   2363
2364   2365   2366   2367
2368   2369   2370   2371
2372   2373   2374   2375
2376   2377   2378   2379
2380   2381   2382   2383
2384   2385   2386   2387
2388   2389   2390   2391
2392   2393   2394   2395
2396   2397   2398   2399
2400   2401   2402   2403
2404   2405   2406   2407
2408   2409   2410   2411
2412   2413   2414   2415
2416   2417   2418   2419
2420   2421   2422   2423
2424   2425   2426   2427
2428   2429   2430   2431
2432   2433   2434   2435
2436   2437   2438   2439
2440   2441   2442   2443
2444   2445   2446   2447
2448   2449   2450   2451
2452   2453   2454   2455
2456   2457   2458   2459
2460   2461   2462   2463
2464   2465   2466   2467
2468   2469   2470   2471
2472   2473   2474   2475
2476   2477   2478   2479
2480   2481   2482   2483
2484   2485   2486   2487
2488   2489   2490   2491
2492   2493   2494   2495
2496   2497   2498   2499
2500   2501   2502   2503
2504   2505   2506   2507
2508   2509   2510   2511
2512   2513   2514   2515
2516   2517   2518   2519
2520   2521   2522   2523
2524   2525   2526   2527
2528   2529   2530   2531
2532   2533   2534   2535
2536   2537   2538   2539
2540   2541   2542   2543
2544   2545   2546   2547
2548   2549   2550   2551
2552   2553   2554   2555
2556   2557   2558   2559
2560   2561   2562   2563
2564   2565   2566   2567
2568   2569   2570   2571
2572   2573   2574   2575
2576   2577   2578   2579
2580   2581   2582   2583
2584   2585   2586   2587
2588   2589   2590   2591
2592   2593   2594   2595
2596   2597   2598   2599
2600   2601   2602   2603
2604   2605   2606   2607
2608   2609   2610   2611
2612   2613   2614   2615
2616   2617   2618   2619
2620   2621   2622   2623
2624   2625   2626   2627
2628   2629   2630   2631
2632   2633   2634   2635
2636   2637   2638   2639
2640   2641   2642   2643
2644   2645   2646   2647
2648   2649   2650   2651
2652   2653   2654   2655
2656   2657   2658   2659
2660   2661   2662   2663
2664   2665   2666   2667
2668   2669   2670   2671
2672   2673   2674   2675
2676   2677   2678   2679
2680   2681   2682   2683
2684   2685   2686   2687
2688   2689   2690   2691
2692   2693   2694   2695
2696   2697   2698   2699
2700   2701   2702   2703
2704   2705   2706   2707
2708   2709   2710   2711
2712   2713   2714   2715
2716   2717   2718   2719
2720   2721   2722   2723
2724   2725   2726   2727
2728   2729   2730   2731
2732   2733   2734   2735
2736   2737   2738   2739
2740   2741   2742   2743
2744   2745   2746   2747
2748   2749   2750   2751
2752   2753   2754   2755
2756   2757   2758   2759
2760   2761   2762   2763
2764   2765   2766   2767
2768   2769   2770   2771
2772   2773   2774   2775
2776   2777   2778   2779
2780   2781   2782   2783
2784   2785   2786   2787
2788   2789   2790   2791
2792   2793   2794   2795
2796   2797   2798   2799
2800   2801   2802   2803
2804   2805   2806   2807
2808   2809   2810   2811
2812   2813   2814   2815
2816   2817   2818   2819
2820   2821   2822   2823
2824   2825   2826   2827
2828   2829   2830   2831
2832   2833   2834   2835
2836   2837   2838   2839
2840   2841   2842   2843
2844   2845   2846   2847
2848   2849   2850   2851
2852   2853   2854   2855
2856   2857   2858   2859
2860   2861   2862   2863
2864   2865   2866   2867
2868   2869   2870   2871
2872   2873   2874   2875
2876   2877   2878   2879
2880   2881   2882   2883
2884   2885   2886   2887
2888   2889   2890   2891
2892   2893   2894   2895
2896   2897   2898   2899
2900   2901   2902   2903
2904   2905   2906   2907
2908   2909   2910   2911
2912   2913   2914   2915
2916   2917   2918   2919
2920   2921   2922   2923
2924   2925   2926   2927
2928   2929   2930   2931
2932   2933   2934   2935
2936   2937   2938   2939
2940   2941   2942   2943
2944   2945   2946   2947
2948   2949   2950   2951
2952   2953   2954   2955
2956   2957   2958   2959
2960   2961   2962   2963
2964   2965   2966   2967
2968   2969   2970   2971
2972   2973   2974   2975
2976   2977   2978   2979
2980   2981   2982   2983
2984   2985   2986   2987
2988   2989   2990   2991
2992   2993   2994   2995
2996   2997   2998   2999
3000   3001   3002   3003
3004   3005   3006   3007
3008   3009   3010   3011
3012   3013   3014   3015
3016   3017   3018   3019
3020   3021   3022   3023
3024   3025   3026   3027
3028   3029   3030   3031
3032   3033   3034   3035
3036   3037   3038   3039
3040   3041   3042   3043
3044   3045   3046   3047
3048   3049   3050   3051
3052   3053   3054   3055
3056   3057   3058   3059
3060   3061   3062   3063
3064   3065   3066   3067
3068   3069   3070   3071
3072   3073   3074   3075
3076   3077   3078   3079
3080   3081   3082   3083
3084   3085   3086   3087
3088   3089   3090   3091
3092   3093   3094   3095
3096   3097   3098   3099
3100   3101   3102   3103
3104   3105   3106   3107
3108   3109   3110   3111
3112   3113   3114   3115
3116   3117   3118   3119
3120   3121   3122   3123
3124   3125   3126   3127
3128   3129   3130   3131
3132   3133   3134   3135
3136   3137   3138   3139
3140   3141   3142   3143
3144   3145   3146   3147
3148   3149   3150   3151
3152   3153   3154   3155
3156   3157   3158   3159
3160   3161   3162   3163
3164   3165   3166   3167
3168   3169   3170   3171
3172   3173   3174   3175
3176   3177   3178   3179
3180   3181   3182   3183
3184   3185   3186   3187
3188   3189   3190   3191
3192   3193   3194   3195
3196   3197   3198   3199
3200   3201   3202   3203
3204   3205   3206   3207
3208   3209   3210   3211
3212   3213   3214   3215
3216   3217   3218   3219
3220   3221   3222   3223
3224   3225   3226   3227
3228   3229   3230   3231
3232   3233   3234   3235
3236   3237   3238   3239
3240   3241   3242   3243
3244   3245   3246   3247
3248   3249   3250   3251
3252   3253   3254   3255
3256   3257   3258   3259
3260   3261   3262   3263
3264   3265   3266   3267
3268   3269   3270   3271
3272   3273   3274   3275
3276   3277   3278   3279
3280   3281   3282   3283
3284   3285   3286   3287
3288   3289   3290   3291
3292   3293   3294   3295
3296   3297   3298   3299
3300   3301   3302   3303
3304   3305   3306   3307
3308   3309   3310   3311
3312   3313   3314   3315
3316   3317   3318   3319
3320   3321   3322   3323
3324   3325   3326   3327
3328   3329   3330   3331
3332   3333   3334   3335
3336   3337   3338   3339
3340   3341   3342   3343
3344   3345   3346   3347
3348   3349   3350   3351
3352   3353   3354   3355
3356   3357   3358   3359
3360   3361   3362   3363
3364   3365   3366   3367
3368   3369   3370   3371
3372   3373   3374   3375
3376   3377   3378   3379
3380   3381   3382   3383
3384   3385   3386   3387
3388   3389   3390   3391
3392   3393   3394   3395
3396   3397   3398   3399
3400   3401   3402   3403
3404   3405   3406   3407
3408   3409   3410   3411
3412   3413   3414   3415
3416   3417   3418   3419
3420   3421   3422   3423
3424   3425   3426   3427
3428   3429   3430   3431
3432   3433   3434   3435
3436   3437   3438   3439
3440   3441   3442   3443
3444   3445   3446   3447
3448   3449   3450   3451
3452   3453   3454   3455
3456   3457   3458   3459
3460   3461   3462   3463
3464   3465   3466   3467
3468   3469   3470   3471
3472   3473   3474   3475
3476   3477   3478   3479
3480   3481   3482   3483
3484   3485   3486   3487
3488   3489   3490   3491
3492   3493   3494   3495
3496   3497   3498   3499
3500   3501   3502   3503
3504   3505   3506   3507
3508   3509   3510   3511
3512   3513   3514   3515
3516   3517   3518   3519
3520   3521   3522   3523
3524   3525   3526   3527
3528   3529   3530   3531
3532   3533   3534   3535
3536   3537   3538   3539
3540   3541   3542   3543
3544   3545   3546   3547
3548   3549   3550   3551
3552   3553   3554   3555
3556   3557   3558   3559
3560   3561   3562   3563
3564   3565   3566   3567
3568   3569   3570   3571
3572   3573   3574   3575
3576   3577   3578   3579
3580   3581   3582   3583
3584   3585   3586   3587
3588   3589   3590   3591
3592   3593   3594   3595
3596   3597   3598   3599
3600   3601   3602   3603
3604   3605   3606   3607
3608   3609   3610   3611
3612   3613   3614   3615
3616   3617   3618   3619
3620   3621   3622   3623
3624   3625   3626   3627
3628   3629   3630   3631
3632   3633   3634   3635
3636   3637   3638   3639
3640   3641   3642   3643
3644   3645   3646   3647
3648   3649   3650   3651
3652   3653   3654   3655
3656   3657   3658   3659
3660   3661   3662   3663
3664   3665   3666   3667
3668   3669   3670   3671
3672   3673   3674   3675
3676   3677   3678   3679
3680   3681   3682   3683
3684   3685   3686   3687
3688   3689   3690   3691
3692   3693   3694   3695
3696   3697   3698   3699
3700   3701   3702   3703
3704   3705   3706   3707
3708   3709   3710   3711
3712   3713   3714   3715
3716   3717   3718   3719
3720   3721   3722   3723
3724   3725   3726   3727
3728   3729   3730   3731
3732   3733   3734   3735
3736   3737   3738   3739
3740   3741   3742   3743
3744   3745   3746   3747
3748   3749   3750   3751
3752   3753   3754   3755
3756   3757   3758   3759
3760   3761   3762   3763
3764   3765   3766   3767
3768   3769   3770   3771
3772   3773   3774   3775
3776   3777   3778   3779
3780   3781   3782   3783
3784   3785   3786   3787
3788   3789   3790   3791
3792   3793   3794   3795
3796   3797   3798   3799
3800   3801   3802   3803
3804   3805   3806   3807
3808   3809   3810   3811
3812   3813   3814   3815
3816   3817   3818   3819
3820   3821   3822   3823
3824   3825   3826   3827
3828   3829   3830   3831
3832   3833   3834   3835
3836   3837   3838   3839
3840   3841   3842   3843
3844   3845   3846   3847
3848   3849   3850   3851
3852   3853   3854   3855
3856   3857   3858   3859
3860   3861   3862   3863
3864   3865   3866   3867
3868   3869   3870   3871
3872   3873   3874   3875
3876   3877   3878   3879
3880   3881   3882   3883
3884   3885   3886   3887
3888   3889   3890   3891
3892   3893   3894   3895
3896   3897   3898   3899
3900   3901   3902   3903
3904   3905   3906   3907
3908   3909   3910   3911
3912   3913   3914   3915
3916   3917   3918   3919
3920   3921   3922   3923
3924   3925   3926   3927
3928   3929   3930   3931
3932   3933   3934   3935
3936   3937   3938   3939
3940   3941   3942   3943
3944   3945   3946   3947
3948   3949   3950   3951
3952   3953   3954   3955
3956   3957   3958   3959
3960   3961   3962   3963
3964   3965   3966   3967
3968   3969   3970   3971
3972   3973   3974   3975
3976   3977   3978   3979
3980   3981   3982   3983
3984   3985   3986   3987
3988   3989   3990   3991
3992   3993   3994   3995
3996   3997   3998   3999
4000   4001   4002   4003
4004   4005   4006   4007
4008   4009   4010   4011
4012   4013   4014   4015
4016   4017   4018   4019
4020   4021   4022   4023
4024   4025   4026   4027
4028   4029   4030   4031
4032   4033   4034   4035
4036   4037   4038   4039
4040   4041   4042   4043
4044   4045   4046   4047
4048   4049   4050   4051
4052   4053   4054   4055
4056   4057   4058   4059
4060   4061   4062   4063
4064   4065   4066   4067
4068   4069   4070   4071
4072   4073   4074   4075
4076   4077   4078   4079
4080   4081   4082   4083
4084   4085   4086   4087
4088   4089   4090   4091
4092   4093   4094   4095
4096   4097   4098   4099
4100   4101   4102   4103
4104   4105   4106   4107
4108   4109   4110   4111
4112   4113   4114   4115
4116   4117   4118   4119
4120   4121   4122   4123
4124   4125   4126   4127
4128   4129   4130   4131
4132   4133   4134   4135
4136   4137   4138   4139
4140   4141   4142   4143
4144   4145   4146   4147
4148   4149   4150   4151
4152   4153   4154   4155
4156   4157   4158   4159
4160   4161   4162   4163
4164   4165   4166   4167
4168   4169   4170   4171
4172   4173   4174   4175
4176   4177   4178   4179
4180   4181   4182   4183
4184   4185   4186   4187
4188   4189   4190   4191
4192   4193   4194   4195
4196   4197   4198   4199
4200   4201   4202   4203
4204   4205   4206   4207
4208   4209   4210   4211
4212   4213   4214   4215
4216   4217   4218   4219
4220   4221   4222   4223
4224   4225   4226   4227
4228   4229   4230   4231
4232   4233   4234   4235
4236   4237   4238   4239
4240   4241   4242   4243
4244   4245   4246   4247
4248   4249   4250   4251
4252   4253   4254   4255
4256   4257   4258   4259
4260   4261   4262   4263
4264   4265   4266   4267
4268   4269   4270   4271
4272   4273   4274   4275
4276   4277   4278   4279
4280   4281   4282   4283
4284   4285   4286   4287
4288   4289   4290   4291
4292   4293   4294   4295
4296   4297   4298   4299
4300   4301   4302   4303
4304   4305   4306   4307
4308   4309   4310   4311
4312   4313   4314   4315
4316   4317   4318   4319
4320   4321   4322   4323
4324   4325   4326   4327
4328   4329   4330   4331
4332   4333   4334   4335
4336   4337   4338   4339
4340   4341   4342   4343
4344   4345   4346   4347
4348   4349   4350   4351
4352   4353   4354   4355
4356   4357   4358   4359
4360   4361   4362   4363
4364   4365   4366   4367
4368   4369   4370   4371
4372   4373   4374   4375
4376   4377   4378   4379
4380   4381   4382   4383
4384   4385   4386   4387
4388   4389   4390   4391
4392   4393   4394   4395
4396   4397   4398   4399
4400   4401   4402   4403
4404   4405   4406   4407
4408   4409   4410   4411
4412   4413   4414   4415
4416   4417   4418   4419
4420   4421   4422   4423
4424   4425   4426   4427
4428   4429   4430   4431
4432   4433   4434   4435
4436   4437   4438   4439
4440   4441   4442   4443
4444   4445   4446   4447
4448   4449   4450   4451
4452   4453   4454   4455
4456   4457   4458   4459
4460   4461   4462   4463
4464   4465   4466   4467
4468   4469   4470   4471
4472   4473   4474   4475
4476   4477   4478   4479
4480   4481   4482   4483
4484   4485   4486   4487
4488   4489   4490   4491
4492   4493   4494   4495
4496   4497   4498   4499
4500   4501   4502   4503
4504   4505   4506   4507
4508   4509   4510   4511
4512   4513   4514   4515
4516   4517   4518   4519
4520   4521   4522   4523
4524   4525   4526   4527
4528   4529   4530   4531
4532   4533   4534   4535
4536   4537   4538   4539
4540   4541   4542   4543
4544   4545   4546   4547
4548   4549   4550   4551
4552   4553   4554   4555
4556   4557   4558   4559
4560   4561   4562   4563
4564   4565   4566   4567
4568   4569   4570   4571
4572   4573   4574   4575
4576   4577   4578   4579
4580   4581   4582   4583
4584   4585   4586   4587
4588   4589   4590   4591
4592   4593   4594   4595
4596   4597   4598   4599
4600   4601   4602   4603
4604   4605   4606   4607
4608   4609   4610   4611
4612   4613   4614   4615
4616   4617   4618   4619
4620   4621   4622   4623
4624   4625   4626   4627
4628   4629   4630   4631
4632   4633   4634   4635
4636   4637   4638   4639
4640   4641   4642   4643
4644   4645   4646   4647
4648   4649   4650   4651
4652   4653   4654   4655
4656   4657   4658   4659
4660   4661   4662   4663
4664   4665   4666   4667
4668   4669   4670   4671
4672   4673   4674   4675
4676   4677   4678   4679
4680   4681   4682   4683
4684   4685   4686   4687
4688   4689   4690   4691
4692   4693   4694   4695
4696   4697   4698   4699
4700   4701   4702   4703
4704   4705   4706   4707
4708   4709   4710   4711
4712   4713   4714   4715
4716   4717   4718   4719
4720   4721   4722   4723
4724   4725   4726   4727
4728   4729   4730   4731
4732   4733   4734   4735
4736   4737   4738   4739
4740   4741   4742   4743
4744   4745   4746   4747
4748   4749   4750   4751
4752   4753   4754   4755
4756   4757   4758   4759
4760   4761   4762   4763
4764   4765   4766   4767
4768   4769   4770   4771
4772   4773   4774   4775
4776   4777   4778   4779
4780   4781   4782   4783
4784   4785   4786   4787
4788   4789   4790   4791
4792   4793   4794   4795
4796   4797   4798   4799
4800   4801   4802   4803
4804   4805   4806   4807
4808   4809   4810   4811
4812   4813   4814   4815
4816   4817   4818   4819
4820   4821   4822   4823
4824   4825   4826   4827
4828   4829   4830   4831
4832   4833   4834   4835
4836   4837   4838   4839
4840   4841   4842   4843
4844   4845   4846   4847
4848   4849   4850   4851
4852   4853   4854   4855
4856   4857   4858   4859
4860   4861   4862   4863
4864   4865   4866   4867
4868   4869   4870   4871
4872   4873   4874   4875
4876   4877   4878   4879
4880   4881   4882   4883
4884   4885   4886   4887
4888   4889   4890   4891
4892   4893   4894   4895
4896   4897   4898   4899
4900   4901   4902   4903
4904   4905   4906   4907
4908   4909   4910   4911
4912   4913   4914   4915
4916   4917   4918   4919
4920   4921   4922   4923
4924   4925   4926   4927
4928   4929   4930   4931
4932   4933   4934   4935
4936   4937   4938   4939
4940   4941   4942   4943
4944   4945   4946   4947
4948   4949   4950   4951
4952   4953   4954   4955
4956   4957   4958   4959
4960   4961   4962   4963
4964   4965   4966   4967
4968   4969   4970   4971
4972   4973   4974   4975
4976   4977   4978   4979
4980   4981   4982   4983
4984   4985   4986   4987
4988   4989   4990   4991
4992   4993   4994   4995
4996   4997   4998   4999
5000   5001   5002   5003
5004   5005   5006   5007
5008   5009   5010   5011
5012   5013   5014   5015
5016   5017   5018   5019
5020   5021   5022   5023
5024   5025   5026   5027
5028   5029   5030   5031
5032   5033   5034   5035
5036   5037   5038   5039
5040   5041   5042   5043
5044   5045   5046   5047
5048   5049   5050   5051
5052   5053   5054   5055
5056   5057   5058   5059
5060   5061   5062   5063
5064   5065   5066   5067
5068   5069   5070   5071
5072   5073   5074   5075
5076   5077   5078   5079
5080   5081   5082   5083
5084   5085   5086   5087
5088   5089   5090   5091
5092   5093   5094   5095
5096   5097   5098   5099
5100   5101   5102   5103
5104   5105   5106   5107
5108   5109   5110   5111
5112   5113   5114   5115
5116   5117   5118   5119
5120   5121   5122   5123
5124   5125   5126   5127
5128   5129   5130   5131
5132   5133   5134   5135
5136   5137   5138   5139
5140   5141   5142   5143
5144   5145   5146   5147
5148   5149   5150   5151
5152   5153   5154   5155
5156   5157   5158   5159
5160   5161   5162   5163
5164   5165   5166   5167
5168   5169   5170   5171
5172   5173   5174   5175
5176   5177   5178   5179
5180   5181   5182   5183
5184   5185   5186   5187
5188   5189   5190   5191
5192   5193   5194   5195
5196   5197   5198   5199
5200   5201   5202   5203
5204   5205   5206   5207
5208   5209   5210   5211
5212   5213   5214   5215
5216   5217   5218   5219
5220   5221   5222   5223
5224   5225   5226   5227
5228   5229   5230   5231
5232   5233   5234   5235
5236   5237   5238   5239
5240   5241   5242   5243
5244   5245   5246   5247
5248   5249   5250   5251
5252   5253   5254   5255
5256   5257   5258   5259
5260   5261   5262   5263
5264   5265   5266   5267
5268   5269   5270   5271
5272   5273   5274   5275
5276   5277   5278   5279
5280   5281   5282   5283
5284   5285   5286   5287
5288   5289   5290   5291
5292   5293   5294   5295
5296   5297   5298   5299
5300   5301   5302   5303
5304   5305   5306   5307
5308   5309   5310   5311
5312   5313   5314   5315
5316   5317   5318   5319
5320   5321   5322   5323
5324   5325   5326   5327
5328   5329   5330   5331
5332   5333   5334   5335
5336   5337   5338   5339
5340   5341   5342   5343
5344   5345   5346   5347
5348   5349   5350   5351
5352   5353   5354   5355
5356   5357   5358   5359
5360   5361   5362   5363
5364   5365   5366   5367
5368   5369   5370   5371
5372   5373   5374   5375
5376   5377   5378   5379
5380   5381   5382   5383
5384   5385   5386   5387
5388   5389   5390   5391
5392   5393   5394   5395
5396   5397   5398   5399
5400   5401   5402   5403
5404   5405   5406   5407
5408   5409   5410   5411
5412   5413   5414   5415
5416   5417   5418   5419
5420   5421   5422   5423
5424   5425   5426   5427
5428   5429   5430   5431
5432   5433   5434   5435
5436   5437   5438   5439
5440   5441   5442   5443
5444   5445   5446   5447
5448   5449   5450   5451
5452   5453   5454   5455
5456   5457   5458   5459
5460   5461   5462   5463
5464   5465   5466   5467
5468   5469   5470   5471
5472   5473   5474   5475
5476   5477   5478   5479
5480   5481   5482   5483
5484   5485   5486   5487
5488   5489   5490   5491
5492   5493   5494   5495
5496   5497   5498   5499
5500   5501   5502   5503
5504   5505   5506   5507
5508   5509   5510   5511
5512   5513   5514   5515
5516   5517   5518   5519
5520   5521   5522   5523
5524   5525   5526   5527
5528   5529   5530   5531
5532   5533   5534   5535
5536   5537   5538   5539
5540   5541   5542   5543
5544   5545   5546   5547
5548   5549   5550   5551
5552   5553   5554   5555
5556   5557   5558   5559
5560   5561   5562   5563
5564   5565   5566   5567
5568   5569   5570   5571
5572   5573   5574   5575
5576   5577   5578   5579
5580   5581   5582   5583
5584   5585   5586   5587
5588   5589   5590   5591
5592   5593   5594   5595
5596   5597   5598   5599
5600   5601   5602   5603
5604   5605   5606   5607
5608   5609   5610   5611
5612   5613   5614   5615
5616   5617   5618   5619
5620   5621   5622   5623
5624   5625   5626   5627
5628   5629   5630   5631
5632   5633   5634   5635
5636   5637   5638   5639
5640   5641   5642   5643
5644   5645   5646   5647
5648   5649   5650   5651
5652   5653   5654   5655
5656   5657   5658   5659
5660   5661   5662   5663
5664   5665   5666   5667
5668   5669   5670   5671
5672   5673   5674   5675
5676   5677   5678   5679
5680   5681   5682   5683
5684   5685   5686   5687
5688   5689   5690   5691
5692   5693   5694   5695
5696   5697   5698   5699
5700   5701   5702   5703
5704   5705   5706   5707
5708   5709   5710   5711
5712   5713   5714   5715
5716   5717   5718   5719
5720   5721   5722   5723
5724   5725   5726   5727
5728   5729   5730   5731
5732   5733   5734   5735
5736   5737   5738   5739
5740   5741   5742   5743
5744   5745   5746   5747
5748   5749   5750   5751
5752   5753   5754   5755
5756   5757   5758   5759
5760   5761   5762   5763
5764   5765   5766   5767
5768   5769   5770   5771
5772   5773   5774   5775
5776   5777   5778   5779
5780   5781   5782   5783
5784   5785   5786   5787
5788   5789   5790   5791
5792   5793   5794   5795
5796   5797   5798   5799
5800   5801   5802   5803
5804   5805   5806   5807
5808   5809   5810   5811
5812   5813   5814   5815
5816   5817   5818   5819
5820   5821   5822   5823
5824   5825   5826   5827
5828   5829   5830   5831
5832   5833   5834   5835
5836   5837   5838   5839
5840   5841   5842   5843
5844   5845   5846   5847
5848   5849   5850   5851
5852   5853   5854   5855
5856   5857   5858   5859
5860   5861   5862   5863
5864   5865   5866   5867
5868   5869   5870   5871
5872   5873   5874   5875
5876   5877   5878   5879
5880   5881   5882   5883
5884   5885   5886   5887
5888   5889   5890   5891
5892   5893   5894   5895
5896   5897   5898   5899
5900   5901   5902   5903
5904   5905   5906   5907
5908   5909   5910   5911
5912   5913   5914   5915
5916   5917   5918   5919
5920   5921   5922   5923
5924   5925   5926   5927
5928   5929   5930   5931
5932   5933   5934   5935
5936   5937   5938   5939
5940   5941   5942   5943
5944   5945   5946   5947
5948   5949   5950   5951
5952   5953   5954   5955
5956   5957   5958   5959
5960   5961   5962   5963
5964   5965   5966   5967
5968   5969   5970   5971
5972   5973   5974   5975
5976   5977   5978   5979
5980   5981   5982   5983
5984   5985   5986   5987
5988   5989   5990   5991
5992   5993   5994   5995
5996   5997   5998   5999
              </DataArray>   
              <DataArray type="Int32" Name="offsets" format="ascii">   
4
8
12
16
20
24
28
32
36
40
44
48
52
56
60
64
68
72
76
80
84
88
92
96
100
104
108
112
116
120
124
128
132
136
140
144
148
152
156
160
164
168
172
176
180
184
188
192
196
200
204
208
212
216
220
224
228
232
236
240
244
248
252
256
260
264
268
272
276
280
284
288
292
296
300
304
308
312
316
320
324
328
332
336
340
344
348
352
356
360
364
368
372
376
380
384
388
392
396
400
404
408
412
416
420
424
428
432
436
440
444
448
452
456
460
464
468
472
476
480
484
488
492
496
500
504
508
512
516
520
524
528
532
536
540
544
548
552
556
560
564
568
572
576
580
584
588
592
596
600
604
608
612
616
620
624
628
632
636
640
644
648
652
656
660
664
668
672
676
680
684
688
692
696
700
704
708
712
716
720
724
728
732
736
740
744
748
752
756
760
764
768
772
776
780
784
788
792
796
800
804
808
812
816
820
824
828
832
836
840
844
848
852
856
860
864
868
872
876
880
884
888
892
896
900
904
908
912
916
920
924
928
932
936
940
944
948
952
956
960
964
968
972
976
980
984
988
992
996
1000
1004
1008
1012
1016
1020
1024
1028
1032
1036
1040
1044
1048
1052
1056
1060
1064
1068
1072
1076
1080
1084
1088
1092
1096
1100
1104
1108
1112
1116
1120
1124
1128
1132
1136
1140
1144
1148
1152
1156
1160
1164
1168
1172
1176
1180
1184
1188
1192
1196
1200
1204
1208
1212
1216
1220
1224
1228
1232
1236
1240
1244
1248
1252
1256
1260
1264
1268
1272
1276
1280
1284
1288
1292
1296
1300
1304
1308
1312
1316
1320
1324
1328
1332
1336
1340
1344
1348
1352
1356
1360
1364
1368
1372
1376
1380
1384
1388
1392
1396
1400
1404
1408
1412
1416
1420
1424
1428
1432
1436
1440
1444
1448
1452
1456
1460
1464
1468
1472
1476
1480
1484
1488
1492
1496
1500
1504
1508
1512
1516
1520
1524
1528
1532
1536
1540
1544
1548
1552
1556
1560
1564
1568
1572
1576
1580
1584
1588
1592
1596
1600
1604
1608
1612
1616
1620
1624
1628
1632
1636
1640
1644
1648
1652
1656
1660
1664
1668
1672
1676
1680
1684
1688
1692
1696
1700
1704
1708
1712
1716
1720
1724
1728
1732
1736
1740
1744
1748
1752
1756
1760
1764
1768
1772
1776
1780
1784
1788
1792
1796
1800
1804
1808
1812
1816
1820
1824
1828
1832
1836
1840
1844
1848
1852
1856
1860
1864
1868
1872
1876
1880
1884
1888
1892
1896
1900
1904
1908
1912
1916
1920
1924
1928
1932
1936
1940
1944
1948
1952
1956
1960
1964
1968
1972
1976
1980
1984
1988
1992
1996
2000
2004
2008
2012
2016
2020
2024
2028
2032
2036
2040
2044
2048
2052
2056
2060
2064
2068
2072
2076
2080
2084
2088
2092
2096
2100
2104
2108
2112
2116
2120
2124
2128
2132
2136
2140
2144
2148
2152
2156
2160
2164
2168
2172
2176
2180
2184
2188
2192
2196
2200
2204
2208
2212
2216
2220
2224
2228
2232
2236
2240
2244
2248
2252
2256
2260
2264
2268
2272
2276
2280
2284
2288
2292
2296
2300
2304
2308
2312
2316
2320
2324
2328
2332
2336
2340
2344
2348
2352
2356
2360
2364
2368
2372
2376
2380
2384
2388
2392
2396
2400
2404
2408
2412
2416
2420
2424
2428
2432
2436
2440
2444
2448
2452
2456
2460
2464
2468
2472
2476
2480
2484
2488
2492
2496
2500
2504
2508
2512
2516
2520
2524
2528
2532
2536
2540
2544
2548
2552
2556
2560
2564
2568
2572
2576
2580
2584
2588
2592
2596
2600
2604
2608
2612
2616
2620
2624
2628
2632
2636
2640
2644
2648
2652
2656
2660
2664
2668
2672
2676
2680
2684
2688
2692
2696
2700
2704
2708
2712
2716
2720
2724
2728
2732
2736
2740
2744
2748
2752
2756
2760
2764
2768
2772
2776
2780
2784
2788
2792
2796
2800
2804
2808
2812
2816
2820
2824
2828
2832
2836
2840
2844
2848
2852
2856
2860
2864
2868
2872
2876
2880
2884
2888
2892
2896
2900
2904
2908
2912
2916
2920
2924
2928
2932
2936
2940
2944
2948
2952
2956
2960
2964
2968
2972
2976
2980
2984
2988
2992
2996
3000
3004
3008
3012
3016
3020
3024
3028
3032
3036
3040
3044
3048
3052
3056
3060
3064
3068
3072
3076
3080
3084
3088
3092
3096
3100
3104
3108
3112
3116
3120
3124
3128
3132
3136
3140
3144
3148
3152
3156
3160
3164
3168
3172
3176
3180
3184
3188
3192
3196
3200
3204
3208
3212
3216
3220
3224
3228
3232
3236
3240
3244
3248
3252
3256
3260
3264
3268
3272
3276
3280
3284
3288
3292
3296
3300
3304
3308
3312
3316
3320
3324
3328
3332
3336
3340
3344
3348
3352
3356
3360
3364
3368
3372
3376
3380
3384
3388
3392
3396
3400
3404
3408
3412
3416
3420
3424
3428
3432
3436
3440
3444
3448
3452
3456
3460
3464
3468
3472
3476
3480
3484
3488
3492
3496
3500
3504
3508
3512
3516
3520
3524
3528
3532
3536
3540
3544
3548
3552
3556
3560
3564
3568
3572
3576
3580
3584
3588
3592
3596
3600
3604
3608
3612
3616
3620
3624
3628
3632
3636
3640
3644
3648
3652
3656
3660
3664
3668
3672
3676
3680
3684
3688
3692
3696
3700
3704
3708
3712
3716
3720
3724
3728
3732
3736
3740
3744
3748
3752
3756
3760
3764
3768
3772
3776
3780
3784
3788
3792
3796
3800
3804
3808
3812
3816
3820
3824
3828
3832
3836
3840
3844
3848
3852
3856
3860
3864
3868
3872
3876
3880
3884
3888
3892
3896
3900
3904
3908
3912
3916
3920
3924
3928
3932
3936
3940
3944
3948
3952
3956
3960
3964
3968
3972
3976
3980
3984
3988
3992
3996
4000
4004
4008
4012
4016
4020
4024
4028
4032
4036
4040
4044
4048
4052
4056
4060
4064
4068
4072
4076
4080
4084
4088
4092
4096
4100
4104
4108
4112
4116
4120
4124
4128
4132
4136
4140
4144
4148
4152
4156
4160
4164
4168
4172
4176
4180
4184
4188
4192
4196
4200
4204
4208
4212
4216
4220
4224
4228
4232
4236
4240
4244
4248
4252
4256
4260
4264
4268
4272
4276
4280
4284
4288
4292
4296
4300
4304
4308
4312
4316
4320
4324
4328
4332
4336
4340
4344
4348
4352
4356
4360
4364
4368
4372
4376
4380
4384
4388
4392
4396
4400
4404
4408
4412
4416
4420
4424
4428
4432
4436
4440
4444
4448
4452
4456
4460
4464
4468
4472
4476
4480
4484
4488
4492
4496
4500
4504
4508
4512
4516
4520
4524
4528
4532
4536
4540
4544
4548
4552
4556
4560
4564
4568
4572
4576
4580
4584
4588
4592
4596
4600
4604
4608
4612
4616
4620
4624
4628
4632
4636
4640
4644
4648
4652
4656
4660
4664
4668
4672
4676
4680
4684
4688
4692
4696
4700
4704
4708
4712
4716
4720
4724
4728
4732
4736
4740
4744
4748
4752
4756
4760
4764
4768
4772
4776
4780
4784
4788
4792
4796
4800
4804
4808
4812
4816
4820
4824
4828
4832
4836
4840
4844
4848
4852
4856
4860
4864
4868
4872
4876
4880
4884
4888
4892
4896
4900
4904
4908
4912
4916
4920
4924
4928
4932
4936
4940
4944
4948
4952
4956
4960
4964
4968
4972
4976
4980
4984
4988
4992
4996
5000
5004
5008
5012
5016
5020
5024
5028
5032
5036
5040
5044
5048
5052
5056
5060
5064
5068
5072
5076
5080
5084
5088
5092
5096
5100
5104
5108
5112
5116
5120
5124
5128
5132
5136
5140
5144
5148
5152
5156
5160
5164
5168
5172
5176
5180
5184
5188
5192
5196
5200
5204
5208
5212
5216
5220
5224
5228
5232
5236
5240
5244
5248
5252
5256
5260
5264
5268
5272
5276
5280
5284
5288
5292
5296
5300
5304
5308
5312
5316
5320
5324
5328
5332
5336
5340
5344
5348
5352
5356
5360
5364
5368
5372
5376
5380
5384
5388
5392
5396
5400
5404
5408
5412
5416
5420
5424
5428
5432
5436
5440
5444
5448
5452
5456
5460
5464
5468
5472
5476
5480
5484
5488
5492
5496
5500
5504
5508
5512
5516
5520
5524
5528
5532
5536
5540
5544
5548
5552
5556
5560
5564
5568
5572
5576
5580
5584
5588
5592
5596
5600
5604
5608
5612
5616
5620
5624
5628
5632
5636
5640
5644
5648
5652
5656
5660
5664
5668
5672
5676
5680
5684
5688
5692
5696
5700
5704
5708
5712
5716
5720
5724
5728
5732
5736
5740
5744
5748
5752
5756
5760
5764
5768
5772
5776
5780
5784
5788
5792
5796
5800
5804
5808
5812
5816
5820
5824
5828
5832
5836
5840
5844
5848
5852
5856
5860
5864
5868
5872
5876
5880
5884
5888
5892
5896
5900
5904
5908
5912
5916
5920
5924
5928
5932
5936
5940
5944
5948
5952
5956
5960
5964
5968
5972
5976
5980
5984
5988
5992
5996
6000
              </DataArray>   
              <DataArray type="UInt8" Name="types" format="ascii">   
10
10
10
10
10
10
10
10
10
10
10
10
10
10
10
10
10
10
10
10
10
10
10
10
10
10
10
10
10
10
10
10
10
10
10
10
10
10
10
10
10
10
10
10
10
10
10
10
10
10
10
10
10
10
10
10
10
10
10
10
10
10
10
10
10
10
10
10
10
10
10
10
10
10
10
10
10
10
10
10
10
10
10
10
10
10
10
10
10
10
10
10
10
10
10
10
10
10
10
10
10
10
10
10
10
10
10
10
10
10
10
10
10
10
10
10
10
10
10
10
10
10
10
10
10
10
10
10
10
10
10
10
10
10
10
10
10
10
10
10
10
10
10
10
10
10
10
10
10
10
10
10
10
10
10
10
10
10
10
10
10
10
10
10
10
10
10
10
10
10
10
10
10
10
10
10
10
10
10
10
10
10
10
10
10
10
10
10
10
10
10
10
10
10
10
10
10
10
10
10
10
10
10
10
10
10
10
10
10
10
10
10
10
10
10
10
10
10
10
10
10
10
10
10
10
10
10
10
10
10
10
10
10
10
10
10
10
10
10
10
10
10
10
10
10
10
10
10
10
10
10
10
10
10
10
10
10
10
10
10
10
10
10
10
10
10
10
10
10
10
10
10
10
10
10
10
10
10
10
10
10
10
10
10
10
10
10
10
10
10
10
10
10
10
10
10
10
10
10
10
10
10
10
10
10
10
10
10
10
10
10
10
10
10
10
10
10
10
10
10
10
10
10
10
10
10
10
10
10
10
10
10
10
10
10
10
10
10
10
10
10
10
10
10
10
10
10
10
10
10
10
10
10
10
10
10
10
10
10
10
10
10
10
10
10
10
10
10
10
10
10
10
10
10
10
10
10
10
10
10
10
10
10
10
10
10
10
10
10
10
10
10
10
10
10
10
10
10
10
10
10
10
10
10
10
10
10
10
10
10
10
10
10
10
10
10
10
10
10
10
10
10
10
10
10
10
10
10
10
10
10
10
10
10
10
10
10
10
10
10
10
10
10
10
10
10
10
10
10
10
10
10
10
10
10
10
10
10
10
10
10
10
10
10
10
10
10
10
10
10
10
10
10
10
10
10
10
10
10
10
10
10
10
10
10
10
10
10
10
10
10
10
10
10
10
10
10
10
10
10
10
10
10
10
10
10
10
10
10
10
10
10
10
10
10
10
10
10
10
10
10
10
10
10
10
10
10
10
10
10
10
10
10
10
10
10
10
10
10
10
10
10
10
10
10
10
10
10
10
10
10
10
10
10
10
10
10
10
10
10
10
10
10
10
10
10
10
10
10
10
10
10
10
10
10
10
10
10
10
10
10
10
10
10
10
10
10
10
10
10
10
10
10
10
10
10
10
10
10
10
10
10
10
10
10
10
10
10
10
10
10
10
10
10
10
10
10
10
10
10
10
10
10
10
10
10
10
10
10
10
10
10
10
10
10
10
10
10
10
10
10
10
10
10
10
10
10
10
10
10
10
10
10
10
10
10
10
10
10
10
10
10
10
10
10
10
10
10
10
10
10
10
10
10
10
10
10
10
10
10
10
10
10
10
10
10
10
10
10
10
10
10
10
10
10
10
10
10
10
10
10
10
10
10
10
10
10
10
10
10
10
10
10
10
10
10
10
10
10
10
10
10
10
10
10
10
10
10
10
10
10
10
10
10
10
10
10
10
10
10
10
10
10
10
10
10
10
10
10
10
10
10
10
10
10
10
10
10
10
10
10
10
10
10
10
10
10
10
10
10
10
10
10
10
10
10
10
10
10
10
10
10
10
10
10
10
10
10
10
10
10
10
10
10
10
10
10
10
10
10
10
10
10
10
10
10
10
10
10
10
10
10
10
10
10
10
10
10
10
10
10
10
10
10
10
10
10
10
10
10
10
10
10
10
10
10
10
10
10
10
10
10
10
10
10
10
10
10
10
10
10
10
10
10
10
10
10
10
10
10
10
10
10
10
10
10
10
10
10
10
10
10
10
10
10
10
10
10
10
10
10
10
10
10
10
10
10
10
10
10
10
10
10
10
10
10
10
10
10
10
10
10
10
10
10
10
10
10
10
10
10
10
10
10
10
10
10
10
10
10
10
10
10
10
10
10
10
10
10
10
10
10
10
10
10
10
10
10
10
10
10
10
10
10
10
10
10
10
10
10
10
10
10
10
10
10
10
10
10
10
10
10
10
10
10
10
10
10
10
10
10
10
10
10
10
10
10
10
10
10
10
10
10
10
10
10
10
10
10
10
10
10
10
10
10
10
10
10
10
10
10
10
10
10
10
10
10
10
10
10
10
10
10
10
10
10
10
10
10
10
10
10
10
10
10
10
10
10
10
10
10
10
10
10
10
10
10
10
10
10
10
10
10
10
10
10
10
10
10
10
10
10
10
10
10
10
10
10
10
10
10
10
10
10
10
10
10
10
10
10
10
10
10
10
10
10
10
10
10
10
10
10
10
10
10
10
10
10
10
10
10
10
10
10
10
10
10
10
10
10
10
10
10
10
10
10
10
10
10
10
10
10
10
10
10
10
10
10
10
10
10
10
10
10
10
10
10
10
10
10
10
10
10
10
10
10
10
10
10
10
10
10
10
10
10
10
10
10
10
10
10
10
10
10
10
10
10
10
10
10
10
10
10
10
10
10
10
10
10
10
10
10
10
10
10
10
10
10
10
10
10
10
10
10
10
10
10
10
10
10
10
10
10
10
10
10
10
10
10
10
10
10
10
10
10
10
10
10
10
10
10
10
10
10
10
10
10
10
10
10
10
10
10
10
10
10
10
10
10
10
10
10
10
10
10
10
10
10
10
10
10
10
10
10
10
10
10
10
10
10
10
10
10
10
10
10
10
10
10
10
10
10
10
10
10
10
10
10
10
10
10
10
10
10
10
10
10
10
10
10
10
10
10
10
10
10
10
10
10
10
10
10
10
10
10
10
10
10
10
10
10
10
10
10
10
10
10
10
10
10
10
10
10
10
10
10
10
10
10
10
10
10
10
10
10
10
10
10
10
10
10
10
10
10
10
10
10
10
10
10
10
10
10
10
10
10
10
10
10
10
10
10
10
10
10
10
10
10
10
10
10
10
10
10
10
10
10
10
10
10
10
10
10
10
10
10
10
10
10
10
10
10
10
10
10
10
10
10
10
10
10
10
10
10
10
10
10
10
10
10
10
10
10
10
10
10
10
10
10
10
10
10
10
10
10
10
10
10
10
10
10
10
10
10
10
10
10
10
10
10
10
10
10
10
10
10
10
10
10
10
10
10
10
10
10
10
10
10
10
10
10
10
10
10
10
10
10
10
10
10
10
10
10
10
10
10
10
10
10
10
10
10
10
10
10
10
10
10
10
10
10
10
10
10
10
10
10
10
10
10
10
10
10
10
10
10
10
10
10
10
              </DataArray>   
          </Cells>  
          <PointData>  
             <DataArray type="Float64" NumberOfComponents="3" Name="Strains" format="ascii">   
-5.0563138292272826e-05   0.0   -3.330651037324812e-05
-5.0563138292272826e-05   0.0   -3.330651037324812e-05
-5.0563138292272826e-05   0.0   -3.330651037324812e-05
-5.0563138292272826e-05   0.0   -3.330651037324812e-05
-3.2162252911419565e-05   5.585260096377502e-06   7.127879860004002e-07
-3.2162252911419565e-05   5.585260096377502e-06   7.127879860004002e-07
-3.2162252911419565e-05   5.585260096377502e-06   7.127879860004002e-07
-3.2162252911419565e-05   5.585260096377502e-06   7.127879860004002e-07
-3.151794217797725e-05   0.0   -3.1450820941146746e-05
-3.151794217797725e-05   0.0   -3.1450820941146746e-05
-3.151794217797725e-05   0.0   -3.1450820941146746e-05
-3.151794217797725e-05   0.0   -3.1450820941146746e-05
-5.290652083237476e-05   6.710309663165168e-06   1.7062435161681409e-07
-5.290652083237476e-05   6.710309663165168e-06   1.7062435161681409e-07
-5.290652083237476e-05   6.710309663165168e-06   1.7062435161681409e-07
-5.290652083237476e-05   6.710309663165168e-06   1.7062435161681409e-07
-4.1040540235124966e-05   1.5464078600844833e-06   -1.6507668895284413e-05
-4.1040540235124966e-05   1.5464078600844833e-06   -1.6507668895284413e-05
-4.1040540235124966e-05   1.5464078600844833e-06   -1.6507668895284413e-05
-4.1040540235124966e-05   1.5464078600844833e-06   -1.6507668895284413e-05
-5.290652083237485e-05   0.0   -3.547700673904586e-05
-5.290652083237485e-05   0.0   -3.547700673904586e-05
-5.290652083237485e-05   0.0   -3.547700673904586e-05
-5.290652083237485e-05   0.0   -3.547700673904586e-05
-3.151794217797725e-05   6.7103096631651815e-06   4.196810149515919e-06
-3.151794217797725e-05   6.7103096631651815e-06   4.196810149515919e-06
-3.151794217797725e-05   6.7103096631651815e-06   4.196810149515919e-06
-3.151794217797725e-05   6.7103096631651815e-06   4.196810149515919e-06
-3.159791231177968e-05   0.0   -3.2218226675338576e-05
-3.159791231177968e-05   0.0   -3.2218226675338576e-05
-3.159791231177968e-05   0.0   -3.2218226675338576e-05
-3.159791231177968e-05   0.0   -3.2218226675338576e-05
-5.4548162252190125e-05   7.191186078055687e-06   1.7174782451789025e-06
-5.4548162252190125e-05   7.191186078055687e-06   1.7174782451789025e-06
-5.4548162252190125e-05   7.191186078055687e-06   1.7174782451789025e-06
-5.4548162252190125e-05   7.191186078055687e-06   1.7174782451789025e-06
-4.2252216572077195e-05   2.7156500530893942e-06   -1.609044294002953e-05
-4.2252216572077195e-05   2.7156500530893942e-06   -1.609044294002953e-05
-4.2252216572077195e-05   2.7156500530893942e-06   -1.609044294002953e-05
-4.2252216572077195e-05   2.7156500530893942e-06   -1.609044294002953e-05
-5.454816225219021e-05   0.0   -3.6532938322172e-05
-5.454816225219021e-05   0.0   -3.6532938322172e-05
-5.454816225219021e-05   0.0   -3.6532938322172e-05
-5.454816225219021e-05   0.0   -3.6532938322172e-05
-3.159791231177968e-05   7.1911860780557004e-06   6.032189892012317e-06
-3.159791231177968e-05   7.1911860780557004e-06   6.032189892012317e-06
-3.159791231177968e-05   7.1911860780557004e-06   6.032189892012317e-06
-3.159791231177968e-05   7.1911860780557004e-06   6.032189892012317e-06
-3.15712528834193e-05   0.0   -3.241682530889683e-05
-3.15712528834193e-05   0.0   -3.241682530889683e-05
-3.15712528834193e-05   0.0   -3.241682530889683e-05
-3.15712528834193e-05   0.0   -3.241682530889683e-05
-5.809355832668326e-05   8.198794460607318e-06   6.867740420178837e-06
-5.809355832668326e-05   8.198794460607318e-06   6.867740420178837e-06
-5.809355832668326e-05   8.198794460607318e-06   6.867740420178837e-06
-5.809355832668326e-05   8.198794460607318e-06   6.867740420178837e-06
-4.305970756780469e-05   3.4300941777293046e-06   -1.5327457341558614e-05
-4.305970756780469e-05   3.4300941777293046e-06   -1.5327457341558614e-05
-4.305970756780469e-05   3.4300941777293046e-06   -1.5327457341558614e-05
-4.305970756780469e-05   3.4300941777293046e-06   -1.5327457341558614e-05
-3.216225291141962e-05   0.0   -2.9955354315421624e-05
-3.216225291141962e-05   0.0   -2.9955354315421624e-05
-3.216225291141962e-05   0.0   -2.9955354315421624e-05
-3.216225291141962e-05   0.0   -2.9955354315421624e-05
-1.4657174646691578e-05   2.045334662580212e-06   4.46976923339891e-07
-1.4657174646691578e-05   2.045334662580212e-06   4.46976923339891e-07
-1.4657174646691578e-05   2.045334662580212e-06   4.46976923339891e-07
-1.4657174646691578e-05   2.045334662580212e-06   4.46976923339891e-07
-1.4088373301639374e-05   0.0   -2.9700471844034974e-05
-1.4088373301639374e-05   0.0   -2.9700471844034974e-05
-1.4088373301639374e-05   0.0   -2.9700471844034974e-05
-1.4088373301639374e-05   0.0   -2.9700471844034974e-05
-3.151794217797725e-05   2.917248495186287e-06   -2.401539480583632e-06
-3.151794217797725e-05   2.917248495186287e-06   -2.401539480583632e-06
-3.151794217797725e-05   2.917248495186287e-06   -2.401539480583632e-06
-3.151794217797725e-05   2.917248495186287e-06   -2.401539480583632e-06
-2.312531310652946e-05   2.124020594888725e-07   -1.4766346738244725e-05
-2.312531310652946e-05   2.124020594888725e-07   -1.4766346738244725e-05
-2.312531310652946e-05   2.124020594888725e-07   -1.4766346738244725e-05
-2.312531310652946e-05   2.124020594888725e-07   -1.4766346738244725e-05
-3.151794217797722e-05   0.0   -3.145082094114672e-05
-3.151794217797722e-05   0.0   -3.145082094114672e-05
-3.151794217797722e-05   0.0   -3.145082094114672e-05
-3.151794217797722e-05   0.0   -3.145082094114672e-05
-1.4088373301639374e-05   2.917248495186287e-06   -6.511903834718602e-07
-1.4088373301639374e-05   2.917248495186287e-06   -6.511903834718602e-07
-1.4088373301639374e-05   2.917248495186287e-06   -6.511903834718602e-07
-1.4088373301639374e-05   2.917248495186287e-06   -6.511903834718602e-07
-1.376527229999023e-05   0.0   -3.007144904221929e-05
-1.376527229999023e-05   0.0   -3.007144904221929e-05
-1.376527229999023e-05   0.0   -3.007144904221929e-05
-1.376527229999023e-05   0.0   -3.007144904221929e-05
-3.159791231177968e-05   3.5779627218654805e-06   -2.497159989022837e-06
-3.159791231177968e-05   3.5779627218654805e-06   -2.497159989022837e-06
-3.159791231177968e-05   3.5779627218654805e-06   -2.497159989022837e-06
-3.159791231177968e-05   3.5779627218654805e-06   -2.497159989022837e-06
-2.2641607238983694e-05   1.1494765824395437e-06   -1.5967243426693785e-05
-2.2641607238983694e-05   1.1494765824395437e-06   -1.5967243426693785e-05
-2.2641607238983694e-05   1.1494765824395437e-06   -1.5967243426693785e-05
-2.2641607238983694e-05   1.1494765824395437e-06   -1.5967243426693785e-05
-3.159791231177968e-05   0.0   -3.2218226675338576e-05
-3.159791231177968e-05   0.0   -3.2218226675338576e-05
-3.159791231177968e-05   0.0   -3.2218226675338576e-05
-3.159791231177968e-05   0.0   -3.2218226675338576e-05
-1.376527229999023e-05   3.5779627218654805e-06   -3.503823559035492e-07
-1.376527229999023e-05   3.5779627218654805e-06   -3.503823559035492e-07
-1.376527229999023e-05   3.5779627218654805e-06   -3.503823559035492e-07
-1.376527229999023e-05   3.5779627218654805e-06   -3.503823559035492e-07
-1.346959065033409e-05   0.0   -2.9917530057065865e-05
-1.346959065033409e-05   0.0   -2.9917530057065865e-05
-1.346959065033409e-05   0.0   -2.9917530057065865e-05
-1.346959065033409e-05   0.0   -2.9917530057065865e-05
-3.157125288341922e-05   4.16549208638489e-06   -2.2473882537547897e-06
-3.157125288341922e-05   4.16549208638489e-06   -2.2473882537547897e-06
-3.157125288341922e-05   4.16549208638489e-06   -2.2473882537547897e-06
-3.157125288341922e-05   4.16549208638489e-06   -2.2473882537547897e-06
-2.2533751481056876e-05   1.9172471818939094e-06   -1.5960943648330892e-05
-2.2533751481056876e-05   1.9172471818939094e-06   -1.5960943648330892e-05
-2.2533751481056876e-05   1.9172471818939094e-06   -1.5960943648330892e-05
-2.2533751481056876e-05   1.9172471818939094e-06   -1.5960943648330892e-05
-1.4657174646691603e-05   0.0   -2.8728153517873493e-05
-1.4657174646691603e-05   0.0   -2.8728153517873493e-05
-1.4657174646691603e-05   0.0   -2.8728153517873493e-05
-1.4657174646691603e-05   0.0   -2.8728153517873493e-05
1.8742159409558148e-06   -2.6438502896974247e-07   -1.3344668891762804e-06
1.8742159409558148e-06   -2.6438502896974247e-07   -1.3344668891762804e-06
1.8742159409558148e-06   -2.6438502896974247e-07   -1.3344668891762804e-06
1.8742159409558148e-06   -2.6438502896974247e-07   -1.3344668891762804e-06
2.2414139848590995e-06   0.0   -2.9389541628508814e-05
2.2414139848590995e-06   0.0   -2.9389541628508814e-05
2.2414139848590995e-06   0.0   -2.9389541628508814e-05
2.2414139848590995e-06   0.0   -2.9389541628508814e-05
-1.408837330163935e-05   5.182170258767661e-07   -2.4841596998708357e-06
-1.408837330163935e-05   5.182170258767661e-07   -2.4841596998708357e-06
-1.408837330163935e-05   5.182170258767661e-07   -2.4841596998708357e-06
-1.408837330163935e-05   5.182170258767661e-07   -2.4841596998708357e-06
-6.207880330916226e-06   -5.511567588628504e-07   -1.4976690380232219e-05
-6.207880330916226e-06   -5.511567588628504e-07   -1.4976690380232219e-05
-6.207880330916226e-06   -5.511567588628504e-07   -1.4976690380232219e-05
-6.207880330916226e-06   -5.511567588628504e-07   -1.4976690380232219e-05
-1.4088373301639374e-05   0.0   -2.9700471844034974e-05
-1.4088373301639374e-05   0.0   -2.9700471844034974e-05
-1.4088373301639374e-05   0.0   -2.9700471844034974e-05
-1.4088373301639374e-05   0.0   -2.9700471844034974e-05
2.2414139848591033e-06   5.182170258767661e-07   -2.173229484344777e-06
2.2414139848591033e-06   5.182170258767661e-07   -2.173229484344777e-06
2.2414139848591033e-06   5.182170258767661e-07   -2.173229484344777e-06
2.2414139848591033e-06   5.182170258767661e-07   -2.173229484344777e-06
2.5324084289553204e-06   0.0   -2.934681076410193e-05
2.5324084289553204e-06   0.0   -2.934681076410193e-05
2.5324084289553204e-06   0.0   -2.934681076410193e-05
2.5324084289553204e-06   0.0   -2.934681076410193e-05
-1.3765272299990183e-05   1.2077304635288403e-06   -2.9086478273100254e-06
-1.3765272299990183e-05   1.2077304635288403e-06   -2.9086478273100254e-06
-1.3765272299990183e-05   1.2077304635288403e-06   -2.9086478273100254e-06
-1.3765272299990183e-05   1.2077304635288403e-06   -2.9086478273100254e-06
-5.777982436342015e-06   2.947175666108271e-07   -1.567298986190619e-05
-5.777982436342015e-06   2.947175666108271e-07   -1.567298986190619e-05
-5.777982436342015e-06   2.947175666108271e-07   -1.567298986190619e-05
-5.777982436342015e-06   2.947175666108271e-07   -1.567298986190619e-05
-1.376527229999023e-05   0.0   -3.007144904221929e-05
-1.376527229999023e-05   0.0   -3.007144904221929e-05
-1.376527229999023e-05   0.0   -3.007144904221929e-05
-1.376527229999023e-05   0.0   -3.007144904221929e-05
2.532408428955325e-06   1.207730463528847e-06   -2.184009549192725e-06
2.532408428955325e-06   1.207730463528847e-06   -2.184009549192725e-06
2.532408428955325e-06   1.207730463528847e-06   -2.184009549192725e-06
2.532408428955325e-06   1.207730463528847e-06   -2.184009549192725e-06
2.9209831097360967e-06   0.0   -2.871403047404392e-05
2.9209831097360967e-06   0.0   -2.871403047404392e-05
2.9209831097360967e-06   0.0   -2.871403047404392e-05
2.9209831097360967e-06   0.0   -2.871403047404392e-05
-1.3469590650334055e-05   2.005832638369865e-06   -2.5999071236155456e-06
-1.3469590650334055e-05   2.005832638369865e-06   -2.5999071236155456e-06
-1.3469590650334055e-05   2.005832638369865e-06   -2.5999071236155456e-06
-1.3469590650334055e-05   2.005832638369865e-06   -2.5999071236155456e-06
-5.422144595127055e-06   1.1311821401461016e-06   -1.548752691669298e-05
-5.422144595127055e-06   1.1311821401461016e-06   -1.548752691669298e-05
-5.422144595127055e-06   1.1311821401461016e-06   -1.548752691669298e-05
-5.422144595127055e-06   1.1311821401461016e-06   -1.548752691669298e-05
1.874215940955818e-06   0.0   -2.8886784535255338e-05
1.874215940955818e-06   0.0   -2.8886784535255338e-05
1.874215940955818e-06   0.0   -2.8886784535255338e-05
1.874215940955818e-06   0.0   -2.8886784535255338e-05
1.982637583732728e-05   -2.325478356062066e-06   -3.6180505494011635e-07
1.982637583732728e-05   -2.325478356062066e-06   -3.6180505494011635e-07
1.982637583732728e-05   -2.325478356062066e-06   -3.6180505494011635e-07
1.982637583732728e-05   -2.325478356062066e-06   -3.6180505494011635e-07
1.9872527721588476e-05   0.0   -3.043989549149615e-05
1.9872527721588476e-05   0.0   -3.043989549149615e-05
1.9872527721588476e-05   0.0   -3.043989549149615e-05
1.9872527721588476e-05   0.0   -3.043989549149615e-05
2.241413984859107e-06   -1.7505897716453951e-06   -4.3520672933090765e-09
2.241413984859107e-06   -1.7505897716453951e-06   -4.3520672933090765e-09
2.241413984859107e-06   -1.7505897716453951e-06   -4.3520672933090765e-09
2.241413984859107e-06   -1.7505897716453951e-06   -4.3520672933090765e-09
1.0873371831272147e-05   -1.2942591302006801e-06   -1.4664746862848517e-05
1.0873371831272147e-05   -1.2942591302006801e-06   -1.4664746862848517e-05
1.0873371831272147e-05   -1.2942591302006801e-06   -1.4664746862848517e-05
1.0873371831272147e-05   -1.2942591302006801e-06   -1.4664746862848517e-05
2.241413984859107e-06   0.0   -2.9389541628508915e-05
2.241413984859107e-06   0.0   -2.9389541628508915e-05
2.241413984859107e-06   0.0   -2.9389541628508915e-05
2.241413984859107e-06   0.0   -2.9389541628508915e-05
1.9872527721588476e-05   -1.7505897716453951e-06   -1.054705930280547e-06
1.9872527721588476e-05   -1.7505897716453951e-06   -1.054705930280547e-06
1.9872527721588476e-05   -1.7505897716453951e-06   -1.054705930280547e-06
1.9872527721588476e-05   -1.7505897716453951e-06   -1.054705930280547e-06
1.9796807612470536e-05   0.0   -3.0005303346383682e-05
1.9796807612470536e-05   0.0   -3.0005303346383682e-05
1.9796807612470536e-05   0.0   -3.0005303346383682e-05
1.9796807612470536e-05   0.0   -3.0005303346383682e-05
2.532408428955325e-06   -1.097487637136169e-06   -5.728121249099673e-07
2.532408428955325e-06   -1.097487637136169e-06   -5.728121249099673e-07
2.532408428955325e-06   -1.097487637136169e-06   -5.728121249099673e-07
2.532408428955325e-06   -1.097487637136169e-06   -5.728121249099673e-07
1.1019110798664821e-05   -5.131347648956405e-07   -1.50679277977701e-05
1.1019110798664821e-05   -5.131347648956405e-07   -1.50679277977701e-05
1.1019110798664821e-05   -5.131347648956405e-07   -1.50679277977701e-05
1.1019110798664821e-05   -5.131347648956405e-07   -1.50679277977701e-05
2.532408428955323e-06   0.0   -2.9346810764101956e-05
2.532408428955323e-06   0.0   -2.9346810764101956e-05
2.532408428955323e-06   0.0   -2.9346810764101956e-05
2.532408428955323e-06   0.0   -2.9346810764101956e-05
1.9796807612470536e-05   -1.097487637136169e-06   -1.2313047071916706e-06
1.9796807612470536e-05   -1.097487637136169e-06   -1.2313047071916706e-06
1.9796807612470536e-05   -1.097487637136169e-06   -1.2313047071916706e-06
1.9796807612470536e-05   -1.097487637136169e-06   -1.2313047071916706e-06
2.0189235753831153e-05   0.0   -2.8846292355595405e-05
2.0189235753831153e-05   0.0   -2.8846292355595405e-05
2.0189235753831153e-05   0.0   -2.8846292355595405e-05
2.0189235753831153e-05   0.0   -2.8846292355595405e-05
2.920983109736102e-06   -2.204364692523977e-07   6.639059944778164e-08
2.920983109736102e-06   -2.204364692523977e-07   6.639059944778164e-08
2.920983109736102e-06   -2.204364692523977e-07   6.639059944778164e-08
2.920983109736102e-06   -2.204364692523977e-07   6.639059944778164e-08
1.136082209139323e-05   4.170986737554792e-07   -1.4382528789118811e-05
1.136082209139323e-05   4.170986737554792e-07   -1.4382528789118811e-05
1.136082209139323e-05   4.170986737554792e-07   -1.4382528789118811e-05
1.136082209139323e-05   4.170986737554792e-07   -1.4382528789118811e-05
1.982637583732728e-05   0.0   -3.0282071548892573e-05
1.982637583732728e-05   0.0   -3.0282071548892573e-05
1.982637583732728e-05   0.0   -3.0282071548892573e-05
1.982637583732728e-05   0.0   -3.0282071548892573e-05
4.481849261607079e-05   -5.902407897992257e-06   7.83001167688484e-06
4.481849261607079e-05   -5.902407897992257e-06   7.83001167688484e-06
4.481849261607079e-05   -5.902407897992257e-06   7.83001167688484e-06
4.481849261607079e-05   -5.902407897992257e-06   7.83001167688484e-06
4.2105952049362046e-05   0.0   -3.3449648038125655e-05
4.2105952049362046e-05   0.0   -3.3449648038125655e-05
4.2105952049362046e-05   0.0   -3.3449648038125655e-05
4.2105952049362046e-05   0.0   -3.3449648038125655e-05
1.9872527721588476e-05   -5.016254244382499e-06   6.615811721459786e-06
1.9872527721588476e-05   -5.016254244382499e-06   6.615811721459786e-06
1.9872527721588476e-05   -5.016254244382499e-06   6.615811721459786e-06
1.9872527721588476e-05   -5.016254244382499e-06   6.615811721459786e-06
3.096616394334466e-05   -2.6396470743609e-06   -1.3299546283480131e-05
3.096616394334466e-05   -2.6396470743609e-06   -1.3299546283480131e-05
3.096616394334466e-05   -2.6396470743609e-06   -1.3299546283480131e-05
3.096616394334466e-05   -2.6396470743609e-06   -1.3299546283480131e-05
1.987252772158846e-05   0.0   -3.0439895491496125e-05
1.987252772158846e-05   0.0   -3.0439895491496125e-05
1.987252772158846e-05   0.0   -3.0439895491496125e-05
1.987252772158846e-05   0.0   -3.0439895491496125e-05
4.21059520493619e-05   -5.0162542443824855e-06   3.6060591748302706e-06
4.21059520493619e-05   -5.0162542443824855e-06   3.6060591748302706e-06
4.21059520493619e-05   -5.0162542443824855e-06   3.6060591748302706e-06
4.21059520493619e-05   -5.0162542443824855e-06   3.6060591748302706e-06
4.085933297451359e-05   0.0   -3.2754314494431946e-05
4.085933297451359e-05   0.0   -3.2754314494431946e-05
4.085933297451359e-05   0.0   -3.2754314494431946e-05
4.085933297451359e-05   0.0   -3.2754314494431946e-05
1.9796807612470536e-05   -4.581685246747104e-06   5.098905590354744e-06
1.9796807612470536e-05   -4.581685246747104e-06   5.098905590354744e-06
1.9796807612470536e-05   -4.581685246747104e-06   5.098905590354744e-06
1.9796807612470536e-05   -4.581685246747104e-06   5.098905590354744e-06
3.0365930348051017e-05   -1.928682502446495e-06   -1.410810061552643e-05
3.0365930348051017e-05   -1.928682502446495e-06   -1.410810061552643e-05
3.0365930348051017e-05   -1.928682502446495e-06   -1.410810061552643e-05
3.0365930348051017e-05   -1.928682502446495e-06   -1.410810061552643e-05
1.9796807612470536e-05   0.0   -3.0005303346383682e-05
1.9796807612470536e-05   0.0   -3.0005303346383682e-05
1.9796807612470536e-05   0.0   -3.0005303346383682e-05
1.9796807612470536e-05   0.0   -3.0005303346383682e-05
4.085933297451345e-05   -4.5816852467470904e-06   2.3498944423064626e-06
4.085933297451345e-05   -4.5816852467470904e-06   2.3498944423064626e-06
4.085933297451345e-05   -4.5816852467470904e-06   2.3498944423064626e-06
4.085933297451345e-05   -4.5816852467470904e-06   2.3498944423064626e-06
3.899690401126341e-05   0.0   -3.0978830960278777e-05
3.899690401126341e-05   0.0   -3.0978830960278777e-05
3.899690401126341e-05   0.0   -3.0978830960278777e-05
3.899690401126341e-05   0.0   -3.0978830960278777e-05
2.0189235753831153e-05   -3.5542310078057055e-06   2.4998214067917913e-06
2.0189235753831153e-05   -3.5542310078057055e-06   2.4998214067917913e-06
2.0189235753831153e-05   -3.5542310078057055e-06   2.4998214067917913e-06
2.0189235753831153e-05   -3.5542310078057055e-06   2.4998214067917913e-06
2.9396855811867006e-05   -8.11273011579289e-07   -1.4491986821003799e-05
2.9396855811867006e-05   -8.11273011579289e-07   -1.4491986821003799e-05
2.9396855811867006e-05   -8.11273011579289e-07   -1.4491986821003799e-05
2.9396855811867006e-05   -8.11273011579289e-07   -1.4491986821003799e-05
-4.378051475921552e-05   5.585260096377482e-06   -2.880669767061883e-05
-4.378051475921552e-05   5.585260096377482e-06   -2.880669767061883e-05
-4.378051475921552e-05   5.585260096377482e-06   -2.880669767061883e-05
-4.378051475921552e-05   5.585260096377482e-06   -2.880669767061883e-05
-2.8049172551467874e-05   5.017267864357468e-06   -2.9285893302513844e-06
-2.8049172551467874e-05   5.017267864357468e-06   -2.9285893302513844e-06
-2.8049172551467874e-05   5.017267864357468e-06   -2.9285893302513844e-06
-2.8049172551467874e-05   5.017267864357468e-06   -2.9285893302513844e-06
-2.8750186363191576e-05   6.710309663165161e-06   -2.4200689078027906e-05
-2.8750186363191576e-05   6.710309663165161e-06   -2.4200689078027906e-05
-2.8750186363191576e-05   6.710309663165161e-06   -2.4200689078027906e-05
-2.8750186363191576e-05   6.710309663165161e-06   -2.4200689078027906e-05
-4.4244568344001424e-05   6.026830878821975e-06   2.0333681605944575e-06
-4.4244568344001424e-05   6.026830878821975e-06   2.0333681605944575e-06
-4.4244568344001424e-05   6.026830878821975e-06   2.0333681605944575e-06
-4.4244568344001424e-05   6.026830878821975e-06   2.0333681605944575e-06
-3.477150392443142e-05   5.8365513825631865e-06   -1.3640904840933827e-05
-3.477150392443142e-05   5.8365513825631865e-06   -1.3640904840933827e-05
-3.477150392443142e-05   5.8365513825631865e-06   -1.3640904840933827e-05
-3.477150392443142e-05   5.8365513825631865e-06   -1.3640904840933827e-05
-4.4244568344001424e-05   6.710309663165161e-06   -2.3790601807422e-05
-4.4244568344001424e-05   6.710309663165161e-06   -2.3790601807422e-05
-4.4244568344001424e-05   6.710309663165161e-06   -2.3790601807422e-05
-4.4244568344001424e-05   6.710309663165161e-06   -2.3790601807422e-05
-2.8750186363191678e-05   6.026830878822002e-06   1.6232808899885635e-06
-2.8750186363191678e-05   6.026830878822002e-06   1.6232808899885635e-06
-2.8750186363191678e-05   6.026830878822002e-06   1.6232808899885635e-06
-2.8750186363191678e-05   6.026830878822002e-06   1.6232808899885635e-06
-2.889206627012271e-05   7.191186078055673e-06   -2.1763399572806376e-05
-2.889206627012271e-05   7.191186078055673e-06   -2.1763399572806376e-05
-2.889206627012271e-05   7.191186078055673e-06   -2.1763399572806376e-05
-2.889206627012271e-05   7.191186078055673e-06   -2.1763399572806376e-05
-4.454742184009143e-05   6.482666589811977e-06   4.753971403420864e-06
-4.454742184009143e-05   6.482666589811977e-06   4.753971403420864e-06
-4.454742184009143e-05   6.482666589811977e-06   4.753971403420864e-06
-4.454742184009143e-05   6.482666589811977e-06   4.753971403420864e-06
-3.578748166405566e-05   6.471095168883299e-06   -9.838986037414733e-06
-3.578748166405566e-05   6.471095168883299e-06   -9.838986037414733e-06
-3.578748166405566e-05   6.471095168883299e-06   -9.838986037414733e-06
-3.578748166405566e-05   6.471095168883299e-06   -9.838986037414733e-06
-4.454742184009136e-05   7.191186078055673e-06   -2.1338287879860173e-05
-4.454742184009136e-05   7.191186078055673e-06   -2.1338287879860173e-05
-4.454742184009136e-05   7.191186078055673e-06   -2.1338287879860173e-05
-4.454742184009136e-05   7.191186078055673e-06   -2.1338287879860173e-05
-2.889206627012276e-05   6.482666589811977e-06   4.328859710474661e-06
-2.889206627012276e-05   6.482666589811977e-06   4.328859710474661e-06
-2.889206627012276e-05   6.482666589811977e-06   4.328859710474661e-06
-2.889206627012276e-05   6.482666589811977e-06   4.328859710474661e-06
-2.8722420280943728e-05   8.198794460607312e-06   -1.6097695974364882e-05
-2.8722420280943728e-05   8.198794460607312e-06   -1.6097695974364882e-05
-2.8722420280943728e-05   8.198794460607312e-06   -1.6097695974364882e-05
-2.8722420280943728e-05   8.198794460607312e-06   -1.6097695974364882e-05
-4.32996800578201e-05   6.847800556026212e-06   9.008333329844269e-06
-4.32996800578201e-05   6.847800556026212e-06   9.008333329844269e-06
-4.32996800578201e-05   6.847800556026212e-06   9.008333329844269e-06
-4.32996800578201e-05   6.847800556026212e-06   9.008333329844269e-06
-3.4848893309090846e-05   7.100961992169934e-06   -5.228208113057357e-06
-3.4848893309090846e-05   7.100961992169934e-06   -5.228208113057357e-06
-3.4848893309090846e-05   7.100961992169934e-06   -5.228208113057357e-06
-3.4848893309090846e-05   7.100961992169934e-06   -5.228208113057357e-06
-2.8049172551467874e-05   2.045334662580212e-06   -3.064050487003947e-05
-2.8049172551467874e-05   2.045334662580212e-06   -3.064050487003947e-05
-2.8049172551467874e-05   2.045334662580212e-06   -3.064050487003947e-05
-2.8049172551467874e-05   2.045334662580212e-06   -3.064050487003947e-05
-1.3305761351388207e-05   2.3347833841642007e-06   -5.894483636956245e-06
-1.3305761351388207e-05   2.3347833841642007e-06   -5.894483636956245e-06
-1.3305761351388207e-05   2.3347833841642007e-06   -5.894483636956245e-06
-1.3305761351388207e-05   2.3347833841642007e-06   -5.894483636956245e-06
-1.361863864253621e-05   2.9172484951862736e-06   -3.05915726545422e-05
-1.361863864253621e-05   2.9172484951862736e-06   -3.05915726545422e-05
-1.361863864253621e-05   2.9172484951862736e-06   -3.05915726545422e-05
-1.361863864253621e-05   2.9172484951862736e-06   -3.05915726545422e-05
-2.8750186363191576e-05   3.2630252511617157e-06   -5.5797925070350896e-06
-2.8750186363191576e-05   3.2630252511617157e-06   -5.5797925070350896e-06
-2.8750186363191576e-05   3.2630252511617157e-06   -5.5797925070350896e-06
-2.8750186363191576e-05   3.2630252511617157e-06   -5.5797925070350896e-06
-2.087166029119715e-05   2.626942575672812e-06   -1.8329019688399315e-05
-2.087166029119715e-05   2.626942575672812e-06   -1.8329019688399315e-05
-2.087166029119715e-05   2.626942575672812e-06   -1.8329019688399315e-05
-2.087166029119715e-05   2.626942575672812e-06   -1.8329019688399315e-05
-2.8750186363191556e-05   2.9172484951862736e-06   -3.0799038708127416e-05
-2.8750186363191556e-05   2.9172484951862736e-06   -3.0799038708127416e-05
-2.8750186363191556e-05   2.9172484951862736e-06   -3.0799038708127416e-05
-2.8750186363191556e-05   2.9172484951862736e-06   -3.0799038708127416e-05
-1.3618638642536232e-05   3.263025251161743e-06   -5.372326453449856e-06
-1.3618638642536232e-05   3.263025251161743e-06   -5.372326453449856e-06
-1.3618638642536232e-05   3.263025251161743e-06   -5.372326453449856e-06
-1.3618638642536232e-05   3.263025251161743e-06   -5.372326453449856e-06
-1.371329624101672e-05   3.5779627218654738e-06   -3.00203486895687e-05
-1.371329624101672e-05   3.5779627218654738e-06   -3.00203486895687e-05
-1.371329624101672e-05   3.5779627218654738e-06   -3.00203486895687e-05
-1.371329624101672e-05   3.5779627218654738e-06   -3.00203486895687e-05
-2.889206627012271e-05   4.031963995653528e-06   -4.994799405331563e-06
-2.889206627012271e-05   4.031963995653528e-06   -4.994799405331563e-06
-2.889206627012271e-05   4.031963995653528e-06   -4.994799405331563e-06
-2.889206627012271e-05   4.031963995653528e-06   -4.994799405331563e-06
-2.1030205734378386e-05   3.336692935864365e-06   -1.7680737662365212e-05
-2.1030205734378386e-05   3.336692935864365e-06   -1.7680737662365212e-05
-2.1030205734378386e-05   3.336692935864365e-06   -1.7680737662365212e-05
-2.1030205734378386e-05   3.336692935864365e-06   -1.7680737662365212e-05
-2.889206627012271e-05   3.5779627218654738e-06   -3.0292749453841537e-05
-2.889206627012271e-05   3.5779627218654738e-06   -3.0292749453841537e-05
-2.889206627012271e-05   3.5779627218654738e-06   -3.0292749453841537e-05
-2.889206627012271e-05   3.5779627218654738e-06   -3.0292749453841537e-05
-1.3713296241016768e-05   4.031963995653555e-06   -4.72239864105875e-06
-1.3713296241016768e-05   4.031963995653555e-06   -4.72239864105875e-06
-1.3713296241016768e-05   4.031963995653555e-06   -4.72239864105875e-06
-1.3713296241016768e-05   4.031963995653555e-06   -4.72239864105875e-06
-1.3674919755518351e-05   4.165492086384883e-06   -2.9715504991211793e-05
-1.3674919755518351e-05   4.165492086384883e-06   -2.9715504991211793e-05
-1.3674919755518351e-05   4.165492086384883e-06   -2.9715504991211793e-05
-1.3674919755518351e-05   4.165492086384883e-06   -2.9715504991211793e-05
-2.8722420280943708e-05   4.85981930880338e-06   -5.052933782287298e-06
-2.8722420280943708e-05   4.85981930880338e-06   -5.052933782287298e-06
-2.8722420280943708e-05   4.85981930880338e-06   -5.052933782287298e-06
-2.8722420280943708e-05   4.85981930880338e-06   -5.052933782287298e-06
-2.114898190217268e-05   3.979122482294716e-06   -1.7146912984333915e-05
-2.114898190217268e-05   3.979122482294716e-06   -1.7146912984333915e-05
-2.114898190217268e-05   3.979122482294716e-06   -1.7146912984333915e-05
-2.114898190217268e-05   3.979122482294716e-06   -1.7146912984333915e-05
-1.3305761351388185e-05   -2.643850289697357e-07   -3.208964843222339e-05
-1.3305761351388185e-05   -2.643850289697357e-07   -3.208964843222339e-05
-1.3305761351388185e-05   -2.643850289697357e-07   -3.208964843222339e-05
-1.3305761351388185e-05   -2.643850289697357e-07   -3.208964843222339e-05
1.2508115736565243e-06   -7.098301060023786e-08   -7.712652346127173e-06
1.2508115736565243e-06   -7.098301060023786e-08   -7.712652346127173e-06
1.2508115736565243e-06   -7.098301060023786e-08   -7.712652346127173e-06
1.2508115736565243e-06   -7.098301060023786e-08   -7.712652346127173e-06
1.195627373882821e-06   5.182170258767661e-07   -3.2264751314777564e-05
1.195627373882821e-06   5.182170258767661e-07   -3.2264751314777564e-05
1.195627373882821e-06   5.182170258767661e-07   -3.2264751314777564e-05
1.195627373882821e-06   5.182170258767661e-07   -3.2264751314777564e-05
-1.361863864253621e-05   7.845347861495391e-07   -7.734098610242731e-06
-1.361863864253621e-05   7.845347861495391e-07   -7.734098610242731e-06
-1.361863864253621e-05   7.845347861495391e-07   -7.734098610242731e-06
-1.361863864253621e-05   7.845347861495391e-07   -7.734098610242731e-06
-6.155868639327152e-06   2.6100151458747654e-07   -1.985792865265399e-05
-6.155868639327152e-06   2.6100151458747654e-07   -1.985792865265399e-05
-6.155868639327152e-06   2.6100151458747654e-07   -1.985792865265399e-05
-6.155868639327152e-06   2.6100151458747654e-07   -1.985792865265399e-05
-1.361863864253621e-05   5.182170258767661e-07   -3.2424541970941175e-05
-1.361863864253621e-05   5.182170258767661e-07   -3.2424541970941175e-05
-1.361863864253621e-05   5.182170258767661e-07   -3.2424541970941175e-05
-1.361863864253621e-05   5.182170258767661e-07   -3.2424541970941175e-05
1.195627373882821e-06   7.845347861495391e-07   -7.574307954079079e-06
1.195627373882821e-06   7.845347861495391e-07   -7.574307954079079e-06
1.195627373882821e-06   7.845347861495391e-07   -7.574307954079079e-06
1.195627373882821e-06   7.845347861495391e-07   -7.574307954079079e-06
1.1192331430334627e-06   1.207730463528847e-06   -3.2330882954626355e-05
1.1192331430334627e-06   1.207730463528847e-06   -3.2330882954626355e-05
1.1192331430334627e-06   1.207730463528847e-06   -3.2330882954626355e-05
1.1192331430334627e-06   1.207730463528847e-06   -3.2330882954626355e-05
-1.371329624101672e-05   1.6206158074435594e-06   -7.857731854224903e-06
-1.371329624101672e-05   1.6206158074435594e-06   -7.857731854224903e-06
-1.371329624101672e-05   1.6206158074435594e-06   -7.857731854224903e-06
-1.371329624101672e-05   1.6206158074435594e-06   -7.857731854224903e-06
-6.265756028527837e-06   9.85615366010933e-07   -1.9889298610180066e-05
-6.265756028527837e-06   9.85615366010933e-07   -1.9889298610180066e-05
-6.265756028527837e-06   9.85615366010933e-07   -1.9889298610180066e-05
-6.265756028527837e-06   9.85615366010933e-07   -1.9889298610180066e-05
-1.371329624101672e-05   1.207730463528847e-06   -3.257861416097517e-05
-1.371329624101672e-05   1.207730463528847e-06   -3.257861416097517e-05
-1.371329624101672e-05   1.207730463528847e-06   -3.257861416097517e-05
-1.371329624101672e-05   1.207730463528847e-06   -3.257861416097517e-05
1.1192331430334649e-06   1.6206158074435594e-06   -7.610000647876077e-06
1.1192331430334649e-06   1.6206158074435594e-06   -7.610000647876077e-06
1.1192331430334649e-06   1.6206158074435594e-06   -7.610000647876077e-06
1.1192331430334649e-06   1.6206158074435594e-06   -7.610000647876077e-06
9.59798697252907e-07   2.005832638369865e-06   -3.227590550951486e-05
9.59798697252907e-07   2.005832638369865e-06   -3.227590550951486e-05
9.59798697252907e-07   2.005832638369865e-06   -3.227590550951486e-05
9.59798697252907e-07   2.005832638369865e-06   -3.227590550951486e-05
-1.3674919755518365e-05   2.491521977350937e-06   -8.176121691618077e-06
-1.3674919755518365e-05   2.491521977350937e-06   -8.176121691618077e-06
-1.3674919755518365e-05   2.491521977350937e-06   -8.176121691618077e-06
-1.3674919755518365e-05   2.491521977350937e-06   -8.176121691618077e-06
-6.330302256319583e-06   1.7300206617153928e-06   -1.9960250067568027e-05
-6.330302256319583e-06   1.7300206617153928e-06   -1.9960250067568027e-05
-6.330302256319583e-06   1.7300206617153928e-06   -1.9960250067568027e-05
-6.330302256319583e-06   1.7300206617153928e-06   -1.9960250067568027e-05
1.2508115736565243e-06   -2.3254783560620594e-06   -2.9605658373328306e-05
1.2508115736565243e-06   -2.3254783560620594e-06   -2.9605658373328306e-05
1.2508115736565243e-06   -2.3254783560620594e-06   -2.9605658373328306e-05
1.2508115736565243e-06   -2.3254783560620594e-06   -2.9605658373328306e-05
1.6251342595381474e-05   -2.390389163382789e-06   -4.643719821512471e-06
1.6251342595381474e-05   -2.390389163382789e-06   -4.643719821512471e-06
1.6251342595381474e-05   -2.390389163382789e-06   -4.643719821512471e-06
1.6251342595381474e-05   -2.390389163382789e-06   -4.643719821512471e-06
1.63902430946383e-05   -1.7505897716453816e-06   -3.0012751545778847e-05
1.63902430946383e-05   -1.7505897716453816e-06   -3.0012751545778847e-05
1.63902430946383e-05   -1.7505897716453816e-06   -3.0012751545778847e-05
1.63902430946383e-05   -1.7505897716453816e-06   -3.0012751545778847e-05
1.195627373882821e-06   -1.6120525184001758e-06   -4.771514363133471e-06
1.195627373882821e-06   -1.6120525184001758e-06   -4.771514363133471e-06
1.195627373882821e-06   -1.6120525184001758e-06   -4.771514363133471e-06
1.195627373882821e-06   -1.6120525184001758e-06   -4.771514363133471e-06
8.660004254326378e-06   -1.931380930281885e-06   -1.7020545450077083e-05
8.660004254326378e-06   -1.931380930281885e-06   -1.7020545450077083e-05
8.660004254326378e-06   -1.931380930281885e-06   -1.7020545450077083e-05
8.660004254326378e-06   -1.931380930281885e-06   -1.7020545450077083e-05
1.195627373882819e-06   -1.7505897716453884e-06   -3.009587389772605e-05
1.195627373882819e-06   -1.7505897716453884e-06   -3.009587389772605e-05
1.195627373882819e-06   -1.7505897716453884e-06   -3.009587389772605e-05
1.195627373882819e-06   -1.7505897716453884e-06   -3.009587389772605e-05
1.6390243094638322e-05   -1.6120525184001758e-06   -4.6883920111863225e-06
1.6390243094638322e-05   -1.6120525184001758e-06   -4.6883920111863225e-06
1.6390243094638322e-05   -1.6120525184001758e-06   -4.6883920111863225e-06
1.6390243094638322e-05   -1.6120525184001758e-06   -4.6883920111863225e-06
1.631519326021904e-05   -1.0974876371361623e-06   -3.0571353357909775e-05
1.631519326021904e-05   -1.0974876371361623e-06   -3.0571353357909775e-05
1.631519326021904e-05   -1.0974876371361623e-06   -3.0571353357909775e-05
1.631519326021904e-05   -1.0974876371361623e-06   -3.0571353357909775e-05
1.1192331430334627e-06   -8.502673497465555e-07   -5.393085335034279e-06
1.1192331430334627e-06   -8.502673497465555e-07   -5.393085335034279e-06
1.1192331430334627e-06   -8.502673497465555e-07   -5.393085335034279e-06
1.1192331430334627e-06   -8.502673497465555e-07   -5.393085335034279e-06
8.572053040443865e-06   -1.3109458195242083e-06   -1.7538044748851624e-05
8.572053040443865e-06   -1.3109458195242083e-06   -1.7538044748851624e-05
8.572053040443865e-06   -1.3109458195242083e-06   -1.7538044748851624e-05
8.572053040443865e-06   -1.3109458195242083e-06   -1.7538044748851624e-05
1.119233143033462e-06   -1.097487637136169e-06   -3.071968553034354e-05
1.119233143033462e-06   -1.097487637136169e-06   -3.071968553034354e-05
1.119233143033462e-06   -1.097487637136169e-06   -3.071968553034354e-05
1.119233143033462e-06   -1.097487637136169e-06   -3.071968553034354e-05
1.6315193260219103e-05   -8.502673497465555e-07   -5.244753162600516e-06
1.6315193260219103e-05   -8.502673497465555e-07   -5.244753162600516e-06
1.6315193260219103e-05   -8.502673497465555e-07   -5.244753162600516e-06
1.6315193260219103e-05   -8.502673497465555e-07   -5.244753162600516e-06
1.5842458114551328e-05   -2.204364692523977e-07   -3.0626140234885635e-05
1.5842458114551328e-05   -2.204364692523977e-07   -3.0626140234885635e-05
1.5842458114551328e-05   -2.204364692523977e-07   -3.0626140234885635e-05
1.5842458114551328e-05   -2.204364692523977e-07   -3.0626140234885635e-05
9.59798697252907e-07   9.117542172718939e-08   -6.008675007309395e-06
9.59798697252907e-07   9.117542172718939e-08   -6.008675007309395e-06
9.59798697252907e-07   9.117542172718939e-08   -6.008675007309395e-06
9.59798697252907e-07   9.117542172718939e-08   -6.008675007309395e-06
8.482772359082328e-06   -5.863596688957922e-07   -1.814044338931793e-05
8.482772359082328e-06   -5.863596688957922e-07   -1.814044338931793e-05
8.482772359082328e-06   -5.863596688957922e-07   -1.814044338931793e-05
8.482772359082328e-06   -5.863596688957922e-07   -1.814044338931793e-05
1.6251342595381474e-05   -5.902407897992257e-06   -1.7911343387100437e-05
1.6251342595381474e-05   -5.902407897992257e-06   -1.7911343387100437e-05
1.6251342595381474e-05   -5.902407897992257e-06   -1.7911343387100437e-05
1.6251342595381474e-05   -5.902407897992257e-06   -1.7911343387100437e-05
3.104553067004705e-05   -4.438184212150417e-06   7.624170948847248e-06
3.104553067004705e-05   -4.438184212150417e-06   7.624170948847248e-06
3.104553067004705e-05   -4.438184212150417e-06   7.624170948847248e-06
3.104553067004705e-05   -4.438184212150417e-06   7.624170948847248e-06
3.223958793059218e-05   -5.016254244382499e-06   -2.1745445279132342e-05
3.223958793059218e-05   -5.016254244382499e-06   -2.1745445279132342e-05
3.223958793059218e-05   -5.016254244382499e-06   -2.1745445279132342e-05
3.223958793059218e-05   -5.016254244382499e-06   -2.1745445279132342e-05
1.639024309463835e-05   -4.021606552872024e-06   4.073340832551167e-06
1.639024309463835e-05   -4.021606552872024e-06   4.073340832551167e-06
1.639024309463835e-05   -4.021606552872024e-06   4.073340832551167e-06
1.639024309463835e-05   -4.021606552872024e-06   4.073340832551167e-06
2.2866119037501794e-05   -4.822898688199964e-06   -6.239010457691183e-06
2.2866119037501794e-05   -4.822898688199964e-06   -6.239010457691183e-06
2.2866119037501794e-05   -4.822898688199964e-06   -6.239010457691183e-06
2.2866119037501794e-05   -4.822898688199964e-06   -6.239010457691183e-06
1.6390243094638305e-05   -5.0162542443824855e-06   -2.2342233894038534e-05
1.6390243094638305e-05   -5.0162542443824855e-06   -2.2342233894038534e-05
1.6390243094638305e-05   -5.0162542443824855e-06   -2.2342233894038534e-05
1.6390243094638305e-05   -5.0162542443824855e-06   -2.2342233894038534e-05
3.223958793059218e-05   -4.021606552872024e-06   4.67012944745744e-06
3.223958793059218e-05   -4.021606552872024e-06   4.67012944745744e-06
3.223958793059218e-05   -4.021606552872024e-06   4.67012944745744e-06
3.223958793059218e-05   -4.021606552872024e-06   4.67012944745744e-06
3.2127036481321584e-05   -4.581685246747104e-06   -2.3642140565667807e-05
3.2127036481321584e-05   -4.581685246747104e-06   -2.3642140565667807e-05
3.2127036481321584e-05   -4.581685246747104e-06   -2.3642140565667807e-05
3.2127036481321584e-05   -4.581685246747104e-06   -2.3642140565667807e-05
1.6315193260219103e-05   -3.583347755587655e-06   2.1119289748072837e-06
1.6315193260219103e-05   -3.583347755587655e-06   2.1119289748072837e-06
1.6315193260219103e-05   -3.583347755587655e-06   2.1119289748072837e-06
1.6315193260219103e-05   -3.583347755587655e-06   2.1119289748072837e-06
2.3673190305114676e-05   -4.25597674174115e-06   -9.747822041659908e-06
2.3673190305114676e-05   -4.25597674174115e-06   -9.747822041659908e-06
2.3673190305114676e-05   -4.25597674174115e-06   -9.747822041659908e-06
2.3673190305114676e-05   -4.25597674174115e-06   -9.747822041659908e-06
1.631519326021907e-05   -4.5816852467470904e-06   -2.4241143060363435e-05
1.631519326021907e-05   -4.5816852467470904e-06   -2.4241143060363435e-05
1.631519326021907e-05   -4.5816852467470904e-06   -2.4241143060363435e-05
1.631519326021907e-05   -4.5816852467470904e-06   -2.4241143060363435e-05
3.2127036481321584e-05   -3.583347755587655e-06   2.7109314695029625e-06
3.2127036481321584e-05   -3.583347755587655e-06   2.7109314695029625e-06
3.2127036481321584e-05   -3.583347755587655e-06   2.7109314695029625e-06
3.2127036481321584e-05   -3.583347755587655e-06   2.7109314695029625e-06
3.194218570091218e-05   -3.5542310078056987e-06   -2.7512305021335033e-05
3.194218570091218e-05   -3.5542310078056987e-06   -2.7512305021335033e-05
3.194218570091218e-05   -3.5542310078056987e-06   -2.7512305021335033e-05
3.194218570091218e-05   -3.5542310078056987e-06   -2.7512305021335033e-05
1.5842458114551385e-05   -2.6406601333802662e-06   -1.2275682353889863e-06
1.5842458114551385e-05   -2.6406601333802662e-06   -1.2275682353889863e-06
1.5842458114551385e-05   -2.6406601333802662e-06   -1.2275682353889863e-06
1.5842458114551385e-05   -2.6406601333802662e-06   -1.2275682353889863e-06
2.300126092826028e-05   -3.6621804494600143e-06   -1.2545994068589267e-05
2.300126092826028e-05   -3.6621804494600143e-06   -1.2545994068589267e-05
2.300126092826028e-05   -3.6621804494600143e-06   -1.2545994068589267e-05
2.300126092826028e-05   -3.6621804494600143e-06   -1.2545994068589267e-05
-3.480095437151406e-05   5.017267864357468e-06   -2.407641225125389e-05
-3.480095437151406e-05   5.017267864357468e-06   -2.407641225125389e-05
-3.480095437151406e-05   5.017267864357468e-06   -2.407641225125389e-05
-3.480095437151406e-05   5.017267864357468e-06   -2.407641225125389e-05
-2.2833122931551586e-05   3.82725778818807e-06   -4.8440325636847704e-06
-2.2833122931551586e-05   3.82725778818807e-06   -4.8440325636847704e-06
-2.2833122931551586e-05   3.82725778818807e-06   -4.8440325636847704e-06
-2.2833122931551586e-05   3.82725778818807e-06   -4.8440325636847704e-06
-2.2940771576231e-05   6.026830878821975e-06   -1.9994033744868782e-05
-2.2940771576231e-05   6.026830878821975e-06   -1.9994033744868782e-05
-2.2940771576231e-05   6.026830878821975e-06   -1.9994033744868782e-05
-2.2940771576231e-05   6.026830878821975e-06   -1.9994033744868782e-05
-3.4265621857161615e-05   4.633373538694206e-06   -2.832088725744934e-07
-3.4265621857161615e-05   4.633373538694206e-06   -2.832088725744934e-07
-3.4265621857161615e-05   4.633373538694206e-06   -2.832088725744934e-07
-3.4265621857161615e-05   4.633373538694206e-06   -2.832088725744934e-07
-2.749549645056928e-05   5.103568895512602e-06   -1.1848868430986125e-05
-2.749549645056928e-05   5.103568895512602e-06   -1.1848868430986125e-05
-2.749549645056928e-05   5.103568895512602e-06   -1.1848868430986125e-05
-2.749549645056928e-05   5.103568895512602e-06   -1.1848868430986125e-05
-3.4265621857161615e-05   6.026830878821975e-06   -1.9157959340792156e-05
-3.4265621857161615e-05   6.026830878821975e-06   -1.9157959340792156e-05
-3.4265621857161615e-05   6.026830878821975e-06   -1.9157959340792156e-05
-3.4265621857161615e-05   6.026830878821975e-06   -1.9157959340792156e-05
-2.2940771576231e-05   4.633373538694206e-06   -1.1192832766510654e-06
-2.2940771576231e-05   4.633373538694206e-06   -1.1192832766510654e-06
-2.2940771576231e-05   4.633373538694206e-06   -1.1192832766510654e-06
-2.2940771576231e-05   4.633373538694206e-06   -1.1192832766510654e-06
-2.2914620877572165e-05   6.482666589811977e-06   -1.7107591396460595e-05
-2.2914620877572165e-05   6.482666589811977e-06   -1.7107591396460595e-05
-2.2914620877572165e-05   6.482666589811977e-06   -1.7107591396460595e-05
-2.2914620877572165e-05   6.482666589811977e-06   -1.7107591396460595e-05
-3.3745354295573724e-05   4.988156630822069e-06   1.8403369422692205e-06
-3.3745354295573724e-05   4.988156630822069e-06   1.8403369422692205e-06
-3.3745354295573724e-05   4.988156630822069e-06   1.8403369422692205e-06
-3.3745354295573724e-05   4.988156630822069e-06   1.8403369422692205e-06
-2.7728798929781025e-05   5.5708263612993104e-06   -8.53685717233806e-06
-2.7728798929781025e-05   5.5708263612993104e-06   -8.53685717233806e-06
-2.7728798929781025e-05   5.5708263612993104e-06   -8.53685717233806e-06
-2.7728798929781025e-05   5.5708263612993104e-06   -8.53685717233806e-06
-3.3745354295573724e-05   6.482666589811977e-06   -1.621088542106666e-05
-3.3745354295573724e-05   6.482666589811977e-06   -1.621088542106666e-05
-3.3745354295573724e-05   6.482666589811977e-06   -1.621088542106666e-05
-3.3745354295573724e-05   6.482666589811977e-06   -1.621088542106666e-05
-2.2914620877572192e-05   4.988156630822069e-06   9.436309668754082e-07
-2.2914620877572192e-05   4.988156630822069e-06   9.436309668754082e-07
-2.2914620877572192e-05   4.988156630822069e-06   9.436309668754082e-07
-2.2914620877572192e-05   4.988156630822069e-06   9.436309668754082e-07
-2.2935826945157292e-05   6.847800556026212e-06   -1.3070607303320976e-05
-2.2935826945157292e-05   6.847800556026212e-06   -1.3070607303320976e-05
-2.2935826945157292e-05   6.847800556026212e-06   -1.3070607303320976e-05
-2.2935826945157292e-05   6.847800556026212e-06   -1.3070607303320976e-05
-3.306816795727488e-05   5.339375266721327e-06   4.7216828904577345e-06
-3.306816795727488e-05   5.339375266721327e-06   4.7216828904577345e-06
-3.306816795727488e-05   5.339375266721327e-06   4.7216828904577345e-06
-3.306816795727488e-05   5.339375266721327e-06   4.7216828904577345e-06
-2.7093610765484926e-05   5.818299074150093e-06   -5.5232667136490856e-06
-2.7093610765484926e-05   5.818299074150093e-06   -5.5232667136490856e-06
-2.7093610765484926e-05   5.818299074150093e-06   -5.5232667136490856e-06
-2.7093610765484926e-05   5.818299074150093e-06   -5.5232667136490856e-06
-2.2833122931551586e-05   2.3347833841642007e-06   -2.792998183661079e-05
-2.2833122931551586e-05   2.3347833841642007e-06   -2.792998183661079e-05
-2.2833122931551586e-05   2.3347833841642007e-06   -2.792998183661079e-05
-2.2833122931551586e-05   2.3347833841642007e-06   -2.792998183661079e-05
-1.1640714803728818e-05   1.9108248107007914e-06   -9.53034343431759e-06
-1.1640714803728818e-05   1.9108248107007914e-06   -9.53034343431759e-06
-1.1640714803728818e-05   1.9108248107007914e-06   -9.53034343431759e-06
-1.1640714803728818e-05   1.9108248107007914e-06   -9.53034343431759e-06
-1.1779871183286867e-05   3.2630252511617157e-06   -2.7532430876685304e-05
-1.1779871183286867e-05   3.2630252511617157e-06   -2.7532430876685304e-05
-1.1779871183286867e-05   3.2630252511617157e-06   -2.7532430876685304e-05
-1.1779871183286867e-05   3.2630252511617157e-06   -2.7532430876685304e-05
-2.294077157623096e-05   2.7041523598403134e-06   -8.595606486985573e-06
-2.294077157623096e-05   2.7041523598403134e-06   -8.595606486985573e-06
-2.294077157623096e-05   2.7041523598403134e-06   -8.595606486985573e-06
-2.294077157623096e-05   2.7041523598403134e-06   -8.595606486985573e-06
-1.7150183491326456e-05   2.6959924340098234e-06   -1.824169067299486e-05
-1.7150183491326456e-05   2.6959924340098234e-06   -1.824169067299486e-05
-1.7150183491326456e-05   2.6959924340098234e-06   -1.824169067299486e-05
-1.7150183491326456e-05   2.6959924340098234e-06   -1.824169067299486e-05
-2.2940771576230974e-05   3.2630252511617157e-06   -2.7197107141892395e-05
-2.2940771576230974e-05   3.2630252511617157e-06   -2.7197107141892395e-05
-2.2940771576230974e-05   3.2630252511617157e-06   -2.7197107141892395e-05
-2.2940771576230974e-05   3.2630252511617157e-06   -2.7197107141892395e-05
-1.1779871183286884e-05   2.7041523598403676e-06   -8.93093022177837e-06
-1.1779871183286884e-05   2.7041523598403676e-06   -8.93093022177837e-06
-1.1779871183286884e-05   2.7041523598403676e-06   -8.93093022177837e-06
-1.1779871183286884e-05   2.7041523598403676e-06   -8.93093022177837e-06
-1.1869342677092907e-05   4.031963995653528e-06   -2.6804590018168718e-05
-1.1869342677092907e-05   4.031963995653528e-06   -2.6804590018168718e-05
-1.1869342677092907e-05   4.031963995653528e-06   -2.6804590018168718e-05
-1.1869342677092907e-05   4.031963995653528e-06   -2.6804590018168718e-05
-2.2914620877572165e-05   3.409731485817021e-06   -8.022453511468205e-06
-2.2914620877572165e-05   3.409731485817021e-06   -8.022453511468205e-06
-2.2914620877572165e-05   3.409731485817021e-06   -8.022453511468205e-06
-2.2914620877572165e-05   3.409731485817021e-06   -8.022453511468205e-06
-1.7179910404710853e-05   3.349184665535587e-06   -1.7543976207401216e-05
-1.7179910404710853e-05   3.349184665535587e-06   -1.7543976207401216e-05
-1.7179910404710853e-05   3.349184665535587e-06   -1.7543976207401216e-05
-1.7179910404710853e-05   3.349184665535587e-06   -1.7543976207401216e-05
-2.2914620877572165e-05   4.031963995653528e-06   -2.6431250512266833e-05
-2.2914620877572165e-05   4.031963995653528e-06   -2.6431250512266833e-05
-2.2914620877572165e-05   4.031963995653528e-06   -2.6431250512266833e-05
-2.2914620877572165e-05   4.031963995653528e-06   -2.6431250512266833e-05
-1.1869342677092947e-05   3.409731485817021e-06   -8.395793017370009e-06
-1.1869342677092947e-05   3.409731485817021e-06   -8.395793017370009e-06
-1.1869342677092947e-05   3.409731485817021e-06   -8.395793017370009e-06
-1.1869342677092947e-05   3.409731485817021e-06   -8.395793017370009e-06
-1.198594459445502e-05   4.85981930880338e-06   -2.6740503406794607e-05
-1.198594459445502e-05   4.85981930880338e-06   -2.6740503406794607e-05
-1.198594459445502e-05   4.85981930880338e-06   -2.6740503406794607e-05
-1.198594459445502e-05   4.85981930880338e-06   -2.6740503406794607e-05
-2.293582694515728e-05   4.161110418652279e-06   -8.071474154866802e-06
-2.293582694515728e-05   4.161110418652279e-06   -8.071474154866802e-06
-2.293582694515728e-05   4.161110418652279e-06   -8.071474154866802e-06
-2.293582694515728e-05   4.161110418652279e-06   -8.071474154866802e-06
-1.7381406377205993e-05   3.99685768787887e-06   -1.7230290129654685e-05
-1.7381406377205993e-05   3.99685768787887e-06   -1.7230290129654685e-05
-1.7381406377205993e-05   3.99685768787887e-06   -1.7230290129654685e-05
-1.7381406377205993e-05   3.99685768787887e-06   -1.7230290129654685e-05
-1.1640714803728798e-05   -7.098301060023786e-08   -3.0118566900881515e-05
-1.1640714803728798e-05   -7.098301060023786e-08   -3.0118566900881515e-05
-1.1640714803728798e-05   -7.098301060023786e-08   -3.0118566900881515e-05
-1.1640714803728798e-05   -7.098301060023786e-08   -3.0118566900881515e-05
-5.711249291466083e-07   1.0221038329290624e-07   -1.156533440690862e-05
-5.711249291466083e-07   1.0221038329290624e-07   -1.156533440690862e-05
-5.711249291466083e-07   1.0221038329290624e-07   -1.156533440690862e-05
-5.711249291466083e-07   1.0221038329290624e-07   -1.156533440690862e-05
-6.824977387531219e-07   7.845347861495391e-07   -2.9834622323094437e-05
-6.824977387531219e-07   7.845347861495391e-07   -2.9834622323094437e-05
-6.824977387531219e-07   7.845347861495391e-07   -2.9834622323094437e-05
-6.824977387531219e-07   7.845347861495391e-07   -2.9834622323094437e-05
-1.1779871183286867e-05   8.838359701224155e-07   -1.1398580625921964e-05
-1.1779871183286867e-05   8.838359701224155e-07   -1.1398580625921964e-05
-1.1779871183286867e-05   8.838359701224155e-07   -1.1398580625921964e-05
-1.1779871183286867e-05   8.838359701224155e-07   -1.1398580625921964e-05
-6.13356137612827e-06   5.154938828397129e-07   -2.0588091718816644e-05
-6.13356137612827e-06   5.154938828397129e-07   -2.0588091718816644e-05
-6.13356137612827e-06   5.154938828397129e-07   -2.0588091718816644e-05
-6.13356137612827e-06   5.154938828397129e-07   -2.0588091718816644e-05
-1.1779871183286867e-05   7.845347861495391e-07   -2.9894203033478182e-05
-1.1779871183286867e-05   7.845347861495391e-07   -2.9894203033478182e-05
-1.1779871183286867e-05   7.845347861495391e-07   -2.9894203033478182e-05
-1.1779871183286867e-05   7.845347861495391e-07   -2.9894203033478182e-05
-6.824977387531231e-07   8.838359701224697e-07   -1.1338999915538165e-05
-6.824977387531231e-07   8.838359701224697e-07   -1.1338999915538165e-05
-6.824977387531231e-07   8.838359701224697e-07   -1.1338999915538165e-05
-6.824977387531231e-07   8.838359701224697e-07   -1.1338999915538165e-05
-7.621985467207536e-07   1.6206158074435594e-06   -2.9914369752690568e-05
-7.621985467207536e-07   1.6206158074435594e-06   -2.9914369752690568e-05
-7.621985467207536e-07   1.6206158074435594e-06   -2.9914369752690568e-05
-7.621985467207536e-07   1.6206158074435594e-06   -2.9914369752690568e-05
-1.1869342677092927e-05   1.6632049385173833e-06   -1.1428016347381361e-05
-1.1869342677092927e-05   1.6632049385173833e-06   -1.1428016347381361e-05
-1.1869342677092927e-05   1.6632049385173833e-06   -1.1428016347381361e-05
-1.1869342677092927e-05   1.6632049385173833e-06   -1.1428016347381361e-05
-6.277956459964696e-06   1.2049963501221277e-06   -2.047206822289109e-05
-6.277956459964696e-06   1.2049963501221277e-06   -2.047206822289109e-05
-6.277956459964696e-06   1.2049963501221277e-06   -2.047206822289109e-05
-6.277956459964696e-06   1.2049963501221277e-06   -2.047206822289109e-05
-1.1869342677092927e-05   1.6206158074435594e-06   -2.9939923231334927e-05
-1.1869342677092927e-05   1.6206158074435594e-06   -2.9939923231334927e-05
-1.1869342677092927e-05   1.6206158074435594e-06   -2.9939923231334927e-05
-1.1869342677092927e-05   1.6206158074435594e-06   -2.9939923231334927e-05
-7.621985467207553e-07   1.6632049385173833e-06   -1.1402462868736934e-05
-7.621985467207553e-07   1.6632049385173833e-06   -1.1402462868736934e-05
-7.621985467207553e-07   1.6632049385173833e-06   -1.1402462868736934e-05
-7.621985467207553e-07   1.6632049385173833e-06   -1.1402462868736934e-05
-8.886947553264755e-07   2.491521977350937e-06   -3.0298833003549928e-05
-8.886947553264755e-07   2.491521977350937e-06   -3.0298833003549928e-05
-8.886947553264755e-07   2.491521977350937e-06   -3.0298833003549928e-05
-8.886947553264755e-07   2.491521977350937e-06   -3.0298833003549928e-05
-1.198594459445501e-05   2.4606130540616986e-06   -1.1784871251028972e-05
-1.198594459445501e-05   2.4606130540616986e-06   -1.1784871251028972e-05
-1.198594459445501e-05   2.4606130540616986e-06   -1.1784871251028972e-05
-1.198594459445501e-05   2.4606130540616986e-06   -1.1784871251028972e-05
-6.4314776662868336e-06   1.9026967213212845e-06   -2.0707566331664836e-05
-6.4314776662868336e-06   1.9026967213212845e-06   -2.0707566331664836e-05
-6.4314776662868336e-06   1.9026967213212845e-06   -2.0707566331664836e-05
-6.4314776662868336e-06   1.9026967213212845e-06   -2.0707566331664836e-05
-5.711249291466096e-07   -2.390389163382762e-06   -2.6906771855538485e-05
-5.711249291466096e-07   -2.390389163382762e-06   -2.6906771855538485e-05
-5.711249291466096e-07   -2.390389163382762e-06   -2.6906771855538485e-05
-5.711249291466096e-07   -2.390389163382762e-06   -2.6906771855538485e-05
1.0438042956543037e-05   -1.5986308730350264e-06   -8.083103738513802e-06
1.0438042956543037e-05   -1.5986308730350264e-06   -8.083103738513802e-06
1.0438042956543037e-05   -1.5986308730350264e-06   -8.083103738513802e-06
1.0438042956543037e-05   -1.5986308730350264e-06   -8.083103738513802e-06
1.0432250230238478e-05   -1.6120525184001758e-06   -2.6593292515433758e-05
1.0432250230238478e-05   -1.6120525184001758e-06   -2.6593292515433758e-05
1.0432250230238478e-05   -1.6120525184001758e-06   -2.6593292515433758e-05
1.0432250230238478e-05   -1.6120525184001758e-06   -2.6593292515433758e-05
-6.824977387531231e-07   -8.811588238748897e-07   -8.50724878382955e-06
-6.824977387531231e-07   -8.811588238748897e-07   -8.50724878382955e-06
-6.824977387531231e-07   -8.811588238748897e-07   -8.50724878382955e-06
-6.824977387531231e-07   -8.811588238748897e-07   -8.50724878382955e-06
4.86708192024016e-06   -1.5636526955103763e-06   -1.7347051892503764e-05
4.86708192024016e-06   -1.5636526955103763e-06   -1.7347051892503764e-05
4.86708192024016e-06   -1.5636526955103763e-06   -1.7347051892503764e-05
4.86708192024016e-06   -1.5636526955103763e-06   -1.7347051892503764e-05
-6.824977387531231e-07   -1.6120525184001758e-06   -2.7031828732148856e-05
-6.824977387531231e-07   -1.6120525184001758e-06   -2.7031828732148856e-05
-6.824977387531231e-07   -1.6120525184001758e-06   -2.7031828732148856e-05
-6.824977387531231e-07   -1.6120525184001758e-06   -2.7031828732148856e-05
1.0432250230238478e-05   -8.811588238749439e-07   -8.068712567114354e-06
1.0432250230238478e-05   -8.811588238749439e-07   -8.068712567114354e-06
1.0432250230238478e-05   -8.811588238749439e-07   -8.068712567114354e-06
1.0432250230238478e-05   -8.811588238749439e-07   -8.068712567114354e-06
1.0484913296087103e-05   -8.502673497465555e-07   -2.7293504453853456e-05
1.0484913296087103e-05   -8.502673497465555e-07   -2.7293504453853456e-05
1.0484913296087103e-05   -8.502673497465555e-07   -2.7293504453853456e-05
1.0484913296087103e-05   -8.502673497465555e-07   -2.7293504453853456e-05
-7.621985467207565e-07   -1.7701737308752855e-07   -8.952268035169189e-06
-7.621985467207565e-07   -1.7701737308752855e-07   -8.952268035169189e-06
-7.621985467207565e-07   -1.7701737308752855e-07   -8.952268035169189e-06
-7.621985467207565e-07   -1.7701737308752855e-07   -8.952268035169189e-06
4.718522700274956e-06   -9.417644844046983e-07   -1.7627955180038227e-05
4.718522700274956e-06   -9.417644844046983e-07   -1.7627955180038227e-05
4.718522700274956e-06   -9.417644844046983e-07   -1.7627955180038227e-05
4.718522700274956e-06   -9.417644844046983e-07   -1.7627955180038227e-05
-7.621985467207548e-07   -8.502673497465555e-07   -2.769745443984875e-05
-7.621985467207548e-07   -8.502673497465555e-07   -2.769745443984875e-05
-7.621985467207548e-07   -8.502673497465555e-07   -2.769745443984875e-05
-7.621985467207548e-07   -8.502673497465555e-07   -2.769745443984875e-05
1.0484913296087103e-05   -1.7701737308752855e-07   -8.548318049173627e-06
1.0484913296087103e-05   -1.7701737308752855e-07   -8.548318049173627e-06
1.0484913296087103e-05   -1.7701737308752855e-07   -8.548318049173627e-06
1.0484913296087103e-05   -1.7701737308752855e-07   -8.548318049173627e-06
1.0406954015263769e-05   9.11754217272165e-08   -2.8090279938330326e-05
1.0406954015263769e-05   9.11754217272165e-08   -2.8090279938330326e-05
1.0406954015263769e-05   9.11754217272165e-08   -2.8090279938330326e-05
1.0406954015263769e-05   9.11754217272165e-08   -2.8090279938330326e-05
-8.886947553264772e-07   6.45375395559979e-07   -9.596718638312957e-06
-8.886947553264772e-07   6.45375395559979e-07   -9.596718638312957e-06
-8.886947553264772e-07   6.45375395559979e-07   -9.596718638312957e-06
-8.886947553264772e-07   6.45375395559979e-07   -9.596718638312957e-06
4.667654114617829e-06   -2.771127137061232e-07   -1.830380722266033e-05
4.667654114617829e-06   -2.771127137061232e-07   -1.830380722266033e-05
4.667654114617829e-06   -2.771127137061232e-07   -1.830380722266033e-05
4.667654114617829e-06   -2.771127137061232e-07   -1.830380722266033e-05
1.0438042956543017e-05   -4.438184212150417e-06   -1.5042360322475222e-05
1.0438042956543017e-05   -4.438184212150417e-06   -1.5042360322475222e-05
1.0438042956543017e-05   -4.438184212150417e-06   -1.5042360322475222e-05
1.0438042956543017e-05   -4.438184212150417e-06   -1.5042360322475222e-05
2.0728172167248593e-05   -2.8929067895477997e-06   3.03502148226234e-06
2.0728172167248593e-05   -2.8929067895477997e-06   3.03502148226234e-06
2.0728172167248593e-05   -2.8929067895477997e-06   3.03502148226234e-06
2.0728172167248593e-05   -2.8929067895477997e-06   3.03502148226234e-06
2.143609275881555e-05   -4.021606552872024e-06   -1.6905309634516833e-05
2.143609275881555e-05   -4.021606552872024e-06   -1.6905309634516833e-05
2.143609275881555e-05   -4.021606552872024e-06   -1.6905309634516833e-05
2.143609275881555e-05   -4.021606552872024e-06   -1.6905309634516833e-05
1.0432250230238464e-05   -2.4778564909064336e-06   5.081778759323156e-07
1.0432250230238464e-05   -2.4778564909064336e-06   5.081778759323156e-07
1.0432250230238464e-05   -2.4778564909064336e-06   5.081778759323156e-07
1.0432250230238464e-05   -2.4778564909064336e-06   5.081778759323156e-07
1.508530001283838e-05   -3.4163313513211734e-06   -6.683820178818704e-06
1.508530001283838e-05   -3.4163313513211734e-06   -6.683820178818704e-06
1.508530001283838e-05   -3.4163313513211734e-06   -6.683820178818704e-06
1.508530001283838e-05   -3.4163313513211734e-06   -6.683820178818704e-06
1.0432250230238451e-05   -4.021606552872024e-06   -1.7831559671696153e-05
1.0432250230238451e-05   -4.021606552872024e-06   -1.7831559671696153e-05
1.0432250230238451e-05   -4.021606552872024e-06   -1.7831559671696153e-05
1.0432250230238451e-05   -4.021606552872024e-06   -1.7831559671696153e-05
2.143609275881555e-05   -2.4778564909064336e-06   1.4344279131117102e-06
2.143609275881555e-05   -2.4778564909064336e-06   1.4344279131117102e-06
2.143609275881555e-05   -2.4778564909064336e-06   1.4344279131117102e-06
2.143609275881555e-05   -2.4778564909064336e-06   1.4344279131117102e-06
2.1981974253774218e-05   -3.583347755587655e-06   -1.9061055309608502e-05
2.1981974253774218e-05   -3.583347755587655e-06   -1.9061055309608502e-05
2.1981974253774218e-05   -3.583347755587655e-06   -1.9061055309608502e-05
2.1981974253774218e-05   -3.583347755587655e-06   -1.9061055309608502e-05
1.048491329608707e-05   -2.1237360775258423e-06   -7.750540536337802e-07
1.048491329608707e-05   -2.1237360775258423e-06   -7.750540536337802e-07
1.048491329608707e-05   -2.1237360775258423e-06   -7.750540536337802e-07
1.048491329608707e-05   -2.1237360775258423e-06   -7.750540536337802e-07
1.560291195171537e-05   -3.148722712792895e-06   -8.690059831853935e-06
1.560291195171537e-05   -3.148722712792895e-06   -8.690059831853935e-06
1.560291195171537e-05   -3.148722712792895e-06   -8.690059831853935e-06
1.560291195171537e-05   -3.148722712792895e-06   -8.690059831853935e-06
1.0484913296087083e-05   -3.583347755587655e-06   -1.9936822316445602e-05
1.0484913296087083e-05   -3.583347755587655e-06   -1.9936822316445602e-05
1.0484913296087083e-05   -3.583347755587655e-06   -1.9936822316445602e-05
1.0484913296087083e-05   -3.583347755587655e-06   -1.9936822316445602e-05
2.1981974253774177e-05   -2.1237360775258423e-06   1.0071295320347555e-07
2.1981974253774177e-05   -2.1237360775258423e-06   1.0071295320347555e-07
2.1981974253774177e-05   -2.1237360775258423e-06   1.0071295320347555e-07
2.1981974253774177e-05   -2.1237360775258423e-06   1.0071295320347555e-07
2.2565188726854184e-05   -2.6406601333802662e-06   -2.2733007636563325e-05
2.2565188726854184e-05   -2.6406601333802662e-06   -2.2733007636563325e-05
2.2565188726854184e-05   -2.6406601333802662e-06   -2.2733007636563325e-05
2.2565188726854184e-05   -2.6406601333802662e-06   -2.2733007636563325e-05
1.0406954015263742e-05   -1.368772359323109e-06   -3.232415781680297e-06
1.0406954015263742e-05   -1.368772359323109e-06   -3.232415781680297e-06
1.0406954015263742e-05   -1.368772359323109e-06   -3.232415781680297e-06
1.0406954015263742e-05   -1.368772359323109e-06   -3.232415781680297e-06
1.5541564641794427e-05   -2.71025179548139e-06   -1.098521249753643e-05
1.5541564641794427e-05   -2.71025179548139e-06   -1.098521249753643e-05
1.5541564641794427e-05   -2.71025179548139e-06   -1.098521249753643e-05
1.5541564641794427e-05   -2.71025179548139e-06   -1.098521249753643e-05
-2.4944573102083907e-05   3.82725778818807e-06   -1.9019231880086776e-05
-2.4944573102083907e-05   3.82725778818807e-06   -1.9019231880086776e-05
-2.4944573102083907e-05   3.82725778818807e-06   -1.9019231880086776e-05
-2.4944573102083907e-05   3.82725778818807e-06   -1.9019231880086776e-05
-1.7009678862162908e-05   2.4285447682587807e-06   -6.633635958842652e-06
-1.7009678862162908e-05   2.4285447682587807e-06   -6.633635958842652e-06
-1.7009678862162908e-05   2.4285447682587807e-06   -6.633635958842652e-06
-1.7009678862162908e-05   2.4285447682587807e-06   -6.633635958842652e-06
-1.6947270695267144e-05   4.633373538694206e-06   -1.615882683187966e-05
-1.6947270695267144e-05   4.633373538694206e-06   -1.615882683187966e-05
-1.6947270695267144e-05   4.633373538694206e-06   -1.615882683187966e-05
-1.6947270695267144e-05   4.633373538694206e-06   -1.615882683187966e-05
-2.419251963683218e-05   3.0944074854441853e-06   -3.160032297321166e-06
-2.419251963683218e-05   3.0944074854441853e-06   -3.160032297321166e-06
-2.419251963683218e-05   3.0944074854441853e-06   -3.160032297321166e-06
-2.419251963683218e-05   3.0944074854441853e-06   -3.160032297321166e-06
-1.989204595488816e-05   3.6865533597599557e-06   -1.0682775958484076e-05
-1.989204595488816e-05   3.6865533597599557e-06   -1.0682775958484076e-05
-1.989204595488816e-05   3.6865533597599557e-06   -1.0682775958484076e-05
-1.989204595488816e-05   3.6865533597599557e-06   -1.0682775958484076e-05
-2.419251963683218e-05   4.633373538694206e-06   -1.523544719992962e-05
-2.419251963683218e-05   4.633373538694206e-06   -1.523544719992962e-05
-2.419251963683218e-05   4.633373538694206e-06   -1.523544719992962e-05
-2.419251963683218e-05   4.633373538694206e-06   -1.523544719992962e-05
-1.6947270695267185e-05   3.0944074854441853e-06   -4.083411929271239e-06
-1.6947270695267185e-05   3.0944074854441853e-06   -4.083411929271239e-06
-1.6947270695267185e-05   3.0944074854441853e-06   -4.083411929271239e-06
-1.6947270695267185e-05   3.0944074854441853e-06   -4.083411929271239e-06
-1.6818414167773198e-05   4.988156630822069e-06   -1.409087973955461e-05
-1.6818414167773198e-05   4.988156630822069e-06   -1.409087973955461e-05
-1.6818414167773198e-05   4.988156630822069e-06   -1.409087973955461e-05
-1.6818414167773198e-05   4.988156630822069e-06   -1.409087973955461e-05
-2.363139455966896e-05   3.40552354971416e-06   -1.786332571063556e-06
-2.363139455966896e-05   3.40552354971416e-06   -1.786332571063556e-06
-2.363139455966896e-05   3.40552354971416e-06   -1.786332571063556e-06
-2.363139455966896e-05   3.40552354971416e-06   -1.786332571063556e-06
-1.9891202896181386e-05   4.058282395844699e-06   -8.41164065122128e-06
-1.9891202896181386e-05   4.058282395844699e-06   -8.41164065122128e-06
-1.9891202896181386e-05   4.058282395844699e-06   -8.41164065122128e-06
-1.9891202896181386e-05   4.058282395844699e-06   -8.41164065122128e-06
-2.363139455966896e-05   4.988156630822069e-06   -1.3141299890889806e-05
-2.363139455966896e-05   4.988156630822069e-06   -1.3141299890889806e-05
-2.363139455966896e-05   4.988156630822069e-06   -1.3141299890889806e-05
-2.363139455966896e-05   4.988156630822069e-06   -1.3141299890889806e-05
-1.681841416777324e-05   3.40552354971416e-06   -2.7359124197282465e-06
-1.681841416777324e-05   3.40552354971416e-06   -2.7359124197282465e-06
-1.681841416777324e-05   3.40552354971416e-06   -2.7359124197282465e-06
-1.681841416777324e-05   3.40552354971416e-06   -2.7359124197282465e-06
-1.6767521519959797e-05   5.339375266721273e-06   -1.1231562683927665e-05
-1.6767521519959797e-05   5.339375266721273e-06   -1.1231562683927665e-05
-1.6767521519959797e-05   5.339375266721273e-06   -1.1231562683927665e-05
-1.6767521519959797e-05   5.339375266721273e-06   -1.1231562683927665e-05
-2.2898435412417096e-05   3.7980889477014245e-06   -8.860107175354386e-08
-2.2898435412417096e-05   3.7980889477014245e-06   -8.860107175354386e-08
-2.2898435412417096e-05   3.7980889477014245e-06   -8.860107175354386e-08
-2.2898435412417096e-05   3.7980889477014245e-06   -8.860107175354386e-08
-1.9301674387875815e-05   4.261370143633062e-06   -6.36117149688126e-06
-1.9301674387875815e-05   4.261370143633062e-06   -6.36117149688126e-06
-1.9301674387875815e-05   4.261370143633062e-06   -6.36117149688126e-06
-1.9301674387875815e-05   4.261370143633062e-06   -6.36117149688126e-06
-1.7009678862162867e-05   1.9108248107007372e-06   -2.4290395418599068e-05
-1.7009678862162867e-05   1.9108248107007372e-06   -2.4290395418599068e-05
-1.7009678862162867e-05   1.9108248107007372e-06   -2.4290395418599068e-05
-1.7009678862162867e-05   1.9108248107007372e-06   -2.4290395418599068e-05
-9.809653562541313e-06   1.2596780463651849e-06   -1.26810413111645e-05
-9.809653562541313e-06   1.2596780463651849e-06   -1.26810413111645e-05
-9.809653562541313e-06   1.2596780463651849e-06   -1.26810413111645e-05
-9.809653562541313e-06   1.2596780463651849e-06   -1.26810413111645e-05
-9.81466001973333e-06   2.7041523598403134e-06   -2.4079692631426915e-05
-9.81466001973333e-06   2.7041523598403134e-06   -2.4079692631426915e-05
-9.81466001973333e-06   2.7041523598403134e-06   -2.4079692631426915e-05
-9.81466001973333e-06   2.7041523598403134e-06   -2.4079692631426915e-05
-1.6947270695267144e-05   1.9632480444856755e-06   -1.1747465582990965e-05
-1.6947270695267144e-05   1.9632480444856755e-06   -1.1747465582990965e-05
-1.6947270695267144e-05   1.9632480444856755e-06   -1.1747465582990965e-05
-1.6947270695267144e-05   1.9632480444856755e-06   -1.1747465582990965e-05
-1.3271609742294675e-05   2.0926306338766958e-06   -1.7951196724913152e-05
-1.3271609742294675e-05   2.0926306338766958e-06   -1.7951196724913152e-05
-1.3271609742294675e-05   2.0926306338766958e-06   -1.7951196724913152e-05
-1.3271609742294675e-05   2.0926306338766958e-06   -1.7951196724913152e-05
-1.6947270695267144e-05   2.7041523598403134e-06   -2.363515004221399e-05
-1.6947270695267144e-05   2.7041523598403134e-06   -2.363515004221399e-05
-1.6947270695267144e-05   2.7041523598403134e-06   -2.363515004221399e-05
-1.6947270695267144e-05   2.7041523598403134e-06   -2.363515004221399e-05
-9.81466001973333e-06   1.9632480444856755e-06   -1.219200817220382e-05
-9.81466001973333e-06   1.9632480444856755e-06   -1.219200817220382e-05
-9.81466001973333e-06   1.9632480444856755e-06   -1.219200817220382e-05
-9.81466001973333e-06   1.9632480444856755e-06   -1.219200817220382e-05
-9.8077515189546e-06   3.409731485816967e-06   -2.354020967188121e-05
-9.8077515189546e-06   3.409731485816967e-06   -2.354020967188121e-05
-9.8077515189546e-06   3.409731485816967e-06   -2.354020967188121e-05
-9.8077515189546e-06   3.409731485816967e-06   -2.354020967188121e-05
-1.6818414167773198e-05   2.60432239584501e-06   -1.137252646986705e-05
-1.6818414167773198e-05   2.60432239584501e-06   -1.137252646986705e-05
-1.6818414167773198e-05   2.60432239584501e-06   -1.137252646986705e-05
-1.6818414167773198e-05   2.60432239584501e-06   -1.137252646986705e-05
-1.3210175481392205e-05   2.6712377155542607e-06   -1.7426406805660737e-05
-1.3210175481392205e-05   2.6712377155542607e-06   -1.7426406805660737e-05
-1.3210175481392205e-05   2.6712377155542607e-06   -1.7426406805660737e-05
-1.3210175481392205e-05   2.6712377155542607e-06   -1.7426406805660737e-05
-1.6818414167773198e-05   3.409731485816967e-06   -2.305696421789802e-05
-1.6818414167773198e-05   3.409731485816967e-06   -2.305696421789802e-05
-1.6818414167773198e-05   3.409731485816967e-06   -2.305696421789802e-05
-1.6818414167773198e-05   3.409731485816967e-06   -2.305696421789802e-05
-9.80775151895462e-06   2.60432239584501e-06   -1.1855771923850158e-05
-9.80775151895462e-06   2.60432239584501e-06   -1.1855771923850158e-05
-9.80775151895462e-06   2.60432239584501e-06   -1.1855771923850158e-05
-9.80775151895462e-06   2.60432239584501e-06   -1.1855771923850158e-05
-9.816113327875813e-06   4.161110418652225e-06   -2.3635396242229173e-05
-9.816113327875813e-06   4.161110418652225e-06   -2.3635396242229173e-05
-9.816113327875813e-06   4.161110418652225e-06   -2.3635396242229173e-05
-9.816113327875813e-06   4.161110418652225e-06   -2.3635396242229173e-05
-1.6767521519959824e-05   3.301557607719209e-06   -1.1533984235529191e-05
-1.6767521519959824e-05   3.301557607719209e-06   -1.1533984235529191e-05
-1.6767521519959824e-05   3.301557607719209e-06   -1.1533984235529191e-05
-1.6767521519959824e-05   3.301557607719209e-06   -1.1533984235529191e-05
-1.3296085313905391e-05   3.2445652821833787e-06   -1.728551585029844e-05
-1.3296085313905391e-05   3.2445652821833787e-06   -1.728551585029844e-05
-1.3296085313905391e-05   3.2445652821833787e-06   -1.728551585029844e-05
-1.3296085313905391e-05   3.2445652821833787e-06   -1.728551585029844e-05
-9.809653562541299e-06   1.0221038329290624e-07   -2.6819990486127364e-05
-9.809653562541299e-06   1.0221038329290624e-07   -2.6819990486127364e-05
-9.809653562541299e-06   1.0221038329290624e-07   -2.6819990486127364e-05
-9.809653562541299e-06   1.0221038329290624e-07   -2.6819990486127364e-05
-2.705889696688648e-06   2.1943543591511393e-07   -1.4910049011466304e-05
-2.705889696688648e-06   2.1943543591511393e-07   -1.4910049011466304e-05
-2.705889696688648e-06   2.1943543591511393e-07   -1.4910049011466304e-05
-2.705889696688648e-06   2.1943543591511393e-07   -1.4910049011466304e-05
-2.7114342899064224e-06   8.838359701224155e-07   -2.6521003232703465e-05
-2.7114342899064224e-06   8.838359701224155e-07   -2.6521003232703465e-05
-2.7114342899064224e-06   8.838359701224155e-07   -2.6521003232703465e-05
-2.7114342899064224e-06   8.838359701224155e-07   -2.6521003232703465e-05
-9.81466001973331e-06   9.277356415673152e-07   -1.4708633485858926e-05
-9.81466001973331e-06   9.277356415673152e-07   -1.4708633485858926e-05
-9.81466001973331e-06   9.277356415673152e-07   -1.4708633485858926e-05
-9.81466001973331e-06   9.277356415673152e-07   -1.4708633485858926e-05
-6.218607246135393e-06   6.256884432040573e-07   -2.0520826456170833e-05
-6.218607246135393e-06   6.256884432040573e-07   -2.0520826456170833e-05
-6.218607246135393e-06   6.256884432040573e-07   -2.0520826456170833e-05
-6.218607246135393e-06   6.256884432040573e-07   -2.0520826456170833e-05
-9.81466001973331e-06   8.838359701224155e-07   -2.6547343035570383e-05
-9.81466001973331e-06   8.838359701224155e-07   -2.6547343035570383e-05
-9.81466001973331e-06   8.838359701224155e-07   -2.6547343035570383e-05
-9.81466001973331e-06   8.838359701224155e-07   -2.6547343035570383e-05
-2.7114342899064224e-06   9.277356415673152e-07   -1.4682293682992007e-05
-2.7114342899064224e-06   9.277356415673152e-07   -1.4682293682992007e-05
-2.7114342899064224e-06   9.277356415673152e-07   -1.4682293682992007e-05
-2.7114342899064224e-06   9.277356415673152e-07   -1.4682293682992007e-05
-2.7023363824826097e-06   1.6632049385173833e-06   -2.6587367233126024e-05
-2.7023363824826097e-06   1.6632049385173833e-06   -2.6587367233126024e-05
-2.7023363824826097e-06   1.6632049385173833e-06   -2.6587367233126024e-05
-2.7023363824826097e-06   1.6632049385173833e-06   -2.6587367233126024e-05
-9.8077515189546e-06   1.6383145531280517e-06   -1.4730074441105803e-05
-9.8077515189546e-06   1.6383145531280517e-06   -1.4730074441105803e-05
-9.8077515189546e-06   1.6383145531280517e-06   -1.4730074441105803e-05
-9.8077515189546e-06   1.6383145531280517e-06   -1.4730074441105803e-05
-6.260534453149633e-06   1.245823212028146e-06   -2.0406608079454147e-05
-6.260534453149633e-06   1.245823212028146e-06   -2.0406608079454147e-05
-6.260534453149633e-06   1.245823212028146e-06   -2.0406608079454147e-05
-6.260534453149633e-06   1.245823212028146e-06   -2.0406608079454147e-05
-9.8077515189546e-06   1.6632049385173833e-06   -2.6572433001892468e-05
-9.8077515189546e-06   1.6632049385173833e-06   -2.6572433001892468e-05
-9.8077515189546e-06   1.6632049385173833e-06   -2.6572433001892468e-05
-9.8077515189546e-06   1.6632049385173833e-06   -2.6572433001892468e-05
-2.7023363824826144e-06   1.638314553128106e-06   -1.4745008672339331e-05
-2.7023363824826144e-06   1.638314553128106e-06   -1.4745008672339331e-05
-2.7023363824826144e-06   1.638314553128106e-06   -1.4745008672339331e-05
-2.7023363824826144e-06   1.638314553128106e-06   -1.4745008672339331e-05
-2.7067160140822843e-06   2.460613054061753e-06   -2.6989145809952676e-05
-2.7067160140822843e-06   2.460613054061753e-06   -2.6989145809952676e-05
-2.7067160140822843e-06   2.460613054061753e-06   -2.6989145809952676e-05
-2.7067160140822843e-06   2.460613054061753e-06   -2.6989145809952676e-05
-9.816113327875806e-06   2.3613167113082614e-06   -1.5080572481311296e-05
-9.816113327875806e-06   2.3613167113082614e-06   -1.5080572481311296e-05
-9.816113327875806e-06   2.3613167113082614e-06   -1.5080572481311296e-05
-9.816113327875806e-06   2.3613167113082614e-06   -1.5080572481311296e-05
-6.314639862217391e-06   1.8741096998475836e-06   -2.0624037383865627e-05
-6.314639862217391e-06   1.8741096998475836e-06   -2.0624037383865627e-05
-6.314639862217391e-06   1.8741096998475836e-06   -2.0624037383865627e-05
-6.314639862217391e-06   1.8741096998475836e-06   -2.0624037383865627e-05
-2.7058896966886434e-06   -1.5986308730350264e-06   -2.3742479760367817e-05
-2.7058896966886434e-06   -1.5986308730350264e-06   -2.3742479760367817e-05
-2.7058896966886434e-06   -1.5986308730350264e-06   -2.3742479760367817e-05
-2.7058896966886434e-06   -1.5986308730350264e-06   -2.3742479760367817e-05
4.2886172111822186e-06   -7.311940912327949e-07   -1.1564506178168431e-05
4.2886172111822186e-06   -7.311940912327949e-07   -1.1564506178168431e-05
4.2886172111822186e-06   -7.311940912327949e-07   -1.1564506178168431e-05
4.2886172111822186e-06   -7.311940912327949e-07   -1.1564506178168431e-05
4.345516052366157e-06   -8.811588238749439e-07   -2.3198431603990168e-05
4.345516052366157e-06   -8.811588238749439e-07   -2.3198431603990168e-05
4.345516052366157e-06   -8.811588238749439e-07   -2.3198431603990168e-05
4.345516052366157e-06   -8.811588238749439e-07   -2.3198431603990168e-05
-2.7114342899064224e-06   -6.312466220060892e-08   -1.1927668197207156e-05
-2.7114342899064224e-06   -6.312466220060892e-08   -1.1927668197207156e-05
-2.7114342899064224e-06   -6.312466220060892e-08   -1.1927668197207156e-05
-2.7114342899064224e-06   -6.312466220060892e-08   -1.1927668197207156e-05
8.09122489183973e-07   -7.568250274325792e-07   -1.737904260988533e-05
8.09122489183973e-07   -7.568250274325792e-07   -1.737904260988533e-05
8.09122489183973e-07   -7.568250274325792e-07   -1.737904260988533e-05
8.09122489183973e-07   -7.568250274325792e-07   -1.737904260988533e-05
-2.7114342899064224e-06   -8.811588238748897e-07   -2.3689252100994807e-05
-2.7114342899064224e-06   -8.811588238748897e-07   -2.3689252100994807e-05
-2.7114342899064224e-06   -8.811588238748897e-07   -2.3689252100994807e-05
-2.7114342899064224e-06   -8.811588238748897e-07   -2.3689252100994807e-05
4.34551605236617e-06   -6.312466220066313e-08   -1.1436847700202599e-05
4.34551605236617e-06   -6.312466220066313e-08   -1.1436847700202599e-05
4.34551605236617e-06   -6.312466220066313e-08   -1.1436847700202599e-05
4.34551605236617e-06   -6.312466220066313e-08   -1.1436847700202599e-05
4.48109844709752e-06   -1.7701737308752855e-07   -2.3683724597301496e-05
4.48109844709752e-06   -1.7701737308752855e-07   -2.3683724597301496e-05
4.48109844709752e-06   -1.7701737308752855e-07   -2.3683724597301496e-05
4.48109844709752e-06   -1.7701737308752855e-07   -2.3683724597301496e-05
-2.7023363824826144e-06   5.78728964006881e-07   -1.2164781016924552e-05
-2.7023363824826144e-06   5.78728964006881e-07   -1.2164781016924552e-05
-2.7023363824826144e-06   5.78728964006881e-07   -1.2164781016924552e-05
-2.7023363824826144e-06   5.78728964006881e-07   -1.2164781016924552e-05
7.683289371116535e-07   -2.0086200794815342e-07   -1.748146863307533e-05
7.683289371116535e-07   -2.0086200794815342e-07   -1.748146863307533e-05
7.683289371116535e-07   -2.0086200794815342e-07   -1.748146863307533e-05
7.683289371116535e-07   -2.0086200794815342e-07   -1.748146863307533e-05
-2.702336382482612e-06   -1.7701737308747434e-07   -2.4137172399558065e-05
-2.702336382482612e-06   -1.7701737308747434e-07   -2.4137172399558065e-05
-2.702336382482612e-06   -1.7701737308747434e-07   -2.4137172399558065e-05
-2.702336382482612e-06   -1.7701737308747434e-07   -2.4137172399558065e-05
4.4810984470975335e-06   5.787289640068268e-07   -1.1711333214667905e-05
4.4810984470975335e-06   5.787289640068268e-07   -1.1711333214667905e-05
4.4810984470975335e-06   5.787289640068268e-07   -1.1711333214667905e-05
4.4810984470975335e-06   5.787289640068268e-07   -1.1711333214667905e-05
4.547831718527724e-06   6.45375395559979e-07   -2.4381615610797415e-05
4.547831718527724e-06   6.45375395559979e-07   -2.4381615610797415e-05
4.547831718527724e-06   6.45375395559979e-07   -2.4381615610797415e-05
4.547831718527724e-06   6.45375395559979e-07   -2.4381615610797415e-05
-2.7067160140822792e-06   1.3134291163361257e-06   -1.2691534955579703e-05
-2.7067160140822792e-06   1.3134291163361257e-06   -1.2691534955579703e-05
-2.7067160140822792e-06   1.3134291163361257e-06   -1.2691534955579703e-05
-2.7067160140822792e-06   1.3134291163361257e-06   -1.2691534955579703e-05
7.922925122600749e-07   3.9285176787703414e-07   -1.797086942374145e-05
7.922925122600749e-07   3.9285176787703414e-07   -1.797086942374145e-05
7.922925122600749e-07   3.9285176787703414e-07   -1.797086942374145e-05
7.922925122600749e-07   3.9285176787703414e-07   -1.797086942374145e-05
4.288617211182212e-06   -2.8929067895477997e-06   -1.3031058924071966e-05
4.288617211182212e-06   -2.8929067895477997e-06   -1.3031058924071966e-05
4.288617211182212e-06   -2.8929067895477997e-06   -1.3031058924071966e-05
4.288617211182212e-06   -2.8929067895477997e-06   -1.3031058924071966e-05
1.0478645031124803e-05   -1.3383468937278606e-06   -1.7816099533422987e-06
1.0478645031124803e-05   -1.3383468937278606e-06   -1.7816099533422987e-06
1.0478645031124803e-05   -1.3383468937278606e-06   -1.7816099533422987e-06
1.0478645031124803e-05   -1.3383468937278606e-06   -1.7816099533422987e-06
1.1221739477318158e-05   -2.4778564909064336e-06   -1.3665621781267924e-05
1.1221739477318158e-05   -2.4778564909064336e-06   -1.3665621781267924e-05
1.1221739477318158e-05   -2.4778564909064336e-06   -1.3665621781267924e-05
1.1221739477318158e-05   -2.4778564909064336e-06   -1.3665621781267924e-05
4.345516052366163e-06   -8.846575247804323e-07   -3.1611687860235615e-06
4.345516052366163e-06   -8.846575247804323e-07   -3.1611687860235615e-06
4.345516052366163e-06   -8.846575247804323e-07   -3.1611687860235615e-06
4.345516052366163e-06   -8.846575247804323e-07   -3.1611687860235615e-06
7.260267158345029e-06   -1.8394307270427988e-06   -7.446223374630936e-06
7.260267158345029e-06   -1.8394307270427988e-06   -7.446223374630936e-06
7.260267158345029e-06   -1.8394307270427988e-06   -7.446223374630936e-06
7.260267158345029e-06   -1.8394307270427988e-06   -7.446223374630936e-06
4.345516052366157e-06   -2.4778564909064336e-06   -1.4621541160943403e-05
4.345516052366157e-06   -2.4778564909064336e-06   -1.4621541160943403e-05
4.345516052366157e-06   -2.4778564909064336e-06   -1.4621541160943403e-05
4.345516052366157e-06   -2.4778564909064336e-06   -1.4621541160943403e-05
1.1221739477318117e-05   -8.846575247803781e-07   -2.205249406347974e-06
1.1221739477318117e-05   -8.846575247803781e-07   -2.205249406347974e-06
1.1221739477318117e-05   -8.846575247803781e-07   -2.205249406347974e-06
1.1221739477318117e-05   -8.846575247803781e-07   -2.205249406347974e-06
1.1794678300483993e-05   -2.1237360775258423e-06   -1.4979722988157562e-05
1.1794678300483993e-05   -2.1237360775258423e-06   -1.4979722988157562e-05
1.1794678300483993e-05   -2.1237360775258423e-06   -1.4979722988157562e-05
1.1794678300483993e-05   -2.1237360775258423e-06   -1.4979722988157562e-05
4.4810984470975335e-06   -5.725067215190814e-07   -3.7211608461174857e-06
4.4810984470975335e-06   -5.725067215190814e-07   -3.7211608461174857e-06
4.4810984470975335e-06   -5.725067215190814e-07   -3.7211608461174857e-06
4.4810984470975335e-06   -5.725067215190814e-07   -3.7211608461174857e-06
7.712506100689098e-06   -1.6059725965169506e-06   -8.486760743771363e-06
7.712506100689098e-06   -1.6059725965169506e-06   -8.486760743771363e-06
7.712506100689098e-06   -1.6059725965169506e-06   -8.486760743771363e-06
7.712506100689098e-06   -1.6059725965169506e-06   -8.486760743771363e-06
4.481098447097527e-06   -2.1237360775258423e-06   -1.5910460601761567e-05
4.481098447097527e-06   -2.1237360775258423e-06   -1.5910460601761567e-05
4.481098447097527e-06   -2.1237360775258423e-06   -1.5910460601761567e-05
4.481098447097527e-06   -2.1237360775258423e-06   -1.5910460601761567e-05
1.1794678300483953e-05   -5.725067215190814e-07   -2.790423232513345e-06
1.1794678300483953e-05   -5.725067215190814e-07   -2.790423232513345e-06
1.1794678300483953e-05   -5.725067215190814e-07   -2.790423232513345e-06
1.1794678300483953e-05   -5.725067215190814e-07   -2.790423232513345e-06
1.2557453727522888e-05   -1.368772359323109e-06   -1.7505095494960534e-05
1.2557453727522888e-05   -1.368772359323109e-06   -1.7505095494960534e-05
1.2557453727522888e-05   -1.368772359323109e-06   -1.7505095494960534e-05
1.2557453727522888e-05   -1.368772359323109e-06   -1.7505095494960534e-05
4.547831718527731e-06   3.912304651684101e-08   -5.0004627234725345e-06
4.547831718527731e-06   3.912304651684101e-08   -5.0004627234725345e-06
4.547831718527731e-06   3.912304651684101e-08   -5.0004627234725345e-06
4.547831718527731e-06   3.912304651684101e-08   -5.0004627234725345e-06
7.866376594585654e-06   -1.2615069274109778e-06   -9.750992865879078e-06
7.866376594585654e-06   -1.2615069274109778e-06   -9.750992865879078e-06
7.866376594585654e-06   -1.2615069274109778e-06   -9.750992865879078e-06
7.866376594585654e-06   -1.2615069274109778e-06   -9.750992865879078e-06
-1.5042401370928785e-05   2.4285447682587807e-06   -1.4135435197255321e-05
-1.5042401370928785e-05   2.4285447682587807e-06   -1.4135435197255321e-05
-1.5042401370928785e-05   2.4285447682587807e-06   -1.4135435197255321e-05
-1.5042401370928785e-05   2.4285447682587807e-06   -1.4135435197255321e-05
-1.1141216578597308e-05   9.837512200388393e-07   -8.500336672301491e-06
-1.1141216578597308e-05   9.837512200388393e-07   -8.500336672301491e-06
-1.1141216578597308e-05   9.837512200388393e-07   -8.500336672301491e-06
-1.1141216578597308e-05   9.837512200388393e-07   -8.500336672301491e-06
-1.097925118186432e-05   3.0944074854441853e-06   -1.2470229511994148e-05
-1.097925118186432e-05   3.0944074854441853e-06   -1.2470229511994148e-05
-1.097925118186432e-05   3.0944074854441853e-06   -1.2470229511994148e-05
-1.097925118186432e-05   3.0944074854441853e-06   -1.2470229511994148e-05
-1.4220818495056653e-05   1.5365935915868066e-06   -6.132928987025654e-06
-1.4220818495056653e-05   1.5365935915868066e-06   -6.132928987025654e-06
-1.4220818495056653e-05   1.5365935915868066e-06   -6.132928987025654e-06
-1.4220818495056653e-05   1.5365935915868066e-06   -6.132928987025654e-06
-1.2301772981787217e-05   2.1795550462094544e-06   -9.717115048582276e-06
-1.2301772981787217e-05   2.1795550462094544e-06   -9.717115048582276e-06
-1.2301772981787217e-05   2.1795550462094544e-06   -9.717115048582276e-06
-1.2301772981787217e-05   2.1795550462094544e-06   -9.717115048582276e-06
-1.4220818495056653e-05   3.0944074854441853e-06   -1.1535541175679645e-05
-1.4220818495056653e-05   3.0944074854441853e-06   -1.1535541175679645e-05
-1.4220818495056653e-05   3.0944074854441853e-06   -1.1535541175679645e-05
-1.4220818495056653e-05   3.0944074854441853e-06   -1.1535541175679645e-05
-1.0979251181864348e-05   1.5365935915868066e-06   -7.067617323340197e-06
-1.0979251181864348e-05   1.5365935915868066e-06   -7.067617323340197e-06
-1.0979251181864348e-05   1.5365935915868066e-06   -7.067617323340197e-06
-1.0979251181864348e-05   1.5365935915868066e-06   -7.067617323340197e-06
-1.0747505041463183e-05   3.405523549714106e-06   -1.1134437760654866e-05
-1.0747505041463183e-05   3.405523549714106e-06   -1.1134437760654866e-05
-1.0747505041463183e-05   3.405523549714106e-06   -1.1134437760654866e-05
-1.0747505041463183e-05   3.405523549714106e-06   -1.1134437760654866e-05
-1.356717495478208e-05   1.8169906792011876e-06   -5.481868182815512e-06
-1.356717495478208e-05   1.8169906792011876e-06   -5.481868182815512e-06
-1.356717495478208e-05   1.8169906792011876e-06   -5.481868182815512e-06
-1.356717495478208e-05   1.8169906792011876e-06   -5.481868182815512e-06
-1.2086032036973225e-05   2.478302443192329e-06   -8.347226770891717e-06
-1.2086032036973225e-05   2.478302443192329e-06   -8.347226770891717e-06
-1.2086032036973225e-05   2.478302443192329e-06   -8.347226770891717e-06
-1.2086032036973225e-05   2.478302443192329e-06   -8.347226770891717e-06
-1.356717495478208e-05   3.405523549714106e-06   -1.0181318038347072e-05
-1.356717495478208e-05   3.405523549714106e-06   -1.0181318038347072e-05
-1.356717495478208e-05   3.405523549714106e-06   -1.0181318038347072e-05
-1.356717495478208e-05   3.405523549714106e-06   -1.0181318038347072e-05
-1.0747505041463197e-05   1.8169906792011876e-06   -6.434987905123293e-06
-1.0747505041463197e-05   1.8169906792011876e-06   -6.434987905123293e-06
-1.0747505041463197e-05   1.8169906792011876e-06   -6.434987905123293e-06
-1.0747505041463197e-05   1.8169906792011876e-06   -6.434987905123293e-06
-1.0591150277099989e-05   3.7980889477014245e-06   -9.42311503268655e-06
-1.0591150277099989e-05   3.7980889477014245e-06   -9.42311503268655e-06
-1.0591150277099989e-05   3.7980889477014245e-06   -9.42311503268655e-06
-1.0591150277099989e-05   3.7980889477014245e-06   -9.42311503268655e-06
-1.2735269465481957e-05   2.261680300578062e-06   -4.927737863775832e-06
-1.2735269465481957e-05   2.261680300578062e-06   -4.927737863775832e-06
-1.2735269465481957e-05   2.261680300578062e-06   -4.927737863775832e-06
-1.2735269465481957e-05   2.261680300578062e-06   -4.927737863775832e-06
-1.152241221372171e-05   2.6871131917044055e-06   -7.204426351385587e-06
-1.152241221372171e-05   2.6871131917044055e-06   -7.204426351385587e-06
-1.152241221372171e-05   2.6871131917044055e-06   -7.204426351385587e-06
-1.152241221372171e-05   2.6871131917044055e-06   -7.204426351385587e-06
-1.1141216578597308e-05   1.2596780463651849e-06   -2.0659028619907788e-05
-1.1141216578597308e-05   1.2596780463651849e-06   -2.0659028619907788e-05
-1.1141216578597308e-05   1.2596780463651849e-06   -2.0659028619907788e-05
-1.1141216578597308e-05   1.2596780463651849e-06   -2.0659028619907788e-05
-7.96724505815568e-06   5.705794981100644e-07   -1.578253521479156e-05
-7.96724505815568e-06   5.705794981100644e-07   -1.578253521479156e-05
-7.96724505815568e-06   5.705794981100644e-07   -1.578253521479156e-05
-7.96724505815568e-06   5.705794981100644e-07   -1.578253521479156e-05
-7.862506565353378e-06   1.9632480444856755e-06   -2.05891805767042e-05
-7.862506565353378e-06   1.9632480444856755e-06   -2.05891805767042e-05
-7.862506565353378e-06   1.9632480444856755e-06   -2.05891805767042e-05
-7.862506565353378e-06   1.9632480444856755e-06   -2.05891805767042e-05
-1.0979251181864348e-05   1.2050856928352057e-06   -1.4939708804862162e-05
-1.0979251181864348e-05   1.2050856928352057e-06   -1.4939708804862162e-05
-1.0979251181864348e-05   1.2050856928352057e-06   -1.4939708804862162e-05
-1.0979251181864348e-05   1.2050856928352057e-06   -1.4939708804862162e-05
-9.395009185365773e-06   1.3728575630680018e-06   -1.768077525449998e-05
-9.395009185365773e-06   1.3728575630680018e-06   -1.768077525449998e-05
-9.395009185365773e-06   1.3728575630680018e-06   -1.768077525449998e-05
-9.395009185365773e-06   1.3728575630680018e-06   -1.768077525449998e-05
-1.0979251181864307e-05   1.9632480444856213e-06   -2.0134283165713853e-05
-1.0979251181864307e-05   1.9632480444856213e-06   -2.0134283165713853e-05
-1.0979251181864307e-05   1.9632480444856213e-06   -2.0134283165713853e-05
-1.0979251181864307e-05   1.9632480444856213e-06   -2.0134283165713853e-05
-7.862506565353378e-06   1.2050856928352057e-06   -1.539460621585251e-05
-7.862506565353378e-06   1.2050856928352057e-06   -1.539460621585251e-05
-7.862506565353378e-06   1.2050856928352057e-06   -1.539460621585251e-05
-7.862506565353378e-06   1.2050856928352057e-06   -1.539460621585251e-05
-7.746653290464243e-06   2.60432239584501e-06   -2.0256058334442763e-05
-7.746653290464243e-06   2.60432239584501e-06   -2.0256058334442763e-05
-7.746653290464243e-06   2.60432239584501e-06   -2.0256058334442763e-05
-7.746653290464243e-06   2.60432239584501e-06   -2.0256058334442763e-05
-1.074750504146321e-05   1.795978189763096e-06   -1.4769632225795242e-05
-1.074750504146321e-05   1.795978189763096e-06   -1.4769632225795242e-05
-1.074750504146321e-05   1.795978189763096e-06   -1.4769632225795242e-05
-1.074750504146321e-05   1.795978189763096e-06   -1.4769632225795242e-05
-9.25659062380325e-06   1.8868569896661773e-06   -1.7309016868503576e-05
-9.25659062380325e-06   1.8868569896661773e-06   -1.7309016868503576e-05
-9.25659062380325e-06   1.8868569896661773e-06   -1.7309016868503576e-05
-9.25659062380325e-06   1.8868569896661773e-06   -1.7309016868503576e-05
-1.0747505041463183e-05   2.60432239584501e-06   -1.977105181079358e-05
-1.0747505041463183e-05   2.60432239584501e-06   -1.977105181079358e-05
-1.0747505041463183e-05   2.60432239584501e-06   -1.977105181079358e-05
-1.0747505041463183e-05   2.60432239584501e-06   -1.977105181079358e-05
-7.746653290464236e-06   1.795978189763096e-06   -1.5254638749444369e-05
-7.746653290464236e-06   1.795978189763096e-06   -1.5254638749444369e-05
-7.746653290464236e-06   1.795978189763096e-06   -1.5254638749444369e-05
-7.746653290464236e-06   1.795978189763096e-06   -1.5254638749444369e-05
-7.644133630218812e-06   3.301557607719209e-06   -2.0452594781658238e-05
-7.644133630218812e-06   3.301557607719209e-06   -2.0452594781658238e-05
-7.644133630218812e-06   3.301557607719209e-06   -2.0452594781658238e-05
-7.644133630218812e-06   3.301557607719209e-06   -2.0452594781658238e-05
-1.0591150277100003e-05   2.453443646705986e-06   -1.5032031993581505e-05
-1.0591150277100003e-05   2.453443646705986e-06   -1.5032031993581505e-05
-1.0591150277100003e-05   2.453443646705986e-06   -1.5032031993581505e-05
-1.0591150277100003e-05   2.453443646705986e-06   -1.5032031993581505e-05
-9.20426813028919e-06   2.4084563995285975e-06   -1.731650988996003e-05
-9.20426813028919e-06   2.4084563995285975e-06   -1.731650988996003e-05
-9.20426813028919e-06   2.4084563995285975e-06   -1.731650988996003e-05
-9.20426813028919e-06   2.4084563995285975e-06   -1.731650988996003e-05
-7.967245058155653e-06   2.1943543591511393e-07   -2.337183048073605e-05
-7.967245058155653e-06   2.1943543591511393e-07   -2.337183048073605e-05
-7.967245058155653e-06   2.1943543591511393e-07   -2.337183048073605e-05
-7.967245058155653e-06   2.1943543591511393e-07   -2.337183048073605e-05
-4.87078068872679e-06   3.3085058034421425e-07   -1.814420744503055e-05
-4.87078068872679e-06   3.3085058034421425e-07   -1.814420744503055e-05
-4.87078068872679e-06   3.3085058034421425e-07   -1.814420744503055e-05
-4.87078068872679e-06   3.3085058034421425e-07   -1.814420744503055e-05
-4.769019275118384e-06   9.277356415673152e-07   -2.3075576184996205e-05
-4.769019275118384e-06   9.277356415673152e-07   -2.3075576184996205e-05
-4.769019275118384e-06   9.277356415673152e-07   -2.3075576184996205e-05
-4.769019275118384e-06   9.277356415673152e-07   -2.3075576184996205e-05
-7.862506565353378e-06   9.781184838392794e-07   -1.7949993739967485e-05
-7.862506565353378e-06   9.781184838392794e-07   -1.7949993739967485e-05
-7.862506565353378e-06   9.781184838392794e-07   -1.7949993739967485e-05
-7.862506565353378e-06   9.781184838392794e-07   -1.7949993739967485e-05
-6.326464554561445e-06   7.047207516474099e-07   -2.0346025118639453e-05
-6.326464554561445e-06   7.047207516474099e-07   -2.0346025118639453e-05
-6.326464554561445e-06   7.047207516474099e-07   -2.0346025118639453e-05
-6.326464554561445e-06   7.047207516474099e-07   -2.0346025118639453e-05
-7.862506565353358e-06   9.277356415673152e-07   -2.3105805890359264e-05
-7.862506565353358e-06   9.277356415673152e-07   -2.3105805890359264e-05
-7.862506565353358e-06   9.277356415673152e-07   -2.3105805890359264e-05
-7.862506565353358e-06   9.277356415673152e-07   -2.3105805890359264e-05
-4.769019275118384e-06   9.781184838392794e-07   -1.791976403460444e-05
-4.769019275118384e-06   9.781184838392794e-07   -1.791976403460444e-05
-4.769019275118384e-06   9.781184838392794e-07   -1.791976403460444e-05
-4.769019275118384e-06   9.781184838392794e-07   -1.791976403460444e-05
-4.653957864969906e-06   1.638314553128106e-06   -2.3134743315419157e-05
-4.653957864969906e-06   1.638314553128106e-06   -2.3134743315419157e-05
-4.653957864969906e-06   1.638314553128106e-06   -2.3134743315419157e-05
-4.653957864969906e-06   1.638314553128106e-06   -2.3134743315419157e-05
-7.746653290464236e-06   1.6310104469267287e-06   -1.7975868475874403e-05
-7.746653290464236e-06   1.6310104469267287e-06   -1.7975868475874403e-05
-7.746653290464236e-06   1.6310104469267287e-06   -1.7975868475874403e-05
-7.746653290464236e-06   1.6310104469267287e-06   -1.7975868475874403e-05
-6.259173763880764e-06   1.2615259895731997e-06   -2.023331034576808e-05
-6.259173763880764e-06   1.2615259895731997e-06   -2.023331034576808e-05
-6.259173763880764e-06   1.2615259895731997e-06   -2.023331034576808e-05
-6.259173763880764e-06   1.2615259895731997e-06   -2.023331034576808e-05
-7.746653290464216e-06   1.638314553128106e-06   -2.3130360851698298e-05
-7.746653290464216e-06   1.638314553128106e-06   -2.3130360851698298e-05
-7.746653290464216e-06   1.638314553128106e-06   -2.3130360851698298e-05
-7.746653290464216e-06   1.638314553128106e-06   -2.3130360851698298e-05
-4.653957864969915e-06   1.6310104469268371e-06   -1.7980250939595235e-05
-4.653957864969915e-06   1.6310104469268371e-06   -1.7980250939595235e-05
-4.653957864969915e-06   1.6310104469268371e-06   -1.7980250939595235e-05
-4.653957864969915e-06   1.6310104469268371e-06   -1.7980250939595235e-05
-4.550748883962215e-06   2.3613167113082614e-06   -2.3523955789931154e-05
-4.550748883962215e-06   2.3613167113082614e-06   -2.3523955789931154e-05
-4.550748883962215e-06   2.3613167113082614e-06   -2.3523955789931154e-05
-4.550748883962215e-06   2.3613167113082614e-06   -2.3523955789931154e-05
-7.644133630218825e-06   2.2938092962238943e-06   -1.832781009711938e-05
-7.644133630218825e-06   2.2938092962238943e-06   -1.832781009711938e-05
-7.644133630218825e-06   2.2938092962238943e-06   -1.832781009711938e-05
-7.644133630218825e-06   2.2938092962238943e-06   -1.832781009711938e-05
-6.204116094251402e-06   1.8257504254633097e-06   -2.0447004001275645e-05
-6.204116094251402e-06   1.8257504254633097e-06   -2.0447004001275645e-05
-6.204116094251402e-06   1.8257504254633097e-06   -2.0447004001275645e-05
-6.204116094251402e-06   1.8257504254633097e-06   -2.0447004001275645e-05
-4.870780688726774e-06   -7.311940912327949e-07   -2.0479900629862035e-05
-4.870780688726774e-06   -7.311940912327949e-07   -2.0479900629862035e-05
-4.870780688726774e-06   -7.311940912327949e-07   -2.0479900629862035e-05
-4.870780688726774e-06   -7.311940912327949e-07   -2.0479900629862035e-05
-1.8748153277370835e-06   1.4832758809027978e-07   -1.4958912020618777e-05
-1.8748153277370835e-06   1.4832758809027978e-07   -1.4958912020618777e-05
-1.8748153277370835e-06   1.4832758809027978e-07   -1.4958912020618777e-05
-1.8748153277370835e-06   1.4832758809027978e-07   -1.4958912020618777e-05
-1.721396810619559e-06   -6.312466220060892e-08   -1.9817419110799604e-05
-1.721396810619559e-06   -6.312466220060892e-08   -1.9817419110799604e-05
-1.721396810619559e-06   -6.312466220060892e-08   -1.9817419110799604e-05
-1.721396810619559e-06   -6.312466220060892e-08   -1.9817419110799604e-05
-4.769019275118376e-06   7.760946518189015e-07   -1.5241579925046492e-05
-4.769019275118376e-06   7.760946518189015e-07   -1.5241579925046492e-05
-4.769019275118376e-06   7.760946518189015e-07   -1.5241579925046492e-05
-4.769019275118376e-06   7.760946518189015e-07   -1.5241579925046492e-05
-3.275557721127092e-06   9.787792098483409e-08   -1.7323752476531792e-05
-3.275557721127092e-06   9.787792098483409e-08   -1.7323752476531792e-05
-3.275557721127092e-06   9.787792098483409e-08   -1.7323752476531792e-05
-3.275557721127092e-06   9.787792098483409e-08   -1.7323752476531792e-05
-4.769019275118368e-06   -6.312466220060892e-08   -2.0320950699211353e-05
-4.769019275118368e-06   -6.312466220060892e-08   -2.0320950699211353e-05
-4.769019275118368e-06   -6.312466220060892e-08   -2.0320950699211353e-05
-4.769019275118368e-06   -6.312466220060892e-08   -2.0320950699211353e-05
-1.7213968106195659e-06   7.7609465181901e-07   -1.4738048336634859e-05
-1.7213968106195659e-06   7.7609465181901e-07   -1.4738048336634859e-05
-1.7213968106195659e-06   7.7609465181901e-07   -1.4738048336634859e-05
-1.7213968106195659e-06   7.7609465181901e-07   -1.4738048336634859e-05
-1.4913845691340346e-06   5.787289640068268e-07   -2.0081615203584662e-05
-1.4913845691340346e-06   5.787289640068268e-07   -2.0081615203584662e-05
-1.4913845691340346e-06   5.787289640068268e-07   -2.0081615203584662e-05
-1.4913845691340346e-06   5.787289640068268e-07   -2.0081615203584662e-05
-4.653957864969906e-06   1.366896391372845e-06   -1.5283560166944456e-05
-4.653957864969906e-06   1.366896391372845e-06   -1.5283560166944456e-05
-4.653957864969906e-06   1.366896391372845e-06   -1.5283560166944456e-05
-4.653957864969906e-06   1.366896391372845e-06   -1.5283560166944456e-05
-3.1834628199563303e-06   6.051953356756793e-07   -1.7277364608548815e-05
-3.1834628199563303e-06   6.051953356756793e-07   -1.7277364608548815e-05
-3.1834628199563303e-06   6.051953356756793e-07   -1.7277364608548815e-05
-3.1834628199563303e-06   6.051953356756793e-07   -1.7277364608548815e-05
-4.6539578649698945e-06   5.787289640068268e-07   -2.0554515660004165e-05
-4.6539578649698945e-06   5.787289640068268e-07   -2.0554515660004165e-05
-4.6539578649698945e-06   5.787289640068268e-07   -2.0554515660004165e-05
-4.6539578649698945e-06   5.787289640068268e-07   -2.0554515660004165e-05
-1.4913845691340413e-06   1.3668963913727366e-06   -1.4810659710524899e-05
-1.4913845691340413e-06   1.3668963913727366e-06   -1.4810659710524899e-05
-1.4913845691340413e-06   1.3668963913727366e-06   -1.4810659710524899e-05
-1.4913845691340413e-06   1.3668963913727366e-06   -1.4810659710524899e-05
-1.3311688104643708e-06   1.3134291163361257e-06   -2.064302835590295e-05
-1.3311688104643708e-06   1.3134291163361257e-06   -2.064302835590295e-05
-1.3311688104643708e-06   1.3134291163361257e-06   -2.064302835590295e-05
-1.3311688104643708e-06   1.3134291163361257e-06   -2.064302835590295e-05
-4.550748883962215e-06   2.0339492874103153e-06   -1.5709373669384245e-05
-4.550748883962215e-06   2.0339492874103153e-06   -1.5709373669384245e-05
-4.550748883962215e-06   2.0339492874103153e-06   -1.5709373669384245e-05
-4.550748883962215e-06   2.0339492874103153e-06   -1.5709373669384245e-05
-3.087462041964687e-06   1.1359259720544398e-06   -1.76093710835e-05
-3.087462041964687e-06   1.1359259720544398e-06   -1.76093710835e-05
-3.087462041964687e-06   1.1359259720544398e-06   -1.76093710835e-05
-3.087462041964687e-06   1.1359259720544398e-06   -1.76093710835e-05
-1.8748153277370767e-06   -1.3383468937278606e-06   -1.1102027334934043e-05
-1.8748153277370767e-06   -1.3383468937278606e-06   -1.1102027334934043e-05
-1.8748153277370767e-06   -1.3383468937278606e-06   -1.1102027334934043e-05
-1.8748153277370767e-06   -1.3383468937278606e-06   -1.1102027334934043e-05
3.1267817885573094e-07   2.1340152071944347e-07   -6.525155775277669e-06
3.1267817885573094e-07   2.1340152071944347e-07   -6.525155775277669e-06
3.1267817885573094e-07   2.1340152071944347e-07   -6.525155775277669e-06
3.1267817885573094e-07   2.1340152071944347e-07   -6.525155775277669e-06
1.1366515325678437e-06   -8.846575247804323e-07   -1.0584612416331601e-05
1.1366515325678437e-06   -8.846575247804323e-07   -1.0584612416331601e-05
1.1366515325678437e-06   -8.846575247804323e-07   -1.0584612416331601e-05
1.1366515325678437e-06   -8.846575247804323e-07   -1.0584612416331601e-05
-1.721396810619559e-06   7.105554423680015e-07   -6.778326291308082e-06
-1.721396810619559e-06   7.105554423680015e-07   -6.778326291308082e-06
-1.721396810619559e-06   7.105554423680015e-07   -6.778326291308082e-06
-1.721396810619559e-06   7.105554423680015e-07   -6.778326291308082e-06
-5.208952809850843e-07   -2.5861926764003933e-07   -8.197657348027644e-06
-5.208952809850843e-07   -2.5861926764003933e-07   -8.197657348027644e-06
-5.208952809850843e-07   -2.5861926764003933e-07   -8.197657348027644e-06
-5.208952809850843e-07   -2.5861926764003933e-07   -8.197657348027644e-06
-1.7213968106195523e-06   -8.846575247803781e-07   -1.1541740196620472e-05
-1.7213968106195523e-06   -8.846575247803781e-07   -1.1541740196620472e-05
-1.7213968106195523e-06   -8.846575247803781e-07   -1.1541740196620472e-05
-1.7213968106195523e-06   -8.846575247803781e-07   -1.1541740196620472e-05
1.1366515325678437e-06   7.105554423680015e-07   -5.82119851101913e-06
1.1366515325678437e-06   7.105554423680015e-07   -5.82119851101913e-06
1.1366515325678437e-06   7.105554423680015e-07   -5.82119851101913e-06
1.1366515325678437e-06   7.105554423680015e-07   -5.82119851101913e-06
1.787592639532421e-06   -5.725067215191356e-07   -1.1154147586770288e-05
1.787592639532421e-06   -5.725067215191356e-07   -1.1154147586770288e-05
1.787592639532421e-06   -5.725067215191356e-07   -1.1154147586770288e-05
1.787592639532421e-06   -5.725067215191356e-07   -1.1154147586770288e-05
-1.4913845691340413e-06   9.896520255876697e-07   -6.62648082059009e-06
-1.4913845691340413e-06   9.896520255876697e-07   -6.62648082059009e-06
-1.4913845691340413e-06   9.896520255876697e-07   -6.62648082059009e-06
-1.4913845691340413e-06   9.896520255876697e-07   -6.62648082059009e-06
-1.0581494706230691e-07   -1.9719221833647445e-08   -8.330140775590156e-06
-1.0581494706230691e-07   -1.9719221833647445e-08   -8.330140775590156e-06
-1.0581494706230691e-07   -1.9719221833647445e-08   -8.330140775590156e-06
-1.0581494706230691e-07   -1.9719221833647445e-08   -8.330140775590156e-06
-1.4913845691340346e-06   -5.725067215190814e-07   -1.2091442835034257e-05
-1.4913845691340346e-06   -5.725067215190814e-07   -1.2091442835034257e-05
-1.4913845691340346e-06   -5.725067215190814e-07   -1.2091442835034257e-05
-1.4913845691340346e-06   -5.725067215190814e-07   -1.2091442835034257e-05
1.7875926395324073e-06   9.896520255876697e-07   -5.68918557232608e-06
1.7875926395324073e-06   9.896520255876697e-07   -5.68918557232608e-06
1.7875926395324073e-06   9.896520255876697e-07   -5.68918557232608e-06
1.7875926395324073e-06   9.896520255876697e-07   -5.68918557232608e-06
2.610990672798072e-06   3.912304651684101e-08   -1.2486911186642769e-05
2.610990672798072e-06   3.912304651684101e-08   -1.2486911186642769e-05
2.610990672798072e-06   3.912304651684101e-08   -1.2486911186642769e-05
2.610990672798072e-06   3.912304651684101e-08   -1.2486911186642769e-05
-1.3311688104643708e-06   1.4822516625481383e-06   -6.782522550823891e-06
-1.3311688104643708e-06   1.4822516625481383e-06   -6.782522550823891e-06
-1.3311688104643708e-06   1.4822516625481383e-06   -6.782522550823891e-06
-1.3311688104643708e-06   1.4822516625481383e-06   -6.782522550823891e-06
2.5492463691180036e-07   2.5063568871448293e-07   -8.687042045484207e-06
2.5492463691180036e-07   2.5063568871448293e-07   -8.687042045484207e-06
2.5492463691180036e-07   2.5063568871448293e-07   -8.687042045484207e-06
2.5492463691180036e-07   2.5063568871448293e-07   -8.687042045484207e-06
-5.178732653209365e-06   9.837512200388393e-07   -9.374821321511651e-06
-5.178732653209365e-06   9.837512200388393e-07   -9.374821321511651e-06
-5.178732653209365e-06   9.837512200388393e-07   -9.374821321511651e-06
-5.178732653209365e-06   9.837512200388393e-07   -9.374821321511651e-06
-5.307813503598844e-06   -4.6658756172309e-07   -1.0460159341217932e-05
-5.307813503598844e-06   -4.6658756172309e-07   -1.0460159341217932e-05
-5.307813503598844e-06   -4.6658756172309e-07   -1.0460159341217932e-05
-5.307813503598844e-06   -4.6658756172309e-07   -1.0460159341217932e-05
-5.04541576380647e-06   1.5365935915868066e-06   -8.809789419176868e-06
-5.04541576380647e-06   1.5365935915868066e-06   -8.809789419176868e-06
-5.04541576380647e-06   1.5365935915868066e-06   -8.809789419176868e-06
-5.04541576380647e-06   1.5365935915868066e-06   -8.809789419176868e-06
-4.263556609127343e-06   -2.052909367500355e-08   -9.17861439915155e-06
-4.263556609127343e-06   -2.052909367500355e-08   -9.17861439915155e-06
-4.263556609127343e-06   -2.052909367500355e-08   -9.17861439915155e-06
-4.263556609127343e-06   -2.052909367500355e-08   -9.17861439915155e-06
-4.732829653468154e-06   6.775752270921217e-07   -8.815355251044256e-06
-4.732829653468154e-06   6.775752270921217e-07   -8.815355251044256e-06
-4.732829653468154e-06   6.775752270921217e-07   -8.815355251044256e-06
-4.732829653468154e-06   6.775752270921217e-07   -8.815355251044256e-06
-4.263556609127316e-06   1.5365935915868066e-06   -7.875515808019793e-06
-4.263556609127316e-06   1.5365935915868066e-06   -7.875515808019793e-06
-4.263556609127316e-06   1.5365935915868066e-06   -7.875515808019793e-06
-4.263556609127316e-06   1.5365935915868066e-06   -7.875515808019793e-06
-5.0454157638064835e-06   -2.052909367500355e-08   -1.0112888010308814e-05
-5.0454157638064835e-06   -2.052909367500355e-08   -1.0112888010308814e-05
-5.0454157638064835e-06   -2.052909367500355e-08   -1.0112888010308814e-05
-5.0454157638064835e-06   -2.052909367500355e-08   -1.0112888010308814e-05
-4.7136975644067845e-06   1.8169906792010792e-06   -8.17500458231079e-06
-4.7136975644067845e-06   1.8169906792010792e-06   -8.17500458231079e-06
-4.7136975644067845e-06   1.8169906792010792e-06   -8.17500458231079e-06
-4.7136975644067845e-06   1.8169906792010792e-06   -8.17500458231079e-06
-3.5087673187290307e-06   2.3303737907052428e-07   -9.232849678362035e-06
-3.5087673187290307e-06   2.3303737907052428e-07   -9.232849678362035e-06
-3.5087673187290307e-06   2.3303737907052428e-07   -9.232849678362035e-06
-3.5087673187290307e-06   2.3303737907052428e-07   -9.232849678362035e-06
-4.3014460554170815e-06   9.072708475122478e-07   -8.316258531613997e-06
-4.3014460554170815e-06   9.072708475122478e-07   -8.316258531613997e-06
-4.3014460554170815e-06   9.072708475122478e-07   -8.316258531613997e-06
-4.3014460554170815e-06   9.072708475122478e-07   -8.316258531613997e-06
-3.5087673187290036e-06   1.8169906792010792e-06   -7.22463260223249e-06
-3.5087673187290036e-06   1.8169906792010792e-06   -7.22463260223249e-06
-3.5087673187290036e-06   1.8169906792010792e-06   -7.22463260223249e-06
-3.5087673187290036e-06   1.8169906792010792e-06   -7.22463260223249e-06
-4.713697564406798e-06   2.330373790706327e-07   -1.018322165844028e-05
-4.713697564406798e-06   2.330373790706327e-07   -1.018322165844028e-05
-4.713697564406798e-06   2.330373790706327e-07   -1.018322165844028e-05
-4.713697564406798e-06   2.330373790706327e-07   -1.018322165844028e-05
-4.456637870969287e-06   2.261680300578062e-06   -7.58717197129504e-06
-4.456637870969287e-06   2.261680300578062e-06   -7.58717197129504e-06
-4.456637870969287e-06   2.261680300578062e-06   -7.58717197129504e-06
-4.456637870969287e-06   2.261680300578062e-06   -7.58717197129504e-06
-2.5768422528619475e-06   7.383300410462694e-07   -9.806154512421528e-06
-2.5768422528619475e-06   7.383300410462694e-07   -9.806154512421528e-06
-2.5768422528619475e-06   7.383300410462694e-07   -9.806154512421528e-06
-2.5768422528619475e-06   7.383300410462694e-07   -9.806154512421528e-06
-3.7637275550982984e-06   1.1289553496960335e-06   -8.062387527217542e-06
-3.7637275550982984e-06   1.1289553496960335e-06   -8.062387527217542e-06
-3.7637275550982984e-06   1.1289553496960335e-06   -8.062387527217542e-06
-3.7637275550982984e-06   1.1289553496960335e-06   -8.062387527217542e-06
-5.3078135035988165e-06   5.705794981100644e-07   -1.7113764004105664e-05
-5.3078135035988165e-06   5.705794981100644e-07   -1.7113764004105664e-05
-5.3078135035988165e-06   5.705794981100644e-07   -1.7113764004105664e-05
-5.3078135035988165e-06   5.705794981100644e-07   -1.7113764004105664e-05
-6.161746563875618e-06   -9.703444595130905e-08   -1.8937554137670495e-05
-6.161746563875618e-06   -9.703444595130905e-08   -1.8937554137670495e-05
-6.161746563875618e-06   -9.703444595130905e-08   -1.8937554137670495e-05
-6.161746563875618e-06   -9.703444595130905e-08   -1.8937554137670495e-05
-5.951067144314141e-06   1.2050856928350973e-06   -1.7124982190270502e-05
-5.951067144314141e-06   1.2050856928350973e-06   -1.7124982190270502e-05
-5.951067144314141e-06   1.2050856928350973e-06   -1.7124982190270502e-05
-5.951067144314141e-06   1.2050856928350973e-06   -1.7124982190270502e-05
-5.045415763806497e-06   4.665835435492755e-07   -1.8191299868211536e-05
-5.045415763806497e-06   4.665835435492755e-07   -1.8191299868211536e-05
-5.045415763806497e-06   4.665835435492755e-07   -1.8191299868211536e-05
-5.045415763806497e-06   4.665835435492755e-07   -1.8191299868211536e-05
-5.551201389312258e-06   6.611537329898791e-07   -1.7465065939366715e-05
-5.551201389312258e-06   6.611537329898791e-07   -1.7465065939366715e-05
-5.551201389312258e-06   6.611537329898791e-07   -1.7465065939366715e-05
-5.551201389312258e-06   6.611537329898791e-07   -1.7465065939366715e-05
-5.0454157638064835e-06   1.2050856928352057e-06   -1.6681880900698792e-05
-5.0454157638064835e-06   1.2050856928352057e-06   -1.6681880900698792e-05
-5.0454157638064835e-06   1.2050856928352057e-06   -1.6681880900698792e-05
-5.0454157638064835e-06   1.2050856928352057e-06   -1.6681880900698792e-05
-5.951067144314127e-06   4.665835435492755e-07   -1.863440115778322e-05
-5.951067144314127e-06   4.665835435492755e-07   -1.863440115778322e-05
-5.951067144314127e-06   4.665835435492755e-07   -1.863440115778322e-05
-5.951067144314127e-06   4.665835435492755e-07   -1.863440115778322e-05
-5.7318334138408385e-06   1.795978189763096e-06   -1.6981213199908905e-05
-5.7318334138408385e-06   1.795978189763096e-06   -1.6981213199908905e-05
-5.7318334138408385e-06   1.795978189763096e-06   -1.6981213199908905e-05
-5.7318334138408385e-06   1.795978189763096e-06   -1.6981213199908905e-05
-4.713697564406812e-06   1.0100376948862398e-06   -1.8206541985372646e-05
-4.713697564406812e-06   1.0100376948862398e-06   -1.8206541985372646e-05
-4.713697564406812e-06   1.0100376948862398e-06   -1.8206541985372646e-05
-4.713697564406812e-06   1.0100376948862398e-06   -1.8206541985372646e-05
-5.3402094092186165e-06   1.1166017486099328e-06   -1.7226294009587307e-05
-5.3402094092186165e-06   1.1166017486099328e-06   -1.7226294009587307e-05
-5.3402094092186165e-06   1.1166017486099328e-06   -1.7226294009587307e-05
-5.3402094092186165e-06   1.1166017486099328e-06   -1.7226294009587307e-05
-4.7136975644067845e-06   1.7959781897632044e-06   -1.6509648902982672e-05
-4.7136975644067845e-06   1.7959781897632044e-06   -1.6509648902982672e-05
-4.7136975644067845e-06   1.7959781897632044e-06   -1.6509648902982672e-05
-4.7136975644067845e-06   1.7959781897632044e-06   -1.6509648902982672e-05
-5.731833413840818e-06   1.0100376948862398e-06   -1.867810628229877e-05
-5.731833413840818e-06   1.0100376948862398e-06   -1.867810628229877e-05
-5.731833413840818e-06   1.0100376948862398e-06   -1.867810628229877e-05
-5.731833413840818e-06   1.0100376948862398e-06   -1.867810628229877e-05
-5.52582058636537e-06   2.453443646705986e-06   -1.7262821787495677e-05
-5.52582058636537e-06   2.453443646705986e-06   -1.7262821787495677e-05
-5.52582058636537e-06   2.453443646705986e-06   -1.7262821787495677e-05
-5.52582058636537e-06   2.453443646705986e-06   -1.7262821787495677e-05
-4.456637870969301e-06   1.6314421889246757e-06   -1.855159210515365e-05
-4.456637870969301e-06   1.6314421889246757e-06   -1.855159210515365e-05
-4.456637870969301e-06   1.6314421889246757e-06   -1.855159210515365e-05
-4.456637870969301e-06   1.6314421889246757e-06   -1.855159210515365e-05
-5.155125421893161e-06   1.595306699215572e-06   -1.7365764893121776e-05
-5.155125421893161e-06   1.595306699215572e-06   -1.7365764893121776e-05
-5.155125421893161e-06   1.595306699215572e-06   -1.7365764893121776e-05
-5.155125421893161e-06   1.595306699215572e-06   -1.7365764893121776e-05
-6.161746563875584e-06   3.3085058034421425e-07   -1.994285368743889e-05
-6.161746563875584e-06   3.3085058034421425e-07   -1.994285368743889e-05
-6.161746563875584e-06   3.3085058034421425e-07   -1.994285368743889e-05
-6.161746563875584e-06   3.3085058034421425e-07   -1.994285368743889e-05
-7.054665187758541e-06   4.7300994137104355e-07   -2.134575577729446e-05
-7.054665187758541e-06   4.7300994137104355e-07   -2.134575577729446e-05
-7.054665187758541e-06   4.7300994137104355e-07   -2.134575577729446e-05
-7.054665187758541e-06   4.7300994137104355e-07   -2.134575577729446e-05
-6.84793248153637e-06   9.781184838392794e-07   -1.9633275689075484e-05
-6.84793248153637e-06   9.781184838392794e-07   -1.9633275689075484e-05
-6.84793248153637e-06   9.781184838392794e-07   -1.9633275689075484e-05
-6.84793248153637e-06   9.781184838392794e-07   -1.9633275689075484e-05
-5.951067144314127e-06   1.0566085260226878e-06   -2.117514527642251e-05
-5.951067144314127e-06   1.0566085260226878e-06   -2.117514527642251e-05
-5.951067144314127e-06   1.0566085260226878e-06   -2.117514527642251e-05
-5.951067144314127e-06   1.0566085260226878e-06   -2.117514527642251e-05
-6.464660450227344e-06   8.008576627313276e-07   -2.0165705915259347e-05
-6.464660450227344e-06   8.008576627313276e-07   -2.0165705915259347e-05
-6.464660450227344e-06   8.008576627313276e-07   -2.0165705915259347e-05
-6.464660450227344e-06   8.008576627313276e-07   -2.0165705915259347e-05
-5.95106714431412e-06   9.78118483839171e-07   -1.9680369714385518e-05
-5.95106714431412e-06   9.78118483839171e-07   -1.9680369714385518e-05
-5.95106714431412e-06   9.78118483839171e-07   -1.9680369714385518e-05
-5.95106714431412e-06   9.78118483839171e-07   -1.9680369714385518e-05
-6.8479324815363824e-06   1.0566085260226878e-06   -2.1128051251112598e-05
-6.8479324815363824e-06   1.0566085260226878e-06   -2.1128051251112598e-05
-6.8479324815363824e-06   1.0566085260226878e-06   -2.1128051251112598e-05
-6.8479324815363824e-06   1.0566085260226878e-06   -2.1128051251112598e-05
-6.630020010418386e-06   1.6310104469268371e-06   -1.9689327477020958e-05
-6.630020010418386e-06   1.6310104469268371e-06   -1.9689327477020958e-05
-6.630020010418386e-06   1.6310104469268371e-06   -1.9689327477020958e-05
-6.630020010418386e-06   1.6310104469268371e-06   -1.9689327477020958e-05
-5.7318334138408385e-06   1.652869529123282e-06   -2.119942058730134e-05
-5.7318334138408385e-06   1.652869529123282e-06   -2.119942058730134e-05
-5.7318334138408385e-06   1.652869529123282e-06   -2.119942058730134e-05
-5.7318334138408385e-06   1.652869529123282e-06   -2.119942058730134e-05
-6.291881058455722e-06   1.3008148884350278e-06   -2.00547750618639e-05
-6.291881058455722e-06   1.3008148884350278e-06   -2.00547750618639e-05
-6.291881058455722e-06   1.3008148884350278e-06   -2.00547750618639e-05
-6.291881058455722e-06   1.3008148884350278e-06   -2.00547750618639e-05
-5.731833413840818e-06   1.6310104469267287e-06   -1.9702442926338804e-05
-5.731833413840818e-06   1.6310104469267287e-06   -1.9702442926338804e-05
-5.731833413840818e-06   1.6310104469267287e-06   -1.9702442926338804e-05
-5.731833413840818e-06   1.6310104469267287e-06   -1.9702442926338804e-05
-6.630020010418386e-06   1.652869529123282e-06   -2.1186305137983427e-05
-6.630020010418386e-06   1.652869529123282e-06   -2.1186305137983427e-05
-6.630020010418386e-06   1.652869529123282e-06   -2.1186305137983427e-05
-6.630020010418386e-06   1.652869529123282e-06   -2.1186305137983427e-05
-6.424623322358064e-06   2.2938092962238943e-06   -2.0071539010496967e-05
-6.424623322358064e-06   2.2938092962238943e-06   -2.0071539010496967e-05
-6.424623322358064e-06   2.2938092962238943e-06   -2.0071539010496967e-05
-6.424623322358064e-06   2.2938092962238943e-06   -2.0071539010496967e-05
-5.52582058636537e-06   2.2574634694382586e-06   -2.1547736074413365e-05
-5.52582058636537e-06   2.2574634694382586e-06   -2.1547736074413365e-05
-5.52582058636537e-06   2.2574634694382586e-06   -2.1547736074413365e-05
-5.52582058636537e-06   2.2574634694382586e-06   -2.1547736074413365e-05
-6.133298714756493e-06   1.8078029866019528e-06   -2.0265476237393078e-05
-6.133298714756493e-06   1.8078029866019528e-06   -2.0265476237393078e-05
-6.133298714756493e-06   1.8078029866019528e-06   -2.0265476237393078e-05
-6.133298714756493e-06   1.8078029866019528e-06   -2.0265476237393078e-05
-7.054665187758516e-06   1.4832758809027978e-07   -1.719997565400493e-05
-7.054665187758516e-06   1.4832758809027978e-07   -1.719997565400493e-05
-7.054665187758516e-06   1.4832758809027978e-07   -1.719997565400493e-05
-7.054665187758516e-06   1.4832758809027978e-07   -1.719997565400493e-05
-8.00197247454482e-06   1.049071710000171e-06   -1.8238374658836247e-05
-8.00197247454482e-06   1.049071710000171e-06   -1.8238374658836247e-05
-8.00197247454482e-06   1.049071710000171e-06   -1.8238374658836247e-05
-8.00197247454482e-06   1.049071710000171e-06   -1.8238374658836247e-05
-7.750896339444953e-06   7.760946518189015e-07   -1.6439630001494803e-05
-7.750896339444953e-06   7.760946518189015e-07   -1.6439630001494803e-05
-7.750896339444953e-06   7.760946518189015e-07   -1.6439630001494803e-05
-7.750896339444953e-06   7.760946518189015e-07   -1.6439630001494803e-05
-6.84793248153637e-06   1.6351972818570227e-06   -1.8460031342698513e-05
-6.84793248153637e-06   1.6351972818570227e-06   -1.8460031342698513e-05
-6.84793248153637e-06   1.6351972818570227e-06   -1.8460031342698513e-05
-6.84793248153637e-06   1.6351972818570227e-06   -1.8460031342698513e-05
-7.356421183301113e-06   9.6705588509998e-07   -1.72116653350366e-05
-7.356421183301113e-06   9.6705588509998e-07   -1.72116653350366e-05
-7.356421183301113e-06   9.6705588509998e-07   -1.72116653350366e-05
-7.356421183301113e-06   9.6705588509998e-07   -1.72116653350366e-05
-6.847932481536358e-06   7.7609465181901e-07   -1.69550915795176e-05
-6.847932481536358e-06   7.7609465181901e-07   -1.69550915795176e-05
-6.847932481536358e-06   7.7609465181901e-07   -1.69550915795176e-05
-6.847932481536358e-06   7.7609465181901e-07   -1.69550915795176e-05
-7.750896339444953e-06   1.6351972818570227e-06   -1.794456976467575e-05
-7.750896339444953e-06   1.6351972818570227e-06   -1.794456976467575e-05
-7.750896339444953e-06   1.6351972818570227e-06   -1.794456976467575e-05
-7.750896339444953e-06   1.6351972818570227e-06   -1.794456976467575e-05
-7.4242829917116636e-06   1.366896391372845e-06   -1.650763454536159e-05
-7.4242829917116636e-06   1.366896391372845e-06   -1.650763454536159e-05
-7.4242829917116636e-06   1.366896391372845e-06   -1.650763454536159e-05
-7.4242829917116636e-06   1.366896391372845e-06   -1.650763454536159e-05
-6.630020010418376e-06   2.175233323053788e-06   -1.8316408339858924e-05
-6.630020010418376e-06   2.175233323053788e-06   -1.8316408339858924e-05
-6.630020010418376e-06   2.175233323053788e-06   -1.8316408339858924e-05
-6.630020010418376e-06   2.175233323053788e-06   -1.8316408339858924e-05
-7.131893218785615e-06   1.432669389396556e-06   -1.7034414632386178e-05
-7.131893218785615e-06   1.432669389396556e-06   -1.7034414632386178e-05
-7.131893218785615e-06   1.432669389396556e-06   -1.7034414632386178e-05
-7.131893218785615e-06   1.432669389396556e-06   -1.7034414632386178e-05
-6.6300200104183585e-06   1.3668963913727366e-06   -1.699263670437007e-05
-6.6300200104183585e-06   1.3668963913727366e-06   -1.699263670437007e-05
-6.6300200104183585e-06   1.3668963913727366e-06   -1.699263670437007e-05
-6.6300200104183585e-06   1.3668963913727366e-06   -1.699263670437007e-05
-7.424282991711677e-06   2.175233323053788e-06   -1.7831406180850347e-05
-7.424282991711677e-06   2.175233323053788e-06   -1.7831406180850347e-05
-7.424282991711677e-06   2.175233323053788e-06   -1.7831406180850347e-05
-7.424282991711677e-06   2.175233323053788e-06   -1.7831406180850347e-05
-7.168241591962462e-06   2.033949287410207e-06   -1.6965334915696655e-05
-7.168241591962462e-06   2.033949287410207e-06   -1.6965334915696655e-05
-7.168241591962462e-06   2.033949287410207e-06   -1.6965334915696655e-05
-7.168241591962462e-06   2.033949287410207e-06   -1.6965334915696655e-05
-6.424623322358064e-06   2.7793879841012895e-06   -1.8651961916385176e-05
-6.424623322358064e-06   2.7793879841012895e-06   -1.8651961916385176e-05
-6.424623322358064e-06   2.7793879841012895e-06   -1.8651961916385176e-05
-6.424623322358064e-06   2.7793879841012895e-06   -1.8651961916385176e-05
-6.965526116606973e-06   1.9076057616656487e-06   -1.722738792584198e-05
-6.965526116606973e-06   1.9076057616656487e-06   -1.722738792584198e-05
-6.965526116606973e-06   1.9076057616656487e-06   -1.722738792584198e-05
-6.965526116606973e-06   1.9076057616656487e-06   -1.722738792584198e-05
-8.001972474544793e-06   2.1340152071944347e-07   -9.156821984186356e-06
-8.001972474544793e-06   2.1340152071944347e-07   -9.156821984186356e-06
-8.001972474544793e-06   2.1340152071944347e-07   -9.156821984186356e-06
-8.001972474544793e-06   2.1340152071944347e-07   -9.156821984186356e-06
-9.731243095451489e-06   1.7670511426633043e-06   -1.1106749912531146e-05
-9.731243095451489e-06   1.7670511426633043e-06   -1.1106749912531146e-05
-9.731243095451489e-06   1.7670511426633043e-06   -1.1106749912531146e-05
-9.731243095451489e-06   1.7670511426633043e-06   -1.1106749912531146e-05
-8.825696920253316e-06   7.105554423680015e-07   -7.526623610776024e-06
-8.825696920253316e-06   7.105554423680015e-07   -7.526623610776024e-06
-8.825696920253316e-06   7.105554423680015e-07   -7.526623610776024e-06
-8.825696920253316e-06   7.105554423680015e-07   -7.526623610776024e-06
-7.750896339444947e-06   2.2993626846880407e-06   -1.0271242257515301e-05
-7.750896339444947e-06   2.2993626846880407e-06   -1.0271242257515301e-05
-7.750896339444947e-06   2.2993626846880407e-06   -1.0271242257515301e-05
-7.750896339444947e-06   2.2993626846880407e-06   -1.0271242257515301e-05
-8.230370662502235e-06   1.31085480689424e-06   -8.879013659076983e-06
-8.230370662502235e-06   1.31085480689424e-06   -8.879013659076983e-06
-8.230370662502235e-06   1.31085480689424e-06   -8.879013659076983e-06
-8.230370662502235e-06   1.31085480689424e-06   -8.879013659076983e-06
-7.750896339444926e-06   7.10555442367893e-07   -8.479907956167971e-06
-7.750896339444926e-06   7.10555442367893e-07   -8.479907956167971e-06
-7.750896339444926e-06   7.10555442367893e-07   -8.479907956167971e-06
-7.750896339444926e-06   7.10555442367893e-07   -8.479907956167971e-06
-8.825696920253316e-06   2.299362684688149e-06   -9.317957912123326e-06
-8.825696920253316e-06   2.299362684688149e-06   -9.317957912123326e-06
-8.825696920253316e-06   2.299362684688149e-06   -9.317957912123326e-06
-8.825696920253316e-06   2.299362684688149e-06   -9.317957912123326e-06
-8.089163292734894e-06   9.896520255876697e-07   -7.391442297254849e-06
-8.089163292734894e-06   9.896520255876697e-07   -7.391442297254849e-06
-8.089163292734894e-06   9.896520255876697e-07   -7.391442297254849e-06
-8.089163292734894e-06   9.896520255876697e-07   -7.391442297254849e-06
-7.4242829917116636e-06   2.5430076225408695e-06   -9.431589490465432e-06
-7.4242829917116636e-06   2.5430076225408695e-06   -9.431589490465432e-06
-7.4242829917116636e-06   2.5430076225408695e-06   -9.431589490465432e-06
-7.4242829917116636e-06   2.5430076225408695e-06   -9.431589490465432e-06
-7.848478244869135e-06   1.5584040852361118e-06   -8.133835279486892e-06
-7.848478244869135e-06   1.5584040852361118e-06   -8.133835279486892e-06
-7.848478244869135e-06   1.5584040852361118e-06   -8.133835279486892e-06
-7.848478244869135e-06   1.5584040852361118e-06   -8.133835279486892e-06
-7.424282991711657e-06   9.896520255876697e-07   -8.323455655426823e-06
-7.424282991711657e-06   9.896520255876697e-07   -8.323455655426823e-06
-7.424282991711657e-06   9.896520255876697e-07   -8.323455655426823e-06
-7.424282991711657e-06   9.896520255876697e-07   -8.323455655426823e-06
-8.089163292734894e-06   2.543007622540978e-06   -8.499576132293485e-06
-8.089163292734894e-06   2.543007622540978e-06   -8.499576132293485e-06
-8.089163292734894e-06   2.543007622540978e-06   -8.499576132293485e-06
-8.089163292734894e-06   2.543007622540978e-06   -8.499576132293485e-06
-7.186015896295817e-06   1.4822516625481383e-06   -7.609376054551324e-06
-7.186015896295817e-06   1.4822516625481383e-06   -7.609376054551324e-06
-7.186015896295817e-06   1.4822516625481383e-06   -7.609376054551324e-06
-7.186015896295817e-06   1.4822516625481383e-06   -7.609376054551324e-06
-7.168241591962449e-06   2.9179514045972075e-06   -8.500419740336255e-06
-7.168241591962449e-06   2.9179514045972075e-06   -8.500419740336255e-06
-7.168241591962449e-06   2.9179514045972075e-06   -8.500419740336255e-06
-7.168241591962449e-06   2.9179514045972075e-06   -8.500419740336255e-06
-7.278436721625958e-06   1.756816171525873e-06   -7.620080051054393e-06
-7.278436721625958e-06   1.756816171525873e-06   -7.620080051054393e-06
-7.278436721625958e-06   1.756816171525873e-06   -7.620080051054393e-06
-7.278436721625958e-06   1.756816171525873e-06   -7.620080051054393e-06
4.728962021137027e-06   -4.665875617229816e-07   -4.691305541298669e-06
4.728962021137027e-06   -4.665875617229816e-07   -4.691305541298669e-06
4.728962021137027e-06   -4.665875617229816e-07   -4.691305541298669e-06
4.728962021137027e-06   -4.665875617229816e-07   -4.691305541298669e-06
4.961752147278076e-07   -1.937282343911521e-06   -1.262836708796044e-05
4.961752147278076e-07   -1.937282343911521e-06   -1.262836708796044e-05
4.961752147278076e-07   -1.937282343911521e-06   -1.262836708796044e-05
4.961752147278076e-07   -1.937282343911521e-06   -1.262836708796044e-05
8.55090771157888e-07   -2.052909367500355e-08   -5.195943068425049e-06
8.55090771157888e-07   -2.052909367500355e-08   -5.195943068425049e-06
8.55090771157888e-07   -2.052909367500355e-08   -5.195943068425049e-06
8.55090771157888e-07   -2.052909367500355e-08   -5.195943068425049e-06
5.742949528863482e-06   -1.5934947778930642e-06   -1.2398594920736859e-05
5.742949528863482e-06   -1.5934947778930642e-06   -1.2398594920736859e-05
5.742949528863482e-06   -1.5934947778930642e-06   -1.2398594920736859e-05
5.742949528863482e-06   -1.5934947778930642e-06   -1.2398594920736859e-05
2.8448817990423764e-06   -8.109101639014547e-07   -8.038032806096659e-06
2.8448817990423764e-06   -8.109101639014547e-07   -8.038032806096659e-06
2.8448817990423764e-06   -8.109101639014547e-07   -8.038032806096659e-06
2.8448817990423764e-06   -8.109101639014547e-07   -8.038032806096659e-06
5.742949528863482e-06   -2.052909367500355e-08   -4.252163657894202e-06
5.742949528863482e-06   -2.052909367500355e-08   -4.252163657894202e-06
5.742949528863482e-06   -2.052909367500355e-08   -4.252163657894202e-06
5.742949528863482e-06   -2.052909367500355e-08   -4.252163657894202e-06
8.55090771157888e-07   -1.5934947778930642e-06   -1.334237433126776e-05
8.55090771157888e-07   -1.5934947778930642e-06   -1.334237433126776e-05
8.55090771157888e-07   -1.5934947778930642e-06   -1.334237433126776e-05
8.55090771157888e-07   -1.5934947778930642e-06   -1.334237433126776e-05
1.2788300038250254e-06   2.3303737907052428e-07   -5.240104716307237e-06
1.2788300038250254e-06   2.3303737907052428e-07   -5.240104716307237e-06
1.2788300038250254e-06   2.3303737907052428e-07   -5.240104716307237e-06
1.2788300038250254e-06   2.3303737907052428e-07   -5.240104716307237e-06
6.597906310320471e-06   -1.3628650067254054e-06   -1.3147690462322057e-05
6.597906310320471e-06   -1.3628650067254054e-06   -1.3147690462322057e-05
6.597906310320471e-06   -1.3628650067254054e-06   -1.3147690462322057e-05
6.597906310320471e-06   -1.3628650067254054e-06   -1.3147690462322057e-05
3.4865352521949294e-06   -6.493786444542512e-07   -8.390163849475945e-06
3.4865352521949294e-06   -6.493786444542512e-07   -8.390163849475945e-06
3.4865352521949294e-06   -6.493786444542512e-07   -8.390163849475945e-06
3.4865352521949294e-06   -6.493786444542512e-07   -8.390163849475945e-06
6.597906310320471e-06   2.3303737907052428e-07   -4.2825632848296795e-06
6.597906310320471e-06   2.3303737907052428e-07   -4.2825632848296795e-06
6.597906310320471e-06   2.3303737907052428e-07   -4.2825632848296795e-06
6.597906310320471e-06   2.3303737907052428e-07   -4.2825632848296795e-06
1.2788300038250118e-06   -1.3628650067254054e-06   -1.4105231893799723e-05
1.2788300038250118e-06   -1.3628650067254054e-06   -1.4105231893799723e-05
1.2788300038250118e-06   -1.3628650067254054e-06   -1.4105231893799723e-05
1.2788300038250118e-06   -1.3628650067254054e-06   -1.4105231893799723e-05
1.626011375912122e-06   7.383300410462694e-07   -5.753343834881408e-06
1.626011375912122e-06   7.383300410462694e-07   -5.753343834881408e-06
1.626011375912122e-06   7.383300410462694e-07   -5.753343834881408e-06
1.626011375912122e-06   7.383300410462694e-07   -5.753343834881408e-06
7.6251081189671575e-06   -7.831339617936665e-07   -1.4838960004935934e-05
7.6251081189671575e-06   -7.831339617936665e-07   -1.4838960004935934e-05
7.6251081189671575e-06   -7.831339617936665e-07   -1.4838960004935934e-05
7.6251081189671575e-06   -7.831339617936665e-07   -1.4838960004935934e-05
3.993501196652378e-06   -4.1091773036311657e-07   -9.009611539936645e-06
3.993501196652378e-06   -4.1091773036311657e-07   -9.009611539936645e-06
3.993501196652378e-06   -4.1091773036311657e-07   -9.009611539936645e-06
3.993501196652378e-06   -4.1091773036311657e-07   -9.009611539936645e-06
4.961752147278076e-07   -9.703444595141747e-08   -1.3650548840627493e-05
4.961752147278076e-07   -9.703444595141747e-08   -1.3650548840627493e-05
4.961752147278076e-07   -9.703444595141747e-08   -1.3650548840627493e-05
4.961752147278076e-07   -9.703444595141747e-08   -1.3650548840627493e-05
-4.416953554211279e-06   -7.604001794920146e-07   -2.223711622898367e-05
-4.416953554211279e-06   -7.604001794920146e-07   -2.223711622898367e-05
-4.416953554211279e-06   -7.604001794920146e-07   -2.223711622898367e-05
-4.416953554211279e-06   -7.604001794920146e-07   -2.223711622898367e-05
-4.103355264806002e-06   4.665835435492755e-07   -1.3726802457529608e-05
-4.103355264806002e-06   4.665835435492755e-07   -1.3726802457529608e-05
-4.103355264806002e-06   4.665835435492755e-07   -1.3726802457529608e-05
-4.103355264806002e-06   4.665835435492755e-07   -1.3726802457529608e-05
8.55090771157888e-07   -2.874956751202718e-07   -2.1538431652934407e-05
8.55090771157888e-07   -2.874956751202718e-07   -2.1538431652934407e-05
8.55090771157888e-07   -2.874956751202718e-07   -2.1538431652934407e-05
8.55090771157888e-07   -2.874956751202718e-07   -2.1538431652934407e-05
-1.7512102505102975e-06   -2.4269505643982787e-08   -1.7352532318506568e-05
-1.7512102505102975e-06   -2.4269505643982787e-08   -1.7352532318506568e-05
-1.7512102505102975e-06   -2.4269505643982787e-08   -1.7352532318506568e-05
-1.7512102505102975e-06   -2.4269505643982787e-08   -1.7352532318506568e-05
8.55090771157888e-07   4.665835435492755e-07   -1.327435492632788e-05
8.55090771157888e-07   4.665835435492755e-07   -1.327435492632788e-05
8.55090771157888e-07   4.665835435492755e-07   -1.327435492632788e-05
8.55090771157888e-07   4.665835435492755e-07   -1.327435492632788e-05
-4.103355264806002e-06   -2.874956751202718e-07   -2.199087918413619e-05
-4.103355264806002e-06   -2.874956751202718e-07   -2.199087918413619e-05
-4.103355264806002e-06   -2.874956751202718e-07   -2.199087918413619e-05
-4.103355264806002e-06   -2.874956751202718e-07   -2.199087918413619e-05
-3.787916513739423e-06   1.0100376948862398e-06   -1.3748246725885007e-05
-3.787916513739423e-06   1.0100376948862398e-06   -1.3748246725885007e-05
-3.787916513739423e-06   1.0100376948862398e-06   -1.3748246725885007e-05
-3.787916513739423e-06   1.0100376948862398e-06   -1.3748246725885007e-05
1.2788300038250254e-06   2.0200155714388164e-07   -2.1708002572513738e-05
1.2788300038250254e-06   2.0200155714388164e-07   -2.1708002572513738e-05
1.2788300038250254e-06   2.0200155714388164e-07   -2.1708002572513738e-05
1.2788300038250254e-06   2.0200155714388164e-07   -2.1708002572513738e-05
-1.474239926148908e-06   3.6514260530365154e-07   -1.7217437318119605e-05
-1.474239926148908e-06   3.6514260530365154e-07   -1.7217437318119605e-05
-1.474239926148908e-06   3.6514260530365154e-07   -1.7217437318119605e-05
-1.474239926148908e-06   3.6514260530365154e-07   -1.7217437318119605e-05
1.2788300038250254e-06   1.0100376948862398e-06   -1.3263425043239603e-05
1.2788300038250254e-06   1.0100376948862398e-06   -1.3263425043239603e-05
1.2788300038250254e-06   1.0100376948862398e-06   -1.3263425043239603e-05
1.2788300038250254e-06   1.0100376948862398e-06   -1.3263425043239603e-05
-3.787916513739423e-06   2.0200155714399006e-07   -2.2192824255159115e-05
-3.787916513739423e-06   2.0200155714399006e-07   -2.2192824255159115e-05
-3.787916513739423e-06   2.0200155714399006e-07   -2.2192824255159115e-05
-3.787916513739423e-06   2.0200155714399006e-07   -2.2192824255159115e-05
-3.4869564889065518e-06   1.6314421889246757e-06   -1.4094157698461363e-05
-3.4869564889065518e-06   1.6314421889246757e-06   -1.4094157698461363e-05
-3.4869564889065518e-06   1.6314421889246757e-06   -1.4094157698461363e-05
-3.4869564889065518e-06   1.6314421889246757e-06   -1.4094157698461363e-05
1.626011375912122e-06   7.824648113127644e-07   -2.2106384379925548e-05
1.626011375912122e-06   7.824648113127644e-07   -2.2106384379925548e-05
1.626011375912122e-06   7.824648113127644e-07   -2.2106384379925548e-05
1.626011375912122e-06   7.824648113127644e-07   -2.2106384379925548e-05
-1.1649530220288583e-06   7.976010055758993e-07   -1.746385876658205e-05
-1.1649530220288583e-06   7.976010055758993e-07   -1.746385876658205e-05
-1.1649530220288583e-06   7.976010055758993e-07   -1.746385876658205e-05
-1.1649530220288583e-06   7.976010055758993e-07   -1.746385876658205e-05
-4.4169535542112925e-06   4.7300994137104355e-07   -1.6542065536991936e-05
-4.4169535542112925e-06   4.7300994137104355e-07   -1.6542065536991936e-05
-4.4169535542112925e-06   4.7300994137104355e-07   -1.6542065536991936e-05
-4.4169535542112925e-06   4.7300994137104355e-07   -1.6542065536991936e-05
-9.285145492455411e-06   5.959031224444947e-07   -2.4581982858754698e-05
-9.285145492455411e-06   5.959031224444947e-07   -2.4581982858754698e-05
-9.285145492455411e-06   5.959031224444947e-07   -2.4581982858754698e-05
-9.285145492455411e-06   5.959031224444947e-07   -2.4581982858754698e-05
-8.969596458884777e-06   1.0566085260226878e-06   -1.624315986703778e-05
-8.969596458884777e-06   1.0566085260226878e-06   -1.624315986703778e-05
-8.969596458884777e-06   1.0566085260226878e-06   -1.624315986703778e-05
-8.969596458884777e-06   1.0566085260226878e-06   -1.624315986703778e-05
-4.103355264806002e-06   1.0972530412413145e-06   -2.4377948566300378e-05
-4.103355264806002e-06   1.0972530412413145e-06   -2.4377948566300378e-05
-4.103355264806002e-06   1.0972530412413145e-06   -2.4377948566300378e-05
-4.103355264806002e-06   1.0972530412413145e-06   -2.4377948566300378e-05
-6.655069290739058e-06   9.077703036336742e-07   -2.0011402213847333e-05
-6.655069290739058e-06   9.077703036336742e-07   -2.0011402213847333e-05
-6.655069290739058e-06   9.077703036336742e-07   -2.0011402213847333e-05
-6.655069290739058e-06   9.077703036336742e-07   -2.0011402213847333e-05
-4.103355264806002e-06   1.0566085260226878e-06   -1.6267546576169075e-05
-4.103355264806002e-06   1.0566085260226878e-06   -1.6267546576169075e-05
-4.103355264806002e-06   1.0566085260226878e-06   -1.6267546576169075e-05
-4.103355264806002e-06   1.0566085260226878e-06   -1.6267546576169075e-05
-8.969596458884777e-06   1.0972530412414229e-06   -2.4353561857169204e-05
-8.969596458884777e-06   1.0972530412414229e-06   -2.4353561857169204e-05
-8.969596458884777e-06   1.0972530412414229e-06   -2.4353561857169204e-05
-8.969596458884777e-06   1.0972530412414229e-06   -2.4353561857169204e-05
-8.648582582022789e-06   1.652869529123282e-06   -1.6284731578809016e-05
-8.648582582022789e-06   1.652869529123282e-06   -1.6284731578809016e-05
-8.648582582022789e-06   1.652869529123282e-06   -1.6284731578809016e-05
-8.648582582022789e-06   1.652869529123282e-06   -1.6284731578809016e-05
-3.7879165137394367e-06   1.6275852825876165e-06   -2.4370671144693123e-05
-3.7879165137394367e-06   1.6275852825876165e-06   -2.4370671144693123e-05
-3.7879165137394367e-06   1.6275852825876165e-06   -2.4370671144693123e-05
-3.7879165137394367e-06   1.6275852825876165e-06   -2.4370671144693123e-05
-6.377967034181507e-06   1.345968499725657e-06   -1.9884950207572905e-05
-6.377967034181507e-06   1.345968499725657e-06   -1.9884950207572905e-05
-6.377967034181507e-06   1.345968499725657e-06   -1.9884950207572905e-05
-6.377967034181507e-06   1.345968499725657e-06   -1.9884950207572905e-05
-3.7879165137394367e-06   1.652869529123282e-06   -1.6269561030887508e-05
-3.7879165137394367e-06   1.652869529123282e-06   -1.6269561030887508e-05
-3.7879165137394367e-06   1.652869529123282e-06   -1.6269561030887508e-05
-3.7879165137394367e-06   1.652869529123282e-06   -1.6269561030887508e-05
-8.648582582022774e-06   1.627585282587508e-06   -2.4385841692614618e-05
-8.648582582022774e-06   1.627585282587508e-06   -2.4385841692614618e-05
-8.648582582022774e-06   1.627585282587508e-06   -2.4385841692614618e-05
-8.648582582022774e-06   1.627585282587508e-06   -2.4385841692614618e-05
-8.342551970270918e-06   2.2574634694382586e-06   -1.665129754635996e-05
-8.342551970270918e-06   2.2574634694382586e-06   -1.665129754635996e-05
-8.342551970270918e-06   2.2574634694382586e-06   -1.665129754635996e-05
-8.342551970270918e-06   2.2574634694382586e-06   -1.665129754635996e-05
-3.4869564889065653e-06   2.1671355472591483e-06   -2.4689759928659666e-05
-3.4869564889065653e-06   2.1671355472591483e-06   -2.4689759928659666e-05
-3.4869564889065653e-06   2.1671355472591483e-06   -2.4689759928659666e-05
-3.4869564889065653e-06   2.1671355472591483e-06   -2.4689759928659666e-05
-6.120612658369793e-06   1.7908816707327274e-06   -2.007458065363891e-05
-6.120612658369793e-06   1.7908816707327274e-06   -2.007458065363891e-05
-6.120612658369793e-06   1.7908816707327274e-06   -2.007458065363891e-05
-6.120612658369793e-06   1.7908816707327274e-06   -2.007458065363891e-05
-9.285145492455426e-06   1.049071710000171e-06   -1.390139498303551e-05
-9.285145492455426e-06   1.049071710000171e-06   -1.390139498303551e-05
-9.285145492455426e-06   1.049071710000171e-06   -1.390139498303551e-05
-9.285145492455426e-06   1.049071710000171e-06   -1.390139498303551e-05
-1.4104226955037485e-05   1.914874635850286e-06   -2.1413715665162297e-05
-1.4104226955037485e-05   1.914874635850286e-06   -2.1413715665162297e-05
-1.4104226955037485e-05   1.914874635850286e-06   -2.1413715665162297e-05
-1.4104226955037485e-05   1.914874635850286e-06   -2.1413715665162297e-05
-1.3742986500271406e-05   1.6351972818570227e-06   -1.3086199869409478e-05
-1.3742986500271406e-05   1.6351972818570227e-06   -1.3086199869409478e-05
-1.3742986500271406e-05   1.6351972818570227e-06   -1.3086199869409478e-05
-1.3742986500271406e-05   1.6351972818570227e-06   -1.3086199869409478e-05
-8.969596458884777e-06   2.4500974305476575e-06   -2.1530790027601585e-05
-8.969596458884777e-06   2.4500974305476575e-06   -2.1530790027601585e-05
-8.969596458884777e-06   2.4500974305476575e-06   -2.1530790027601585e-05
-8.969596458884777e-06   2.4500974305476575e-06   -2.1530790027601585e-05
-1.144553470162392e-05   1.8310990496738346e-06   -1.7032827261178826e-05
-1.144553470162392e-05   1.8310990496738346e-06   -1.7032827261178826e-05
-1.144553470162392e-05   1.8310990496738346e-06   -1.7032827261178826e-05
-1.144553470162392e-05   1.8310990496738346e-06   -1.7032827261178826e-05
-8.96959645888479e-06   1.6351972818570227e-06   -1.3575139958623892e-05
-8.96959645888479e-06   1.6351972818570227e-06   -1.3575139958623892e-05
-8.96959645888479e-06   1.6351972818570227e-06   -1.3575139958623892e-05
-8.96959645888479e-06   1.6351972818570227e-06   -1.3575139958623892e-05
-1.3742986500271434e-05   2.4500974305476575e-06   -2.104184993838732e-05
-1.3742986500271434e-05   2.4500974305476575e-06   -2.104184993838732e-05
-1.3742986500271434e-05   2.4500974305476575e-06   -2.104184993838732e-05
-1.3742986500271434e-05   2.4500974305476575e-06   -2.104184993838732e-05
-1.3308525378767467e-05   2.175233323053788e-06   -1.2960978618625166e-05
-1.3308525378767467e-05   2.175233323053788e-06   -1.2960978618625166e-05
-1.3308525378767467e-05   2.175233323053788e-06   -1.2960978618625166e-05
-1.3308525378767467e-05   2.175233323053788e-06   -1.2960978618625166e-05
-8.648582582022789e-06   2.93166025981922e-06   -2.118140610859231e-05
-8.648582582022789e-06   2.93166025981922e-06   -2.118140610859231e-05
-8.648582582022789e-06   2.93166025981922e-06   -2.118140610859231e-05
-8.648582582022789e-06   2.93166025981922e-06   -2.118140610859231e-05
-1.1080495962680083e-05   2.25433598538148e-06   -1.6721822576167694e-05
-1.1080495962680083e-05   2.25433598538148e-06   -1.6721822576167694e-05
-1.1080495962680083e-05   2.25433598538148e-06   -1.6721822576167694e-05
-1.1080495962680083e-05   2.25433598538148e-06   -1.6721822576167694e-05
-8.64858258202278e-06   2.175233323053788e-06   -1.3414834780684469e-05
-8.64858258202278e-06   2.175233323053788e-06   -1.3414834780684469e-05
-8.64858258202278e-06   2.175233323053788e-06   -1.3414834780684469e-05
-8.64858258202278e-06   2.175233323053788e-06   -1.3414834780684469e-05
-1.3308525378767467e-05   2.9316602598193284e-06   -2.072754994653309e-05
-1.3308525378767467e-05   2.9316602598193284e-06   -2.072754994653309e-05
-1.3308525378767467e-05   2.9316602598193284e-06   -2.072754994653309e-05
-1.3308525378767467e-05   2.9316602598193284e-06   -2.072754994653309e-05
-1.2947065004152953e-05   2.7793879841012895e-06   -1.331978434551196e-05
-1.2947065004152953e-05   2.7793879841012895e-06   -1.331978434551196e-05
-1.2947065004152953e-05   2.7793879841012895e-06   -1.331978434551196e-05
-1.2947065004152953e-05   2.7793879841012895e-06   -1.331978434551196e-05
-8.342551970270918e-06   3.4692738953485437e-06   -2.1407904282063787e-05
-8.342551970270918e-06   3.4692738953485437e-06   -2.1407904282063787e-05
-8.342551970270918e-06   3.4692738953485437e-06   -2.1407904282063787e-05
-8.342551970270918e-06   3.4692738953485437e-06   -2.1407904282063787e-05
-1.0838896752659982e-05   2.6706109039210642e-06   -1.676813184989229e-05
-1.0838896752659982e-05   2.6706109039210642e-06   -1.676813184989229e-05
-1.0838896752659982e-05   2.6706109039210642e-06   -1.676813184989229e-05
-1.0838896752659982e-05   2.6706109039210642e-06   -1.676813184989229e-05
-1.4104226955037485e-05   1.7670511426633043e-06   -7.182478254386885e-06
-1.4104226955037485e-05   1.7670511426633043e-06   -7.182478254386885e-06
-1.4104226955037485e-05   1.7670511426633043e-06   -7.182478254386885e-06
-1.4104226955037485e-05   1.7670511426633043e-06   -7.182478254386885e-06
-1.9606147691778175e-05   3.2938211325813337e-06   -1.5436284155003963e-05
-1.9606147691778175e-05   3.2938211325813337e-06   -1.5436284155003963e-05
-1.9606147691778175e-05   3.2938211325813337e-06   -1.5436284155003963e-05
-1.9606147691778175e-05   3.2938211325813337e-06   -1.5436284155003963e-05
-1.8601254267444902e-05   2.299362684688149e-06   -4.482214078356105e-06
-1.8601254267444902e-05   2.299362684688149e-06   -4.482214078356105e-06
-1.8601254267444902e-05   2.299362684688149e-06   -4.482214078356105e-06
-1.8601254267444902e-05   2.299362684688149e-06   -4.482214078356105e-06
-1.3742986500271406e-05   3.850459824509861e-06   -1.3509985307538266e-05
-1.3742986500271406e-05   3.850459824509861e-06   -1.3509985307538266e-05
-1.3742986500271406e-05   3.850459824509861e-06   -1.3509985307538266e-05
-1.3742986500271406e-05   3.850459824509861e-06   -1.3509985307538266e-05
-1.5842041556295197e-05   2.864818574406817e-06   -9.420175464103562e-06
-1.5842041556295197e-05   2.864818574406817e-06   -9.420175464103562e-06
-1.5842041556295197e-05   2.864818574406817e-06   -9.420175464103562e-06
-1.5842041556295197e-05   2.864818574406817e-06   -9.420175464103562e-06
-1.3742986500271423e-05   2.299362684688149e-06   -5.4128723622491105e-06
-1.3742986500271423e-05   2.299362684688149e-06   -5.4128723622491105e-06
-1.3742986500271423e-05   2.299362684688149e-06   -5.4128723622491105e-06
-1.3742986500271423e-05   2.299362684688149e-06   -5.4128723622491105e-06
-1.8601254267444834e-05   3.850459824509861e-06   -1.2579327023645227e-05
-1.8601254267444834e-05   3.850459824509861e-06   -1.2579327023645227e-05
-1.8601254267444834e-05   3.850459824509861e-06   -1.2579327023645227e-05
-1.8601254267444834e-05   3.850459824509861e-06   -1.2579327023645227e-05
-1.7770781600418584e-05   2.5430076225408695e-06   -3.6568305399675228e-06
-1.7770781600418584e-05   2.5430076225408695e-06   -3.6568305399675228e-06
-1.7770781600418584e-05   2.5430076225408695e-06   -3.6568305399675228e-06
-1.7770781600418584e-05   2.5430076225408695e-06   -3.6568305399675228e-06
-1.3308525378767443e-05   4.0502266029954995e-06   -1.19982556309922e-05
-1.3308525378767443e-05   4.0502266029954995e-06   -1.19982556309922e-05
-1.3308525378767443e-05   4.0502266029954995e-06   -1.19982556309922e-05
-1.3308525378767443e-05   4.0502266029954995e-06   -1.19982556309922e-05
-1.5480372339231625e-05   3.11646525242269e-06   -7.81825388654155e-06
-1.5480372339231625e-05   3.11646525242269e-06   -7.81825388654155e-06
-1.5480372339231625e-05   3.11646525242269e-06   -7.81825388654155e-06
-1.5480372339231625e-05   3.11646525242269e-06   -7.81825388654155e-06
-1.3308525378767467e-05   2.543007622540978e-06   -4.561161928240333e-06
-1.3308525378767467e-05   2.543007622540978e-06   -4.561161928240333e-06
-1.3308525378767467e-05   2.543007622540978e-06   -4.561161928240333e-06
-1.3308525378767467e-05   2.543007622540978e-06   -4.561161928240333e-06
-1.7770781600418543e-05   4.0502266029954995e-06   -1.1093924242719573e-05
-1.7770781600418543e-05   4.0502266029954995e-06   -1.1093924242719573e-05
-1.7770781600418543e-05   4.0502266029954995e-06   -1.1093924242719573e-05
-1.7770781600418543e-05   4.0502266029954995e-06   -1.1093924242719573e-05
-1.6786139394989405e-05   2.9179514045972075e-06   -2.7858155013902068e-06
-1.6786139394989405e-05   2.9179514045972075e-06   -2.7858155013902068e-06
-1.6786139394989405e-05   2.9179514045972075e-06   -2.7858155013902068e-06
-1.6786139394989405e-05   2.9179514045972075e-06   -2.7858155013902068e-06
-1.2947065004152953e-05   4.300767881409767e-06   -1.0013962705538532e-05
-1.2947065004152953e-05   4.300767881409767e-06   -1.0013962705538532e-05
-1.2947065004152953e-05   4.300767881409767e-06   -1.0013962705538532e-05
-1.2947065004152953e-05   4.300767881409767e-06   -1.0013962705538532e-05
-1.4697066666155684e-05   3.236974533936182e-06   -6.459017260383227e-06
-1.4697066666155684e-05   3.236974533936182e-06   -6.459017260383227e-06
-1.4697066666155684e-05   3.236974533936182e-06   -6.459017260383227e-06
-1.4697066666155684e-05   3.236974533936182e-06   -6.459017260383227e-06
1.4798616402871863e-05   -1.9372823439116294e-06   -1.7178563908501997e-08
1.4798616402871863e-05   -1.9372823439116294e-06   -1.7178563908501997e-08
1.4798616402871863e-05   -1.9372823439116294e-06   -1.7178563908501997e-08
1.4798616402871863e-05   -1.9372823439116294e-06   -1.7178563908501997e-08
6.290422581992899e-06   -3.4820549807571075e-06   -1.5124365180814014e-05
6.290422581992899e-06   -3.4820549807571075e-06   -1.5124365180814014e-05
6.290422581992899e-06   -3.4820549807571075e-06   -1.5124365180814014e-05
6.290422581992899e-06   -3.4820549807571075e-06   -1.5124365180814014e-05
6.72758134340193e-06   -1.5934947778930642e-06   -1.5729580379866479e-06
6.72758134340193e-06   -1.5934947778930642e-06   -1.5729580379866479e-06
6.72758134340193e-06   -1.5934947778930642e-06   -1.5729580379866479e-06
6.72758134340193e-06   -1.5934947778930642e-06   -1.5729580379866479e-06
1.5903361703823197e-05   -3.2397671591488566e-06   -1.5878161876601952e-05
1.5903361703823197e-05   -3.2397671591488566e-06   -1.5878161876601952e-05
1.5903361703823197e-05   -3.2397671591488566e-06   -1.5878161876601952e-05
1.5903361703823197e-05   -3.2397671591488566e-06   -1.5878161876601952e-05
1.0488418300383621e-05   -2.2988698649862183e-06   -7.417794580700295e-06
1.0488418300383621e-05   -2.2988698649862183e-06   -7.417794580700295e-06
1.0488418300383621e-05   -2.2988698649862183e-06   -7.417794580700295e-06
1.0488418300383621e-05   -2.2988698649862183e-06   -7.417794580700295e-06
1.5903361703823224e-05   -1.5934947778930642e-06   -5.85194609233129e-07
1.5903361703823224e-05   -1.5934947778930642e-06   -5.85194609233129e-07
1.5903361703823224e-05   -1.5934947778930642e-06   -5.85194609233129e-07
1.5903361703823224e-05   -1.5934947778930642e-06   -5.85194609233129e-07
6.727581343401917e-06   -3.2397671591488566e-06   -1.6865925305355417e-05
6.727581343401917e-06   -3.2397671591488566e-06   -1.6865925305355417e-05
6.727581343401917e-06   -3.2397671591488566e-06   -1.6865925305355417e-05
6.727581343401917e-06   -3.2397671591488566e-06   -1.6865925305355417e-05
7.2123215174639636e-06   -1.3628650067254054e-06   -2.257582508328115e-06
7.2123215174639636e-06   -1.3628650067254054e-06   -2.257582508328115e-06
7.2123215174639636e-06   -1.3628650067254054e-06   -2.257582508328115e-06
7.2123215174639636e-06   -1.3628650067254054e-06   -2.257582508328115e-06
1.6829541532685364e-05   -3.0297547169177465e-06   -1.7286148707581714e-05
1.6829541532685364e-05   -3.0297547169177465e-06   -1.7286148707581714e-05
1.6829541532685364e-05   -3.0297547169177465e-06   -1.7286148707581714e-05
1.6829541532685364e-05   -3.0297547169177465e-06   -1.7286148707581714e-05
1.1317878322099324e-05   -2.2052717844878427e-06   -8.594733116063034e-06
1.1317878322099324e-05   -2.2052717844878427e-06   -8.594733116063034e-06
1.1317878322099324e-05   -2.2052717844878427e-06   -8.594733116063034e-06
1.1317878322099324e-05   -2.2052717844878427e-06   -8.594733116063034e-06
1.6829541532685418e-05   -1.3628650067254054e-06   -1.2574486822126453e-06
1.6829541532685418e-05   -1.3628650067254054e-06   -1.2574486822126453e-06
1.6829541532685418e-05   -1.3628650067254054e-06   -1.2574486822126453e-06
1.6829541532685418e-05   -1.3628650067254054e-06   -1.2574486822126453e-06
7.21232151746395e-06   -3.0297547169179633e-06   -1.8286282533697238e-05
7.21232151746395e-06   -3.0297547169179633e-06   -1.8286282533697238e-05
7.21232151746395e-06   -3.0297547169179633e-06   -1.8286282533697238e-05
7.21232151746395e-06   -3.0297547169179633e-06   -1.8286282533697238e-05
7.611541227097677e-06   -7.831339617936665e-07   -3.831819399346265e-06
7.611541227097677e-06   -7.831339617936665e-07   -3.831819399346265e-06
7.611541227097677e-06   -7.831339617936665e-07   -3.831819399346265e-06
7.611541227097677e-06   -7.831339617936665e-07   -3.831819399346265e-06
1.7905205476392573e-05   -2.3676182480413845e-06   -2.0037235909755853e-05
1.7905205476392573e-05   -2.3676182480413845e-06   -2.0037235909755853e-05
1.7905205476392573e-05   -2.3676182480413845e-06   -2.0037235909755853e-05
1.7905205476392573e-05   -2.3676182480413845e-06   -2.0037235909755853e-05
1.1762073515147793e-05   -1.9447865686943264e-06   -1.0052381648623218e-05
1.1762073515147793e-05   -1.9447865686943264e-06   -1.0052381648623218e-05
1.1762073515147793e-05   -1.9447865686943264e-06   -1.0052381648623218e-05
1.1762073515147793e-05   -1.9447865686943264e-06   -1.0052381648623218e-05
6.290422581992899e-06   -7.604001794920146e-07   -1.0154771846914682e-05
6.290422581992899e-06   -7.604001794920146e-07   -1.0154771846914682e-05
6.290422581992899e-06   -7.604001794920146e-07   -1.0154771846914682e-05
6.290422581992899e-06   -7.604001794920146e-07   -1.0154771846914682e-05
-2.6983090763707865e-06   -1.6213833547275638e-06   -2.565258118266214e-05
-2.6983090763707865e-06   -1.6213833547275638e-06   -2.565258118266214e-05
-2.6983090763707865e-06   -1.6213833547275638e-06   -2.565258118266214e-05
-2.6983090763707865e-06   -1.6213833547275638e-06   -2.565258118266214e-05
-2.292614326713778e-06   -2.874956751202718e-07   -1.0365704302044013e-05
-2.292614326713778e-06   -2.874956751202718e-07   -1.0365704302044013e-05
-2.292614326713778e-06   -2.874956751202718e-07   -1.0365704302044013e-05
-2.292614326713778e-06   -2.874956751202718e-07   -1.0365704302044013e-05
6.727581343401917e-06   -1.2819772457713964e-06   -2.4802674809846223e-05
6.727581343401917e-06   -1.2819772457713964e-06   -2.4802674809846223e-05
6.727581343401917e-06   -1.2819772457713964e-06   -2.4802674809846223e-05
6.727581343401917e-06   -1.2819772457713964e-06   -2.4802674809846223e-05
2.0286252686559585e-06   -7.822836982926754e-07   -1.727089748042337e-05
2.0286252686559585e-06   -7.822836982926754e-07   -1.727089748042337e-05
2.0286252686559585e-06   -7.822836982926754e-07   -1.727089748042337e-05
2.0286252686559585e-06   -7.822836982926754e-07   -1.727089748042337e-05
6.727581343401917e-06   -2.874956751202718e-07   -9.769015359653295e-06
6.727581343401917e-06   -2.874956751202718e-07   -9.769015359653295e-06
6.727581343401917e-06   -2.874956751202718e-07   -9.769015359653295e-06
6.727581343401917e-06   -2.874956751202718e-07   -9.769015359653295e-06
-2.292614326713778e-06   -1.2819772457713964e-06   -2.539936375223678e-05
-2.292614326713778e-06   -1.2819772457713964e-06   -2.539936375223678e-05
-2.292614326713778e-06   -1.2819772457713964e-06   -2.539936375223678e-05
-2.292614326713778e-06   -1.2819772457713964e-06   -2.539936375223678e-05
-1.9052975421393267e-06   2.0200155714388164e-07   -1.0501974973030153e-05
-1.9052975421393267e-06   2.0200155714388164e-07   -1.0501974973030153e-05
-1.9052975421393267e-06   2.0200155714388164e-07   -1.0501974973030153e-05
-1.9052975421393267e-06   2.0200155714388164e-07   -1.0501974973030153e-05
7.21232151746395e-06   -8.673680861694989e-07   -2.5056384953047573e-05
7.21232151746395e-06   -8.673680861694989e-07   -2.5056384953047573e-05
7.21232151746395e-06   -8.673680861694989e-07   -2.5056384953047573e-05
7.21232151746395e-06   -8.673680861694989e-07   -2.5056384953047573e-05
2.349164604972882e-06   -4.813875821955971e-07   -1.7182711734613194e-05
2.349164604972882e-06   -4.813875821955971e-07   -1.7182711734613194e-05
2.349164604972882e-06   -4.813875821955971e-07   -1.7182711734613194e-05
2.349164604972882e-06   -4.813875821955971e-07   -1.7182711734613194e-05
7.2123215174639636e-06   2.0200155714388164e-07   -9.860353187042211e-06
7.2123215174639636e-06   2.0200155714388164e-07   -9.860353187042211e-06
7.2123215174639636e-06   2.0200155714388164e-07   -9.860353187042211e-06
7.2123215174639636e-06   2.0200155714388164e-07   -9.860353187042211e-06
-1.9052975421393267e-06   -8.673680861692821e-07   -2.569800673903565e-05
-1.9052975421393267e-06   -8.673680861692821e-07   -2.569800673903565e-05
-1.9052975421393267e-06   -8.673680861692821e-07   -2.569800673903565e-05
-1.9052975421393267e-06   -8.673680861692821e-07   -2.569800673903565e-05
-1.541869755496917e-06   7.824648113127644e-07   -1.0862889846959618e-05
-1.541869755496917e-06   7.824648113127644e-07   -1.0862889846959618e-05
-1.541869755496917e-06   7.824648113127644e-07   -1.0862889846959618e-05
-1.541869755496917e-06   7.824648113127644e-07   -1.0862889846959618e-05
7.611541227097663e-06   -3.4507597923322426e-07   -2.5442050343622965e-05
7.611541227097663e-06   -3.4507597923322426e-07   -2.5442050343622965e-05
7.611541227097663e-06   -3.4507597923322426e-07   -2.5442050343622965e-05
7.611541227097663e-06   -3.4507597923322426e-07   -2.5442050343622965e-05
2.751225427868302e-06   -1.0987944038323705e-07   -1.748264193488438e-05
2.751225427868302e-06   -1.0987944038323705e-07   -1.748264193488438e-05
2.751225427868302e-06   -1.0987944038323705e-07   -1.748264193488438e-05
2.751225427868302e-06   -1.0987944038323705e-07   -1.748264193488438e-05
-2.6983090763707865e-06   5.959031224444947e-07   -1.3089964290471131e-05
-2.6983090763707865e-06   5.959031224444947e-07   -1.3089964290471131e-05
-2.6983090763707865e-06   5.959031224444947e-07   -1.3089964290471131e-05
-2.6983090763707865e-06   5.959031224444947e-07   -1.3089964290471131e-05
-1.1528643424790775e-05   3.134608654016633e-07   -2.7976653558730116e-05
-1.1528643424790775e-05   3.134608654016633e-07   -2.7976653558730116e-05
-1.1528643424790775e-05   3.134608654016633e-07   -2.7976653558730116e-05
-1.1528643424790775e-05   3.134608654016633e-07   -2.7976653558730116e-05
-1.1092110594533536e-05   1.0972530412413145e-06   -1.299390452864208e-05
-1.1092110594533536e-05   1.0972530412413145e-06   -1.299390452864208e-05
-1.1092110594533536e-05   1.0972530412413145e-06   -1.299390452864208e-05
-1.1092110594533536e-05   1.0972530412413145e-06   -1.299390452864208e-05
-2.292614326713778e-06   6.953683005181139e-07   -2.741860079724114e-05
-2.292614326713778e-06   6.953683005181139e-07   -2.741860079724114e-05
-2.292614326713778e-06   6.953683005181139e-07   -2.741860079724114e-05
-2.292614326713778e-06   6.953683005181139e-07   -2.741860079724114e-05
-6.8560287475605e-06   8.177915281123299e-07   -1.988636403238653e-05
-6.8560287475605e-06   8.177915281123299e-07   -1.988636403238653e-05
-6.8560287475605e-06   8.177915281123299e-07   -1.988636403238653e-05
-6.8560287475605e-06   8.177915281123299e-07   -1.988636403238653e-05
-2.292614326713778e-06   1.0972530412413145e-06   -1.2752773684208268e-05
-2.292614326713778e-06   1.0972530412413145e-06   -1.2752773684208268e-05
-2.292614326713778e-06   1.0972530412413145e-06   -1.2752773684208268e-05
-2.292614326713778e-06   1.0972530412413145e-06   -1.2752773684208268e-05
-1.1092110594533536e-05   6.953683005181139e-07   -2.765973164167506e-05
-1.1092110594533536e-05   6.953683005181139e-07   -2.765973164167506e-05
-1.1092110594533536e-05   6.953683005181139e-07   -2.765973164167506e-05
-1.1092110594533536e-05   6.953683005181139e-07   -2.765973164167506e-05
-1.0670822579835011e-05   1.6275852825876165e-06   -1.2974414601625941e-05
-1.0670822579835011e-05   1.6275852825876165e-06   -1.2974414601625941e-05
-1.0670822579835011e-05   1.6275852825876165e-06   -1.2974414601625941e-05
-1.0670822579835011e-05   1.6275852825876165e-06   -1.2974414601625941e-05
-1.9052975421393132e-06   1.1365973841513666e-06   -2.7289030258723684e-05
-1.9052975421393132e-06   1.1365973841513666e-06   -2.7289030258723684e-05
-1.9052975421393132e-06   1.1365973841513666e-06   -2.7289030258723684e-05
-1.9052975421393132e-06   1.1365973841513666e-06   -2.7289030258723684e-05
-6.4809290011437946e-06   1.1755254748146635e-06   -1.9686334681447528e-05
-6.4809290011437946e-06   1.1755254748146635e-06   -1.9686334681447528e-05
-6.4809290011437946e-06   1.1755254748146635e-06   -1.9686334681447528e-05
-6.4809290011437946e-06   1.1755254748146635e-06   -1.9686334681447528e-05
-1.9052975421393132e-06   1.6275852825876165e-06   -1.2679821862564256e-05
-1.9052975421393132e-06   1.6275852825876165e-06   -1.2679821862564256e-05
-1.9052975421393132e-06   1.6275852825876165e-06   -1.2679821862564256e-05
-1.9052975421393132e-06   1.6275852825876165e-06   -1.2679821862564256e-05
-1.0670822579835011e-05   1.1365973841513666e-06   -2.758362299778549e-05
-1.0670822579835011e-05   1.1365973841513666e-06   -2.758362299778549e-05
-1.0670822579835011e-05   1.1365973841513666e-06   -2.758362299778549e-05
-1.0670822579835011e-05   1.1365973841513666e-06   -2.758362299778549e-05
-1.028157165475485e-05   2.1671355472591483e-06   -1.3281721210233106e-05
-1.028157165475485e-05   2.1671355472591483e-06   -1.3281721210233106e-05
-1.028157165475485e-05   2.1671355472591483e-06   -1.3281721210233106e-05
-1.028157165475485e-05   2.1671355472591483e-06   -1.3281721210233106e-05
-1.541869755496917e-06   1.5923984787483917e-06   -2.7503048801223314e-05
-1.541869755496917e-06   1.5923984787483917e-06   -2.7503048801223314e-05
-1.541869755496917e-06   1.5923984787483917e-06   -2.7503048801223314e-05
-1.541869755496917e-06   1.5923984787483917e-06   -2.7503048801223314e-05
-6.1462777213522055e-06   1.5425640777129174e-06   -1.979913488417683e-05
-6.1462777213522055e-06   1.5425640777129174e-06   -1.979913488417683e-05
-6.1462777213522055e-06   1.5425640777129174e-06   -1.979913488417683e-05
-6.1462777213522055e-06   1.5425640777129174e-06   -1.979913488417683e-05
-1.1528643424790798e-05   1.914874635850286e-06   -1.0610644206614467e-05
-1.1528643424790798e-05   1.914874635850286e-06   -1.0610644206614467e-05
-1.1528643424790798e-05   1.914874635850286e-06   -1.0610644206614467e-05
-1.1528643424790798e-05   1.914874635850286e-06   -1.0610644206614467e-05
-2.020601357932717e-05   2.317904540509279e-06   -2.4831109854713007e-05
-2.020601357932717e-05   2.317904540509279e-06   -2.4831109854713007e-05
-2.020601357932717e-05   2.317904540509279e-06   -2.4831109854713007e-05
-2.020601357932717e-05   2.317904540509279e-06   -2.4831109854713007e-05
-1.9679184219830968e-05   2.4500974305476575e-06   -9.960232855857148e-06
-1.9679184219830968e-05   2.4500974305476575e-06   -9.960232855857148e-06
-1.9679184219830968e-05   2.4500974305476575e-06   -9.960232855857148e-06
-1.9679184219830968e-05   2.4500974305476575e-06   -9.960232855857148e-06
-1.1092110594533556e-05   2.8015971692432837e-06   -2.448292207457039e-05
-1.1092110594533556e-05   2.8015971692432837e-06   -2.448292207457039e-05
-1.1092110594533556e-05   2.8015971692432837e-06   -2.448292207457039e-05
-1.1092110594533556e-05   2.8015971692432837e-06   -2.448292207457039e-05
-1.5512536816973702e-05   2.4706704773377886e-06   -1.6916989022026777e-05
-1.5512536816973702e-05   2.4706704773377886e-06   -1.6916989022026777e-05
-1.5512536816973702e-05   2.4706704773377886e-06   -1.6916989022026777e-05
-1.5512536816973702e-05   2.4706704773377886e-06   -1.6916989022026777e-05
-1.1092110594533556e-05   2.450097430547766e-06   -1.0171132699074502e-05
-1.1092110594533556e-05   2.450097430547766e-06   -1.0171132699074502e-05
-1.1092110594533556e-05   2.450097430547766e-06   -1.0171132699074502e-05
-1.1092110594533556e-05   2.450097430547766e-06   -1.0171132699074502e-05
-1.9679184219831002e-05   2.8015971692432837e-06   -2.4272022231352922e-05
-1.9679184219831002e-05   2.8015971692432837e-06   -2.4272022231352922e-05
-1.9679184219831002e-05   2.8015971692432837e-06   -2.4272022231352922e-05
-1.9679184219831002e-05   2.8015971692432837e-06   -2.4272022231352922e-05
-1.9094743488389124e-05   2.93166025981922e-06   -9.598200764460922e-06
-1.9094743488389124e-05   2.93166025981922e-06   -9.598200764460922e-06
-1.9094743488389124e-05   2.93166025981922e-06   -9.598200764460922e-06
-1.9094743488389124e-05   2.93166025981922e-06   -9.598200764460922e-06
-1.0670822579835032e-05   3.2179573483904697e-06   -2.3809847198527147e-05
-1.0670822579835032e-05   3.2179573483904697e-06   -2.3809847198527147e-05
-1.0670822579835032e-05   3.2179573483904697e-06   -2.3809847198527147e-05
-1.0670822579835032e-05   3.2179573483904697e-06   -2.3809847198527147e-05
-1.4978138462994311e-05   2.8480760727307534e-06   -1.6409058627865852e-05
-1.4978138462994311e-05   2.8480760727307534e-06   -1.6409058627865852e-05
-1.4978138462994311e-05   2.8480760727307534e-06   -1.6409058627865852e-05
-1.4978138462994311e-05   2.8480760727307534e-06   -1.6409058627865852e-05
-1.0670822579835021e-05   2.93166025981922e-06   -9.769979017603607e-06
-1.0670822579835021e-05   2.93166025981922e-06   -9.769979017603607e-06
-1.0670822579835021e-05   2.93166025981922e-06   -9.769979017603607e-06
-1.0670822579835021e-05   2.93166025981922e-06   -9.769979017603607e-06
-1.9094743488389124e-05   3.2179573483906865e-06   -2.363806894538432e-05
-1.9094743488389124e-05   3.2179573483906865e-06   -2.363806894538432e-05
-1.9094743488389124e-05   3.2179573483906865e-06   -2.363806894538432e-05
-1.9094743488389124e-05   3.2179573483906865e-06   -2.363806894538432e-05
-1.860128108416862e-05   3.4692738953485437e-06   -9.820702487631987e-06
-1.860128108416862e-05   3.4692738953485437e-06   -9.820702487631987e-06
-1.860128108416862e-05   3.4692738953485437e-06   -9.820702487631987e-06
-1.860128108416862e-05   3.4692738953485437e-06   -9.820702487631987e-06
-1.028157165475487e-05   3.6775510998449026e-06   -2.3811851192685983e-05
-1.028157165475487e-05   3.6775510998449026e-06   -2.3811851192685983e-05
-1.028157165475487e-05   3.6775510998449026e-06   -2.3811851192685983e-05
-1.028157165475487e-05   3.6775510998449026e-06   -2.3811851192685983e-05
-1.4649409910142606e-05   3.195303291839667e-06   -1.6242772082236765e-05
-1.4649409910142606e-05   3.195303291839667e-06   -1.6242772082236765e-05
-1.4649409910142606e-05   3.195303291839667e-06   -1.6242772082236765e-05
-1.4649409910142606e-05   3.195303291839667e-06   -1.6242772082236765e-05
-2.020601357932717e-05   3.2938211325813337e-06   -5.307456747611597e-06
-2.020601357932717e-05   3.2938211325813337e-06   -5.307456747611597e-06
-2.020601357932717e-05   3.2938211325813337e-06   -5.307456747611597e-06
-2.020601357932717e-05   3.2938211325813337e-06   -5.307456747611597e-06
-2.9360561495925327e-05   4.540732943190224e-06   -1.9816889522243273e-05
-2.9360561495925327e-05   4.540732943190224e-06   -1.9816889522243273e-05
-2.9360561495925327e-05   4.540732943190224e-06   -1.9816889522243273e-05
-2.9360561495925327e-05   4.540732943190224e-06   -1.9816889522243273e-05
-2.8140155637636437e-05   3.850459824509861e-06   -1.6284861276661625e-06
-2.8140155637636437e-05   3.850459824509861e-06   -1.6284861276661625e-06
-2.8140155637636437e-05   3.850459824509861e-06   -1.6284861276661625e-06
-2.8140155637636437e-05   3.850459824509861e-06   -1.6284861276661625e-06
-1.9679184219830968e-05   5.183596653413275e-06   -1.6529987254683936e-05
-1.9679184219830968e-05   5.183596653413275e-06   -1.6529987254683936e-05
-1.9679184219830968e-05   5.183596653413275e-06   -1.6529987254683936e-05
-1.9679184219830968e-05   5.183596653413275e-06   -1.6529987254683936e-05
-2.3340559068752152e-05   4.325378384806896e-06   -9.912764878651351e-06
-2.3340559068752152e-05   4.325378384806896e-06   -9.912764878651351e-06
-2.3340559068752152e-05   4.325378384806896e-06   -9.912764878651351e-06
-2.3340559068752152e-05   4.325378384806896e-06   -9.912764878651351e-06
-1.9679184219830985e-05   3.850459824509861e-06   -2.4283682250080593e-06
-1.9679184219830985e-05   3.850459824509861e-06   -2.4283682250080593e-06
-1.9679184219830985e-05   3.850459824509861e-06   -2.4283682250080593e-06
-1.9679184219830985e-05   3.850459824509861e-06   -2.4283682250080593e-06
-2.814015563763639e-05   5.183596653413275e-06   -1.573010515734186e-05
-2.814015563763639e-05   5.183596653413275e-06   -1.573010515734186e-05
-2.814015563763639e-05   5.183596653413275e-06   -1.573010515734186e-05
-2.814015563763639e-05   5.183596653413275e-06   -1.573010515734186e-05
-2.7136101965831177e-05   4.0502266029954995e-06   -8.707742174432313e-08
-2.7136101965831177e-05   4.0502266029954995e-06   -8.707742174432313e-08
-2.7136101965831177e-05   4.0502266029954995e-06   -8.707742174432313e-08
-2.7136101965831177e-05   4.0502266029954995e-06   -8.707742174432313e-08
-1.9094743488389124e-05   5.353274981621933e-06   -1.4271170577990083e-05
-1.9094743488389124e-05   5.353274981621933e-06   -1.4271170577990083e-05
-1.9094743488389124e-05   5.353274981621933e-06   -1.4271170577990083e-05
-1.9094743488389124e-05   5.353274981621933e-06   -1.4271170577990083e-05
-2.293312560895655e-05   4.583314761265507e-06   -7.4118909114970015e-06
-2.293312560895655e-05   4.583314761265507e-06   -7.4118909114970015e-06
-2.293312560895655e-05   4.583314761265507e-06   -7.4118909114970015e-06
-2.293312560895655e-05   4.583314761265507e-06   -7.4118909114970015e-06
-1.9094743488389124e-05   4.0502266029954995e-06   -8.689064489200531e-07
-1.9094743488389124e-05   4.0502266029954995e-06   -8.689064489200531e-07
-1.9094743488389124e-05   4.0502266029954995e-06   -8.689064489200531e-07
-1.9094743488389124e-05   4.0502266029954995e-06   -8.689064489200531e-07
-2.7136101965831082e-05   5.353274981621716e-06   -1.3489341550814425e-05
-2.7136101965831082e-05   5.353274981621716e-06   -1.3489341550814425e-05
-2.7136101965831082e-05   5.353274981621716e-06   -1.3489341550814425e-05
-2.7136101965831082e-05   5.353274981621716e-06   -1.3489341550814425e-05
-2.6050277108831774e-05   4.300767881409767e-06   1.876627710675695e-06
-2.6050277108831774e-05   4.300767881409767e-06   1.876627710675695e-06
-2.6050277108831774e-05   4.300767881409767e-06   1.876627710675695e-06
-2.6050277108831774e-05   4.300767881409767e-06   1.876627710675695e-06
-1.860128108416862e-05   5.496301495627742e-06   -1.1255685832293717e-05
-1.860128108416862e-05   5.496301495627742e-06   -1.1255685832293717e-05
-1.860128108416862e-05   5.496301495627742e-06   -1.1255685832293717e-05
-1.860128108416862e-05   5.496301495627742e-06   -1.1255685832293717e-05
-2.1910653662480384e-05   4.62495171928189e-06   -5.217255002633444e-06
-2.1910653662480384e-05   4.62495171928189e-06   -5.217255002633444e-06
-2.1910653662480384e-05   4.62495171928189e-06   -5.217255002633444e-06
-2.1910653662480384e-05   4.62495171928189e-06   -5.217255002633444e-06
2.5010240730288737e-05   -3.4820549807571075e-06   5.051363344616387e-06
2.5010240730288737e-05   -3.4820549807571075e-06   5.051363344616387e-06
2.5010240730288737e-05   -3.4820549807571075e-06   5.051363344616387e-06
2.5010240730288737e-05   -3.4820549807571075e-06   5.051363344616387e-06
1.2032009483012434e-05   -5.141849713694328e-06   -1.757489890727307e-05
1.2032009483012434e-05   -5.141849713694328e-06   -1.757489890727307e-05
1.2032009483012434e-05   -5.141849713694328e-06   -1.757489890727307e-05
1.2032009483012434e-05   -5.141849713694328e-06   -1.757489890727307e-05
1.2515917822068047e-05   -3.2397671591490734e-06   2.484884797566674e-06
1.2515917822068047e-05   -3.2397671591490734e-06   2.484884797566674e-06
1.2515917822068047e-05   -3.2397671591490734e-06   2.484884797566674e-06
1.2515917822068047e-05   -3.2397671591490734e-06   2.484884797566674e-06
2.6141892325086115e-05   -5.023424752719809e-06   -1.9154878151320906e-05
2.6141892325086115e-05   -5.023424752719809e-06   -1.9154878151320906e-05
2.6141892325086115e-05   -5.023424752719809e-06   -1.9154878151320906e-05
2.6141892325086115e-05   -5.023424752719809e-06   -1.9154878151320906e-05
1.8154605433653924e-05   -3.8094380743710667e-06   -6.5711253392766115e-06
1.8154605433653924e-05   -3.8094380743710667e-06   -6.5711253392766115e-06
1.8154605433653924e-05   -3.8094380743710667e-06   -6.5711253392766115e-06
1.8154605433653924e-05   -3.8094380743710667e-06   -6.5711253392766115e-06
2.6141892325086142e-05   -3.2397671591490734e-06   3.5550793537092885e-06
2.6141892325086142e-05   -3.2397671591490734e-06   3.5550793537092885e-06
2.6141892325086142e-05   -3.2397671591490734e-06   3.5550793537092885e-06
2.6141892325086142e-05   -3.2397671591490734e-06   3.5550793537092885e-06
1.251591782206802e-05   -5.023424752719809e-06   -2.022507270746344e-05
1.251591782206802e-05   -5.023424752719809e-06   -2.022507270746344e-05
1.251591782206802e-05   -5.023424752719809e-06   -2.022507270746344e-05
1.251591782206802e-05   -5.023424752719809e-06   -2.022507270746344e-05
1.2997525395633342e-05   -3.0297547169179633e-06   1.2253856256894645e-06
1.2997525395633342e-05   -3.0297547169179633e-06   1.2253856256894645e-06
1.2997525395633342e-05   -3.0297547169179633e-06   1.2253856256894645e-06
1.2997525395633342e-05   -3.0297547169179633e-06   1.2253856256894645e-06
2.7009261539218137e-05   -4.848468339658076e-06   -2.1036279773307704e-05
2.7009261539218137e-05   -4.848468339658076e-06   -2.1036279773307704e-05
2.7009261539218137e-05   -4.848468339658076e-06   -2.1036279773307704e-05
2.7009261539218137e-05   -4.848468339658076e-06   -2.1036279773307704e-05
1.9109025744415425e-05   -3.796497055982666e-06   -8.500402885508636e-06
1.9109025744415425e-05   -3.796497055982666e-06   -8.500402885508636e-06
1.9109025744415425e-05   -3.796497055982666e-06   -8.500402885508636e-06
1.9109025744415425e-05   -3.796497055982666e-06   -8.500402885508636e-06
2.7009261539218137e-05   -3.0297547169179633e-06   2.3166137993335537e-06
2.7009261539218137e-05   -3.0297547169179633e-06   2.3166137993335537e-06
2.7009261539218137e-05   -3.0297547169179633e-06   2.3166137993335537e-06
2.7009261539218137e-05   -3.0297547169179633e-06   2.3166137993335537e-06
1.2997525395633342e-05   -4.848468339658076e-06   -2.21275079469519e-05
1.2997525395633342e-05   -4.848468339658076e-06   -2.21275079469519e-05
1.2997525395633342e-05   -4.848468339658076e-06   -2.21275079469519e-05
1.2997525395633342e-05   -4.848468339658076e-06   -2.21275079469519e-05
1.3323220385335125e-05   -2.3676182480413845e-06   -1.304963307380302e-06
1.3323220385335125e-05   -2.3676182480413845e-06   -1.304963307380302e-06
1.3323220385335125e-05   -2.3676182480413845e-06   -1.304963307380302e-06
1.3323220385335125e-05   -2.3676182480413845e-06   -1.304963307380302e-06
2.792691359414263e-05   -4.168078082010616e-06   -2.4564176088344756e-05
2.792691359414263e-05   -4.168078082010616e-06   -2.4564176088344756e-05
2.792691359414263e-05   -4.168078082010616e-06   -2.4564176088344756e-05
2.792691359414263e-05   -4.168078082010616e-06   -2.4564176088344756e-05
1.9369550980496203e-05   -3.503639677573901e-06   -1.070056810826295e-05
1.9369550980496203e-05   -3.503639677573901e-06   -1.070056810826295e-05
1.9369550980496203e-05   -3.503639677573901e-06   -1.070056810826295e-05
1.9369550980496203e-05   -3.503639677573901e-06   -1.070056810826295e-05
1.2032009483012448e-05   -1.6213833547275638e-06   -5.9561395918527205e-06
1.2032009483012448e-05   -1.6213833547275638e-06   -5.9561395918527205e-06
1.2032009483012448e-05   -1.6213833547275638e-06   -5.9561395918527205e-06
1.2032009483012448e-05   -1.6213833547275638e-06   -5.9561395918527205e-06
-7.653555919761359e-07   -3.3098639934745887e-06   -2.829816976674857e-05
-7.653555919761359e-07   -3.3098639934745887e-06   -2.829816976674857e-05
-7.653555919761359e-07   -3.3098639934745887e-06   -2.829816976674857e-05
-7.653555919761359e-07   -3.3098639934745887e-06   -2.829816976674857e-05
-2.6943678518081215e-07   -1.2819772457711796e-06   -6.57166234247831e-06
-2.6943678518081215e-07   -1.2819772457711796e-06   -6.57166234247831e-06
-2.6943678518081215e-07   -1.2819772457711796e-06   -6.57166234247831e-06
-2.6943678518081215e-07   -1.2819772457711796e-06   -6.57166234247831e-06
1.2515917822068047e-05   -3.148306638361964e-06   -2.6760789052338735e-05
1.2515917822068047e-05   -3.148306638361964e-06   -2.6760789052338735e-05
1.2515917822068047e-05   -3.148306638361964e-06   -2.6760789052338735e-05
1.2515917822068047e-05   -3.148306638361964e-06   -2.6760789052338735e-05
5.895275484056211e-06   -2.0034746344940214e-06   -1.6413284357972993e-05
5.895275484056211e-06   -2.0034746344940214e-06   -1.6413284357972993e-05
5.895275484056211e-06   -2.0034746344940214e-06   -1.6413284357972993e-05
5.895275484056211e-06   -2.0034746344940214e-06   -1.6413284357972993e-05
1.2515917822068033e-05   -1.2819772457711796e-06   -5.45186470692397e-06
1.2515917822068033e-05   -1.2819772457711796e-06   -5.45186470692397e-06
1.2515917822068033e-05   -1.2819772457711796e-06   -5.45186470692397e-06
1.2515917822068033e-05   -1.2819772457711796e-06   -5.45186470692397e-06
-2.6943678518081215e-07   -3.148306638361964e-06   -2.788058668789313e-05
-2.6943678518081215e-07   -3.148306638361964e-06   -2.788058668789313e-05
-2.6943678518081215e-07   -3.148306638361964e-06   -2.788058668789313e-05
-2.6943678518081215e-07   -3.148306638361964e-06   -2.788058668789313e-05
1.6729774729528463e-07   -8.673680861692821e-07   -6.734174555976546e-06
1.6729774729528463e-07   -8.673680861692821e-07   -6.734174555976546e-06
1.6729774729528463e-07   -8.673680861692821e-07   -6.734174555976546e-06
1.6729774729528463e-07   -8.673680861692821e-07   -6.734174555976546e-06
1.2997525395633342e-05   -2.849797690028695e-06   -2.6928429540891012e-05
1.2997525395633342e-05   -2.849797690028695e-06   -2.6928429540891012e-05
1.2997525395633342e-05   -2.849797690028695e-06   -2.6928429540891012e-05
1.2997525395633342e-05   -2.849797690028695e-06   -2.6928429540891012e-05
6.230918794279448e-06   -1.8357947890635003e-06   -1.6259153612546695e-05
6.230918794279448e-06   -1.8357947890635003e-06   -1.6259153612546695e-05
6.230918794279448e-06   -1.8357947890635003e-06   -1.6259153612546695e-05
6.230918794279448e-06   -1.8357947890635003e-06   -1.6259153612546695e-05
1.2997525395633342e-05   -8.673680861692821e-07   -5.544716793660898e-06
1.2997525395633342e-05   -8.673680861692821e-07   -5.544716793660898e-06
1.2997525395633342e-05   -8.673680861692821e-07   -5.544716793660898e-06
1.2997525395633342e-05   -8.673680861692821e-07   -5.544716793660898e-06
1.6729774729528463e-07   -2.849797690028695e-06   -2.811788730320674e-05
1.6729774729528463e-07   -2.849797690028695e-06   -2.811788730320674e-05
1.6729774729528463e-07   -2.849797690028695e-06   -2.811788730320674e-05
1.6729774729528463e-07   -2.849797690028695e-06   -2.811788730320674e-05
4.775453986929126e-07   -3.4507597923322426e-07   -7.006987698612616e-06
4.775453986929126e-07   -3.4507597923322426e-07   -7.006987698612616e-06
4.775453986929126e-07   -3.4507597923322426e-07   -7.006987698612616e-06
4.775453986929126e-07   -3.4507597923322426e-07   -7.006987698612616e-06
1.3323220385335165e-05   -2.4249101944228725e-06   -2.7168545480569346e-05
1.3323220385335165e-05   -2.4249101944228725e-06   -2.7168545480569346e-05
1.3323220385335165e-05   -2.4249101944228725e-06   -2.7168545480569346e-05
1.3323220385335165e-05   -2.4249101944228725e-06   -2.7168545480569346e-05
6.635638982552254e-06   -1.541735524020248e-06   -1.6552481278172995e-05
6.635638982552254e-06   -1.541735524020248e-06   -1.6552481278172995e-05
6.635638982552254e-06   -1.541735524020248e-06   -1.6552481278172995e-05
6.635638982552254e-06   -1.541735524020248e-06   -1.6552481278172995e-05
-7.653555919761359e-07   3.1346086540144646e-07   -9.123834996943212e-06
-7.653555919761359e-07   3.1346086540144646e-07   -9.123834996943212e-06
-7.653555919761359e-07   3.1346086540144646e-07   -9.123834996943212e-06
-7.653555919761359e-07   3.1346086540144646e-07   -9.123834996943212e-06
-1.337378200369209e-05   -1.7034830564360316e-06   -3.134804536957241e-05
-1.337378200369209e-05   -1.7034830564360316e-06   -3.134804536957241e-05
-1.337378200369209e-05   -1.7034830564360316e-06   -3.134804536957241e-05
-1.337378200369209e-05   -1.7034830564360316e-06   -3.134804536957241e-05
-1.2778471816775596e-05   6.953683005183307e-07   -9.915414611400648e-06
-1.2778471816775596e-05   6.953683005183307e-07   -9.915414611400648e-06
-1.2778471816775596e-05   6.953683005183307e-07   -9.915414611400648e-06
-1.2778471816775596e-05   6.953683005183307e-07   -9.915414611400648e-06
-2.6943678518081215e-07   -1.5121570726781691e-06   -2.9439291106807348e-05
-2.6943678518081215e-07   -1.5121570726781691e-06   -2.9439291106807348e-05
-2.6943678518081215e-07   -1.5121570726781691e-06   -2.9439291106807348e-05
-2.6943678518081215e-07   -1.5121570726781691e-06   -2.9439291106807348e-05
-6.717313576184079e-06   -3.069021185094986e-07   -1.9415982760969774e-05
-6.717313576184079e-06   -3.069021185094986e-07   -1.9415982760969774e-05
-6.717313576184079e-06   -3.069021185094986e-07   -1.9415982760969774e-05
-6.717313576184079e-06   -3.069021185094986e-07   -1.9415982760969774e-05
-2.6943678518081215e-07   6.953683005181139e-07   -8.590899387482835e-06
-2.6943678518081215e-07   6.953683005181139e-07   -8.590899387482835e-06
-2.6943678518081215e-07   6.953683005181139e-07   -8.590899387482835e-06
-2.6943678518081215e-07   6.953683005181139e-07   -8.590899387482835e-06
-1.2778471816775596e-05   -1.512157072678386e-06   -3.076380633072523e-05
-1.2778471816775596e-05   -1.512157072678386e-06   -3.076380633072523e-05
-1.2778471816775596e-05   -1.512157072678386e-06   -3.076380633072523e-05
-1.2778471816775596e-05   -1.512157072678386e-06   -3.076380633072523e-05
-1.2232341582292346e-05   1.1365973841513666e-06   -9.737706892235399e-06
-1.2232341582292346e-05   1.1365973841513666e-06   -9.737706892235399e-06
-1.2232341582292346e-05   1.1365973841513666e-06   -9.737706892235399e-06
-1.2232341582292346e-05   1.1365973841513666e-06   -9.737706892235399e-06
1.6729774729528463e-07   -1.2175839768000483e-06   -2.8991263624977392e-05
1.6729774729528463e-07   -1.2175839768000483e-06   -2.8991263624977392e-05
1.6729774729528463e-07   -1.2175839768000483e-06   -2.8991263624977392e-05
1.6729774729528463e-07   -1.2175839768000483e-06   -2.8991263624977392e-05
-6.233114116543942e-06   -8.906526493862761e-08   -1.9001021745695403e-05
-6.233114116543942e-06   -8.906526493862761e-08   -1.9001021745695403e-05
-6.233114116543942e-06   -8.906526493862761e-08   -1.9001021745695403e-05
-6.233114116543942e-06   -8.906526493862761e-08   -1.9001021745695403e-05
1.6729774729528463e-07   1.1365973841513666e-06   -8.325198075664593e-06
1.6729774729528463e-07   1.1365973841513666e-06   -8.325198075664593e-06
1.6729774729528463e-07   1.1365973841513666e-06   -8.325198075664593e-06
1.6729774729528463e-07   1.1365973841513666e-06   -8.325198075664593e-06
-1.223234158229236e-05   -1.2175839767998315e-06   -3.0403772441548252e-05
-1.223234158229236e-05   -1.2175839767998315e-06   -3.0403772441548252e-05
-1.223234158229236e-05   -1.2175839767998315e-06   -3.0403772441548252e-05
-1.223234158229236e-05   -1.2175839767998315e-06   -3.0403772441548252e-05
-1.1864387947455953e-05   1.5923984787486085e-06   -9.909569032409845e-06
-1.1864387947455953e-05   1.5923984787486085e-06   -9.909569032409845e-06
-1.1864387947455953e-05   1.5923984787486085e-06   -9.909569032409845e-06
-1.1864387947455953e-05   1.5923984787486085e-06   -9.909569032409845e-06
4.775453986929261e-07   -9.37780438792701e-07   -2.896135059213342e-05
4.775453986929261e-07   -9.37780438792701e-07   -2.896135059213342e-05
4.775453986929261e-07   -9.37780438792701e-07   -2.896135059213342e-05
4.775453986929261e-07   -9.37780438792701e-07   -2.896135059213342e-05
-5.888476653766575e-06   1.5510978329026127e-07   -1.9007047971284256e-05
-5.888476653766575e-06   1.5510978329026127e-07   -1.9007047971284256e-05
-5.888476653766575e-06   1.5510978329026127e-07   -1.9007047971284256e-05
-5.888476653766575e-06   1.5510978329026127e-07   -1.9007047971284256e-05
-1.3373782003692069e-05   2.317904540509279e-06   -7.4302755888238986e-06
-1.3373782003692069e-05   2.317904540509279e-06   -7.4302755888238986e-06
-1.3373782003692069e-05   2.317904540509279e-06   -7.4302755888238986e-06
-1.3373782003692069e-05   2.317904540509279e-06   -7.4302755888238986e-06
-2.6162575416369756e-05   5.064120298548403e-07   -2.9831826783012732e-05
-2.6162575416369756e-05   5.064120298548403e-07   -2.9831826783012732e-05
-2.6162575416369756e-05   5.064120298548403e-07   -2.9831826783012732e-05
-2.6162575416369756e-05   5.064120298548403e-07   -2.9831826783012732e-05
-2.531471766794234e-05   2.8015971692435006e-06   -7.906199813222949e-06
-2.531471766794234e-05   2.8015971692435006e-06   -7.906199813222949e-06
-2.531471766794234e-05   2.8015971692435006e-06   -7.906199813222949e-06
-2.531471766794234e-05   2.8015971692435006e-06   -7.906199813222949e-06
-1.2778471816775576e-05   8.556058876982124e-07   -2.763234812957372e-05
-1.2778471816775576e-05   8.556058876982124e-07   -2.763234812957372e-05
-1.2778471816775576e-05   8.556058876982124e-07   -2.763234812957372e-05
-1.2778471816775576e-05   8.556058876982124e-07   -2.763234812957372e-05
-1.920772456586054e-05   1.7839104735530974e-06   -1.74739096326118e-05
-1.920772456586054e-05   1.7839104735530974e-06   -1.74739096326118e-05
-1.920772456586054e-05   1.7839104735530974e-06   -1.74739096326118e-05
-1.920772456586054e-05   1.7839104735530974e-06   -1.74739096326118e-05
-1.2778471816775576e-05   2.8015971692435006e-06   -6.7386050442957545e-06
-1.2778471816775576e-05   2.8015971692435006e-06   -6.7386050442957545e-06
-1.2778471816775576e-05   2.8015971692435006e-06   -6.7386050442957545e-06
-1.2778471816775576e-05   2.8015971692435006e-06   -6.7386050442957545e-06
-2.5314717667942382e-05   8.556058876982124e-07   -2.8799942898500956e-05
-2.5314717667942382e-05   8.556058876982124e-07   -2.8799942898500956e-05
-2.5314717667942382e-05   8.556058876982124e-07   -2.8799942898500956e-05
-2.5314717667942382e-05   8.556058876982124e-07   -2.8799942898500956e-05
-2.4493553600560912e-05   3.2179573483906865e-06   -7.188756087804114e-06
-2.4493553600560912e-05   3.2179573483906865e-06   -7.188756087804114e-06
-2.4493553600560912e-05   3.2179573483906865e-06   -7.188756087804114e-06
-2.4493553600560912e-05   3.2179573483906865e-06   -7.188756087804114e-06
-1.223234158229236e-05   1.1765823570123075e-06   -2.6399284456758105e-05
-1.223234158229236e-05   1.1765823570123075e-06   -2.6399284456758105e-05
-1.223234158229236e-05   1.1765823570123075e-06   -2.6399284456758105e-05
-1.223234158229236e-05   1.1765823570123075e-06   -2.6399284456758105e-05
-1.843914777182954e-05   2.0878043424526777e-06   -1.660134066546029e-05
-1.843914777182954e-05   2.0878043424526777e-06   -1.660134066546029e-05
-1.843914777182954e-05   2.0878043424526777e-06   -1.660134066546029e-05
-1.843914777182954e-05   2.0878043424526777e-06   -1.660134066546029e-05
-1.2232341582292329e-05   3.2179573483906865e-06   -5.9639310929770215e-06
-1.2232341582292329e-05   3.2179573483906865e-06   -5.9639310929770215e-06
-1.2232341582292329e-05   3.2179573483906865e-06   -5.9639310929770215e-06
-1.2232341582292329e-05   3.2179573483906865e-06   -5.9639310929770215e-06
-2.4493553600560952e-05   1.1765823570123075e-06   -2.762410945158513e-05
-2.4493553600560952e-05   1.1765823570123075e-06   -2.762410945158513e-05
-2.4493553600560952e-05   1.1765823570123075e-06   -2.762410945158513e-05
-2.4493553600560952e-05   1.1765823570123075e-06   -2.762410945158513e-05
-2.3872889086637453e-05   3.6775510998446857e-06   -7.211818235122584e-06
-2.3872889086637453e-05   3.6775510998446857e-06   -7.211818235122584e-06
-2.3872889086637453e-05   3.6775510998446857e-06   -7.211818235122584e-06
-2.3872889086637453e-05   3.6775510998446857e-06   -7.211818235122584e-06
-1.1864387947455976e-05   1.4470693459175867e-06   -2.5887697748068638e-05
-1.1864387947455976e-05   1.4470693459175867e-06   -2.5887697748068638e-05
-1.1864387947455976e-05   1.4470693459175867e-06   -2.5887697748068638e-05
-1.1864387947455976e-05   1.4470693459175867e-06   -2.5887697748068638e-05
-1.8013867673035497e-05   2.300215879470118e-06   -1.6150452792234248e-05
-1.8013867673035497e-05   2.300215879470118e-06   -1.6150452792234248e-05
-1.8013867673035497e-05   2.300215879470118e-06   -1.6150452792234248e-05
-1.8013867673035497e-05   2.300215879470118e-06   -1.6150452792234248e-05
-2.6162575416369756e-05   4.540732943190224e-06   -4.251097849112314e-06
-2.6162575416369756e-05   4.540732943190224e-06   -4.251097849112314e-06
-2.6162575416369756e-05   4.540732943190224e-06   -4.251097849112314e-06
-2.6162575416369756e-05   4.540732943190224e-06   -4.251097849112314e-06
-3.953746442957043e-05   4.301178693340464e-06   -2.668631208769005e-05
-3.953746442957043e-05   4.301178693340464e-06   -2.668631208769005e-05
-3.953746442957043e-05   4.301178693340464e-06   -2.668631208769005e-05
-3.953746442957043e-05   4.301178693340464e-06   -2.668631208769005e-05
-3.785250395860029e-05   5.183596653413275e-06   -1.914400612177975e-08
-3.785250395860029e-05   5.183596653413275e-06   -1.914400612177975e-08
-3.785250395860029e-05   5.183596653413275e-06   -1.914400612177975e-08
-3.785250395860029e-05   5.183596653413275e-06   -1.914400612177975e-08
-2.5314717667942294e-05   5.425298037467193e-06   -2.1060475320984092e-05
-2.5314717667942294e-05   5.425298037467193e-06   -2.1060475320984092e-05
-2.5314717667942294e-05   5.425298037467193e-06   -2.1060475320984092e-05
-2.5314717667942294e-05   5.425298037467193e-06   -2.1060475320984092e-05
-3.082822589835901e-05   5.112921364332744e-06   -1.1683868933075629e-05
-3.082822589835901e-05   5.112921364332744e-06   -1.1683868933075629e-05
-3.082822589835901e-05   5.112921364332744e-06   -1.1683868933075629e-05
-3.082822589835901e-05   5.112921364332744e-06   -1.1683868933075629e-05
-2.5314717667942362e-05   5.183596653413275e-06   -1.6416483655400018e-07
-2.5314717667942362e-05   5.183596653413275e-06   -1.6416483655400018e-07
-2.5314717667942362e-05   5.183596653413275e-06   -1.6416483655400018e-07
-2.5314717667942362e-05   5.183596653413275e-06   -1.6416483655400018e-07
-3.785250395860029e-05   5.425298037467193e-06   -2.0915454490551787e-05
-3.785250395860029e-05   5.425298037467193e-06   -2.0915454490551787e-05
-3.785250395860029e-05   5.425298037467193e-06   -2.0915454490551787e-05
-3.785250395860029e-05   5.425298037467193e-06   -2.0915454490551787e-05
-3.645687526893058e-05   5.353274981621716e-06   2.373472095073279e-06
-3.645687526893058e-05   5.353274981621716e-06   2.373472095073279e-06
-3.645687526893058e-05   5.353274981621716e-06   2.373472095073279e-06
-3.645687526893058e-05   5.353274981621716e-06   2.373472095073279e-06
-2.4493553600560912e-05   5.678824674093617e-06   -1.7760727167692698e-05
-2.4493553600560912e-05   5.678824674093617e-06   -1.7760727167692698e-05
-2.4493553600560912e-05   5.678824674093617e-06   -1.7760727167692698e-05
-2.4493553600560912e-05   5.678824674093617e-06   -1.7760727167692698e-05
-3.020147251438018e-05   5.482233388161891e-06   -8.129574206434357e-06
-3.020147251438018e-05   5.482233388161891e-06   -8.129574206434357e-06
-3.020147251438018e-05   5.482233388161891e-06   -8.129574206434357e-06
-3.020147251438018e-05   5.482233388161891e-06   -8.129574206434357e-06
-2.4493553600560952e-05   5.353274981621933e-06   2.17814227959016e-06
-2.4493553600560952e-05   5.353274981621933e-06   2.17814227959016e-06
-2.4493553600560952e-05   5.353274981621933e-06   2.17814227959016e-06
-2.4493553600560952e-05   5.353274981621933e-06   2.17814227959016e-06
-3.645687526893052e-05   5.6788246740938336e-06   -1.7565397352209498e-05
-3.645687526893052e-05   5.6788246740938336e-06   -1.7565397352209498e-05
-3.645687526893052e-05   5.6788246740938336e-06   -1.7565397352209498e-05
-3.645687526893052e-05   5.6788246740938336e-06   -1.7565397352209498e-05
-3.499526661334235e-05   5.496301495627742e-06   5.586605060878594e-06
-3.499526661334235e-05   5.496301495627742e-06   5.586605060878594e-06
-3.499526661334235e-05   5.496301495627742e-06   5.586605060878594e-06
-3.499526661334235e-05   5.496301495627742e-06   5.586605060878594e-06
-2.3872889086637453e-05   6.108341926138556e-06   -1.331791507526952e-05
-2.3872889086637453e-05   6.108341926138556e-06   -1.331791507526952e-05
-2.3872889086637453e-05   6.108341926138556e-06   -1.331791507526952e-05
-2.3872889086637453e-05   6.108341926138556e-06   -1.331791507526952e-05
-2.878637224443215e-05   5.603957604921649e-06   -4.826145886215093e-06
-2.878637224443215e-05   5.603957604921649e-06   -4.826145886215093e-06
-2.878637224443215e-05   5.603957604921649e-06   -4.826145886215093e-06
-2.878637224443215e-05   5.603957604921649e-06   -4.826145886215093e-06
3.430243414248936e-05   -5.141849713694328e-06   1.177562014504838e-05
3.430243414248936e-05   -5.141849713694328e-06   1.177562014504838e-05
3.430243414248936e-05   -5.141849713694328e-06   1.177562014504838e-05
3.430243414248936e-05   -5.141849713694328e-06   1.177562014504838e-05
1.7220216278072587e-05   -6.491726638845844e-06   -1.7504669117403846e-05
1.7220216278072587e-05   -6.491726638845844e-06   -1.7504669117403846e-05
1.7220216278072587e-05   -6.491726638845844e-06   -1.7504669117403846e-05
1.7220216278072587e-05   -6.491726638845844e-06   -1.7504669117403846e-05
1.7633563418209425e-05   -5.023424752719809e-06   8.464695300051278e-06
1.7633563418209425e-05   -5.023424752719809e-06   8.464695300051278e-06
1.7633563418209425e-05   -5.023424752719809e-06   8.464695300051278e-06
1.7633563418209425e-05   -5.023424752719809e-06   8.464695300051278e-06
3.514762333178153e-05   -6.654199720367666e-06   -1.9746939575313505e-05
3.514762333178153e-05   -6.654199720367666e-06   -1.9746939575313505e-05
3.514762333178153e-05   -6.654199720367666e-06   -1.9746939575313505e-05
3.514762333178153e-05   -6.654199720367666e-06   -1.9746939575313505e-05
2.503565330995406e-05   -5.251892741828766e-06   -3.7350403927244205e-06
2.503565330995406e-05   -5.251892741828766e-06   -3.7350403927244205e-06
2.503565330995406e-05   -5.251892741828766e-06   -3.7350403927244205e-06
2.503565330995406e-05   -5.251892741828766e-06   -3.7350403927244205e-06
3.514762333178153e-05   -5.023424752719809e-06   9.443160280639927e-06
3.514762333178153e-05   -5.023424752719809e-06   9.443160280639927e-06
3.514762333178153e-05   -5.023424752719809e-06   9.443160280639927e-06
3.514762333178153e-05   -5.023424752719809e-06   9.443160280639927e-06
1.7633563418209425e-05   -6.654199720367666e-06   -2.0725404555902208e-05
1.7633563418209425e-05   -6.654199720367666e-06   -2.0725404555902208e-05
1.7633563418209425e-05   -6.654199720367666e-06   -2.0725404555902208e-05
1.7633563418209425e-05   -6.654199720367666e-06   -2.0725404555902208e-05
1.798277010962332e-05   -4.848468339658076e-06   6.688544402297142e-06
1.798277010962332e-05   -4.848468339658076e-06   6.688544402297142e-06
1.798277010962332e-05   -4.848468339658076e-06   6.688544402297142e-06
1.798277010962332e-05   -4.848468339658076e-06   6.688544402297142e-06
3.567360116911851e-05   -6.592473793999402e-06   -2.1749770757589965e-05
3.567360116911851e-05   -6.592473793999402e-06   -2.1749770757589965e-05
3.567360116911851e-05   -6.592473793999402e-06   -2.1749770757589965e-05
3.567360116911851e-05   -6.592473793999402e-06   -2.1749770757589965e-05
2.5911632784474758e-05   -5.4160043997310715e-06   -6.185705086411426e-06
2.5911632784474758e-05   -5.4160043997310715e-06   -6.185705086411426e-06
2.5911632784474758e-05   -5.4160043997310715e-06   -6.185705086411426e-06
2.5911632784474758e-05   -5.4160043997310715e-06   -6.185705086411426e-06
3.567360116911851e-05   -4.848468339658076e-06   7.734947674901895e-06
3.567360116911851e-05   -4.848468339658076e-06   7.734947674901895e-06
3.567360116911851e-05   -4.848468339658076e-06   7.734947674901895e-06
3.567360116911851e-05   -4.848468339658076e-06   7.734947674901895e-06
1.798277010962332e-05   -6.592473793999402e-06   -2.2796174030194718e-05
1.798277010962332e-05   -6.592473793999402e-06   -2.2796174030194718e-05
1.798277010962332e-05   -6.592473793999402e-06   -2.2796174030194718e-05
1.798277010962332e-05   -6.592473793999402e-06   -2.2796174030194718e-05
1.8346523971236384e-05   -4.168078082010616e-06   3.2506444449441297e-06
1.8346523971236384e-05   -4.168078082010616e-06   3.2506444449441297e-06
1.8346523971236384e-05   -4.168078082010616e-06   3.2506444449441297e-06
1.8346523971236384e-05   -4.168078082010616e-06   3.2506444449441297e-06
3.619159695141185e-05   -6.221535753371402e-06   -2.525906925253182e-05
3.619159695141185e-05   -6.221535753371402e-06   -2.525906925253182e-05
3.619159695141185e-05   -6.221535753371402e-06   -2.525906925253182e-05
3.619159695141185e-05   -6.221535753371402e-06   -2.525906925253182e-05
2.5917394055785624e-05   -5.210002251377754e-06   -8.742317861017731e-06
2.5917394055785624e-05   -5.210002251377754e-06   -8.742317861017731e-06
2.5917394055785624e-05   -5.210002251377754e-06   -8.742317861017731e-06
2.5917394055785624e-05   -5.210002251377754e-06   -8.742317861017731e-06
1.7220216278072587e-05   -3.3098639934745887e-06   1.2555115137302718e-06
1.7220216278072587e-05   -3.3098639934745887e-06   1.2555115137302718e-06
1.7220216278072587e-05   -3.3098639934745887e-06   1.2555115137302718e-06
1.7220216278072587e-05   -3.3098639934745887e-06   1.2555115137302718e-06
1.9837154300742437e-06   -6.459487753720551e-06   -2.6028430822414624e-05
1.9837154300742437e-06   -6.459487753720551e-06   -2.6028430822414624e-05
1.9837154300742437e-06   -6.459487753720551e-06   -2.6028430822414624e-05
1.9837154300742437e-06   -6.459487753720551e-06   -2.6028430822414624e-05
2.4647646852874713e-06   -3.148306638361964e-06   -3.6096875852958954e-08
2.4647646852874713e-06   -3.148306638361964e-06   -3.6096875852958954e-08
2.4647646852874713e-06   -3.148306638361964e-06   -3.6096875852958954e-08
2.4647646852874713e-06   -3.148306638361964e-06   -3.6096875852958954e-08
1.7633563418209452e-05   -6.4234330234100735e-06   -2.3352352266360724e-05
1.7633563418209452e-05   -6.4234330234100735e-06   -2.3352352266360724e-05
1.7633563418209452e-05   -6.4234330234100735e-06   -2.3352352266360724e-05
1.7633563418209452e-05   -6.4234330234100735e-06   -2.3352352266360724e-05
9.862484850690278e-06   -4.360965554488271e-06   -1.1638035135181778e-05
9.862484850690278e-06   -4.360965554488271e-06   -1.1638035135181778e-05
9.862484850690278e-06   -4.360965554488271e-06   -1.1638035135181778e-05
9.862484850690278e-06   -4.360965554488271e-06   -1.1638035135181778e-05
1.763356341820941e-05   -3.148306638361964e-06   1.9289789551759284e-06
1.763356341820941e-05   -3.148306638361964e-06   1.9289789551759284e-06
1.763356341820941e-05   -3.148306638361964e-06   1.9289789551759284e-06
1.763356341820941e-05   -3.148306638361964e-06   1.9289789551759284e-06
2.4647646852874578e-06   -6.4234330234100735e-06   -2.531742809738953e-05
2.4647646852874578e-06   -6.4234330234100735e-06   -2.531742809738953e-05
2.4647646852874578e-06   -6.4234330234100735e-06   -2.531742809738953e-05
2.4647646852874578e-06   -6.4234330234100735e-06   -2.531742809738953e-05
2.8989022641205794e-06   -2.849797690028695e-06   -2.0246651491527632e-07
2.8989022641205794e-06   -2.849797690028695e-06   -2.0246651491527632e-07
2.8989022641205794e-06   -2.849797690028695e-06   -2.0246651491527632e-07
2.8989022641205794e-06   -2.849797690028695e-06   -2.0246651491527632e-07
1.798277010962332e-05   -6.333279895484253e-06   -2.3252156934146532e-05
1.798277010962332e-05   -6.333279895484253e-06   -2.3252156934146532e-05
1.798277010962332e-05   -6.333279895484253e-06   -2.3252156934146532e-05
1.798277010962332e-05   -6.333279895484253e-06   -2.3252156934146532e-05
1.0133107330218219e-05   -4.405463636641309e-06   -1.1326075390443379e-05
1.0133107330218219e-05   -4.405463636641309e-06   -1.1326075390443379e-05
1.0133107330218219e-05   -4.405463636641309e-06   -1.1326075390443379e-05
1.0133107330218219e-05   -4.405463636641309e-06   -1.1326075390443379e-05
1.798277010962332e-05   -2.849797690028695e-06   1.8876228083579503e-06
1.798277010962332e-05   -2.849797690028695e-06   1.8876228083579503e-06
1.798277010962332e-05   -2.849797690028695e-06   1.8876228083579503e-06
1.798277010962332e-05   -2.849797690028695e-06   1.8876228083579503e-06
2.8989022641205794e-06   -6.333279895484253e-06   -2.5342246257419867e-05
2.8989022641205794e-06   -6.333279895484253e-06   -2.5342246257419867e-05
2.8989022641205794e-06   -6.333279895484253e-06   -2.5342246257419867e-05
2.8989022641205794e-06   -6.333279895484253e-06   -2.5342246257419867e-05
3.5474373424769154e-06   -2.4249101944226557e-06   -5.119324967899855e-07
3.5474373424769154e-06   -2.4249101944226557e-06   -5.119324967899855e-07
3.5474373424769154e-06   -2.4249101944226557e-06   -5.119324967899855e-07
3.5474373424769154e-06   -2.4249101944226557e-06   -5.119324967899855e-07
1.8346523971236357e-05   -6.155715944241051e-06   -2.293859342816475e-05
1.8346523971236357e-05   -6.155715944241051e-06   -2.293859342816475e-05
1.8346523971236357e-05   -6.155715944241051e-06   -2.293859342816475e-05
1.8346523971236357e-05   -6.155715944241051e-06   -2.293859342816475e-05
1.0655483642287168e-05   -4.332483130507509e-06   -1.1214132568156219e-05
1.0655483642287168e-05   -4.332483130507509e-06   -1.1214132568156219e-05
1.0655483642287168e-05   -4.332483130507509e-06   -1.1214132568156219e-05
1.0655483642287168e-05   -4.332483130507509e-06   -1.1214132568156219e-05
1.9837154300742437e-06   -1.7034830564362485e-06   -2.473971992138593e-06
1.9837154300742437e-06   -1.7034830564362485e-06   -2.473971992138593e-06
1.9837154300742437e-06   -1.7034830564362485e-06   -2.473971992138593e-06
1.9837154300742437e-06   -1.7034830564362485e-06   -2.473971992138593e-06
-1.3092762237027256e-05   -7.736110766894512e-06   -3.1221011396916185e-05
-1.3092762237027256e-05   -7.736110766894512e-06   -3.1221011396916185e-05
-1.3092762237027256e-05   -7.736110766894512e-06   -3.1221011396916185e-05
-1.3092762237027256e-05   -7.736110766894512e-06   -3.1221011396916185e-05
-1.2342788483824901e-05   -1.5121570726781691e-06   -5.429162080379003e-06
-1.2342788483824901e-05   -1.5121570726781691e-06   -5.429162080379003e-06
-1.2342788483824901e-05   -1.5121570726781691e-06   -5.429162080379003e-06
-1.2342788483824901e-05   -1.5121570726781691e-06   -5.429162080379003e-06
2.4647646852874578e-06   -7.902758382031605e-06   -2.6274056576621046e-05
2.4647646852874578e-06   -7.902758382031605e-06   -2.6274056576621046e-05
2.4647646852874578e-06   -7.902758382031605e-06   -2.6274056576621046e-05
2.4647646852874578e-06   -7.902758382031605e-06   -2.6274056576621046e-05
-5.075240708622967e-06   -4.36018907768094e-06   -1.5832922502714104e-05
-5.075240708622967e-06   -4.36018907768094e-06   -1.5832922502714104e-05
-5.075240708622967e-06   -4.36018907768094e-06   -1.5832922502714104e-05
-5.075240708622967e-06   -4.36018907768094e-06   -1.5832922502714104e-05
2.4647646852874578e-06   -1.5121570726781691e-06   -1.5948012947671368e-06
2.4647646852874578e-06   -1.5121570726781691e-06   -1.5948012947671368e-06
2.4647646852874578e-06   -1.5121570726781691e-06   -1.5948012947671368e-06
2.4647646852874578e-06   -1.5121570726781691e-06   -1.5948012947671368e-06
-1.2342788483824928e-05   -7.902758382031605e-06   -3.0108417362233035e-05
-1.2342788483824928e-05   -7.902758382031605e-06   -3.0108417362233035e-05
-1.2342788483824928e-05   -7.902758382031605e-06   -3.0108417362233035e-05
-1.2342788483824928e-05   -7.902758382031605e-06   -3.0108417362233035e-05
-1.1695776588489467e-05   -1.2175839767998315e-06   -5.061552109185733e-06
-1.1695776588489467e-05   -1.2175839767998315e-06   -5.061552109185733e-06
-1.1695776588489467e-05   -1.2175839767998315e-06   -5.061552109185733e-06
-1.1695776588489467e-05   -1.2175839767998315e-06   -5.061552109185733e-06
2.8989022641205794e-06   -7.860432764299381e-06   -2.5400307591036037e-05
2.8989022641205794e-06   -7.860432764299381e-06   -2.5400307591036037e-05
2.8989022641205794e-06   -7.860432764299381e-06   -2.5400307591036037e-05
2.8989022641205794e-06   -7.860432764299381e-06   -2.5400307591036037e-05
-4.543033033404805e-06   -4.455143198411025e-06   -1.5040255834693618e-05
-4.543033033404805e-06   -4.455143198411025e-06   -1.5040255834693618e-05
-4.543033033404805e-06   -4.455143198411025e-06   -1.5040255834693618e-05
-4.543033033404805e-06   -4.455143198411025e-06   -1.5040255834693618e-05
2.8989022641205794e-06   -1.2175839768000483e-06   -1.0758428366859814e-06
2.8989022641205794e-06   -1.2175839768000483e-06   -1.0758428366859814e-06
2.8989022641205794e-06   -1.2175839768000483e-06   -1.0758428366859814e-06
2.8989022641205794e-06   -1.2175839768000483e-06   -1.0758428366859814e-06
-1.1695776588489508e-05   -7.860432764299381e-06   -2.9386016863535802e-05
-1.1695776588489508e-05   -7.860432764299381e-06   -2.9386016863535802e-05
-1.1695776588489508e-05   -7.860432764299381e-06   -2.9386016863535802e-05
-1.1695776588489508e-05   -7.860432764299381e-06   -2.9386016863535802e-05
-1.0578978571222643e-05   -9.37780438792701e-07   -5.041287999631963e-06
-1.0578978571222643e-05   -9.37780438792701e-07   -5.041287999631963e-06
-1.0578978571222643e-05   -9.37780438792701e-07   -5.041287999631963e-06
-1.0578978571222643e-05   -9.37780438792701e-07   -5.041287999631963e-06
3.5474373424769154e-06   -7.578531972778817e-06   -2.460086360207306e-05
3.5474373424769154e-06   -7.578531972778817e-06   -2.460086360207306e-05
3.5474373424769154e-06   -7.578531972778817e-06   -2.460086360207306e-05
3.5474373424769154e-06   -7.578531972778817e-06   -2.460086360207306e-05
-3.8511167155179005e-06   -4.351446060343487e-06   -1.4206191719542862e-05
-3.8511167155179005e-06   -4.351446060343487e-06   -1.4206191719542862e-05
-3.8511167155179005e-06   -4.351446060343487e-06   -1.4206191719542862e-05
-3.8511167155179005e-06   -4.351446060343487e-06   -1.4206191719542862e-05
-1.3092762237027236e-05   5.064120298548403e-07   -3.490434525461384e-06
-1.3092762237027236e-05   5.064120298548403e-07   -3.490434525461384e-06
-1.3092762237027236e-05   5.064120298548403e-07   -3.490434525461384e-06
-1.3092762237027236e-05   5.064120298548403e-07   -3.490434525461384e-06
-2.9890555054567172e-05   -9.590790267007075e-06   -3.754507726614492e-05
-2.9890555054567172e-05   -9.590790267007075e-06   -3.754507726614492e-05
-2.9890555054567172e-05   -9.590790267007075e-06   -3.754507726614492e-05
-2.9890555054567172e-05   -9.590790267007075e-06   -3.754507726614492e-05
-2.8990552231052145e-05   8.556058876982124e-07   -9.249979028978458e-06
-2.8990552231052145e-05   8.556058876982124e-07   -9.249979028978458e-06
-2.8990552231052145e-05   8.556058876982124e-07   -9.249979028978458e-06
-2.8990552231052145e-05   8.556058876982124e-07   -9.249979028978458e-06
-1.2342788483824901e-05   -1.0731519361886549e-05   -3.0043976791272917e-05
-1.2342788483824901e-05   -1.0731519361886549e-05   -3.0043976791272917e-05
-1.2342788483824901e-05   -1.0731519361886549e-05   -3.0043976791272917e-05
-1.2342788483824901e-05   -1.0731519361886549e-05   -3.0043976791272917e-05
-2.0778858183327566e-05   -4.848608823910128e-06   -1.9513606948220986e-05
-2.0778858183327566e-05   -4.848608823910128e-06   -1.9513606948220986e-05
-2.0778858183327566e-05   -4.848608823910128e-06   -1.9513606948220986e-05
-2.0778858183327566e-05   -4.848608823910128e-06   -1.9513606948220986e-05
-1.2342788483824901e-05   8.556058876982124e-07   -2.297703879227753e-06
-1.2342788483824901e-05   8.556058876982124e-07   -2.297703879227753e-06
-1.2342788483824901e-05   8.556058876982124e-07   -2.297703879227753e-06
-1.2342788483824901e-05   8.556058876982124e-07   -2.297703879227753e-06
-2.8990552231052145e-05   -1.0731519361886549e-05   -3.6996251941023785e-05
-2.8990552231052145e-05   -1.0731519361886549e-05   -3.6996251941023785e-05
-2.8990552231052145e-05   -1.0731519361886549e-05   -3.6996251941023785e-05
-2.8990552231052145e-05   -1.0731519361886549e-05   -3.6996251941023785e-05
-2.812830163231797e-05   1.1765823570123075e-06   -8.234599366960227e-06
-2.812830163231797e-05   1.1765823570123075e-06   -8.234599366960227e-06
-2.812830163231797e-05   1.1765823570123075e-06   -8.234599366960227e-06
-2.812830163231797e-05   1.1765823570123075e-06   -8.234599366960227e-06
-1.1695776588489488e-05   -1.078597638059565e-05   -2.8444605864109778e-05
-1.1695776588489488e-05   -1.078597638059565e-05   -2.8444605864109778e-05
-1.1695776588489488e-05   -1.078597638059565e-05   -2.8444605864109778e-05
-1.1695776588489488e-05   -1.078597638059565e-05   -2.8444605864109778e-05
-1.9901163204783636e-05   -4.8601572654437e-06   -1.832445297271062e-05
-1.9901163204783636e-05   -4.8601572654437e-06   -1.832445297271062e-05
-1.9901163204783636e-05   -4.8601572654437e-06   -1.832445297271062e-05
-1.9901163204783636e-05   -4.8601572654437e-06   -1.832445297271062e-05
-1.1695776588489481e-05   1.1765823570123075e-06   -1.0570641243955181e-06
-1.1695776588489481e-05   1.1765823570123075e-06   -1.0570641243955181e-06
-1.1695776588489481e-05   1.1765823570123075e-06   -1.0570641243955181e-06
-1.1695776588489481e-05   1.1765823570123075e-06   -1.0570641243955181e-06
-2.812830163231802e-05   -1.078597638059565e-05   -3.562214110667443e-05
-2.812830163231802e-05   -1.078597638059565e-05   -3.562214110667443e-05
-2.812830163231802e-05   -1.078597638059565e-05   -3.562214110667443e-05
-2.812830163231802e-05   -1.078597638059565e-05   -3.562214110667443e-05
-2.6711630047131108e-05   1.4470693459175867e-06   -7.2044283297730384e-06
-2.6711630047131108e-05   1.4470693459175867e-06   -7.2044283297730384e-06
-2.6711630047131108e-05   1.4470693459175867e-06   -7.2044283297730384e-06
-2.6711630047131108e-05   1.4470693459175867e-06   -7.2044283297730384e-06
-1.0578978571222683e-05   -9.81109819529996e-06   -2.7337280264890017e-05
-1.0578978571222683e-05   -9.81109819529996e-06   -2.7337280264890017e-05
-1.0578978571222683e-05   -9.81109819529996e-06   -2.7337280264890017e-05
-1.0578978571222683e-05   -9.81109819529996e-06   -2.7337280264890017e-05
-1.9038600216837352e-05   -4.269597377941272e-06   -1.65628113459471e-05
-1.9038600216837352e-05   -4.269597377941272e-06   -1.65628113459471e-05
-1.9038600216837352e-05   -4.269597377941272e-06   -1.65628113459471e-05
-1.9038600216837352e-05   -4.269597377941272e-06   -1.65628113459471e-05
-2.9890555054567172e-05   4.301178693340681e-06   -6.259508658346016e-06
-2.9890555054567172e-05   4.301178693340681e-06   -6.259508658346016e-06
-2.9890555054567172e-05   4.301178693340681e-06   -6.259508658346016e-06
-2.9890555054567172e-05   4.301178693340681e-06   -6.259508658346016e-06
-5.1340097945714236e-05   0.0   -4.458945402626216e-05
-5.1340097945714236e-05   0.0   -4.458945402626216e-05
-5.1340097945714236e-05   0.0   -4.458945402626216e-05
-5.1340097945714236e-05   0.0   -4.458945402626216e-05
-5.002723988690705e-05   5.425298037466976e-06   -4.765690273941846e-06
-5.002723988690705e-05   5.425298037466976e-06   -4.765690273941846e-06
-5.002723988690705e-05   5.425298037466976e-06   -4.765690273941846e-06
-5.002723988690705e-05   5.425298037466976e-06   -4.765690273941846e-06
-2.8990552231052094e-05   0.0   -3.65716575445532e-05
-2.8990552231052094e-05   0.0   -3.65716575445532e-05
-2.8990552231052094e-05   0.0   -3.65716575445532e-05
-2.8990552231052094e-05   0.0   -3.65716575445532e-05
-3.836103232033968e-05   1.6695727124145347e-06   -2.1955934356522534e-05
-3.836103232033968e-05   1.6695727124145347e-06   -2.1955934356522534e-05
-3.836103232033968e-05   1.6695727124145347e-06   -2.1955934356522534e-05
-3.836103232033968e-05   1.6695727124145347e-06   -2.1955934356522534e-05
-2.8990552231052118e-05   5.425298037466976e-06   -1.5105114514616172e-06
-2.8990552231052118e-05   5.425298037466976e-06   -1.5105114514616172e-06
-2.8990552231052118e-05   5.425298037466976e-06   -1.5105114514616172e-06
-2.8990552231052118e-05   5.425298037466976e-06   -1.5105114514616172e-06
-5.002723988690696e-05   0.0   -3.982683636703343e-05
-5.002723988690696e-05   0.0   -3.982683636703343e-05
-5.002723988690696e-05   0.0   -3.982683636703343e-05
-5.002723988690696e-05   0.0   -3.982683636703343e-05
-4.891404615374523e-05   5.6788246740938336e-06   -1.7785118875242529e-06
-4.891404615374523e-05   5.6788246740938336e-06   -1.7785118875242529e-06
-4.891404615374523e-05   5.6788246740938336e-06   -1.7785118875242529e-06
-4.891404615374523e-05   5.6788246740938336e-06   -1.7785118875242529e-06
-2.812830163231802e-05   0.0   -3.301412461878016e-05
-2.812830163231802e-05   0.0   -3.301412461878016e-05
-2.812830163231802e-05   0.0   -3.301412461878016e-05
-2.812830163231802e-05   0.0   -3.301412461878016e-05
-3.798074292719819e-05   2.6299602557270166e-06   -1.817136528074883e-05
-3.798074292719819e-05   2.6299602557270166e-06   -1.817136528074883e-05
-3.798074292719819e-05   2.6299602557270166e-06   -1.817136528074883e-05
-3.798074292719819e-05   2.6299602557270166e-06   -1.817136528074883e-05
-2.812830163231802e-05   5.678824674093617e-06   1.6287829169319605e-06
-2.812830163231802e-05   5.678824674093617e-06   1.6287829169319605e-06
-2.812830163231802e-05   5.678824674093617e-06   1.6287829169319605e-06
-2.812830163231802e-05   5.678824674093617e-06   1.6287829169319605e-06
-4.891404615374513e-05   0.0   -3.642141942323629e-05
-4.891404615374513e-05   0.0   -3.642141942323629e-05
-4.891404615374513e-05   0.0   -3.642141942323629e-05
-4.891404615374513e-05   0.0   -3.642141942323629e-05
-4.6690363046142345e-05   6.108341926138556e-06   3.0386382396992845e-06
-4.6690363046142345e-05   6.108341926138556e-06   3.0386382396992845e-06
-4.6690363046142345e-05   6.108341926138556e-06   3.0386382396992845e-06
-4.6690363046142345e-05   6.108341926138556e-06   3.0386382396992845e-06
-2.6711630047131155e-05   0.0   -2.659424493630298e-05
-2.6711630047131155e-05   0.0   -2.659424493630298e-05
-2.6711630047131155e-05   0.0   -2.659424493630298e-05
-2.6711630047131155e-05   0.0   -2.659424493630298e-05
-3.6030822405878294e-05   3.2392684764447847e-06   -1.30058187575912e-05
-3.6030822405878294e-05   3.2392684764447847e-06   -1.30058187575912e-05
-3.6030822405878294e-05   3.2392684764447847e-06   -1.30058187575912e-05
-3.6030822405878294e-05   3.2392684764447847e-06   -1.30058187575912e-05
3.794825317849353e-05   -6.491726638845844e-06   2.260710778902175e-05
3.794825317849353e-05   -6.491726638845844e-06   2.260710778902175e-05
3.794825317849353e-05   -6.491726638845844e-06   2.260710778902175e-05
3.794825317849353e-05   -6.491726638845844e-06   2.260710778902175e-05
1.965989476213655e-05   -5.024777672501656e-06   -6.993320191766715e-06
1.965989476213655e-05   -5.024777672501656e-06   -6.993320191766715e-06
1.965989476213655e-05   -5.024777672501656e-06   -6.993320191766715e-06
1.965989476213655e-05   -5.024777672501656e-06   -6.993320191766715e-06
1.917120651924641e-05   -6.654199720367666e-06   1.994015100744719e-05
1.917120651924641e-05   -6.654199720367666e-06   1.994015100744719e-05
1.917120651924641e-05   -6.654199720367666e-06   1.994015100744719e-05
1.917120651924641e-05   -6.654199720367666e-06   1.994015100744719e-05
3.755056824800039e-05   -5.520372217627991e-06   -1.1372415042119771e-05
3.755056824800039e-05   -5.520372217627991e-06   -1.1372415042119771e-05
3.755056824800039e-05   -5.520372217627991e-06   -1.1372415042119771e-05
3.755056824800039e-05   -5.520372217627991e-06   -1.1372415042119771e-05
2.741146335389697e-05   -5.605798011549526e-06   5.5773485910720145e-06
2.741146335389697e-05   -5.605798011549526e-06   5.5773485910720145e-06
2.741146335389697e-05   -5.605798011549526e-06   5.5773485910720145e-06
2.741146335389697e-05   -5.605798011549526e-06   5.5773485910720145e-06
3.755056824800039e-05   -6.654199720367666e-06   1.925985450580356e-05
3.755056824800039e-05   -6.654199720367666e-06   1.925985450580356e-05
3.755056824800039e-05   -6.654199720367666e-06   1.925985450580356e-05
3.755056824800039e-05   -6.654199720367666e-06   1.925985450580356e-05
1.917120651924641e-05   -5.520372217627991e-06   -1.0692118540476018e-05
1.917120651924641e-05   -5.520372217627991e-06   -1.0692118540476018e-05
1.917120651924641e-05   -5.520372217627991e-06   -1.0692118540476018e-05
1.917120651924641e-05   -5.520372217627991e-06   -1.0692118540476018e-05
1.8728572882251634e-05   -6.592473793999402e-06   1.7889687115672293e-05
1.8728572882251634e-05   -6.592473793999402e-06   1.7889687115672293e-05
1.8728572882251634e-05   -6.592473793999402e-06   1.7889687115672293e-05
1.8728572882251634e-05   -6.592473793999402e-06   1.7889687115672293e-05
3.7088503074944104e-05   -5.564270776681679e-06   -1.3327118349205845e-05
3.7088503074944104e-05   -5.564270776681679e-06   -1.3327118349205845e-05
3.7088503074944104e-05   -5.564270776681679e-06   -1.3327118349205845e-05
3.7088503074944104e-05   -5.564270776681679e-06   -1.3327118349205845e-05
2.7397621055936803e-05   -5.70417205676731e-06   2.908292450524389e-06
2.7397621055936803e-05   -5.70417205676731e-06   2.908292450524389e-06
2.7397621055936803e-05   -5.70417205676731e-06   2.908292450524389e-06
2.7397621055936803e-05   -5.70417205676731e-06   2.908292450524389e-06
3.7088503074944165e-05   -6.592473793999619e-06   1.727276530528153e-05
3.7088503074944165e-05   -6.592473793999619e-06   1.727276530528153e-05
3.7088503074944165e-05   -6.592473793999619e-06   1.727276530528153e-05
3.7088503074944165e-05   -6.592473793999619e-06   1.727276530528153e-05
1.8728572882251634e-05   -5.564270776681679e-06   -1.2710196538815149e-05
1.8728572882251634e-05   -5.564270776681679e-06   -1.2710196538815149e-05
1.8728572882251634e-05   -5.564270776681679e-06   -1.2710196538815149e-05
1.8728572882251634e-05   -5.564270776681679e-06   -1.2710196538815149e-05
1.818824843483066e-05   -6.221535753371402e-06   1.455369664809527e-05
1.818824843483066e-05   -6.221535753371402e-06   1.455369664809527e-05
1.818824843483066e-05   -6.221535753371402e-06   1.455369664809527e-05
1.818824843483066e-05   -6.221535753371402e-06   1.455369664809527e-05
3.63643327543014e-05   -5.442370951689321e-06   -1.6207276098698445e-05
3.63643327543014e-05   -5.442370951689321e-06   -1.6207276098698445e-05
3.63643327543014e-05   -5.442370951689321e-06   -1.6207276098698445e-05
3.63643327543014e-05   -5.442370951689321e-06   -1.6207276098698445e-05
2.6468586280155447e-05   -5.423480113751983e-06   2.7430018878228353e-07
2.6468586280155447e-05   -5.423480113751983e-06   2.7430018878228353e-07
2.6468586280155447e-05   -5.423480113751983e-06   2.7430018878228353e-07
2.6468586280155447e-05   -5.423480113751983e-06   2.7430018878228353e-07
1.965989476213655e-05   -6.459487753720551e-06   1.6853289719964974e-05
1.965989476213655e-05   -6.459487753720551e-06   1.6853289719964974e-05
1.965989476213655e-05   -6.459487753720551e-06   1.6853289719964974e-05
1.965989476213655e-05   -6.459487753720551e-06   1.6853289719964974e-05
4.105725298537283e-06   -3.081253677569883e-06   -7.043385607009953e-06
4.105725298537283e-06   -3.081253677569883e-06   -7.043385607009953e-06
4.105725298537283e-06   -3.081253677569883e-06   -7.043385607009953e-06
4.105725298537283e-06   -3.081253677569883e-06   -7.043385607009953e-06
3.332441318741074e-06   -6.4234330234100735e-06   1.9207476575162615e-05
3.332441318741074e-06   -6.4234330234100735e-06   1.9207476575162615e-05
3.332441318741074e-06   -6.4234330234100735e-06   1.9207476575162615e-05
3.332441318741074e-06   -6.4234330234100735e-06   1.9207476575162615e-05
1.917120651924641e-05   -3.2663108931203083e-06   -9.084738703853373e-06
1.917120651924641e-05   -3.2663108931203083e-06   -9.084738703853373e-06
1.917120651924641e-05   -3.2663108931203083e-06   -9.084738703853373e-06
1.917120651924641e-05   -3.2663108931203083e-06   -9.084738703853373e-06
1.1550013466987257e-05   -4.629208638535186e-06   4.434988363827405e-06
1.1550013466987257e-05   -4.629208638535186e-06   4.434988363827405e-06
1.1550013466987257e-05   -4.629208638535186e-06   4.434988363827405e-06
1.1550013466987257e-05   -4.629208638535186e-06   4.434988363827405e-06
1.917120651924643e-05   -6.4234330234100735e-06   1.7313203296988864e-05
1.917120651924643e-05   -6.4234330234100735e-06   1.7313203296988864e-05
1.917120651924643e-05   -6.4234330234100735e-06   1.7313203296988864e-05
1.917120651924643e-05   -6.4234330234100735e-06   1.7313203296988864e-05
3.332441318741074e-06   -3.2663108931203083e-06   -7.190465425679568e-06
3.332441318741074e-06   -3.2663108931203083e-06   -7.190465425679568e-06
3.332441318741074e-06   -3.2663108931203083e-06   -7.190465425679568e-06
3.332441318741074e-06   -3.2663108931203083e-06   -7.190465425679568e-06
2.780100488703022e-06   -6.333279895484253e-06   1.9225880747393087e-05
2.780100488703022e-06   -6.333279895484253e-06   1.9225880747393087e-05
2.780100488703022e-06   -6.333279895484253e-06   1.9225880747393087e-05
2.780100488703022e-06   -6.333279895484253e-06   1.9225880747393087e-05
1.8728572882251634e-05   -3.3463190026964285e-06   -9.147083110860491e-06
1.8728572882251634e-05   -3.3463190026964285e-06   -9.147083110860491e-06
1.8728572882251634e-05   -3.3463190026964285e-06   -9.147083110860491e-06
1.8728572882251634e-05   -3.3463190026964285e-06   -9.147083110860491e-06
1.0884993436737519e-05   -4.532625064006864e-06   4.637332935116206e-06
1.0884993436737519e-05   -4.532625064006864e-06   4.637332935116206e-06
1.0884993436737519e-05   -4.532625064006864e-06   4.637332935116206e-06
1.0884993436737519e-05   -4.532625064006864e-06   4.637332935116206e-06
1.8728572882251668e-05   -6.3332798954840366e-06   1.7433704211720588e-05
1.8728572882251668e-05   -6.3332798954840366e-06   1.7433704211720588e-05
1.8728572882251668e-05   -6.3332798954840366e-06   1.7433704211720588e-05
1.8728572882251668e-05   -6.3332798954840366e-06   1.7433704211720588e-05
2.780100488703022e-06   -3.3463190026964285e-06   -7.3549065751879646e-06
2.780100488703022e-06   -3.3463190026964285e-06   -7.3549065751879646e-06
2.780100488703022e-06   -3.3463190026964285e-06   -7.3549065751879646e-06
2.780100488703022e-06   -3.3463190026964285e-06   -7.3549065751879646e-06
2.166046831075841e-06   -6.155715944241051e-06   1.9839594353583288e-05
2.166046831075841e-06   -6.155715944241051e-06   1.9839594353583288e-05
2.166046831075841e-06   -6.155715944241051e-06   1.9839594353583288e-05
2.166046831075841e-06   -6.155715944241051e-06   1.9839594353583288e-05
1.8188248434830653e-05   -3.266803813733706e-06   -8.597422264312559e-06
1.8188248434830653e-05   -3.266803813733706e-06   -8.597422264312559e-06
1.8188248434830653e-05   -3.266803813733706e-06   -8.597422264312559e-06
1.8188248434830653e-05   -3.266803813733706e-06   -8.597422264312559e-06
1.0480080381272433e-05   -4.330618703334531e-06   4.8878134253782925e-06
1.0480080381272433e-05   -4.330618703334531e-06   4.8878134253782925e-06
1.0480080381272433e-05   -4.330618703334531e-06   4.8878134253782925e-06
1.0480080381272433e-05   -4.330618703334531e-06   4.8878134253782925e-06
4.105725298537296e-06   -7.736110766894512e-06   1.7307226217429055e-05
4.105725298537296e-06   -7.736110766894512e-06   1.7307226217429055e-05
4.105725298537296e-06   -7.736110766894512e-06   1.7307226217429055e-05
4.105725298537296e-06   -7.736110766894512e-06   1.7307226217429055e-05
-1.0841884166176309e-05   -1.2560333479234246e-06   -3.7174097723775747e-06
-1.0841884166176309e-05   -1.2560333479234246e-06   -3.7174097723775747e-06
-1.0841884166176309e-05   -1.2560333479234246e-06   -3.7174097723775747e-06
-1.0841884166176309e-05   -1.2560333479234246e-06   -3.7174097723775747e-06
-1.2044138921316713e-05   -7.902758382031605e-06   2.2197477171767544e-05
-1.2044138921316713e-05   -7.902758382031605e-06   2.2197477171767544e-05
-1.2044138921316713e-05   -7.902758382031605e-06   2.2197477171767544e-05
-1.2044138921316713e-05   -7.902758382031605e-06   2.2197477171767544e-05
3.332441318741074e-06   -1.3250432556375074e-06   -7.376785637498503e-06
3.332441318741074e-06   -1.3250432556375074e-06   -7.376785637498503e-06
3.332441318741074e-06   -1.3250432556375074e-06   -7.376785637498503e-06
3.332441318741074e-06   -1.3250432556375074e-06   -7.376785637498503e-06
-3.73044874414279e-06   -4.407442299311434e-06   6.244137226845477e-06
-3.73044874414279e-06   -4.407442299311434e-06   6.244137226845477e-06
-3.73044874414279e-06   -4.407442299311434e-06   6.244137226845477e-06
-3.73044874414279e-06   -4.407442299311434e-06   6.244137226845477e-06
3.332441318741074e-06   -7.902758382031605e-06   1.8250848095930977e-05
3.332441318741074e-06   -7.902758382031605e-06   1.8250848095930977e-05
3.332441318741074e-06   -7.902758382031605e-06   1.8250848095930977e-05
3.332441318741074e-06   -7.902758382031605e-06   1.8250848095930977e-05
-1.2044138921316706e-05   -1.3250432556377242e-06   -3.4301565616621935e-06
-1.2044138921316706e-05   -1.3250432556377242e-06   -3.4301565616621935e-06
-1.2044138921316706e-05   -1.3250432556377242e-06   -3.4301565616621935e-06
-1.2044138921316706e-05   -1.3250432556377242e-06   -3.4301565616621935e-06
-1.2780465755860579e-05   -7.860432764299381e-06   2.3037969132848682e-05
-1.2780465755860579e-05   -7.860432764299381e-06   2.3037969132848682e-05
-1.2780465755860579e-05   -7.860432764299381e-06   2.3037969132848682e-05
-1.2780465755860579e-05   -7.860432764299381e-06   2.3037969132848682e-05
2.780100488703022e-06   -1.410183232513013e-06   -6.766457660495787e-06
2.780100488703022e-06   -1.410183232513013e-06   -6.766457660495787e-06
2.780100488703022e-06   -1.410183232513013e-06   -6.766457660495787e-06
2.780100488703022e-06   -1.410183232513013e-06   -6.766457660495787e-06
-4.545102142112393e-06   -4.3893004769768925e-06   7.229683737541555e-06
-4.545102142112393e-06   -4.3893004769768925e-06   7.229683737541555e-06
-4.545102142112393e-06   -4.3893004769768925e-06   7.229683737541555e-06
-4.545102142112393e-06   -4.3893004769768925e-06   7.229683737541555e-06
2.780100488703022e-06   -7.860432764299381e-06   1.9167819413776796e-05
2.780100488703022e-06   -7.860432764299381e-06   1.9167819413776796e-05
2.780100488703022e-06   -7.860432764299381e-06   1.9167819413776796e-05
2.780100488703022e-06   -7.860432764299381e-06   1.9167819413776796e-05
-1.2780465755860559e-05   -1.410183232513013e-06   -2.8963079414239413e-06
-1.2780465755860559e-05   -1.410183232513013e-06   -2.8963079414239413e-06
-1.2780465755860559e-05   -1.410183232513013e-06   -2.8963079414239413e-06
-1.2780465755860559e-05   -1.410183232513013e-06   -2.8963079414239413e-06
-1.3644704911831387e-05   -7.578531972778817e-06   2.412376825112626e-05
-1.3644704911831387e-05   -7.578531972778817e-06   2.412376825112626e-05
-1.3644704911831387e-05   -7.578531972778817e-06   2.412376825112626e-05
-1.3644704911831387e-05   -7.578531972778817e-06   2.412376825112626e-05
2.166046831075841e-06   -1.3985976035119259e-06   -5.935445275279257e-06
2.166046831075841e-06   -1.3985976035119259e-06   -5.935445275279257e-06
2.166046831075841e-06   -1.3985976035119259e-06   -5.935445275279257e-06
2.166046831075841e-06   -1.3985976035119259e-06   -5.935445275279257e-06
-5.20924930407579e-06   -4.209116413771228e-06   8.043026236128996e-06
-5.20924930407579e-06   -4.209116413771228e-06   8.043026236128996e-06
-5.20924930407579e-06   -4.209116413771228e-06   8.043026236128996e-06
-5.20924930407579e-06   -4.209116413771228e-06   8.043026236128996e-06
-1.084188416617633e-05   -9.590790267007075e-06   2.092952817770008e-05
-1.084188416617633e-05   -9.590790267007075e-06   2.092952817770008e-05
-1.084188416617633e-05   -9.590790267007075e-06   2.092952817770008e-05
-1.084188416617633e-05   -9.590790267007075e-06   2.092952817770008e-05
-2.7818680567054267e-05   1.4639775755957186e-06   -7.322717848682984e-07
-2.7818680567054267e-05   1.4639775755957186e-06   -7.322717848682984e-07
-2.7818680567054267e-05   1.4639775755957186e-06   -7.322717848682984e-07
-2.7818680567054267e-05   1.4639775755957186e-06   -7.322717848682984e-07
-2.9269006585631197e-05   -1.0731519361886549e-05   2.9532946346659972e-05
-2.9269006585631197e-05   -1.0731519361886549e-05   2.9532946346659972e-05
-2.9269006585631197e-05   -1.0731519361886549e-05   2.9532946346659972e-05
-2.9269006585631197e-05   -1.0731519361886549e-05   2.9532946346659972e-05
-1.2044138921316706e-05   1.3868616446674302e-06   -6.44619503112993e-06
-1.2044138921316706e-05   1.3868616446674302e-06   -6.44619503112993e-06
-1.2044138921316706e-05   1.3868616446674302e-06   -6.44619503112993e-06
-1.2044138921316706e-05   1.3868616446674302e-06   -6.44619503112993e-06
-1.9717631790035315e-05   -3.9300107455037415e-06   9.533083184170481e-06
-1.9717631790035315e-05   -3.9300107455037415e-06   9.533083184170481e-06
-1.9717631790035315e-05   -3.9300107455037415e-06   9.533083184170481e-06
-1.9717631790035315e-05   -3.9300107455037415e-06   9.533083184170481e-06
-1.2044138921316713e-05   -1.0731519361886549e-05   2.2261917742727607e-05
-1.2044138921316713e-05   -1.0731519361886549e-05   2.2261917742727607e-05
-1.2044138921316713e-05   -1.0731519361886549e-05   2.2261917742727607e-05
-1.2044138921316713e-05   -1.0731519361886549e-05   2.2261917742727607e-05
-2.9269006585631197e-05   1.3868616446674302e-06   8.248335728024353e-07
-2.9269006585631197e-05   1.3868616446674302e-06   8.248335728024353e-07
-2.9269006585631197e-05   1.3868616446674302e-06   8.248335728024353e-07
-2.9269006585631197e-05   1.3868616446674302e-06   8.248335728024353e-07
-3.015188274201576e-05   -1.078597638059565e-05   3.1193507622198613e-05
-3.015188274201576e-05   -1.078597638059565e-05   3.1193507622198613e-05
-3.015188274201576e-05   -1.078597638059565e-05   3.1193507622198613e-05
-3.015188274201576e-05   -1.078597638059565e-05   3.1193507622198613e-05
-1.2780465755860559e-05   1.2375694359442139e-06   -4.972981511317215e-06
-1.2780465755860559e-05   1.2375694359442139e-06   -4.972981511317215e-06
-1.2780465755860559e-05   1.2375694359442139e-06   -4.972981511317215e-06
-1.2780465755860559e-05   1.2375694359442139e-06   -4.972981511317215e-06
-2.0656009626679045e-05   -4.543537429979507e-06   1.1621589059601135e-05
-2.0656009626679045e-05   -4.543537429979507e-06   1.1621589059601135e-05
-2.0656009626679045e-05   -4.543537429979507e-06   1.1621589059601135e-05
-2.0656009626679045e-05   -4.543537429979507e-06   1.1621589059601135e-05
-1.2780465755860538e-05   -1.078597638059565e-05   2.3979380132274652e-05
-1.2780465755860538e-05   -1.078597638059565e-05   2.3979380132274652e-05
-1.2780465755860538e-05   -1.078597638059565e-05   2.3979380132274652e-05
-1.2780465755860538e-05   -1.078597638059565e-05   2.3979380132274652e-05
-3.0151882742015698e-05   1.2375694359442139e-06   2.2411459786066384e-06
-3.0151882742015698e-05   1.2375694359442139e-06   2.2411459786066384e-06
-3.0151882742015698e-05   1.2375694359442139e-06   2.2411459786066384e-06
-3.0151882742015698e-05   1.2375694359442139e-06   2.2411459786066384e-06
-3.1104426962220196e-05   -9.81109819529996e-06   3.1899027533960735e-05
-3.1104426962220196e-05   -9.81109819529996e-06   3.1899027533960735e-05
-3.1104426962220196e-05   -9.81109819529996e-06   3.1899027533960735e-05
-3.1104426962220196e-05   -9.81109819529996e-06   3.1899027533960735e-05
-1.364470491183134e-05   1.067610180133195e-06   -3.7277342419471496e-06
-1.364470491183134e-05   1.067610180133195e-06   -3.7277342419471496e-06
-1.364470491183134e-05   1.067610180133195e-06   -3.7277342419471496e-06
-1.364470491183134e-05   1.067610180133195e-06   -3.7277342419471496e-06
-2.1627406474107375e-05   -4.573941911356757e-06   1.2961699616740382e-05
-2.1627406474107375e-05   -4.573941911356757e-06   1.2961699616740382e-05
-2.1627406474107375e-05   -4.573941911356757e-06   1.2961699616740382e-05
-2.1627406474107375e-05   -4.573941911356757e-06   1.2961699616740382e-05
-2.7818680567054166e-05   0.0   2.309871933914851e-05
-2.7818680567054166e-05   0.0   2.309871933914851e-05
-2.7818680567054166e-05   0.0   2.309871933914851e-05
-2.7818680567054166e-05   0.0   2.309871933914851e-05
-4.8862329079923035e-05   6.422053690123162e-06   -8.120795968225816e-06
-4.8862329079923035e-05   6.422053690123162e-06   -8.120795968225816e-06
-4.8862329079923035e-05   6.422053690123162e-06   -8.120795968225816e-06
-4.8862329079923035e-05   6.422053690123162e-06   -8.120795968225816e-06
-5.085192704468987e-05   0.0   3.368410371928129e-05
-5.085192704468987e-05   0.0   3.368410371928129e-05
-5.085192704468987e-05   0.0   3.368410371928129e-05
-5.085192704468987e-05   0.0   3.368410371928129e-05
-2.9269006585631157e-05   6.210938293584956e-06   -6.0139933553010085e-06
-2.9269006585631157e-05   6.210938293584956e-06   -6.0139933553010085e-06
-2.9269006585631157e-05   6.210938293584956e-06   -6.0139933553010085e-06
-2.9269006585631157e-05   6.210938293584956e-06   -6.0139933553010085e-06
-3.753101103782856e-05   3.8092292944343683e-06   9.197039464518527e-06
-3.753101103782856e-05   3.8092292944343683e-06   9.197039464518527e-06
-3.753101103782856e-05   3.8092292944343683e-06   9.197039464518527e-06
-3.753101103782856e-05   3.8092292944343683e-06   9.197039464518527e-06
-2.926900658563113e-05   0.0   2.9957540743130446e-05
-2.926900658563113e-05   0.0   2.9957540743130446e-05
-2.926900658563113e-05   0.0   2.9957540743130446e-05
-2.926900658563113e-05   0.0   2.9957540743130446e-05
-5.085192704468996e-05   6.210938293584956e-06   -2.2874303791499753e-06
-5.085192704468996e-05   6.210938293584956e-06   -2.2874303791499753e-06
-5.085192704468996e-05   6.210938293584956e-06   -2.2874303791499753e-06
-5.085192704468996e-05   6.210938293584956e-06   -2.2874303791499753e-06
-5.185265499985998e-05   0.0   3.743533347057358e-05
-5.185265499985998e-05   0.0   3.743533347057358e-05
-5.185265499985998e-05   0.0   3.743533347057358e-05
-5.185265499985998e-05   0.0   3.743533347057358e-05
-3.0151882742015698e-05   6.056348934134351e-06   -2.36642965298101e-06
-3.0151882742015698e-05   6.056348934134351e-06   -2.36642965298101e-06
-3.0151882742015698e-05   6.056348934134351e-06   -2.36642965298101e-06
-3.0151882742015698e-05   6.056348934134351e-06   -2.36642965298101e-06
-3.9463802960331267e-05   3.184194405051778e-06   1.4876730094994916e-05
-3.9463802960331267e-05   3.184194405051778e-06   1.4876730094994916e-05
-3.9463802960331267e-05   3.184194405051778e-06   1.4876730094994916e-05
-3.9463802960331267e-05   3.184194405051778e-06   1.4876730094994916e-05
-3.0151882742015698e-05   0.0   3.380152411009286e-05
-3.0151882742015698e-05   0.0   3.380152411009286e-05
-3.0151882742015698e-05   0.0   3.380152411009286e-05
-3.0151882742015698e-05   0.0   3.380152411009286e-05
-5.1852654999860154e-05   6.056348934134351e-06   1.2673797074997089e-06
-5.1852654999860154e-05   6.056348934134351e-06   1.2673797074997089e-06
-5.1852654999860154e-05   6.056348934134351e-06   1.2673797074997089e-06
-5.1852654999860154e-05   6.056348934134351e-06   1.2673797074997089e-06
-5.296205991686335e-05   0.0   4.243493324170239e-05
-5.296205991686335e-05   0.0   4.243493324170239e-05
-5.296205991686335e-05   0.0   4.243493324170239e-05
-5.296205991686335e-05   0.0   4.243493324170239e-05
-3.1104426962220196e-05   5.063283090707372e-06   2.967575129539344e-06
-3.1104426962220196e-05   5.063283090707372e-06   2.967575129539344e-06
-3.1104426962220196e-05   5.063283090707372e-06   2.967575129539344e-06
-3.1104426962220196e-05   5.063283090707372e-06   2.967575129539344e-06
-3.977495563487969e-05   2.24446401367491e-06   1.9109747696857888e-05
-3.977495563487969e-05   2.24446401367491e-06   1.9109747696857888e-05
-3.977495563487969e-05   2.24446401367491e-06   1.9109747696857888e-05
-3.977495563487969e-05   2.24446401367491e-06   1.9109747696857888e-05
3.3475132073887234e-05   -5.024777672501656e-06   2.36803287231135e-05
3.3475132073887234e-05   -5.024777672501656e-06   2.36803287231135e-05
3.3475132073887234e-05   -5.024777672501656e-06   2.36803287231135e-05
3.3475132073887234e-05   -5.024777672501656e-06   2.36803287231135e-05
1.6909990172658266e-05   -3.808083317938596e-06   -3.198224499530232e-06
1.6909990172658266e-05   -3.808083317938596e-06   -3.198224499530232e-06
1.6909990172658266e-05   -3.808083317938596e-06   -3.198224499530232e-06
1.6909990172658266e-05   -3.808083317938596e-06   -3.198224499530232e-06
1.6469436179521424e-05   -5.520372217628208e-06   2.0650943385690408e-05
1.6469436179521424e-05   -5.520372217628208e-06   2.0650943385690408e-05
1.6469436179521424e-05   -5.520372217628208e-06   2.0650943385690408e-05
1.6469436179521424e-05   -5.520372217628208e-06   2.0650943385690408e-05
3.2691078415554014e-05   -4.311101948297142e-06   -7.110689169295746e-06
3.2691078415554014e-05   -4.311101948297142e-06   -7.110689169295746e-06
3.2691078415554014e-05   -4.311101948297142e-06   -7.110689169295746e-06
3.2691078415554014e-05   -4.311101948297142e-06   -7.110689169295746e-06
2.3778515975532847e-05   -4.481040084107664e-06   7.845544445559197e-06
2.3778515975532847e-05   -4.481040084107664e-06   7.845544445559197e-06
2.3778515975532847e-05   -4.481040084107664e-06   7.845544445559197e-06
2.3778515975532847e-05   -4.481040084107664e-06   7.845544445559197e-06
3.269107841555395e-05   -5.520372217628208e-06   1.9925381224091747e-05
3.269107841555395e-05   -5.520372217628208e-06   1.9925381224091747e-05
3.269107841555395e-05   -5.520372217628208e-06   1.9925381224091747e-05
3.269107841555395e-05   -5.520372217628208e-06   1.9925381224091747e-05
1.6469436179521457e-05   -4.311101948297142e-06   -6.385127007697247e-06
1.6469436179521457e-05   -4.311101948297142e-06   -6.385127007697247e-06
1.6469436179521457e-05   -4.311101948297142e-06   -6.385127007697247e-06
1.6469436179521457e-05   -4.311101948297142e-06   -6.385127007697247e-06
1.590186683118258e-05   -5.564270776681679e-06   1.8524721026737137e-05
1.590186683118258e-05   -5.564270776681679e-06   1.8524721026737137e-05
1.590186683118258e-05   -5.564270776681679e-06   1.8524721026737137e-05
1.590186683118258e-05   -5.564270776681679e-06   1.8524721026737137e-05
3.189694628650983e-05   -4.384689675674064e-06   -8.841493392746254e-06
3.189694628650983e-05   -4.384689675674064e-06   -8.841493392746254e-06
3.189694628650983e-05   -4.384689675674064e-06   -8.841493392746254e-06
3.189694628650983e-05   -4.384689675674064e-06   -8.841493392746254e-06
2.3564238882209796e-05   -4.675555713954879e-06   5.2208719040555815e-06
2.3564238882209796e-05   -4.675555713954879e-06   5.2208719040555815e-06
2.3564238882209796e-05   -4.675555713954879e-06   5.2208719040555815e-06
2.3564238882209796e-05   -4.675555713954879e-06   5.2208719040555815e-06
3.189694628650983e-05   -5.564270776681679e-06   1.7816972366132525e-05
3.189694628650983e-05   -5.564270776681679e-06   1.7816972366132525e-05
3.189694628650983e-05   -5.564270776681679e-06   1.7816972366132525e-05
3.189694628650983e-05   -5.564270776681679e-06   1.7816972366132525e-05
1.590186683118258e-05   -4.384689675674064e-06   -8.133744732141636e-06
1.590186683118258e-05   -4.384689675674064e-06   -8.133744732141636e-06
1.590186683118258e-05   -4.384689675674064e-06   -8.133744732141636e-06
1.590186683118258e-05   -4.384689675674064e-06   -8.133744732141636e-06
1.5305954153296226e-05   -5.442370951689538e-06   1.5366380219278752e-05
1.5305954153296226e-05   -5.442370951689538e-06   1.5366380219278752e-05
1.5305954153296226e-05   -5.442370951689538e-06   1.5366380219278752e-05
1.5305954153296226e-05   -5.442370951689538e-06   1.5366380219278752e-05
3.090250413582351e-05   -4.351707911678156e-06   -1.1282267575606947e-05
3.090250413582351e-05   -4.351707911678156e-06   -1.1282267575606947e-05
3.090250413582351e-05   -4.351707911678156e-06   -1.1282267575606947e-05
3.090250413582351e-05   -4.351707911678156e-06   -1.1282267575606947e-05
2.2523583681782e-05   -4.551407269560515e-06   2.8024194625254147e-06
2.2523583681782e-05   -4.551407269560515e-06   2.8024194625254147e-06
2.2523583681782e-05   -4.551407269560515e-06   2.8024194625254147e-06
2.2523583681782e-05   -4.551407269560515e-06   2.8024194625254147e-06
1.6909990172658293e-05   -3.081253677569883e-06   2.2333339474917826e-05
1.6909990172658293e-05   -3.081253677569883e-06   2.2333339474917826e-05
1.6909990172658293e-05   -3.081253677569883e-06   2.2333339474917826e-05
1.6909990172658293e-05   -3.081253677569883e-06   2.2333339474917826e-05
1.8046612914563934e-06   -1.3372408866592703e-06   -1.795800985872429e-06
1.8046612914563934e-06   -1.3372408866592703e-06   -1.795800985872429e-06
1.8046612914563934e-06   -1.3372408866592703e-06   -1.795800985872429e-06
1.8046612914563934e-06   -1.3372408866592703e-06   -1.795800985872429e-06
1.3664429155519047e-06   -3.266310893120525e-06   2.325427375239424e-05
1.3664429155519047e-06   -3.266310893120525e-06   2.325427375239424e-05
1.3664429155519047e-06   -3.266310893120525e-06   2.325427375239424e-05
1.3664429155519047e-06   -3.266310893120525e-06   2.325427375239424e-05
1.6469436179521457e-05   -1.606393342985053e-06   -2.913332217636231e-06
1.6469436179521457e-05   -1.606393342985053e-06   -2.913332217636231e-06
1.6469436179521457e-05   -1.606393342985053e-06   -2.913332217636231e-06
1.6469436179521457e-05   -1.606393342985053e-06   -2.913332217636231e-06
9.049764102200482e-06   -2.1606358266016215e-06   9.785333401402137e-06
9.049764102200482e-06   -2.1606358266016215e-06   9.785333401402137e-06
9.049764102200482e-06   -2.1606358266016215e-06   9.785333401402137e-06
9.049764102200482e-06   -2.1606358266016215e-06   9.785333401402137e-06
1.6469436179521437e-05   -3.266310893120525e-06   2.2258323222313e-05
1.6469436179521437e-05   -3.266310893120525e-06   2.2258323222313e-05
1.6469436179521437e-05   -3.266310893120525e-06   2.2258323222313e-05
1.6469436179521437e-05   -3.266310893120525e-06   2.2258323222313e-05
1.3664429155519047e-06   -1.606393342985053e-06   -1.917381687555086e-06
1.3664429155519047e-06   -1.606393342985053e-06   -1.917381687555086e-06
1.3664429155519047e-06   -1.606393342985053e-06   -1.917381687555086e-06
1.3664429155519047e-06   -1.606393342985053e-06   -1.917381687555086e-06
8.076657632621545e-07   -3.3463190026964285e-06   2.3026848461153e-05
8.076657632621545e-07   -3.3463190026964285e-06   2.3026848461153e-05
8.076657632621545e-07   -3.3463190026964285e-06   2.3026848461153e-05
8.076657632621545e-07   -3.3463190026964285e-06   2.3026848461153e-05
1.590186683118258e-05   -1.7812956585945734e-06   -3.069167325175573e-06
1.590186683118258e-05   -1.7812956585945734e-06   -3.069167325175573e-06
1.590186683118258e-05   -1.7812956585945734e-06   -3.069167325175573e-06
1.590186683118258e-05   -1.7812956585945734e-06   -3.069167325175573e-06
8.49303730763297e-06   -2.261672627322693e-06   9.567108061977754e-06
8.49303730763297e-06   -2.261672627322693e-06   9.567108061977754e-06
8.49303730763297e-06   -2.261672627322693e-06   9.567108061977754e-06
8.49303730763297e-06   -2.261672627322693e-06   9.567108061977754e-06
1.5901866831182546e-05   -3.3463190026966454e-06   2.2087834454691713e-05
1.5901866831182546e-05   -3.3463190026966454e-06   2.2087834454691713e-05
1.5901866831182546e-05   -3.3463190026966454e-06   2.2087834454691713e-05
1.5901866831182546e-05   -3.3463190026966454e-06   2.2087834454691713e-05
8.076657632621545e-07   -1.7812956585945734e-06   -2.1301533187143137e-06
8.076657632621545e-07   -1.7812956585945734e-06   -2.1301533187143137e-06
8.076657632621545e-07   -1.7812956585945734e-06   -2.1301533187143137e-06
8.076657632621545e-07   -1.7812956585945734e-06   -2.1301533187143137e-06
1.9046265651085e-07   -3.266803813733489e-06   2.3356473398904588e-05
1.9046265651085e-07   -3.266803813733489e-06   2.3356473398904588e-05
1.9046265651085e-07   -3.266803813733489e-06   2.3356473398904588e-05
1.9046265651085e-07   -3.266803813733489e-06   2.3356473398904588e-05
1.5305954153296212e-05   -1.8539067699848474e-06   -2.6837506553202935e-06
1.5305954153296212e-05   -1.8539067699848474e-06   -2.6837506553202935e-06
1.5305954153296212e-05   -1.8539067699848474e-06   -2.6837506553202935e-06
1.5305954153296212e-05   -1.8539067699848474e-06   -2.6837506553202935e-06
8.042070663352304e-06   -2.23798984221946e-06   9.653171671260741e-06
8.042070663352304e-06   -2.23798984221946e-06   9.653171671260741e-06
8.042070663352304e-06   -2.23798984221946e-06   9.653171671260741e-06
8.042070663352304e-06   -2.23798984221946e-06   9.653171671260741e-06
1.8046612914563934e-06   -1.2560333479234246e-06   2.281767653271381e-05
1.8046612914563934e-06   -1.2560333479234246e-06   2.281767653271381e-05
1.8046612914563934e-06   -1.2560333479234246e-06   2.281767653271381e-05
1.8046612914563934e-06   -1.2560333479234246e-06   2.281767653271381e-05
-1.2833855178584255e-05   1.202410795700902e-06   -1.0478443117942042e-07
-1.2833855178584255e-05   1.202410795700902e-06   -1.0478443117942042e-07
-1.2833855178584255e-05   1.202410795700902e-06   -1.0478443117942042e-07
-1.2833855178584255e-05   1.202410795700902e-06   -1.0478443117942042e-07
-1.3327839589253877e-05   -1.3250432556375074e-06   2.446209647458575e-05
-1.3327839589253877e-05   -1.3250432556375074e-06   2.446209647458575e-05
-1.3327839589253877e-05   -1.3250432556375074e-06   2.446209647458575e-05
-1.3327839589253877e-05   -1.3250432556375074e-06   2.446209647458575e-05
1.3664429155519047e-06   9.985283010462403e-07   -1.4225173007675304e-06
1.3664429155519047e-06   9.985283010462403e-07   -1.4225173007675304e-06
1.3664429155519047e-06   9.985283010462403e-07   -1.4225173007675304e-06
1.3664429155519047e-06   9.985283010462403e-07   -1.4225173007675304e-06
-5.737316469323894e-06   1.238753984935878e-08   1.1008766130743604e-05
-5.737316469323894e-06   1.238753984935878e-08   1.1008766130743604e-05
-5.737316469323894e-06   1.238753984935878e-08   1.1008766130743604e-05
-5.737316469323894e-06   1.238753984935878e-08   1.1008766130743604e-05
1.3664429155519047e-06   -1.3250432556375074e-06   2.306795354057548e-05
1.3664429155519047e-06   -1.3250432556375074e-06   2.306795354057548e-05
1.3664429155519047e-06   -1.3250432556375074e-06   2.306795354057548e-05
1.3664429155519047e-06   -1.3250432556375074e-06   2.306795354057548e-05
-1.3327839589253877e-05   9.985283010460234e-07   -2.8374366757219494e-08
-1.3327839589253877e-05   9.985283010460234e-07   -2.8374366757219494e-08
-1.3327839589253877e-05   9.985283010460234e-07   -2.8374366757219494e-08
-1.3327839589253877e-05   9.985283010460234e-07   -2.8374366757219494e-08
-1.3988687494046042e-05   -1.410183232513013e-06   2.4946659912972874e-05
-1.3988687494046042e-05   -1.410183232513013e-06   2.4946659912972874e-05
-1.3988687494046042e-05   -1.410183232513013e-06   2.4946659912972874e-05
-1.3988687494046042e-05   -1.410183232513013e-06   2.4946659912972874e-05
8.076657632621545e-07   8.0875432936626e-07   -1.045291386335214e-06
8.076657632621545e-07   8.0875432936626e-07   -1.045291386335214e-06
8.076657632621545e-07   8.0875432936626e-07   -1.045291386335214e-06
8.076657632621545e-07   8.0875432936626e-07   -1.045291386335214e-06
-6.2242052150525995e-06   -4.346091761779289e-08   1.1185822725713114e-05
-6.2242052150525995e-06   -4.346091761779289e-08   1.1185822725713114e-05
-6.2242052150525995e-06   -4.346091761779289e-08   1.1185822725713114e-05
-6.2242052150525995e-06   -4.346091761779289e-08   1.1185822725713114e-05
8.076657632621545e-07   -1.410183232513013e-06   2.3615297375845137e-05
8.076657632621545e-07   -1.410183232513013e-06   2.3615297375845137e-05
8.076657632621545e-07   -1.410183232513013e-06   2.3615297375845137e-05
8.076657632621545e-07   -1.410183232513013e-06   2.3615297375845137e-05
-1.3988687494046002e-05   8.0875432936626e-07   2.860711507924555e-07
-1.3988687494046002e-05   8.0875432936626e-07   2.860711507924555e-07
-1.3988687494046002e-05   8.0875432936626e-07   2.860711507924555e-07
-1.3988687494046002e-05   8.0875432936626e-07   2.860711507924555e-07
-1.469273744298324e-05   -1.3985976035119259e-06   2.5527814670493732e-05
-1.469273744298324e-05   -1.3985976035119259e-06   2.5527814670493732e-05
-1.469273744298324e-05   -1.3985976035119259e-06   2.5527814670493732e-05
-1.469273744298324e-05   -1.3985976035119259e-06   2.5527814670493732e-05
1.9046265651085e-07   6.725883312551969e-07   -5.202303895233517e-07
1.9046265651085e-07   6.725883312551969e-07   -5.202303895233517e-07
1.9046265651085e-07   6.725883312551969e-07   -5.202303895233517e-07
1.9046265651085e-07   6.725883312551969e-07   -5.202303895233517e-07
-6.84457568154396e-06   -8.273755668412007e-08   1.1658029039998653e-05
-6.84457568154396e-06   -8.273755668412007e-08   1.1658029039998653e-05
-6.84457568154396e-06   -8.273755668412007e-08   1.1658029039998653e-05
-6.84457568154396e-06   -8.273755668412007e-08   1.1658029039998653e-05
-1.2833855178584215e-05   1.4639775755955018e-06   2.0645020300836116e-05
-1.2833855178584215e-05   1.4639775755955018e-06   2.0645020300836116e-05
-1.2833855178584215e-05   1.4639775755955018e-06   2.0645020300836116e-05
-1.2833855178584215e-05   1.4639775755955018e-06   2.0645020300836116e-05
-2.7191102649817646e-05   3.898869788614189e-06   -1.822790156741751e-06
-2.7191102649817646e-05   3.898869788614189e-06   -1.822790156741751e-06
-2.7191102649817646e-05   3.898869788614189e-06   -1.822790156741751e-06
-2.7191102649817646e-05   3.898869788614189e-06   -1.822790156741751e-06
-2.790754906773742e-05   1.3868616446674302e-06   2.2831333868529678e-05
-2.790754906773742e-05   1.3868616446674302e-06   2.2831333868529678e-05
-2.790754906773742e-05   1.3868616446674302e-06   2.2831333868529678e-05
-2.790754906773742e-05   1.3868616446674302e-06   2.2831333868529678e-05
-1.3327839589253823e-05   3.695654750353501e-06   -2.853457792354597e-06
-1.3327839589253823e-05   3.695654750353501e-06   -2.853457792354597e-06
-1.3327839589253823e-05   3.695654750353501e-06   -2.853457792354597e-06
-1.3327839589253823e-05   3.695654750353501e-06   -2.853457792354597e-06
-2.015692416901062e-05   2.653519932792163e-06   9.153630731110107e-06
-2.015692416901062e-05   2.653519932792163e-06   9.153630731110107e-06
-2.015692416901062e-05   2.653519932792163e-06   9.153630731110107e-06
-2.015692416901062e-05   2.653519932792163e-06   9.153630731110107e-06
-1.3327839589253836e-05   1.3868616446674302e-06   2.1446058005118013e-05
-1.3327839589253836e-05   1.3868616446674302e-06   2.1446058005118013e-05
-1.3327839589253836e-05   1.3868616446674302e-06   2.1446058005118013e-05
-1.3327839589253836e-05   1.3868616446674302e-06   2.1446058005118013e-05
-2.7907549067737364e-05   3.695654750353501e-06   -1.4681819289429597e-06
-2.7907549067737364e-05   3.695654750353501e-06   -1.4681819289429597e-06
-2.7907549067737364e-05   3.695654750353501e-06   -1.4681819289429597e-06
-2.7907549067737364e-05   3.695654750353501e-06   -1.4681819289429597e-06
-2.8786590446138764e-05   1.2375694359442139e-06   2.4231421089480768e-05
-2.8786590446138764e-05   1.2375694359442139e-06   2.4231421089480768e-05
-2.8786590446138764e-05   1.2375694359442139e-06   2.4231421089480768e-05
-2.8786590446138764e-05   1.2375694359442139e-06   2.4231421089480768e-05
-1.3988687494046002e-05   3.5066273466129345e-06   -1.793185243741585e-06
-1.3988687494046002e-05   3.5066273466129345e-06   -1.793185243741585e-06
-1.3988687494046002e-05   3.5066273466129345e-06   -1.793185243741585e-06
-1.3988687494046002e-05   3.5066273466129345e-06   -1.793185243741585e-06
-2.0688488473629515e-05   2.6091110437562095e-06   9.911659503945033e-06
-2.0688488473629515e-05   2.6091110437562095e-06   9.911659503945033e-06
-2.0688488473629515e-05   2.6091110437562095e-06   9.911659503945033e-06
-2.0688488473629515e-05   2.6091110437562095e-06   9.911659503945033e-06
-1.3988687494046002e-05   1.2375694359442139e-06   2.2869986343079492e-05
-1.3988687494046002e-05   1.2375694359442139e-06   2.2869986343079492e-05
-1.3988687494046002e-05   1.2375694359442139e-06   2.2869986343079492e-05
-1.3988687494046002e-05   1.2375694359442139e-06   2.2869986343079492e-05
-2.8786590446138764e-05   3.5066273466129345e-06   -4.317504973403363e-07
-2.8786590446138764e-05   3.5066273466129345e-06   -4.317504973403363e-07
-2.8786590446138764e-05   3.5066273466129345e-06   -4.317504973403363e-07
-2.8786590446138764e-05   3.5066273466129345e-06   -4.317504973403363e-07
-2.9715528070531417e-05   1.067610180133195e-06   2.533776642226306e-05
-2.9715528070531417e-05   1.067610180133195e-06   2.533776642226306e-05
-2.9715528070531417e-05   1.067610180133195e-06   2.533776642226306e-05
-2.9715528070531417e-05   1.067610180133195e-06   2.533776642226306e-05
-1.4692737442983199e-05   3.25127908012892e-06   -1.010419296981215e-06
-1.4692737442983199e-05   3.25127908012892e-06   -1.010419296981215e-06
-1.4692737442983199e-05   3.25127908012892e-06   -1.010419296981215e-06
-1.4692737442983199e-05   3.25127908012892e-06   -1.010419296981215e-06
-2.158122042947255e-05   2.45660833842528e-06   1.0947188125523977e-05
-2.158122042947255e-05   2.45660833842528e-06   1.0947188125523977e-05
-2.158122042947255e-05   2.45660833842528e-06   1.0947188125523977e-05
-2.158122042947255e-05   2.45660833842528e-06   1.0947188125523977e-05
-2.7191102649817646e-05   6.422053690123162e-06   1.0864199231215912e-05
-2.7191102649817646e-05   6.422053690123162e-06   1.0864199231215912e-05
-2.7191102649817646e-05   6.422053690123162e-06   1.0864199231215912e-05
-2.7191102649817646e-05   6.422053690123162e-06   1.0864199231215912e-05
-4.096132466437904e-05   6.340876892155321e-06   -1.2134876871833949e-05
-4.096132466437904e-05   6.340876892155321e-06   -1.2134876871833949e-05
-4.096132466437904e-05   6.340876892155321e-06   -1.2134876871833949e-05
-4.096132466437904e-05   6.340876892155321e-06   -1.2134876871833949e-05
-4.224915702927501e-05   6.210938293584956e-06   1.6146740361070388e-05
-4.224915702927501e-05   6.210938293584956e-06   1.6146740361070388e-05
-4.224915702927501e-05   6.210938293584956e-06   1.6146740361070388e-05
-4.224915702927501e-05   6.210938293584956e-06   1.6146740361070388e-05
-2.7907549067737364e-05   6.467993994658736e-06   -7.910172995469997e-06
-2.7907549067737364e-05   6.467993994658736e-06   -7.910172995469997e-06
-2.7907549067737364e-05   6.467993994658736e-06   -7.910172995469997e-06
-2.7907549067737364e-05   6.467993994658736e-06   -7.910172995469997e-06
-3.31854730445978e-05   6.455678058542302e-06   8.937565276339069e-07
-3.31854730445978e-05   6.455678058542302e-06   8.937565276339069e-07
-3.31854730445978e-05   6.455678058542302e-06   8.937565276339069e-07
-3.31854730445978e-05   6.455678058542302e-06   8.937565276339069e-07
-2.7907549067737337e-05   6.210938293584956e-06   1.5992506940426207e-05
-2.7907549067737337e-05   6.210938293584956e-06   1.5992506940426207e-05
-2.7907549067737337e-05   6.210938293584956e-06   1.5992506940426207e-05
-2.7907549067737337e-05   6.210938293584956e-06   1.5992506940426207e-05
-4.224915702927501e-05   6.467993994658519e-06   -7.755939574825735e-06
-4.224915702927501e-05   6.467993994658519e-06   -7.755939574825735e-06
-4.224915702927501e-05   6.467993994658519e-06   -7.755939574825735e-06
-4.224915702927501e-05   6.467993994658519e-06   -7.755939574825735e-06
-4.351194731387251e-05   6.056348934134351e-06   1.984395307605901e-05
-4.351194731387251e-05   6.056348934134351e-06   1.984395307605901e-05
-4.351194731387251e-05   6.056348934134351e-06   1.984395307605901e-05
-4.351194731387251e-05   6.056348934134351e-06   1.984395307605901e-05
-2.8786590446138724e-05   6.423194964410911e-06   -4.918415988329933e-06
-2.8786590446138724e-05   6.423194964410911e-06   -4.918415988329933e-06
-2.8786590446138724e-05   6.423194964410911e-06   -4.918415988329933e-06
-2.8786590446138724e-05   6.423194964410911e-06   -4.918415988329933e-06
-3.467164625778339e-05   6.459565579604743e-06   4.868187995295107e-06
-3.467164625778339e-05   6.459565579604743e-06   4.868187995295107e-06
-3.467164625778339e-05   6.459565579604743e-06   4.868187995295107e-06
-3.467164625778339e-05   6.459565579604743e-06   4.868187995295107e-06
-2.8786590446138724e-05   6.056348934134351e-06   1.962384545789312e-05
-2.8786590446138724e-05   6.056348934134351e-06   1.962384545789312e-05
-2.8786590446138724e-05   6.056348934134351e-06   1.962384545789312e-05
-2.8786590446138724e-05   6.056348934134351e-06   1.962384545789312e-05
-4.351194731387251e-05   6.423194964410911e-06   -4.698308370164068e-06
-4.351194731387251e-05   6.423194964410911e-06   -4.698308370164068e-06
-4.351194731387251e-05   6.423194964410911e-06   -4.698308370164068e-06
-4.351194731387251e-05   6.423194964410911e-06   -4.698308370164068e-06
-4.5002143566263384e-05   5.063283090707155e-06   2.6018958359617732e-05
-4.5002143566263384e-05   5.063283090707155e-06   2.6018958359617732e-05
-4.5002143566263384e-05   5.063283090707155e-06   2.6018958359617732e-05
-4.5002143566263384e-05   5.063283090707155e-06   2.6018958359617732e-05
-2.9715528070531322e-05   5.918462409254055e-06   2.8158275602809153e-08
-2.9715528070531322e-05   5.918462409254055e-06   2.8158275602809153e-08
-2.9715528070531322e-05   5.918462409254055e-06   2.8158275602809153e-08
-2.9715528070531322e-05   5.918462409254055e-06   2.8158275602809153e-08
-3.519078166004068e-05   6.156895246746527e-06   9.010521222290097e-06
-3.519078166004068e-05   6.156895246746527e-06   9.010521222290097e-06
-3.519078166004068e-05   6.156895246746527e-06   9.010521222290097e-06
-3.519078166004068e-05   6.156895246746527e-06   9.010521222290097e-06
2.7256393537091245e-05   -3.808083317938596e-06   2.094437223102677e-05
2.7256393537091245e-05   -3.808083317938596e-06   2.094437223102677e-05
2.7256393537091245e-05   -3.808083317938596e-06   2.094437223102677e-05
2.7256393537091245e-05   -3.808083317938596e-06   2.094437223102677e-05
1.3477896889465463e-05   -2.8062062893505647e-06   -1.4186626311967583e-06
1.3477896889465463e-05   -2.8062062893505647e-06   -1.4186626311967583e-06
1.3477896889465463e-05   -2.8062062893505647e-06   -1.4186626311967583e-06
1.3477896889465463e-05   -2.8062062893505647e-06   -1.4186626311967583e-06
1.297010660599236e-05   -4.311101948297142e-06   1.819997441659222e-05
1.297010660599236e-05   -4.311101948297142e-06   1.819997441659222e-05
1.297010660599236e-05   -4.311101948297142e-06   1.819997441659222e-05
1.297010660599236e-05   -4.311101948297142e-06   1.819997441659222e-05
2.6323301232502418e-05   -3.2515690455876822e-06   -4.691069702550094e-06
2.6323301232502418e-05   -3.2515690455876822e-06   -4.691069702550094e-06
2.6323301232502418e-05   -3.2515690455876822e-06   -4.691069702550094e-06
2.6323301232502418e-05   -3.2515690455876822e-06   -4.691069702550094e-06
1.9091231752968498e-05   -3.5076510379985007e-06   7.51602862545292e-06
1.9091231752968498e-05   -3.5076510379985007e-06   7.51602862545292e-06
1.9091231752968498e-05   -3.5076510379985007e-06   7.51602862545292e-06
1.9091231752968498e-05   -3.5076510379985007e-06   7.51602862545292e-06
2.632330123250237e-05   -4.311101948297142e-06   1.7564254674966632e-05
2.632330123250237e-05   -4.311101948297142e-06   1.7564254674966632e-05
2.632330123250237e-05   -4.311101948297142e-06   1.7564254674966632e-05
2.632330123250237e-05   -4.311101948297142e-06   1.7564254674966632e-05
1.2970106605992405e-05   -3.2515690455876822e-06   -4.055349960924485e-06
1.2970106605992405e-05   -3.2515690455876822e-06   -4.055349960924485e-06
1.2970106605992405e-05   -3.2515690455876822e-06   -4.055349960924485e-06
1.2970106605992405e-05   -3.2515690455876822e-06   -4.055349960924485e-06
1.2405375805446597e-05   -4.384689675674064e-06   1.6301816421948417e-05
1.2405375805446597e-05   -4.384689675674064e-06   1.6301816421948417e-05
1.2405375805446597e-05   -4.384689675674064e-06   1.6301816421948417e-05
1.2405375805446597e-05   -4.384689675674064e-06   1.6301816421948417e-05
2.5477357168812172e-05   -3.340241348183089e-06   -6.1114881801555e-06
2.5477357168812172e-05   -3.340241348183089e-06   -6.1114881801555e-06
2.5477357168812172e-05   -3.340241348183089e-06   -6.1114881801555e-06
2.5477357168812172e-05   -3.340241348183089e-06   -6.1114881801555e-06
1.874538616816868e-05   -3.680615603929207e-06   5.312688041031206e-06
1.874538616816868e-05   -3.680615603929207e-06   5.312688041031206e-06
1.874538616816868e-05   -3.680615603929207e-06   5.312688041031206e-06
1.874538616816868e-05   -3.680615603929207e-06   5.312688041031206e-06
2.5477357168812088e-05   -4.384689675674064e-06   1.5675147425453723e-05
2.5477357168812088e-05   -4.384689675674064e-06   1.5675147425453723e-05
2.5477357168812088e-05   -4.384689675674064e-06   1.5675147425453723e-05
2.5477357168812088e-05   -4.384689675674064e-06   1.5675147425453723e-05
1.2405375805446624e-05   -3.340241348183089e-06   -5.484819183660728e-06
1.2405375805446624e-05   -3.340241348183089e-06   -5.484819183660728e-06
1.2405375805446624e-05   -3.340241348183089e-06   -5.484819183660728e-06
1.2405375805446624e-05   -3.340241348183089e-06   -5.484819183660728e-06
1.1861770450944461e-05   -4.3517079116779395e-06   1.3648209261778914e-05
1.1861770450944461e-05   -4.3517079116779395e-06   1.3648209261778914e-05
1.1861770450944461e-05   -4.3517079116779395e-06   1.3648209261778914e-05
1.1861770450944461e-05   -4.3517079116779395e-06   1.3648209261778914e-05
2.4518312706104562e-05   -3.3720118942980135e-06   -8.033845440582511e-06
2.4518312706104562e-05   -3.3720118942980135e-06   -8.033845440582511e-06
2.4518312706104562e-05   -3.3720118942980135e-06   -8.033845440582511e-06
2.4518312706104562e-05   -3.3720118942980135e-06   -8.033845440582511e-06
1.779096200815723e-05   -3.6167533697347744e-06   3.3252506079254566e-06
1.779096200815723e-05   -3.6167533697347744e-06   3.3252506079254566e-06
1.779096200815723e-05   -3.6167533697347744e-06   3.3252506079254566e-06
1.779096200815723e-05   -3.6167533697347744e-06   3.3252506079254566e-06
1.3477896889465463e-05   -1.3372408866592703e-06   2.1901514287290982e-05
1.3477896889465463e-05   -1.3372408866592703e-06   2.1901514287290982e-05
1.3477896889465463e-05   -1.3372408866592703e-06   2.1901514287290982e-05
1.3477896889465463e-05   -1.3372408866592703e-06   2.1901514287290982e-05
5.43872340358882e-07   -5.383478685646974e-07   8.241425163036265e-07
5.43872340358882e-07   -5.383478685646974e-07   8.241425163036265e-07
5.43872340358882e-07   -5.383478685646974e-07   8.241425163036265e-07
5.43872340358882e-07   -5.383478685646974e-07   8.241425163036265e-07
5.5902497411654435e-08   -1.606393342985053e-06   2.2123728733180873e-05
5.5902497411654435e-08   -1.606393342985053e-06   2.2123728733180873e-05
5.5902497411654435e-08   -1.606393342985053e-06   2.2123728733180873e-05
5.5902497411654435e-08   -1.606393342985053e-06   2.2123728733180873e-05
1.2970106605992405e-05   -8.531274654391234e-07   1.4809569235212637e-07
1.2970106605992405e-05   -8.531274654391234e-07   1.4809569235212637e-07
1.2970106605992405e-05   -8.531274654391234e-07   1.4809569235212637e-07
1.2970106605992405e-05   -8.531274654391234e-07   1.4809569235212637e-07
6.6796150601501175e-06   -1.0441810952238444e-06   1.0746880446626693e-05
6.6796150601501175e-06   -1.0441810952238444e-06   1.0746880446626693e-05
6.6796150601501175e-06   -1.0441810952238444e-06   1.0746880446626693e-05
6.6796150601501175e-06   -1.0441810952238444e-06   1.0746880446626693e-05
1.2970106605992398e-05   -1.6063933429852698e-06   2.167176920665325e-05
1.2970106605992398e-05   -1.6063933429852698e-06   2.167176920665325e-05
1.2970106605992398e-05   -1.6063933429852698e-06   2.167176920665325e-05
1.2970106605992398e-05   -1.6063933429852698e-06   2.167176920665325e-05
5.5902497411654435e-08   -8.531274654391234e-07   6.00055218879722e-07
5.5902497411654435e-08   -8.531274654391234e-07   6.00055218879722e-07
5.5902497411654435e-08   -8.531274654391234e-07   6.00055218879722e-07
5.5902497411654435e-08   -8.531274654391234e-07   6.00055218879722e-07
-4.513485962278518e-07   -1.7812956585945734e-06   2.1783769794931512e-05
-4.513485962278518e-07   -1.7812956585945734e-06   2.1783769794931512e-05
-4.513485962278518e-07   -1.7812956585945734e-06   2.1783769794931512e-05
-4.513485962278518e-07   -1.7812956585945734e-06   2.1783769794931512e-05
1.2405375805446624e-05   -1.0856690485659595e-06   -6.148017387635991e-08
1.2405375805446624e-05   -1.0856690485659595e-06   -6.148017387635991e-08
1.2405375805446624e-05   -1.0856690485659595e-06   -6.148017387635991e-08
1.2405375805446624e-05   -1.0856690485659595e-06   -6.148017387635991e-08
6.118261439147993e-06   -1.2085174390737315e-06   1.049075280425962e-05
6.118261439147993e-06   -1.2085174390737315e-06   1.049075280425962e-05
6.118261439147993e-06   -1.2085174390737315e-06   1.049075280425962e-05
6.118261439147993e-06   -1.2085174390737315e-06   1.049075280425962e-05
1.2405375805446597e-05   -1.7812956585945734e-06   2.1366393828914452e-05
1.2405375805446597e-05   -1.7812956585945734e-06   2.1366393828914452e-05
1.2405375805446597e-05   -1.7812956585945734e-06   2.1366393828914452e-05
1.2405375805446597e-05   -1.7812956585945734e-06   2.1366393828914452e-05
-4.513485962278518e-07   -1.0856690485659595e-06   3.558957921408288e-07
-4.513485962278518e-07   -1.0856690485659595e-06   3.558957921408288e-07
-4.513485962278518e-07   -1.0856690485659595e-06   3.558957921408288e-07
-4.513485962278518e-07   -1.0856690485659595e-06   3.558957921408288e-07
-9.79446763889791e-07   -1.8539067699848474e-06   2.1944138567022526e-05
-9.79446763889791e-07   -1.8539067699848474e-06   2.1944138567022526e-05
-9.79446763889791e-07   -1.8539067699848474e-06   2.1944138567022526e-05
-9.79446763889791e-07   -1.8539067699848474e-06   2.1944138567022526e-05
1.1861770450944495e-05   -1.2675564217121994e-06   1.9029966666840213e-07
1.1861770450944495e-05   -1.2675564217121994e-06   1.9029966666840213e-07
1.1861770450944495e-05   -1.2675564217121994e-06   1.9029966666840213e-07
1.1861770450944495e-05   -1.2675564217121994e-06   1.9029966666840213e-07
5.6982252258515005e-06   -1.2952047799574297e-06   1.0479464056771125e-05
5.6982252258515005e-06   -1.2952047799574297e-06   1.0479464056771125e-05
5.6982252258515005e-06   -1.2952047799574297e-06   1.0479464056771125e-05
5.6982252258515005e-06   -1.2952047799574297e-06   1.0479464056771125e-05
5.43872340358882e-07   1.2024107957006851e-06   2.259680016666616e-05
5.43872340358882e-07   1.2024107957006851e-06   2.259680016666616e-05
5.43872340358882e-07   1.2024107957006851e-06   2.259680016666616e-05
5.43872340358882e-07   1.2024107957006851e-06   2.259680016666616e-05
-1.2015881860254646e-05   1.7349187394113518e-06   1.9833812652033257e-06
-1.2015881860254646e-05   1.7349187394113518e-06   1.9833812652033257e-06
-1.2015881860254646e-05   1.7349187394113518e-06   1.9833812652033257e-06
-1.2015881860254646e-05   1.7349187394113518e-06   1.9833812652033257e-06
-1.2526031514475676e-05   9.985283010462403e-07   2.2904160692223223e-05
-1.2526031514475676e-05   9.985283010462403e-07   2.2904160692223223e-05
-1.2526031514475676e-05   9.985283010462403e-07   2.2904160692223223e-05
-1.2526031514475676e-05   9.985283010462403e-07   2.2904160692223223e-05
5.5902497411654435e-08   1.4744742548042714e-06   1.6487031001561486e-06
5.5902497411654435e-08   1.4744742548042714e-06   1.6487031001561486e-06
5.5902497411654435e-08   1.4744742548042714e-06   1.6487031001561486e-06
5.5902497411654435e-08   1.4744742548042714e-06   1.6487031001561486e-06
-5.994689924866129e-06   1.3666320358037259e-06   1.1797729135352812e-05
-5.994689924866129e-06   1.3666320358037259e-06   1.1797729135352812e-05
-5.994689924866129e-06   1.3666320358037259e-06   1.1797729135352812e-05
-5.994689924866129e-06   1.3666320358037259e-06   1.1797729135352812e-05
5.5902497411654435e-08   9.985283010462403e-07   2.2618593119968253e-05
5.5902497411654435e-08   9.985283010462403e-07   2.2618593119968253e-05
5.5902497411654435e-08   9.985283010462403e-07   2.2618593119968253e-05
5.5902497411654435e-08   9.985283010462403e-07   2.2618593119968253e-05
-1.2526031514475676e-05   1.4744742548042714e-06   1.9342706724110106e-06
-1.2526031514475676e-05   1.4744742548042714e-06   1.9342706724110106e-06
-1.2526031514475676e-05   1.4744742548042714e-06   1.9342706724110106e-06
-1.2526031514475676e-05   1.4744742548042714e-06   1.9342706724110106e-06
-1.3064340114230056e-05   8.0875432936626e-07   2.3116369330964358e-05
-1.3064340114230056e-05   8.0875432936626e-07   2.3116369330964358e-05
-1.3064340114230056e-05   8.0875432936626e-07   2.3116369330964358e-05
-1.3064340114230056e-05   8.0875432936626e-07   2.3116369330964358e-05
-4.5134859622786533e-07   1.221650335455661e-06   1.846979197307191e-06
-4.5134859622786533e-07   1.221650335455661e-06   1.846979197307191e-06
-4.5134859622786533e-07   1.221650335455661e-06   1.846979197307191e-06
-4.5134859622786533e-07   1.221650335455661e-06   1.846979197307191e-06
-6.468337110465959e-06   1.2187834411939592e-06   1.1877013524261011e-05
-6.468337110465959e-06   1.2187834411939592e-06   1.1877013524261011e-05
-6.468337110465959e-06   1.2187834411939592e-06   1.1877013524261011e-05
-6.468337110465959e-06   1.2187834411939592e-06   1.1877013524261011e-05
-4.513485962278518e-07   8.0875432936626e-07   2.286863172731087e-05
-4.513485962278518e-07   8.0875432936626e-07   2.286863172731087e-05
-4.513485962278518e-07   8.0875432936626e-07   2.286863172731087e-05
-4.513485962278518e-07   8.0875432936626e-07   2.286863172731087e-05
-1.306434011423007e-05   1.221650335455661e-06   2.0947168009607204e-06
-1.306434011423007e-05   1.221650335455661e-06   2.0947168009607204e-06
-1.306434011423007e-05   1.221650335455661e-06   2.0947168009607204e-06
-1.306434011423007e-05   1.221650335455661e-06   2.0947168009607204e-06
-1.3619603476904333e-05   6.725883312551969e-07   2.3454387972306635e-05
-1.3619603476904333e-05   6.725883312551969e-07   2.3454387972306635e-05
-1.3619603476904333e-05   6.725883312551969e-07   2.3454387972306635e-05
-1.3619603476904333e-05   6.725883312551969e-07   2.3454387972306635e-05
-9.79446763889791e-07   9.967006074829057e-07   2.192992751545909e-06
-9.79446763889791e-07   9.967006074829057e-07   2.192992751545909e-06
-9.79446763889791e-07   9.967006074829057e-07   2.192992751545909e-06
-9.79446763889791e-07   9.967006074829057e-07   2.192992751545909e-06
-6.980939299342493e-06   1.0773105977423397e-06   1.214711431647838e-05
-6.980939299342493e-06   1.0773105977423397e-06   1.214711431647838e-05
-6.980939299342493e-06   1.0773105977423397e-06   1.214711431647838e-05
-6.980939299342493e-06   1.0773105977423397e-06   1.214711431647838e-05
-1.2015881860254687e-05   3.898869788614406e-06   1.9737363879518887e-05
-1.2015881860254687e-05   3.898869788614406e-06   1.9737363879518887e-05
-1.2015881860254687e-05   3.898869788614406e-06   1.9737363879518887e-05
-1.2015881860254687e-05   3.898869788614406e-06   1.9737363879518887e-05
-2.4195286684908636e-05   3.948573399377821e-06   -5.318219951129391e-07
-2.4195286684908636e-05   3.948573399377821e-06   -5.318219951129391e-07
-2.4195286684908636e-05   3.948573399377821e-06   -5.318219951129391e-07
-2.4195286684908636e-05   3.948573399377821e-06   -5.318219951129391e-07
-2.4787341521292466e-05   3.695654750353501e-06   2.0082400458544514e-05
-2.4787341521292466e-05   3.695654750353501e-06   2.0082400458544514e-05
-2.4787341521292466e-05   3.695654750353501e-06   2.0082400458544514e-05
-2.4787341521292466e-05   3.695654750353501e-06   2.0082400458544514e-05
-1.252603151447569e-05   3.701193403551255e-06   -3.564394114021429e-07
-1.252603151447569e-05   3.701193403551255e-06   -3.564394114021429e-07
-1.252603151447569e-05   3.701193403551255e-06   -3.564394114021429e-07
-1.252603151447569e-05   3.701193403551255e-06   -3.564394114021429e-07
-1.829906474024841e-05   3.799940111657435e-06   9.206034606688656e-06
-1.829906474024841e-05   3.799940111657435e-06   9.206034606688656e-06
-1.829906474024841e-05   3.799940111657435e-06   9.206034606688656e-06
-1.829906474024841e-05   3.799940111657435e-06   9.206034606688656e-06
-1.252603151447569e-05   3.695654750353501e-06   2.007907726662582e-05
-1.252603151447569e-05   3.695654750353501e-06   2.007907726662582e-05
-1.252603151447569e-05   3.695654750353501e-06   2.007907726662582e-05
-1.252603151447569e-05   3.695654750353501e-06   2.007907726662582e-05
-2.4787341521292425e-05   3.701193403551255e-06   -3.5311621948350136e-07
-2.4787341521292425e-05   3.701193403551255e-06   -3.5311621948350136e-07
-2.4787341521292425e-05   3.701193403551255e-06   -3.5311621948350136e-07
-2.4787341521292425e-05   3.701193403551255e-06   -3.5311621948350136e-07
-2.5442788390559723e-05   3.5066273466131514e-06   2.101633489543051e-05
-2.5442788390559723e-05   3.5066273466131514e-06   2.101633489543051e-05
-2.5442788390559723e-05   3.5066273466131514e-06   2.101633489543051e-05
-2.5442788390559723e-05   3.5066273466131514e-06   2.101633489543051e-05
-1.306434011423007e-05   3.471997278280039e-06   4.0636580921426884e-07
-1.306434011423007e-05   3.471997278280039e-06   4.0636580921426884e-07
-1.306434011423007e-05   3.471997278280039e-06   4.0636580921426884e-07
-1.306434011423007e-05   3.471997278280039e-06   4.0636580921426884e-07
-1.872478014525549e-05   3.660995163425355e-06   9.727033796502554e-06
-1.872478014525549e-05   3.660995163425355e-06   9.727033796502554e-06
-1.872478014525549e-05   3.660995163425355e-06   9.727033796502554e-06
-1.872478014525549e-05   3.660995163425355e-06   9.727033796502554e-06
-1.3064340114230056e-05   3.5066273466129345e-06   2.103711293643029e-05
-1.3064340114230056e-05   3.5066273466129345e-06   2.103711293643029e-05
-1.3064340114230056e-05   3.5066273466129345e-06   2.103711293643029e-05
-1.3064340114230056e-05   3.5066273466129345e-06   2.103711293643029e-05
-2.5442788390559682e-05   3.471997278280039e-06   3.8558776821440675e-07
-2.5442788390559682e-05   3.471997278280039e-06   3.8558776821440675e-07
-2.5442788390559682e-05   3.471997278280039e-06   3.8558776821440675e-07
-2.5442788390559682e-05   3.471997278280039e-06   3.8558776821440675e-07
-2.6067017471340502e-05   3.2512790801287033e-06   2.168535689007849e-05
-2.6067017471340502e-05   3.2512790801287033e-06   2.168535689007849e-05
-2.6067017471340502e-05   3.2512790801287033e-06   2.168535689007849e-05
-2.6067017471340502e-05   3.2512790801287033e-06   2.168535689007849e-05
-1.3619603476904387e-05   3.1910613902787557e-06   9.757975132618202e-07
-1.3619603476904387e-05   3.1910613902787557e-06   9.757975132618202e-07
-1.3619603476904387e-05   3.1910613902787557e-06   9.757975132618202e-07
-1.3619603476904387e-05   3.1910613902787557e-06   9.757975132618202e-07
-1.940723527769682e-05   3.4790356328328643e-06   1.0449065969050963e-05
-1.940723527769682e-05   3.4790356328328643e-06   1.0449065969050963e-05
-1.940723527769682e-05   3.4790356328328643e-06   1.0449065969050963e-05
-1.940723527769682e-05   3.4790356328328643e-06   1.0449065969050963e-05
-2.419528668490861e-05   6.340876892155321e-06   9.503805409665617e-06
-2.419528668490861e-05   6.340876892155321e-06   9.503805409665617e-06
-2.419528668490861e-05   6.340876892155321e-06   9.503805409665617e-06
-2.419528668490861e-05   6.340876892155321e-06   9.503805409665617e-06
-3.579508807046957e-05   5.697937988335478e-06   -1.0214960241894551e-05
-3.579508807046957e-05   5.697937988335478e-06   -1.0214960241894551e-05
-3.579508807046957e-05   5.697937988335478e-06   -1.0214960241894551e-05
-3.579508807046957e-05   5.697937988335478e-06   -1.0214960241894551e-05
-3.672775775331337e-05   6.467993994658519e-06   1.3217132569406779e-05
-3.672775775331337e-05   6.467993994658519e-06   1.3217132569406779e-05
-3.672775775331337e-05   6.467993994658519e-06   1.3217132569406779e-05
-3.672775775331337e-05   6.467993994658519e-06   1.3217132569406779e-05
-2.4787341521292466e-05   5.762532623641023e-06   -6.26028432801763e-06
-2.4787341521292466e-05   5.762532623641023e-06   -6.26028432801763e-06
-2.4787341521292466e-05   5.762532623641023e-06   -6.26028432801763e-06
-2.4787341521292466e-05   5.762532623641023e-06   -6.26028432801763e-06
-2.9212558397650585e-05   6.029530794690163e-06   9.548782299498683e-07
-2.9212558397650585e-05   6.029530794690163e-06   9.548782299498683e-07
-2.9212558397650585e-05   6.029530794690163e-06   9.548782299498683e-07
-2.9212558397650585e-05   6.029530794690163e-06   9.548782299498683e-07
-2.4787341521292412e-05   6.467993994658519e-06   1.3640409392017341e-05
-2.4787341521292412e-05   6.467993994658519e-06   1.3640409392017341e-05
-2.4787341521292412e-05   6.467993994658519e-06   1.3640409392017341e-05
-2.4787341521292412e-05   6.467993994658519e-06   1.3640409392017341e-05
-3.672775775331351e-05   5.762532623641023e-06   -6.683561150628138e-06
-3.672775775331351e-05   5.762532623641023e-06   -6.683561150628138e-06
-3.672775775331351e-05   5.762532623641023e-06   -6.683561150628138e-06
-3.672775775331351e-05   5.762532623641023e-06   -6.683561150628138e-06
-3.763736460068881e-05   6.423194964410911e-06   1.6095917385615974e-05
-3.763736460068881e-05   6.423194964410911e-06   1.6095917385615974e-05
-3.763736460068881e-05   6.423194964410911e-06   1.6095917385615974e-05
-3.763736460068881e-05   6.423194964410911e-06   1.6095917385615974e-05
-2.5442788390559723e-05   5.700274933036166e-06   -3.7946242791077897e-06
-2.5442788390559723e-05   5.700274933036166e-06   -3.7946242791077897e-06
-2.5442788390559723e-05   5.700274933036166e-06   -3.7946242791077897e-06
-2.5442788390559723e-05   5.700274933036166e-06   -3.7946242791077897e-06
-3.0366125581067125e-05   6.141219252190711e-06   4.146371113579006e-06
-3.0366125581067125e-05   6.141219252190711e-06   4.146371113579006e-06
-3.0366125581067125e-05   6.141219252190711e-06   4.146371113579006e-06
-3.0366125581067125e-05   6.141219252190711e-06   4.146371113579006e-06
-2.5442788390559723e-05   6.423194964410911e-06   1.6529669404440886e-05
-2.5442788390559723e-05   6.423194964410911e-06   1.6529669404440886e-05
-2.5442788390559723e-05   6.423194964410911e-06   1.6529669404440886e-05
-2.5442788390559723e-05   6.423194964410911e-06   1.6529669404440886e-05
-3.763736460068892e-05   5.700274933036166e-06   -4.228376297932593e-06
-3.763736460068892e-05   5.700274933036166e-06   -4.228376297932593e-06
-3.763736460068892e-05   5.700274933036166e-06   -4.228376297932593e-06
-3.763736460068892e-05   5.700274933036166e-06   -4.228376297932593e-06
-3.8698571808473985e-05   5.918462409254055e-06   2.1020876347388386e-05
-3.8698571808473985e-05   5.918462409254055e-06   2.1020876347388386e-05
-3.8698571808473985e-05   5.918462409254055e-06   2.1020876347388386e-05
-3.8698571808473985e-05   5.918462409254055e-06   2.1020876347388386e-05
-2.6067017471340502e-05   5.263701117126304e-06   3.611425607758661e-07
-2.6067017471340502e-05   5.263701117126304e-06   3.611425607758661e-07
-2.6067017471340502e-05   5.263701117126304e-06   3.611425607758661e-07
-2.6067017471340502e-05   5.263701117126304e-06   3.611425607758661e-07
-3.064772406735552e-05   5.960845494396884e-06   7.577366927772385e-06
-3.064772406735552e-05   5.960845494396884e-06   7.577366927772385e-06
-3.064772406735552e-05   5.960845494396884e-06   7.577366927772385e-06
-3.064772406735552e-05   5.960845494396884e-06   7.577366927772385e-06
2.0792310983192157e-05   -2.8062062893505647e-06   1.7559360331879893e-05
2.0792310983192157e-05   -2.8062062893505647e-06   1.7559360331879893e-05
2.0792310983192157e-05   -2.8062062893505647e-06   1.7559360331879893e-05
2.0792310983192157e-05   -2.8062062893505647e-06   1.7559360331879893e-05
9.779484691907238e-06   -1.866987528925711e-06   -2.318188973400798e-07
9.779484691907238e-06   -1.866987528925711e-06   -2.318188973400798e-07
9.779484691907238e-06   -1.866987528925711e-06   -2.318188973400798e-07
9.779484691907238e-06   -1.866987528925711e-06   -2.318188973400798e-07
9.325109367973634e-06   -3.2515690455876822e-06   1.5418030208413252e-05
9.325109367973634e-06   -3.2515690455876822e-06   1.5418030208413252e-05
9.325109367973634e-06   -3.2515690455876822e-06   1.5418030208413252e-05
9.325109367973634e-06   -3.2515690455876822e-06   1.5418030208413252e-05
1.991249670754291e-05   -2.2614878834622924e-06   -2.82166405481063e-06
1.991249670754291e-05   -2.2614878834622924e-06   -2.82166405481063e-06
1.991249670754291e-05   -2.2614878834622924e-06   -2.82166405481063e-06
1.991249670754291e-05   -2.2614878834622924e-06   -2.82166405481063e-06
1.4249342867567495e-05   -2.5650869147596234e-06   6.799085097260009e-06
1.4249342867567495e-05   -2.5650869147596234e-06   6.799085097260009e-06
1.4249342867567495e-05   -2.5650869147596234e-06   6.799085097260009e-06
1.4249342867567495e-05   -2.5650869147596234e-06   6.799085097260009e-06
1.991249670754291e-05   -3.2515690455876822e-06   1.482398151113817e-05
1.991249670754291e-05   -3.2515690455876822e-06   1.482398151113817e-05
1.991249670754291e-05   -3.2515690455876822e-06   1.482398151113817e-05
1.991249670754291e-05   -3.2515690455876822e-06   1.482398151113817e-05
9.325109367973651e-06   -2.2614878834622924e-06   -2.22761535753548e-06
9.325109367973651e-06   -2.2614878834622924e-06   -2.22761535753548e-06
9.325109367973651e-06   -2.2614878834622924e-06   -2.22761535753548e-06
9.325109367973651e-06   -2.2614878834622924e-06   -2.22761535753548e-06
8.8229210050454e-06   -3.340241348183089e-06   1.3913955786059077e-05
8.8229210050454e-06   -3.340241348183089e-06   1.3913955786059077e-05
8.8229210050454e-06   -3.340241348183089e-06   1.3913955786059077e-05
8.8229210050454e-06   -3.340241348183089e-06   1.3913955786059077e-05
1.9140583531398704e-05   -2.366204078407992e-06   -3.866570786394732e-06
1.9140583531398704e-05   -2.366204078407992e-06   -3.866570786394732e-06
1.9140583531398704e-05   -2.366204078407992e-06   -3.866570786394732e-06
1.9140583531398704e-05   -2.366204078407992e-06   -3.866570786394732e-06
1.3889363137060566e-05   -2.7255218588016945e-06   5.101053872405429e-06
1.3889363137060566e-05   -2.7255218588016945e-06   5.101053872405429e-06
1.3889363137060566e-05   -2.7255218588016945e-06   5.101053872405429e-06
1.3889363137060566e-05   -2.7255218588016945e-06   5.101053872405429e-06
1.9140583531398674e-05   -3.340241348182872e-06   1.3329533424193997e-05
1.9140583531398674e-05   -3.340241348182872e-06   1.3329533424193997e-05
1.9140583531398674e-05   -3.340241348182872e-06   1.3329533424193997e-05
1.9140583531398674e-05   -3.340241348182872e-06   1.3329533424193997e-05
8.822921005045413e-06   -2.366204078407992e-06   -3.2821484245297875e-06
8.822921005045413e-06   -2.366204078407992e-06   -3.2821484245297875e-06
8.822921005045413e-06   -2.366204078407992e-06   -3.2821484245297875e-06
8.822921005045413e-06   -2.366204078407992e-06   -3.2821484245297875e-06
8.358840509460487e-06   -3.3720118942977967e-06   1.1870607633405594e-05
8.358840509460487e-06   -3.3720118942977967e-06   1.1870607633405594e-05
8.358840509460487e-06   -3.3720118942977967e-06   1.1870607633405594e-05
8.358840509460487e-06   -3.3720118942977967e-06   1.1870607633405594e-05
1.8276887985423222e-05   -2.4609398375854963e-06   -5.206114727226475e-06
1.8276887985423222e-05   -2.4609398375854963e-06   -5.206114727226475e-06
1.8276887985423222e-05   -2.4609398375854963e-06   -5.206114727226475e-06
1.8276887985423222e-05   -2.4609398375854963e-06   -5.206114727226475e-06
1.3078829772811253e-05   -2.708336314623857e-06   3.6057535133501894e-06
1.3078829772811253e-05   -2.708336314623857e-06   3.6057535133501894e-06
1.3078829772811253e-05   -2.708336314623857e-06   3.6057535133501894e-06
1.3078829772811253e-05   -2.708336314623857e-06   3.6057535133501894e-06
9.779484691907204e-06   -5.383478685646974e-07   1.988636092477823e-05
9.779484691907204e-06   -5.383478685646974e-07   1.988636092477823e-05
9.779484691907204e-06   -5.383478685646974e-07   1.988636092477823e-05
9.779484691907204e-06   -5.383478685646974e-07   1.988636092477823e-05
-6.392409537228947e-07   -1.6100973169964547e-08   2.8351663192982546e-06
-6.392409537228947e-07   -1.6100973169964547e-08   2.8351663192982546e-06
-6.392409537228947e-07   -1.6100973169964547e-08   2.8351663192982546e-06
-6.392409537228947e-07   -1.6100973169964547e-08   2.8351663192982546e-06
-1.0667910544076944e-06   -8.531274654391234e-07   1.9918511872573145e-05
-1.0667910544076944e-06   -8.531274654391234e-07   1.9918511872573145e-05
-1.0667910544076944e-06   -8.531274654391234e-07   1.9918511872573145e-05
-1.0667910544076944e-06   -8.531274654391234e-07   1.9918511872573145e-05
9.325109367973651e-06   -3.5806744729991423e-07   2.3016418243873967e-06
9.325109367973651e-06   -3.5806744729991423e-07   2.3016418243873967e-06
9.325109367973651e-06   -3.5806744729991423e-07   2.3016418243873967e-06
9.325109367973651e-06   -3.5806744729991423e-07   2.3016418243873967e-06
4.278972405724249e-06   -4.5401628543523254e-07   1.0769439397684244e-05
4.278972405724249e-06   -4.5401628543523254e-07   1.0769439397684244e-05
4.278972405724249e-06   -4.5401628543523254e-07   1.0769439397684244e-05
4.278972405724249e-06   -4.5401628543523254e-07   1.0769439397684244e-05
9.325109367973628e-06   -8.531274654391234e-07   1.9621475861689728e-05
9.325109367973628e-06   -8.531274654391234e-07   1.9621475861689728e-05
9.325109367973628e-06   -8.531274654391234e-07   1.9621475861689728e-05
9.325109367973628e-06   -8.531274654391234e-07   1.9621475861689728e-05
-1.0667910544076944e-06   -3.5806744729991423e-07   2.598677835271017e-06
-1.0667910544076944e-06   -3.5806744729991423e-07   2.598677835271017e-06
-1.0667910544076944e-06   -3.5806744729991423e-07   2.598677835271017e-06
-1.0667910544076944e-06   -3.5806744729991423e-07   2.598677835271017e-06
-1.5035906415766928e-06   -1.0856690485659595e-06   1.961279604737365e-05
-1.5035906415766928e-06   -1.0856690485659595e-06   1.961279604737365e-05
-1.5035906415766928e-06   -1.0856690485659595e-06   1.961279604737365e-05
-1.5035906415766928e-06   -1.0856690485659595e-06   1.961279604737365e-05
8.822921005045413e-06   -6.265002960158684e-07   2.1264420514733405e-06
8.822921005045413e-06   -6.265002960158684e-07   2.1264420514733405e-06
8.822921005045413e-06   -6.265002960158684e-07   2.1264420514733405e-06
8.822921005045413e-06   -6.265002960158684e-07   2.1264420514733405e-06
3.7983816509173376e-06   -6.644711237064997e-07   1.0523456804968601e-05
3.7983816509173376e-06   -6.644711237064997e-07   1.0523456804968601e-05
3.7983816509173376e-06   -6.644711237064997e-07   1.0523456804968601e-05
3.7983816509173376e-06   -6.644711237064997e-07   1.0523456804968601e-05
8.8229210050454e-06   -1.0856690485659595e-06   1.9337294795843465e-05
8.8229210050454e-06   -1.0856690485659595e-06   1.9337294795843465e-05
8.8229210050454e-06   -1.0856690485659595e-06   1.9337294795843465e-05
8.8229210050454e-06   -1.0856690485659595e-06   1.9337294795843465e-05
-1.5035906415766928e-06   -6.265002960158684e-07   2.401943303003383e-06
-1.5035906415766928e-06   -6.265002960158684e-07   2.401943303003383e-06
-1.5035906415766928e-06   -6.265002960158684e-07   2.401943303003383e-06
-1.5035906415766928e-06   -6.265002960158684e-07   2.401943303003383e-06
-1.9428535369461617e-06   -1.2675564217121994e-06   1.9743237961308987e-05
-1.9428535369461617e-06   -1.2675564217121994e-06   1.9743237961308987e-05
-1.9428535369461617e-06   -1.2675564217121994e-06   1.9743237961308987e-05
-1.9428535369461617e-06   -1.2675564217121994e-06   1.9743237961308987e-05
8.358840509460493e-06   -8.737183699110591e-07   2.337445052883979e-06
8.358840509460493e-06   -8.737183699110591e-07   2.337445052883979e-06
8.358840509460493e-06   -8.737183699110591e-07   2.337445052883979e-06
8.358840509460493e-06   -8.737183699110591e-07   2.337445052883979e-06
3.4330480325428064e-06   -8.189220375095802e-07   1.0514221381639516e-05
3.4330480325428064e-06   -8.189220375095802e-07   1.0514221381639516e-05
3.4330480325428064e-06   -8.189220375095802e-07   1.0514221381639516e-05
3.4330480325428064e-06   -8.189220375095802e-07   1.0514221381639516e-05
-6.392409537228812e-07   1.7349187394113518e-06   2.103944304468854e-05
-6.392409537228812e-07   1.7349187394113518e-06   2.103944304468854e-05
-6.392409537228812e-07   1.7349187394113518e-06   2.103944304468854e-05
-6.392409537228812e-07   1.7349187394113518e-06   2.103944304468854e-05
-1.083922633309469e-05   1.7882659822992999e-06   4.071475758135059e-06
-1.083922633309469e-05   1.7882659822992999e-06   4.071475758135059e-06
-1.083922633309469e-05   1.7882659822992999e-06   4.071475758135059e-06
-1.083922633309469e-05   1.7882659822992999e-06   4.071475758135059e-06
-1.1269455351842729e-05   1.4744742548042714e-06   2.0975899927717315e-05
-1.1269455351842729e-05   1.4744742548042714e-06   2.0975899927717315e-05
-1.1269455351842729e-05   1.4744742548042714e-06   2.0975899927717315e-05
-1.1269455351842729e-05   1.4744742548042714e-06   2.0975899927717315e-05
-1.0667910544076944e-06   1.4890412112504754e-06   3.962719258124685e-06
-1.0667910544076944e-06   1.4890412112504754e-06   3.962719258124685e-06
-1.0667910544076944e-06   1.4890412112504754e-06   3.962719258124685e-06
-1.0667910544076944e-06   1.4890412112504754e-06   3.962719258124685e-06
-5.969048396227425e-06   1.592577909200442e-06   1.2071026142387625e-05
-5.969048396227425e-06   1.592577909200442e-06   1.2071026142387625e-05
-5.969048396227425e-06   1.592577909200442e-06   1.2071026142387625e-05
-5.969048396227425e-06   1.592577909200442e-06   1.2071026142387625e-05
-1.0667910544076944e-06   1.4744742548044882e-06   2.0967159753849788e-05
-1.0667910544076944e-06   1.4744742548044882e-06   2.0967159753849788e-05
-1.0667910544076944e-06   1.4744742548044882e-06   2.0967159753849788e-05
-1.0667910544076944e-06   1.4744742548044882e-06   2.0967159753849788e-05
-1.1269455351842729e-05   1.4890412112504754e-06   3.9714594319923075e-06
-1.1269455351842729e-05   1.4890412112504754e-06   3.9714594319923075e-06
-1.1269455351842729e-05   1.4890412112504754e-06   3.9714594319923075e-06
-1.1269455351842729e-05   1.4890412112504754e-06   3.9714594319923075e-06
-1.1710222809566608e-05   1.221650335455661e-06   2.1087663732692217e-05
-1.1710222809566608e-05   1.221650335455661e-06   2.1087663732692217e-05
-1.1710222809566608e-05   1.221650335455661e-06   2.1087663732692217e-05
-1.1710222809566608e-05   1.221650335455661e-06   2.1087663732692217e-05
-1.5035906415766928e-06   1.1946241357096293e-06   4.092825839223464e-06
-1.5035906415766928e-06   1.1946241357096293e-06   4.092825839223464e-06
-1.5035906415766928e-06   1.1946241357096293e-06   4.092825839223464e-06
-1.5035906415766928e-06   1.1946241357096293e-06   4.092825839223464e-06
-6.368153987101347e-06   1.3919463194831706e-06   1.2082038104834023e-05
-6.368153987101347e-06   1.3919463194831706e-06   1.2082038104834023e-05
-6.368153987101347e-06   1.3919463194831706e-06   1.2082038104834023e-05
-6.368153987101347e-06   1.3919463194831706e-06   1.2082038104834023e-05
-1.5035906415766928e-06   1.221650335455661e-06   2.1103879452540053e-05
-1.5035906415766928e-06   1.221650335455661e-06   2.1103879452540053e-05
-1.5035906415766928e-06   1.221650335455661e-06   2.1103879452540053e-05
-1.5035906415766928e-06   1.221650335455661e-06   2.1103879452540053e-05
-1.1710222809566608e-05   1.1946241357096293e-06   4.0766101193756956e-06
-1.1710222809566608e-05   1.1946241357096293e-06   4.0766101193756956e-06
-1.1710222809566608e-05   1.1946241357096293e-06   4.0766101193756956e-06
-1.1710222809566608e-05   1.1946241357096293e-06   4.0766101193756956e-06
-1.215062724241988e-05   9.967006074829057e-07   2.1345306796044386e-05
-1.215062724241988e-05   9.967006074829057e-07   2.1345306796044386e-05
-1.215062724241988e-05   9.967006074829057e-07   2.1345306796044386e-05
-1.215062724241988e-05   9.967006074829057e-07   2.1345306796044386e-05
-1.9428535369461617e-06   9.153438721852709e-07   4.38116466143333e-06
-1.9428535369461617e-06   9.153438721852709e-07   4.38116466143333e-06
-1.9428535369461617e-06   9.153438721852709e-07   4.38116466143333e-06
-1.9428535369461617e-06   9.153438721852709e-07   4.38116466143333e-06
-6.786154802280863e-06   1.196603425175028e-06   1.22845777051978e-05
-6.786154802280863e-06   1.196603425175028e-06   1.22845777051978e-05
-6.786154802280863e-06   1.196603425175028e-06   1.22845777051978e-05
-6.786154802280863e-06   1.196603425175028e-06   1.22845777051978e-05
-1.0839226333094664e-05   3.948573399377821e-06   1.8526425963646996e-05
-1.0839226333094664e-05   3.948573399377821e-06   1.8526425963646996e-05
-1.0839226333094664e-05   3.948573399377821e-06   1.8526425963646996e-05
-1.0839226333094664e-05   3.948573399377821e-06   1.8526425963646996e-05
-2.082460169050023e-05   3.526449598342937e-06   1.630859420683568e-06
-2.082460169050023e-05   3.526449598342937e-06   1.630859420683568e-06
-2.082460169050023e-05   3.526449598342937e-06   1.630859420683568e-06
-2.082460169050023e-05   3.526449598342937e-06   1.630859420683568e-06
-2.1287856449844165e-05   3.701193403551255e-06   1.840905334771876e-05
-2.1287856449844165e-05   3.701193403551255e-06   1.840905334771876e-05
-2.1287856449844165e-05   3.701193403551255e-06   1.840905334771876e-05
-2.1287856449844165e-05   3.701193403551255e-06   1.840905334771876e-05
-1.1269455351842742e-05   3.2409659099085376e-06   1.9878546805685937e-06
-1.1269455351842742e-05   3.2409659099085376e-06   1.9878546805685937e-06
-1.1269455351842742e-05   3.2409659099085376e-06   1.9878546805685937e-06
-1.1269455351842742e-05   3.2409659099085376e-06   1.9878546805685937e-06
-1.6001947032025654e-05   3.5559774452915104e-06   9.686333892977057e-06
-1.6001947032025654e-05   3.5559774452915104e-06   9.686333892977057e-06
-1.6001947032025654e-05   3.5559774452915104e-06   9.686333892977057e-06
-1.6001947032025654e-05   3.5559774452915104e-06   9.686333892977057e-06
-1.1269455351842729e-05   3.7011934035510383e-06   1.8685189843904325e-05
-1.1269455351842729e-05   3.7011934035510383e-06   1.8685189843904325e-05
-1.1269455351842729e-05   3.7011934035510383e-06   1.8685189843904325e-05
-1.1269455351842729e-05   3.7011934035510383e-06   1.8685189843904325e-05
-2.1287856449844165e-05   3.2409659099085376e-06   1.7117181843830554e-06
-2.1287856449844165e-05   3.2409659099085376e-06   1.7117181843830554e-06
-2.1287856449844165e-05   3.2409659099085376e-06   1.7117181843830554e-06
-2.1287856449844165e-05   3.2409659099085376e-06   1.7117181843830554e-06
-2.1797318280100675e-05   3.471997278280039e-06   1.9100487699083026e-05
-2.1797318280100675e-05   3.471997278280039e-06   1.9100487699083026e-05
-2.1797318280100675e-05   3.471997278280039e-06   1.9100487699083026e-05
-2.1797318280100675e-05   3.471997278280039e-06   1.9100487699083026e-05
-1.1710222809566636e-05   2.9739555418419137e-06   2.5874869567223894e-06
-1.1710222809566636e-05   2.9739555418419137e-06   2.5874869567223894e-06
-1.1710222809566636e-05   2.9739555418419137e-06   2.5874869567223894e-06
-1.1710222809566636e-05   2.9739555418419137e-06   2.5874869567223894e-06
-1.6332326143465898e-05   3.3741750188269037e-06   1.0050860827030806e-05
-1.6332326143465898e-05   3.3741750188269037e-06   1.0050860827030806e-05
-1.6332326143465898e-05   3.3741750188269037e-06   1.0050860827030806e-05
-1.6332326143465898e-05   3.3741750188269037e-06   1.0050860827030806e-05
-1.1710222809566622e-05   3.471997278279822e-06   1.9399312740945793e-05
-1.1710222809566622e-05   3.471997278279822e-06   1.9399312740945793e-05
-1.1710222809566622e-05   3.471997278279822e-06   1.9399312740945793e-05
-1.1710222809566622e-05   3.471997278279822e-06   1.9399312740945793e-05
-2.1797318280100675e-05   2.9739555418419137e-06   2.28866191485965e-06
-2.1797318280100675e-05   2.9739555418419137e-06   2.28866191485965e-06
-2.1797318280100675e-05   2.9739555418419137e-06   2.28866191485965e-06
-2.1797318280100675e-05   2.9739555418419137e-06   2.28866191485965e-06
-2.2262544108984944e-05   3.1910613902787557e-06   1.9616262325392606e-05
-2.2262544108984944e-05   3.1910613902787557e-06   1.9616262325392606e-05
-2.2262544108984944e-05   3.1910613902787557e-06   1.9616262325392606e-05
-2.2262544108984944e-05   3.1910613902787557e-06   1.9616262325392606e-05
-1.2150627242419893e-05   2.6620916125602665e-06   3.0804494144152732e-06
-1.2150627242419893e-05   2.6620916125602665e-06   3.0804494144152732e-06
-1.2150627242419893e-05   2.6620916125602665e-06   3.0804494144152732e-06
-1.2150627242419893e-05   2.6620916125602665e-06   3.0804494144152732e-06
-1.6862422803240514e-05   3.1679854989989133e-06   1.0629905683920665e-05
-1.6862422803240514e-05   3.1679854989989133e-06   1.0629905683920665e-05
-1.6862422803240514e-05   3.1679854989989133e-06   1.0629905683920665e-05
-1.6862422803240514e-05   3.1679854989989133e-06   1.0629905683920665e-05
-2.082460169050023e-05   5.697937988335478e-06   8.975776778536392e-06
-2.082460169050023e-05   5.697937988335478e-06   8.975776778536392e-06
-2.082460169050023e-05   5.697937988335478e-06   8.975776778536392e-06
-2.082460169050023e-05   5.697937988335478e-06   8.975776778536392e-06
-3.033124966968009e-05   4.873241758576556e-06   -7.363454257952086e-06
-3.033124966968009e-05   4.873241758576556e-06   -7.363454257952086e-06
-3.033124966968009e-05   4.873241758576556e-06   -7.363454257952086e-06
-3.033124966968009e-05   4.873241758576556e-06   -7.363454257952086e-06
-3.1165004462403256e-05   5.762532623641023e-06   1.195602160264321e-05
-3.1165004462403256e-05   5.762532623641023e-06   1.195602160264321e-05
-3.1165004462403256e-05   5.762532623641023e-06   1.195602160264321e-05
-3.1165004462403256e-05   5.762532623641023e-06   1.195602160264321e-05
-2.1287856449844165e-05   4.85275989607235e-06   -3.960028115080694e-06
-2.1287856449844165e-05   4.85275989607235e-06   -3.960028115080694e-06
-2.1287856449844165e-05   4.85275989607235e-06   -3.960028115080694e-06
-2.1287856449844165e-05   4.85275989607235e-06   -3.960028115080694e-06
-2.491614667822137e-05   5.217504886548437e-06   1.8682752712623034e-06
-2.491614667822137e-05   5.217504886548437e-06   1.8682752712623034e-06
-2.491614667822137e-05   5.217504886548437e-06   1.8682752712623034e-06
-2.491614667822137e-05   5.217504886548437e-06   1.8682752712623034e-06
-2.1287856449844138e-05   5.76253262364124e-06   1.250188523918463e-05
-2.1287856449844138e-05   5.76253262364124e-06   1.250188523918463e-05
-2.1287856449844138e-05   5.76253262364124e-06   1.250188523918463e-05
-2.1287856449844138e-05   5.76253262364124e-06   1.250188523918463e-05
-3.116500446240334e-05   4.85275989607235e-06   -4.505891751622061e-06
-3.116500446240334e-05   4.85275989607235e-06   -4.505891751622061e-06
-3.116500446240334e-05   4.85275989607235e-06   -4.505891751622061e-06
-3.116500446240334e-05   4.85275989607235e-06   -4.505891751622061e-06
-3.191039153390768e-05   5.700274933036166e-06   1.435320761981548e-05
-3.191039153390768e-05   5.700274933036166e-06   1.435320761981548e-05
-3.191039153390768e-05   5.700274933036166e-06   1.435320761981548e-05
-3.191039153390768e-05   5.700274933036166e-06   1.435320761981548e-05
-2.1797318280100675e-05   4.7551615464608375e-06   -1.93484643791768e-06
-2.1797318280100675e-05   4.7551615464608375e-06   -1.93484643791768e-06
-2.1797318280100675e-05   4.7551615464608375e-06   -1.93484643791768e-06
-2.1797318280100675e-05   4.7551615464608375e-06   -1.93484643791768e-06
-2.587997650100648e-05   5.276540509783437e-06   4.5567565522659456e-06
-2.587997650100648e-05   5.276540509783437e-06   4.5567565522659456e-06
-2.587997650100648e-05   5.276540509783437e-06   4.5567565522659456e-06
-2.587997650100648e-05   5.276540509783437e-06   4.5567565522659456e-06
-2.1797318280100675e-05   5.700274933036166e-06   1.4920275651760938e-05
-2.1797318280100675e-05   5.700274933036166e-06   1.4920275651760938e-05
-2.1797318280100675e-05   5.700274933036166e-06   1.4920275651760938e-05
-2.1797318280100675e-05   5.700274933036166e-06   1.4920275651760938e-05
-3.191039153390774e-05   4.7551615464608375e-06   -2.5019144698629745e-06
-3.191039153390774e-05   4.7551615464608375e-06   -2.5019144698629745e-06
-3.191039153390774e-05   4.7551615464608375e-06   -2.5019144698629745e-06
-3.191039153390774e-05   4.7551615464608375e-06   -2.5019144698629745e-06
-3.276580810578184e-05   5.2637011171260874e-06   1.8472438258902756e-05
-3.276580810578184e-05   5.2637011171260874e-06   1.8472438258902756e-05
-3.276580810578184e-05   5.2637011171260874e-06   1.8472438258902756e-05
-3.276580810578184e-05   5.2637011171260874e-06   1.8472438258902756e-05
-2.2262544108984944e-05   4.321534903936521e-06   1.5322979921550926e-06
-2.2262544108984944e-05   4.321534903936521e-06   1.5322979921550926e-06
-2.2262544108984944e-05   4.321534903936521e-06   1.5322979921550926e-06
-2.2262544108984944e-05   4.321534903936521e-06   1.5322979921550926e-06
-2.6077096224282165e-05   5.096381951424922e-06   7.424976622491227e-06
-2.6077096224282165e-05   5.096381951424922e-06   7.424976622491227e-06
-2.6077096224282165e-05   5.096381951424922e-06   7.424976622491227e-06
-2.6077096224282165e-05   5.096381951424922e-06   7.424976622491227e-06
1.442079904676845e-05   -1.866987528925711e-06   1.4359833204458257e-05
1.442079904676845e-05   -1.866987528925711e-06   1.4359833204458257e-05
1.442079904676845e-05   -1.866987528925711e-06   1.4359833204458257e-05
1.442079904676845e-05   -1.866987528925711e-06   1.4359833204458257e-05
5.9897470704677285e-06   -9.314541064869191e-07   8.693999640869369e-07
5.9897470704677285e-06   -9.314541064869191e-07   8.693999640869369e-07
5.9897470704677285e-06   -9.314541064869191e-07   8.693999640869369e-07
5.9897470704677285e-06   -9.314541064869191e-07   8.693999640869369e-07
5.623092115084093e-06   -2.2614878834622924e-06   1.2899704165407e-05
5.623092115084093e-06   -2.2614878834622924e-06   1.2899704165407e-05
5.623092115084093e-06   -2.2614878834622924e-06   1.2899704165407e-05
5.623092115084093e-06   -2.2614878834622924e-06   1.2899704165407e-05
1.3638782045708412e-05   -1.2858039447286723e-06   -1.0451894155405044e-06
1.3638782045708412e-05   -1.2858039447286723e-06   -1.0451894155405044e-06
1.3638782045708412e-05   -1.2858039447286723e-06   -1.0451894155405044e-06
1.3638782045708412e-05   -1.2858039447286723e-06   -1.0451894155405044e-06
9.4252977487687e-06   -1.623656816076213e-06   6.179996135501325e-06
9.4252977487687e-06   -1.623656816076213e-06   6.179996135501325e-06
9.4252977487687e-06   -1.623656816076213e-06   6.179996135501325e-06
9.4252977487687e-06   -1.623656816076213e-06   6.179996135501325e-06
1.3638782045708435e-05   -2.2614878834622924e-06   1.2314293802166763e-05
1.3638782045708435e-05   -2.2614878834622924e-06   1.2314293802166763e-05
1.3638782045708435e-05   -2.2614878834622924e-06   1.2314293802166763e-05
1.3638782045708435e-05   -2.2614878834622924e-06   1.2314293802166763e-05
5.623092115084075e-06   -1.2858039447286723e-06   -4.59779052300064e-07
5.623092115084075e-06   -1.2858039447286723e-06   -4.59779052300064e-07
5.623092115084075e-06   -1.2858039447286723e-06   -4.59779052300064e-07
5.623092115084075e-06   -1.2858039447286723e-06   -4.59779052300064e-07
5.210526551783303e-06   -2.366204078407992e-06   1.1816876791740987e-05
5.210526551783303e-06   -2.366204078407992e-06   1.1816876791740987e-05
5.210526551783303e-06   -2.366204078407992e-06   1.1816876791740987e-05
5.210526551783303e-06   -2.366204078407992e-06   1.1816876791740987e-05
1.2966695841798323e-05   -1.4069989921800148e-06   -1.6855950766873028e-06
1.2966695841798323e-05   -1.4069989921800148e-06   -1.6855950766873028e-06
1.2966695841798323e-05   -1.4069989921800148e-06   -1.6855950766873028e-06
1.2966695841798323e-05   -1.4069989921800148e-06   -1.6855950766873028e-06
9.081170986120282e-06   -1.7742398434406406e-06   5.010624193532752e-06
9.081170986120282e-06   -1.7742398434406406e-06   5.010624193532752e-06
9.081170986120282e-06   -1.7742398434406406e-06   5.010624193532752e-06
9.081170986120282e-06   -1.7742398434406406e-06   5.010624193532752e-06
1.2966695841798347e-05   -2.366204078407992e-06   1.1241353740004353e-05
1.2966695841798347e-05   -2.366204078407992e-06   1.1241353740004353e-05
1.2966695841798347e-05   -2.366204078407992e-06   1.1241353740004353e-05
1.2966695841798347e-05   -2.366204078407992e-06   1.1241353740004353e-05
5.210526551783293e-06   -1.4069989921800148e-06   -1.1100720249505869e-06
5.210526551783293e-06   -1.4069989921800148e-06   -1.1100720249505869e-06
5.210526551783293e-06   -1.4069989921800148e-06   -1.1100720249505869e-06
5.210526551783293e-06   -1.4069989921800148e-06   -1.1100720249505869e-06
4.840383387436965e-06   -2.4609398375854963e-06   1.0404976559273975e-05
4.840383387436965e-06   -2.4609398375854963e-06   1.0404976559273975e-05
4.840383387436965e-06   -2.4609398375854963e-06   1.0404976559273975e-05
4.840383387436965e-06   -2.4609398375854963e-06   1.0404976559273975e-05
1.220308558380038e-05   -1.5646721752858236e-06   -2.4039543653780907e-06
1.220308558380038e-05   -1.5646721752858236e-06   -2.4039543653780907e-06
1.220308558380038e-05   -1.5646721752858236e-06   -2.4039543653780907e-06
1.220308558380038e-05   -1.5646721752858236e-06   -2.4039543653780907e-06
8.432464892194609e-06   -1.8020120463190957e-06   4.022817376584829e-06
8.432464892194609e-06   -1.8020120463190957e-06   4.022817376584829e-06
8.432464892194609e-06   -1.8020120463190957e-06   4.022817376584829e-06
8.432464892194609e-06   -1.8020120463190957e-06   4.022817376584829e-06
5.989747070467749e-06   -1.6100973169964547e-08   1.7674790337323006e-05
5.989747070467749e-06   -1.6100973169964547e-08   1.7674790337323006e-05
5.989747070467749e-06   -1.6100973169964547e-08   1.7674790337323006e-05
5.989747070467749e-06   -1.6100973169964547e-08   1.7674790337323006e-05
-1.9148105182356667e-06   4.610183196263008e-07   4.786799265161764e-06
-1.9148105182356667e-06   4.610183196263008e-07   4.786799265161764e-06
-1.9148105182356667e-06   4.610183196263008e-07   4.786799265161764e-06
-1.9148105182356667e-06   4.610183196263008e-07   4.786799265161764e-06
-2.252046740680477e-06   -3.5806744729991423e-07   1.770601380439755e-05
-2.252046740680477e-06   -3.5806744729991423e-07   1.770601380439755e-05
-2.252046740680477e-06   -3.5806744729991423e-07   1.770601380439755e-05
-2.252046740680477e-06   -3.5806744729991423e-07   1.770601380439755e-05
5.623092115084075e-06   1.0368664781260604e-07   4.3037299210557835e-06
5.623092115084075e-06   1.0368664781260604e-07   4.3037299210557835e-06
5.623092115084075e-06   1.0368664781260604e-07   4.3037299210557835e-06
5.623092115084075e-06   1.0368664781260604e-07   4.3037299210557835e-06
1.8048883634925045e-06   1.6607016219659376e-08   1.0719650619331106e-05
1.8048883634925045e-06   1.6607016219659376e-08   1.0719650619331106e-05
1.8048883634925045e-06   1.6607016219659376e-08   1.0719650619331106e-05
1.8048883634925045e-06   1.6607016219659376e-08   1.0719650619331106e-05
5.62309211508409e-06   -3.5806744729991423e-07   1.742896134733008e-05
5.62309211508409e-06   -3.5806744729991423e-07   1.742896134733008e-05
5.62309211508409e-06   -3.5806744729991423e-07   1.742896134733008e-05
5.62309211508409e-06   -3.5806744729991423e-07   1.742896134733008e-05
-2.2520467406804905e-06   1.0368664781260604e-07   4.580782378123239e-06
-2.2520467406804905e-06   1.0368664781260604e-07   4.580782378123239e-06
-2.2520467406804905e-06   1.0368664781260604e-07   4.580782378123239e-06
-2.2520467406804905e-06   1.0368664781260604e-07   4.580782378123239e-06
-2.5970164531007793e-06   -6.265002960158684e-07   1.748877551827348e-05
-2.5970164531007793e-06   -6.265002960158684e-07   1.748877551827348e-05
-2.5970164531007793e-06   -6.265002960158684e-07   1.748877551827348e-05
-2.5970164531007793e-06   -6.265002960158684e-07   1.748877551827348e-05
5.210526551783293e-06   -1.8765321180020528e-07   4.212895592937389e-06
5.210526551783293e-06   -1.8765321180020528e-07   4.212895592937389e-06
5.210526551783293e-06   -1.8765321180020528e-07   4.212895592937389e-06
5.210526551783293e-06   -1.8765321180020528e-07   4.212895592937389e-06
1.4333545065901376e-06   -2.2109616142236815e-07   1.052824810469997e-05
1.4333545065901376e-06   -2.2109616142236815e-07   1.052824810469997e-05
1.4333545065901376e-06   -2.2109616142236815e-07   1.052824810469997e-05
1.4333545065901376e-06   -2.2109616142236815e-07   1.052824810469997e-05
5.210526551783311e-06   -6.265002960158684e-07   1.722546726774419e-05
5.210526551783311e-06   -6.265002960158684e-07   1.722546726774419e-05
5.210526551783311e-06   -6.265002960158684e-07   1.722546726774419e-05
5.210526551783311e-06   -6.265002960158684e-07   1.722546726774419e-05
-2.597016453100793e-06   -1.8765321180009686e-07   4.476203843466848e-06
-2.597016453100793e-06   -1.8765321180009686e-07   4.476203843466848e-06
-2.597016453100793e-06   -1.8765321180009686e-07   4.476203843466848e-06
-2.597016453100793e-06   -1.8765321180009686e-07   4.476203843466848e-06
-2.9392172844826904e-06   -8.737183699110591e-07   1.764207242840898e-05
-2.9392172844826904e-06   -8.737183699110591e-07   1.764207242840898e-05
-2.9392172844826904e-06   -8.737183699110591e-07   1.764207242840898e-05
-2.9392172844826904e-06   -8.737183699110591e-07   1.764207242840898e-05
4.840383387436941e-06   -4.7341949815774866e-07   4.435891985490987e-06
4.840383387436941e-06   -4.7341949815774866e-07   4.435891985490987e-06
4.840383387436941e-06   -4.7341949815774866e-07   4.435891985490987e-06
4.840383387436941e-06   -4.7341949815774866e-07   4.435891985490987e-06
1.1410777322512123e-06   -4.1800252852325706e-07   1.056815122901962e-05
1.1410777322512123e-06   -4.1800252852325706e-07   1.056815122901962e-05
1.1410777322512123e-06   -4.1800252852325706e-07   1.056815122901962e-05
1.1410777322512123e-06   -4.1800252852325706e-07   1.056815122901962e-05
-1.914810518235653e-06   1.7882659822992999e-06   1.9165363006104692e-05
-1.914810518235653e-06   1.7882659822992999e-06   1.9165363006104692e-05
-1.914810518235653e-06   1.7882659822992999e-06   1.9165363006104692e-05
-1.914810518235653e-06   1.7882659822992999e-06   1.9165363006104692e-05
-9.686500089842667e-06   1.7633961623489142e-06   6.197625161456018e-06
-9.686500089842667e-06   1.7633961623489142e-06   6.197625161456018e-06
-9.686500089842667e-06   1.7633961623489142e-06   6.197625161456018e-06
-9.686500089842667e-06   1.7633961623489142e-06   6.197625161456018e-06
-1.0019582031829539e-05   1.4890412112504754e-06   1.904054857602695e-05
-1.0019582031829539e-05   1.4890412112504754e-06   1.904054857602695e-05
-1.0019582031829539e-05   1.4890412112504754e-06   1.904054857602695e-05
-1.0019582031829539e-05   1.4890412112504754e-06   1.904054857602695e-05
-2.252046740680477e-06   1.439863459210271e-06   6.124163075336083e-06
-2.252046740680477e-06   1.439863459210271e-06   6.124163075336083e-06
-2.252046740680477e-06   1.439863459210271e-06   6.124163075336083e-06
-2.252046740680477e-06   1.439863459210271e-06   6.124163075336083e-06
-5.983235977508828e-06   1.5791963008112515e-06   1.2259212098423059e-05
-5.983235977508828e-06   1.5791963008112515e-06   1.2259212098423059e-05
-5.983235977508828e-06   1.5791963008112515e-06   1.2259212098423059e-05
-5.983235977508828e-06   1.5791963008112515e-06   1.2259212098423059e-05
-2.252046740680477e-06   1.4890412112504754e-06   1.9070055227251204e-05
-2.252046740680477e-06   1.4890412112504754e-06   1.9070055227251204e-05
-2.252046740680477e-06   1.4890412112504754e-06   1.9070055227251204e-05
-2.252046740680477e-06   1.4890412112504754e-06   1.9070055227251204e-05
-1.0019582031829539e-05   1.4398634592101625e-06   6.094656424111952e-06
-1.0019582031829539e-05   1.4398634592101625e-06   6.094656424111952e-06
-1.0019582031829539e-05   1.4398634592101625e-06   6.094656424111952e-06
-1.0019582031829539e-05   1.4398634592101625e-06   6.094656424111952e-06
-1.0360525613516757e-05   1.1946241357096293e-06   1.9134931019516334e-05
-1.0360525613516757e-05   1.1946241357096293e-06   1.9134931019516334e-05
-1.0360525613516757e-05   1.1946241357096293e-06   1.9134931019516334e-05
-1.0360525613516757e-05   1.1946241357096293e-06   1.9134931019516334e-05
-2.5970164531007793e-06   1.1200790774140669e-06   6.24047612046694e-06
-2.5970164531007793e-06   1.1200790774140669e-06   6.24047612046694e-06
-2.5970164531007793e-06   1.1200790774140669e-06   6.24047612046694e-06
-2.5970164531007793e-06   1.1200790774140669e-06   6.24047612046694e-06
-6.287917167490246e-06   1.34487080701148e-06   1.2257102273357997e-05
-6.287917167490246e-06   1.34487080701148e-06   1.2257102273357997e-05
-6.287917167490246e-06   1.34487080701148e-06   1.2257102273357997e-05
-6.287917167490246e-06   1.34487080701148e-06   1.2257102273357997e-05
-2.597016453100793e-06   1.1946241357096293e-06   1.917965805449352e-05
-2.597016453100793e-06   1.1946241357096293e-06   1.917965805449352e-05
-2.597016453100793e-06   1.1946241357096293e-06   1.917965805449352e-05
-2.597016453100793e-06   1.1946241357096293e-06   1.917965805449352e-05
-1.0360525613516757e-05   1.1200790774139584e-06   6.195749085489727e-06
-1.0360525613516757e-05   1.1200790774139584e-06   6.195749085489727e-06
-1.0360525613516757e-05   1.1200790774139584e-06   6.195749085489727e-06
-1.0360525613516757e-05   1.1200790774139584e-06   6.195749085489727e-06
-1.0697351157550815e-05   9.153438721852709e-07   1.9387711754103296e-05
-1.0697351157550815e-05   9.153438721852709e-07   1.9387711754103296e-05
-1.0697351157550815e-05   9.153438721852709e-07   1.9387711754103296e-05
-1.0697351157550815e-05   9.153438721852709e-07   1.9387711754103296e-05
-2.939217284482677e-06   8.123814525612611e-07   6.5192660840975144e-06
-2.939217284482677e-06   8.123814525612611e-07   6.5192660840975144e-06
-2.939217284482677e-06   8.123814525612611e-07   6.5192660840975144e-06
-2.939217284482677e-06   8.123814525612611e-07   6.5192660840975144e-06
-6.6068004343502546e-06   1.1161860564678746e-06   1.2449621904866108e-05
-6.6068004343502546e-06   1.1161860564678746e-06   1.2449621904866108e-05
-6.6068004343502546e-06   1.1161860564678746e-06   1.2449621904866108e-05
-6.6068004343502546e-06   1.1161860564678746e-06   1.2449621904866108e-05
-9.686500089842667e-06   3.526449598342937e-06   1.6963099057303857e-05
-9.686500089842667e-06   3.526449598342937e-06   1.6963099057303857e-05
-9.686500089842667e-06   3.526449598342937e-06   1.6963099057303857e-05
-9.686500089842667e-06   3.526449598342937e-06   1.6963099057303857e-05
-1.733532071924299e-05   3.0312975494787816e-06   3.917973445651543e-06
-1.733532071924299e-05   3.0312975494787816e-06   3.917973445651543e-06
-1.733532071924299e-05   3.0312975494787816e-06   3.917973445651543e-06
-1.733532071924299e-05   3.0312975494787816e-06   3.917973445651543e-06
-1.7693048326168962e-05   3.2409659099085376e-06   1.6741997619596654e-05
-1.7693048326168962e-05   3.2409659099085376e-06   1.6741997619596654e-05
-1.7693048326168962e-05   3.2409659099085376e-06   1.6741997619596654e-05
-1.7693048326168962e-05   3.2409659099085376e-06   1.6741997619596654e-05
-1.0019582031829498e-05   2.716055568230836e-06   4.267833334037645e-06
-1.0019582031829498e-05   2.716055568230836e-06   4.267833334037645e-06
-1.0019582031829498e-05   2.716055568230836e-06   4.267833334037645e-06
-1.0019582031829498e-05   2.716055568230836e-06   4.267833334037645e-06
-1.364469271885999e-05   3.0742301972985515e-06   1.0094779701648259e-05
-1.364469271885999e-05   3.0742301972985515e-06   1.0094779701648259e-05
-1.364469271885999e-05   3.0742301972985515e-06   1.0094779701648259e-05
-1.364469271885999e-05   3.0742301972985515e-06   1.0094779701648259e-05
-1.0019582031829539e-05   3.2409659099085376e-06   1.7056943824603427e-05
-1.0019582031829539e-05   3.2409659099085376e-06   1.7056943824603427e-05
-1.0019582031829539e-05   3.2409659099085376e-06   1.7056943824603427e-05
-1.0019582031829539e-05   3.2409659099085376e-06   1.7056943824603427e-05
-1.7693048326168962e-05   2.716055568230836e-06   3.9528871290310345e-06
-1.7693048326168962e-05   2.716055568230836e-06   3.9528871290310345e-06
-1.7693048326168962e-05   2.716055568230836e-06   3.9528871290310345e-06
-1.7693048326168962e-05   2.716055568230836e-06   3.9528871290310345e-06
-1.8095242021668476e-05   2.9739555418419137e-06   1.731553513815759e-05
-1.8095242021668476e-05   2.9739555418419137e-06   1.731553513815759e-05
-1.8095242021668476e-05   2.9739555418419137e-06   1.731553513815759e-05
-1.8095242021668476e-05   2.9739555418419137e-06   1.731553513815759e-05
-1.0360525613516716e-05   2.423501010666426e-06   4.754613843276762e-06
-1.0360525613516716e-05   2.423501010666426e-06   4.754613843276762e-06
-1.0360525613516716e-05   2.423501010666426e-06   4.754613843276762e-06
-1.0360525613516716e-05   2.423501010666426e-06   4.754613843276762e-06
-1.3890698540509532e-05   2.8598604698390657e-06   1.0376419712761491e-05
-1.3890698540509532e-05   2.8598604698390657e-06   1.0376419712761491e-05
-1.3890698540509532e-05   2.8598604698390657e-06   1.0376419712761491e-05
-1.3890698540509532e-05   2.8598604698390657e-06   1.0376419712761491e-05
-1.0360525613516743e-05   2.9739555418419137e-06   1.764580785686273e-05
-1.0360525613516743e-05   2.9739555418419137e-06   1.764580785686273e-05
-1.0360525613516743e-05   2.9739555418419137e-06   1.764580785686273e-05
-1.0360525613516743e-05   2.9739555418419137e-06   1.764580785686273e-05
-1.8095242021668476e-05   2.423501010666426e-06   4.424341124571458e-06
-1.8095242021668476e-05   2.423501010666426e-06   4.424341124571458e-06
-1.8095242021668476e-05   2.423501010666426e-06   4.424341124571458e-06
-1.8095242021668476e-05   2.423501010666426e-06   4.424341124571458e-06
-1.845218607392384e-05   2.6620916125602665e-06   1.7795923190403276e-05
-1.845218607392384e-05   2.6620916125602665e-06   1.7795923190403276e-05
-1.845218607392384e-05   2.6620916125602665e-06   1.7795923190403276e-05
-1.845218607392384e-05   2.6620916125602665e-06   1.7795923190403276e-05
-1.0697351157550774e-05   2.095612682792981e-06   5.211085687642069e-06
-1.0697351157550774e-05   2.095612682792981e-06   5.211085687642069e-06
-1.0697351157550774e-05   2.095612682792981e-06   5.211085687642069e-06
-1.0697351157550774e-05   2.095612682792981e-06   5.211085687642069e-06
-1.4294805885700528e-05   2.6332586939857615e-06   1.0884255961176367e-05
-1.4294805885700528e-05   2.6332586939857615e-06   1.0884255961176367e-05
-1.4294805885700528e-05   2.6332586939857615e-06   1.0884255961176367e-05
-1.4294805885700528e-05   2.6332586939857615e-06   1.0884255961176367e-05
-1.733532071924299e-05   4.873241758576556e-06   8.166511887205139e-06
-1.733532071924299e-05   4.873241758576556e-06   8.166511887205139e-06
-1.733532071924299e-05   4.873241758576556e-06   8.166511887205139e-06
-1.733532071924299e-05   4.873241758576556e-06   8.166511887205139e-06
-2.4530093430921756e-05   3.98873137670867e-06   -4.3554821947134606e-06
-2.4530093430921756e-05   3.98873137670867e-06   -4.3554821947134606e-06
-2.4530093430921756e-05   3.98873137670867e-06   -4.3554821947134606e-06
-2.4530093430921756e-05   3.98873137670867e-06   -4.3554821947134606e-06
-2.5279700808907203e-05   4.85275989607235e-06   1.0492469233676729e-05
-2.5279700808907203e-05   4.85275989607235e-06   1.0492469233676729e-05
-2.5279700808907203e-05   4.85275989607235e-06   1.0492469233676729e-05
-2.5279700808907203e-05   4.85275989607235e-06   1.0492469233676729e-05
-1.7693048326168908e-05   3.88978975197885e-06   -1.5741694844310559e-06
-1.7693048326168908e-05   3.88978975197885e-06   -1.5741694844310559e-06
-1.7693048326168908e-05   3.88978975197885e-06   -1.5741694844310559e-06
-1.7693048326168908e-05   3.88978975197885e-06   -1.5741694844310559e-06
-2.0414104382534393e-05   4.319614222882541e-06   2.7030292603029524e-06
-2.0414104382534393e-05   4.319614222882541e-06   2.7030292603029524e-06
-2.0414104382534393e-05   4.319614222882541e-06   2.7030292603029524e-06
-2.0414104382534393e-05   4.319614222882541e-06   2.7030292603029524e-06
-1.7693048326168962e-05   4.85275989607235e-06   1.1070251320132742e-05
-1.7693048326168962e-05   4.85275989607235e-06   1.1070251320132742e-05
-1.7693048326168962e-05   4.85275989607235e-06   1.1070251320132742e-05
-1.7693048326168962e-05   4.85275989607235e-06   1.1070251320132742e-05
-2.5279700808907257e-05   3.88978975197885e-06   -2.151951570887069e-06
-2.5279700808907257e-05   3.88978975197885e-06   -2.151951570887069e-06
-2.5279700808907257e-05   3.88978975197885e-06   -2.151951570887069e-06
-2.5279700808907257e-05   3.88978975197885e-06   -2.151951570887069e-06
-2.5932623053476943e-05   4.7551615464608375e-06   1.249827455570055e-05
-2.5932623053476943e-05   4.7551615464608375e-06   1.249827455570055e-05
-2.5932623053476943e-05   4.7551615464608375e-06   1.249827455570055e-05
-2.5932623053476943e-05   4.7551615464608375e-06   1.249827455570055e-05
-1.809524202166845e-05   3.765574496994656e-06   2.9725065699343946e-08
-1.809524202166845e-05   3.765574496994656e-06   2.9725065699343946e-08
-1.809524202166845e-05   3.765574496994656e-06   2.9725065699343946e-08
-1.809524202166845e-05   3.765574496994656e-06   2.9725065699343946e-08
-2.1211650819577467e-05   4.324022111336194e-06   4.888671160276916e-06
-2.1211650819577467e-05   4.324022111336194e-06   4.888671160276916e-06
-2.1211650819577467e-05   4.324022111336194e-06   4.888671160276916e-06
-2.1211650819577467e-05   4.324022111336194e-06   4.888671160276916e-06
-1.8095242021668476e-05   4.7551615464608375e-06   1.3092026785380259e-05
-1.8095242021668476e-05   4.7551615464608375e-06   1.3092026785380259e-05
-1.8095242021668476e-05   4.7551615464608375e-06   1.3092026785380259e-05
-1.8095242021668476e-05   4.7551615464608375e-06   1.3092026785380259e-05
-2.5932623053476943e-05   3.765574496994656e-06   -5.640271639803106e-07
-2.5932623053476943e-05   3.765574496994656e-06   -5.640271639803106e-07
-2.5932623053476943e-05   3.765574496994656e-06   -5.640271639803106e-07
-2.5932623053476943e-05   3.765574496994656e-06   -5.640271639803106e-07
-2.6689054585703838e-05   4.321534903936521e-06   1.5979943488630055e-05
-2.6689054585703838e-05   4.321534903936521e-06   1.5979943488630055e-05
-2.6689054585703838e-05   4.321534903936521e-06   1.5979943488630055e-05
-2.6689054585703838e-05   4.321534903936521e-06   1.5979943488630055e-05
-1.8452186073923758e-05   3.3461846603628385e-06   2.837039448474164e-06
-1.8452186073923758e-05   3.3461846603628385e-06   2.837039448474164e-06
-1.8452186073923758e-05   3.3461846603628385e-06   2.837039448474164e-06
-1.8452186073923758e-05   3.3461846603628385e-06   2.837039448474164e-06
-2.1382776706522022e-05   4.1411354857843075e-06   7.244386674218415e-06
-2.1382776706522022e-05   4.1411354857843075e-06   7.244386674218415e-06
-2.1382776706522022e-05   4.1411354857843075e-06   7.244386674218415e-06
-2.1382776706522022e-05   4.1411354857843075e-06   7.244386674218415e-06
8.110094230133416e-06   -9.314541064869191e-07   1.1356219791238287e-05
8.110094230133416e-06   -9.314541064869191e-07   1.1356219791238287e-05
8.110094230133416e-06   -9.314541064869191e-07   1.1356219791238287e-05
8.110094230133416e-06   -9.314541064869191e-07   1.1356219791238287e-05
2.1600767424100033e-06   -1.0911520732098667e-09   1.9977417510141275e-06
2.1600767424100033e-06   -1.0911520732098667e-09   1.9977417510141275e-06
2.1600767424100033e-06   -1.0911520732098667e-09   1.9977417510141275e-06
2.1600767424100033e-06   -1.0911520732098667e-09   1.9977417510141275e-06
1.8841999974003234e-06   -1.2858039447286723e-06   1.0574561403509249e-05
1.8841999974003234e-06   -1.2858039447286723e-06   1.0574561403509249e-05
1.8841999974003234e-06   -1.2858039447286723e-06   1.0574561403509249e-05
1.8841999974003234e-06   -1.2858039447286723e-06   1.0574561403509249e-05
7.427016953488738e-06   -3.1959373680292245e-07   7.568070186065136e-07
7.427016953488738e-06   -3.1959373680292245e-07   7.568070186065136e-07
7.427016953488738e-06   -3.1959373680292245e-07   7.568070186065136e-07
7.427016953488738e-06   -3.1959373680292245e-07   7.568070186065136e-07
4.608180304447489e-06   -6.795476561607212e-07   5.670840451957044e-06
4.608180304447489e-06   -6.795476561607212e-07   5.670840451957044e-06
4.608180304447489e-06   -6.795476561607212e-07   5.670840451957044e-06
4.608180304447489e-06   -6.795476561607212e-07   5.670840451957044e-06
7.427016953488752e-06   -1.2858039447286723e-06   9.994835278753756e-06
7.427016953488752e-06   -1.2858039447286723e-06   9.994835278753756e-06
7.427016953488752e-06   -1.2858039447286723e-06   9.994835278753756e-06
7.427016953488752e-06   -1.2858039447286723e-06   9.994835278753756e-06
1.8841999974003183e-06   -3.1959373680292245e-07   1.336533143362034e-06
1.8841999974003183e-06   -3.1959373680292245e-07   1.336533143362034e-06
1.8841999974003183e-06   -3.1959373680292245e-07   1.336533143362034e-06
1.8841999974003183e-06   -3.1959373680292245e-07   1.336533143362034e-06
1.561989151111665e-06   -1.4069989921800148e-06   9.915684794061723e-06
1.561989151111665e-06   -1.4069989921800148e-06   9.915684794061723e-06
1.561989151111665e-06   -1.4069989921800148e-06   9.915684794061723e-06
1.561989151111665e-06   -1.4069989921800148e-06   9.915684794061723e-06
6.847859052731007e-06   -4.558025137870944e-07   5.351837376604292e-07
6.847859052731007e-06   -4.558025137870944e-07   5.351837376604292e-07
6.847859052731007e-06   -4.558025137870944e-07   5.351837376604292e-07
6.847859052731007e-06   -4.558025137870944e-07   5.351837376604292e-07
4.280780059979273e-06   -8.186852270286333e-07   5.031378353524847e-06
4.280780059979273e-06   -8.186852270286333e-07   5.031378353524847e-06
4.280780059979273e-06   -8.186852270286333e-07   5.031378353524847e-06
4.280780059979273e-06   -8.186852270286333e-07   5.031378353524847e-06
6.84785905273102e-06   -1.4069989921800148e-06   9.344966907026014e-06
6.84785905273102e-06   -1.4069989921800148e-06   9.344966907026014e-06
6.84785905273102e-06   -1.4069989921800148e-06   9.344966907026014e-06
6.84785905273102e-06   -1.4069989921800148e-06   9.344966907026014e-06
1.5619891511116599e-06   -4.558025137870944e-07   1.1059016246961787e-06
1.5619891511116599e-06   -4.558025137870944e-07   1.1059016246961787e-06
1.5619891511116599e-06   -4.558025137870944e-07   1.1059016246961787e-06
1.5619891511116599e-06   -4.558025137870944e-07   1.1059016246961787e-06
1.2824570026292452e-06   -1.5646721752858236e-06   9.147391564063385e-06
1.2824570026292452e-06   -1.5646721752858236e-06   9.147391564063385e-06
1.2824570026292452e-06   -1.5646721752858236e-06   9.147391564063385e-06
1.2824570026292452e-06   -1.5646721752858236e-06   9.147391564063385e-06
6.168511946132912e-06   -6.805756454879557e-07   4.735087403454308e-07
6.168511946132912e-06   -6.805756454879557e-07   4.735087403454308e-07
6.168511946132912e-06   -6.805756454879557e-07   4.735087403454308e-07
6.168511946132912e-06   -6.805756454879557e-07   4.735087403454308e-07
3.7908168520828897e-06   -8.88422881764649e-07   4.561042238861537e-06
3.7908168520828897e-06   -8.88422881764649e-07   4.561042238861537e-06
3.7908168520828897e-06   -8.88422881764649e-07   4.561042238861537e-06
3.7908168520828897e-06   -8.88422881764649e-07   4.561042238861537e-06
2.1600767424100067e-06   4.6101831962619237e-07   1.5545565289283646e-05
2.1600767424100067e-06   4.6101831962619237e-07   1.5545565289283646e-05
2.1600767424100067e-06   4.6101831962619237e-07   1.5545565289283646e-05
2.1600767424100067e-06   4.6101831962619237e-07   1.5545565289283646e-05
-3.254006527420795e-06   8.845740211878284e-07   6.776226593835876e-06
-3.254006527420795e-06   8.845740211878284e-07   6.776226593835876e-06
-3.254006527420795e-06   8.845740211878284e-07   6.776226593835876e-06
-3.254006527420795e-06   8.845740211878284e-07   6.776226593835876e-06
-3.496737951372381e-06   1.0368664781260604e-07   1.5591548690812966e-05
-3.496737951372381e-06   1.0368664781260604e-07   1.5591548690812966e-05
-3.496737951372381e-06   1.0368664781260604e-07   1.5591548690812966e-05
-3.496737951372381e-06   1.0368664781260604e-07   1.5591548690812966e-05
1.8841999974003183e-06   5.261505043921942e-07   6.369840462244125e-06
1.8841999974003183e-06   5.261505043921942e-07   6.369840462244125e-06
1.8841999974003183e-06   5.261505043921942e-07   6.369840462244125e-06
1.8841999974003183e-06   5.261505043921942e-07   6.369840462244125e-06
-7.175830394128986e-07   4.574843042494132e-07   1.0747345243685552e-05
-7.175830394128986e-07   4.574843042494132e-07   1.0747345243685552e-05
-7.175830394128986e-07   4.574843042494132e-07   1.0747345243685552e-05
-7.175830394128986e-07   4.574843042494132e-07   1.0747345243685552e-05
1.88419999740032e-06   1.0368664781260604e-07   1.5338070376865083e-05
1.88419999740032e-06   1.0368664781260604e-07   1.5338070376865083e-05
1.88419999740032e-06   1.0368664781260604e-07   1.5338070376865083e-05
1.88419999740032e-06   1.0368664781260604e-07   1.5338070376865083e-05
-3.496737951372381e-06   5.261505043921942e-07   6.623318776191893e-06
-3.496737951372381e-06   5.261505043921942e-07   6.623318776191893e-06
-3.496737951372381e-06   5.261505043921942e-07   6.623318776191893e-06
-3.496737951372381e-06   5.261505043921942e-07   6.623318776191893e-06
-3.7467171643924753e-06   -1.8765321180020528e-07   1.54853382484905e-05
-3.7467171643924753e-06   -1.8765321180020528e-07   1.54853382484905e-05
-3.7467171643924753e-06   -1.8765321180020528e-07   1.54853382484905e-05
-3.7467171643924753e-06   -1.8765321180020528e-07   1.54853382484905e-05
1.5619891511116599e-06   2.2348984910110226e-07   6.390808552776285e-06
1.5619891511116599e-06   2.2348984910110226e-07   6.390808552776285e-06
1.5619891511116599e-06   2.2348984910110226e-07   6.390808552776285e-06
1.5619891511116599e-06   2.2348984910110226e-07   6.390808552776285e-06
-9.771439824573512e-07   2.081993859197979e-07   1.06318713866336e-05
-9.771439824573512e-07   2.081993859197979e-07   1.06318713866336e-05
-9.771439824573512e-07   2.081993859197979e-07   1.06318713866336e-05
-9.771439824573512e-07   2.081993859197979e-07   1.06318713866336e-05
1.561989151111665e-06   -1.8765321180020528e-07   1.523865241194976e-05
1.561989151111665e-06   -1.8765321180020528e-07   1.523865241194976e-05
1.561989151111665e-06   -1.8765321180020528e-07   1.523865241194976e-05
1.561989151111665e-06   -1.8765321180020528e-07   1.523865241194976e-05
-3.7467171643924753e-06   2.2348984910110226e-07   6.637494389317067e-06
-3.7467171643924753e-06   2.2348984910110226e-07   6.637494389317067e-06
-3.7467171643924753e-06   2.2348984910110226e-07   6.637494389317067e-06
-3.7467171643924753e-06   2.2348984910110226e-07   6.637494389317067e-06
-3.993149331642389e-06   -4.7341949815774866e-07   1.5682855004964984e-05
-3.993149331642389e-06   -4.7341949815774866e-07   1.5682855004964984e-05
-3.993149331642389e-06   -4.7341949815774866e-07   1.5682855004964984e-05
-3.993149331642389e-06   -4.7341949815774866e-07   1.5682855004964984e-05
1.2824570026292418e-06   -8.445668580388688e-08   6.656800093766758e-06
1.2824570026292418e-06   -8.445668580388688e-08   6.656800093766758e-06
1.2824570026292418e-06   -8.445668580388688e-08   6.656800093766758e-06
1.2824570026292418e-06   -8.445668580388688e-08   6.656800093766758e-06
-1.1961858251822394e-06   -1.4240486030073392e-08   1.0745741753588503e-05
-1.1961858251822394e-06   -1.4240486030073392e-08   1.0745741753588503e-05
-1.1961858251822394e-06   -1.4240486030073392e-08   1.0745741753588503e-05
-1.1961858251822394e-06   -1.4240486030073392e-08   1.0745741753588503e-05
-3.254006527420795e-06   1.7633961623489142e-06   1.7225446498485156e-05
-3.254006527420795e-06   1.7633961623489142e-06   1.7225446498485156e-05
-3.254006527420795e-06   1.7633961623489142e-06   1.7225446498485156e-05
-3.254006527420795e-06   1.7633961623489142e-06   1.7225446498485156e-05
-8.572033067477818e-06   1.6658146164747313e-06   8.303520004198967e-06
-8.572033067477818e-06   1.6658146164747313e-06   8.303520004198967e-06
-8.572033067477818e-06   1.6658146164747313e-06   8.303520004198967e-06
-8.572033067477818e-06   1.6658146164747313e-06   8.303520004198967e-06
-8.805270213509792e-06   1.439863459210271e-06   1.7072911035557895e-05
-8.805270213509792e-06   1.439863459210271e-06   1.7072911035557895e-05
-8.805270213509792e-06   1.439863459210271e-06   1.7072911035557895e-05
-8.805270213509792e-06   1.439863459210271e-06   1.7072911035557895e-05
-3.4967379513723676e-06   1.3364995384303711e-06   8.287375617796792e-06
-3.4967379513723676e-06   1.3364995384303711e-06   8.287375617796792e-06
-3.4967379513723676e-06   1.3364995384303711e-06   8.287375617796792e-06
-3.4967379513723676e-06   1.3364995384303711e-06   8.287375617796792e-06
-6.043600932712543e-06   1.5133018201388387e-06   1.2426065884339277e-05
-6.043600932712543e-06   1.5133018201388387e-06   1.2426065884339277e-05
-6.043600932712543e-06   1.5133018201388387e-06   1.2426065884339277e-05
-6.043600932712543e-06   1.5133018201388387e-06   1.2426065884339277e-05
-3.496737951372381e-06   1.439863459210271e-06   1.713492938802577e-05
-3.496737951372381e-06   1.439863459210271e-06   1.713492938802577e-05
-3.496737951372381e-06   1.439863459210271e-06   1.713492938802577e-05
-3.496737951372381e-06   1.439863459210271e-06   1.713492938802577e-05
-8.805270213509779e-06   1.3364995384304796e-06   8.225357265328971e-06
-8.805270213509779e-06   1.3364995384304796e-06   8.225357265328971e-06
-8.805270213509779e-06   1.3364995384304796e-06   8.225357265328971e-06
-8.805270213509779e-06   1.3364995384304796e-06   8.225357265328971e-06
-9.046023646966202e-06   1.1200790774140669e-06   1.7182905382902248e-05
-9.046023646966202e-06   1.1200790774140669e-06   1.7182905382902248e-05
-9.046023646966202e-06   1.1200790774140669e-06   1.7182905382902248e-05
-9.046023646966202e-06   1.1200790774140669e-06   1.7182905382902248e-05
-3.7467171643924618e-06   1.008903839766419e-06   8.417433054534531e-06
-3.7467171643924618e-06   1.008903839766419e-06   8.417433054534531e-06
-3.7467171643924618e-06   1.008903839766419e-06   8.417433054534531e-06
-3.7467171643924618e-06   1.008903839766419e-06   8.417433054534531e-06
-6.2509987241943856e-06   1.2633343891121484e-06   1.2438577324597015e-05
-6.2509987241943856e-06   1.2633343891121484e-06   1.2438577324597015e-05
-6.2509987241943856e-06   1.2633343891121484e-06   1.2438577324597015e-05
-6.2509987241943856e-06   1.2633343891121484e-06   1.2438577324597015e-05
-3.7467171643924753e-06   1.1200790774140669e-06   1.724961052549062e-05
-3.7467171643924753e-06   1.1200790774140669e-06   1.724961052549062e-05
-3.7467171643924753e-06   1.1200790774140669e-06   1.724961052549062e-05
-3.7467171643924753e-06   1.1200790774140669e-06   1.724961052549062e-05
-9.046023646966188e-06   1.0089038397665274e-06   8.35072791194601e-06
-9.046023646966188e-06   1.0089038397665274e-06   8.35072791194601e-06
-9.046023646966188e-06   1.0089038397665274e-06   8.35072791194601e-06
-9.046023646966188e-06   1.0089038397665274e-06   8.35072791194601e-06
-9.282927694517746e-06   8.123814525612611e-07   1.7455929853155724e-05
-9.282927694517746e-06   8.123814525612611e-07   1.7455929853155724e-05
-9.282927694517746e-06   8.123814525612611e-07   1.7455929853155724e-05
-9.282927694517746e-06   8.123814525612611e-07   1.7455929853155724e-05
-3.993149331642376e-06   6.955149069546316e-07   8.709752509060951e-06
-3.993149331642376e-06   6.955149069546316e-07   8.709752509060951e-06
-3.993149331642376e-06   6.955149069546316e-07   8.709752509060951e-06
-3.993149331642376e-06   6.955149069546316e-07   8.709752509060951e-06
-6.471751414805648e-06   1.018521330682599e-06   1.264695212676312e-05
-6.471751414805648e-06   1.018521330682599e-06   1.264695212676312e-05
-6.471751414805648e-06   1.018521330682599e-06   1.264695212676312e-05
-6.471751414805648e-06   1.018521330682599e-06   1.264695212676312e-05
-8.572033067477818e-06   3.0312975494787816e-06   1.5184337084474492e-05
-8.572033067477818e-06   3.0312975494787816e-06   1.5184337084474492e-05
-8.572033067477818e-06   3.0312975494787816e-06   1.5184337084474492e-05
-8.572033067477818e-06   3.0312975494787816e-06   1.5184337084474492e-05
-1.3799383111815839e-05   2.4821801350771505e-06   6.142616561936865e-06
-1.3799383111815839e-05   2.4821801350771505e-06   6.142616561936865e-06
-1.3799383111815839e-05   2.4821801350771505e-06   6.142616561936865e-06
-1.3799383111815839e-05   2.4821801350771505e-06   6.142616561936865e-06
-1.4053978682322936e-05   2.716055568230836e-06   1.4906803872549224e-05
-1.4053978682322936e-05   2.716055568230836e-06   1.4906803872549224e-05
-1.4053978682322936e-05   2.716055568230836e-06   1.4906803872549224e-05
-1.4053978682322936e-05   2.716055568230836e-06   1.4906803872549224e-05
-8.805270213509765e-06   2.1505821133401947e-06   6.49824049746178e-06
-8.805270213509765e-06   2.1505821133401947e-06   6.49824049746178e-06
-8.805270213509765e-06   2.1505821133401947e-06   6.49824049746178e-06
-8.805270213509765e-06   2.1505821133401947e-06   6.49824049746178e-06
-1.128024721822409e-05   2.55140261370588e-06   1.0382709871766861e-05
-1.128024721822409e-05   2.55140261370588e-06   1.0382709871766861e-05
-1.128024721822409e-05   2.55140261370588e-06   1.0382709871766861e-05
-1.128024721822409e-05   2.55140261370588e-06   1.0382709871766861e-05
-8.805270213509792e-06   2.716055568230836e-06   1.5246087945483587e-05
-8.805270213509792e-06   2.716055568230836e-06   1.5246087945483587e-05
-8.805270213509792e-06   2.716055568230836e-06   1.5246087945483587e-05
-8.805270213509792e-06   2.716055568230836e-06   1.5246087945483587e-05
-1.4053978682322882e-05   2.1505821133401947e-06   6.158956424527417e-06
-1.4053978682322882e-05   2.1505821133401947e-06   6.158956424527417e-06
-1.4053978682322882e-05   2.1505821133401947e-06   6.158956424527417e-06
-1.4053978682322882e-05   2.1505821133401947e-06   6.158956424527417e-06
-1.4355046217234569e-05   2.423501010666426e-06   1.5396699590853225e-05
-1.4355046217234569e-05   2.423501010666426e-06   1.5396699590853225e-05
-1.4355046217234569e-05   2.423501010666426e-06   1.5396699590853225e-05
-1.4355046217234569e-05   2.423501010666426e-06   1.5396699590853225e-05
-9.046023646966175e-06   1.8483834276063291e-06   6.893399190242009e-06
-9.046023646966175e-06   1.8483834276063291e-06   6.893399190242009e-06
-9.046023646966175e-06   1.8483834276063291e-06   6.893399190242009e-06
-9.046023646966175e-06   1.8483834276063291e-06   6.893399190242009e-06
-1.144406978603884e-05   2.317264579108566e-06   1.0608814064461786e-05
-1.144406978603884e-05   2.317264579108566e-06   1.0608814064461786e-05
-1.144406978603884e-05   2.317264579108566e-06   1.0608814064461786e-05
-1.144406978603884e-05   2.317264579108566e-06   1.0608814064461786e-05
-9.046023646966202e-06   2.423501010666426e-06   1.5741770140689066e-05
-9.046023646966202e-06   2.423501010666426e-06   1.5741770140689066e-05
-9.046023646966202e-06   2.423501010666426e-06   1.5741770140689066e-05
-9.046023646966202e-06   2.423501010666426e-06   1.5741770140689066e-05
-1.4355046217234515e-05   1.8483834276063291e-06   6.548328640406005e-06
-1.4355046217234515e-05   1.8483834276063291e-06   6.548328640406005e-06
-1.4355046217234515e-05   1.8483834276063291e-06   6.548328640406005e-06
-1.4355046217234515e-05   1.8483834276063291e-06   6.548328640406005e-06
-1.4612837571465311e-05   2.095612682792981e-06   1.5866963582315515e-05
-1.4612837571465311e-05   2.095612682792981e-06   1.5866963582315515e-05
-1.4612837571465311e-05   2.095612682792981e-06   1.5866963582315515e-05
-1.4612837571465311e-05   2.095612682792981e-06   1.5866963582315515e-05
-9.282927694517719e-06   1.5246738058610765e-06   7.326343780228721e-06
-9.282927694517719e-06   1.5246738058610765e-06   7.326343780228721e-06
-9.282927694517719e-06   1.5246738058610765e-06   7.326343780228721e-06
-9.282927694517719e-06   1.5246738058610765e-06   7.326343780228721e-06
-1.1727939905306632e-05   2.0819660927824018e-06   1.1066988759391344e-05
-1.1727939905306632e-05   2.0819660927824018e-06   1.1066988759391344e-05
-1.1727939905306632e-05   2.0819660927824018e-06   1.1066988759391344e-05
-1.1727939905306632e-05   2.0819660927824018e-06   1.1066988759391344e-05
-1.3799383111815893e-05   3.9887313767087785e-06   7.1121172245893925e-06
-1.3799383111815893e-05   3.9887313767087785e-06   7.1121172245893925e-06
-1.3799383111815893e-05   3.9887313767087785e-06   7.1121172245893925e-06
-1.3799383111815893e-05   3.9887313767087785e-06   7.1121172245893925e-06
-1.85366667619548e-05   3.0656610666578068e-06   -1.3371977116727893e-06
-1.85366667619548e-05   3.0656610666578068e-06   -1.3371977116727893e-06
-1.85366667619548e-05   3.0656610666578068e-06   -1.3371977116727893e-06
-1.85366667619548e-05   3.0656610666578068e-06   -1.3371977116727893e-06
-1.9190342463574843e-05   3.88978975197885e-06   8.7839904586546e-06
-1.9190342463574843e-05   3.88978975197885e-06   8.7839904586546e-06
-1.9190342463574843e-05   3.88978975197885e-06   8.7839904586546e-06
-1.9190342463574843e-05   3.88978975197885e-06   8.7839904586546e-06
-1.4053978682322882e-05   2.896861751257979e-06   8.191409570006765e-07
-1.4053978682322882e-05   2.896861751257979e-06   8.191409570006765e-07
-1.4053978682322882e-05   2.896861751257979e-06   8.191409570006765e-07
-1.4053978682322882e-05   2.896861751257979e-06   8.191409570006765e-07
-1.5797396291684375e-05   3.3950813260353197e-06   3.425905227737538e-06
-1.5797396291684375e-05   3.3950813260353197e-06   3.425905227737538e-06
-1.5797396291684375e-05   3.3950813260353197e-06   3.425905227737538e-06
-1.5797396291684375e-05   3.3950813260353197e-06   3.425905227737538e-06
-1.405397868232291e-05   3.889789751978742e-06   9.37974725908708e-06
-1.405397868232291e-05   3.889789751978742e-06   9.37974725908708e-06
-1.405397868232291e-05   3.889789751978742e-06   9.37974725908708e-06
-1.405397868232291e-05   3.889789751978742e-06   9.37974725908708e-06
-1.9190342463574898e-05   2.8968617512580876e-06   2.2338415656817019e-07
-1.9190342463574898e-05   2.8968617512580876e-06   2.2338415656817019e-07
-1.9190342463574898e-05   2.8968617512580876e-06   2.2338415656817019e-07
-1.9190342463574898e-05   2.8968617512580876e-06   2.2338415656817019e-07
-1.9752126128191953e-05   3.765574496994656e-06   1.0395353276038263e-05
-1.9752126128191953e-05   3.765574496994656e-06   1.0395353276038263e-05
-1.9752126128191953e-05   3.765574496994656e-06   1.0395353276038263e-05
-1.9752126128191953e-05   3.765574496994656e-06   1.0395353276038263e-05
-1.4355046217234515e-05   2.7543574037564326e-06   2.006950347052173e-06
-1.4355046217234515e-05   2.7543574037564326e-06   2.006950347052173e-06
-1.4355046217234515e-05   2.7543574037564326e-06   2.006950347052173e-06
-1.4355046217234515e-05   2.7543574037564326e-06   2.006950347052173e-06
-1.6427231809547032e-05   3.352296594972843e-06   5.101829486176771e-06
-1.6427231809547032e-05   3.352296594972843e-06   5.101829486176771e-06
-1.6427231809547032e-05   3.352296594972843e-06   5.101829486176771e-06
-1.6427231809547032e-05   3.352296594972843e-06   5.101829486176771e-06
-1.4355046217234542e-05   3.7655744969947646e-06   1.100208353198111e-05
-1.4355046217234542e-05   3.7655744969947646e-06   1.100208353198111e-05
-1.4355046217234542e-05   3.7655744969947646e-06   1.100208353198111e-05
-1.4355046217234542e-05   3.7655744969947646e-06   1.100208353198111e-05
-1.9752126128192007e-05   2.7543574037564326e-06   1.40022009110919e-06
-1.9752126128192007e-05   2.7543574037564326e-06   1.40022009110919e-06
-1.9752126128192007e-05   2.7543574037564326e-06   1.40022009110919e-06
-1.9752126128192007e-05   2.7543574037564326e-06   1.40022009110919e-06
-2.042335637030549e-05   3.3461846603628385e-06   1.3243715187412461e-05
-2.042335637030549e-05   3.3461846603628385e-06   1.3243715187412461e-05
-2.042335637030549e-05   3.3461846603628385e-06   1.3243715187412461e-05
-2.042335637030549e-05   3.3461846603628385e-06   1.3243715187412461e-05
-1.4612837571465284e-05   2.3643688043704317e-06   4.148606702941075e-06
-1.4612837571465284e-05   2.3643688043704317e-06   4.148606702941075e-06
-1.4612837571465284e-05   2.3643688043704317e-06   4.148606702941075e-06
-1.4612837571465284e-05   2.3643688043704317e-06   4.148606702941075e-06
-1.657957343659166e-05   3.1749396882652364e-06   6.940157281148322e-06
-1.657957343659166e-05   3.1749396882652364e-06   6.940157281148322e-06
-1.657957343659166e-05   3.1749396882652364e-06   6.940157281148322e-06
-1.657957343659166e-05   3.1749396882652364e-06   6.940157281148322e-06
1.771346429559722e-06   -1.0911520732098667e-09   8.526719342189404e-06
1.771346429559722e-06   -1.0911520732098667e-09   8.526719342189404e-06
1.771346429559722e-06   -1.0911520732098667e-09   8.526719342189404e-06
1.771346429559722e-06   -1.0911520732098667e-09   8.526719342189404e-06
-1.6771270699262579e-06   8.957942232899968e-07   3.3173947349306914e-06
-1.6771270699262579e-06   8.957942232899968e-07   3.3173947349306914e-06
-1.6771270699262579e-06   8.957942232899968e-07   3.3173947349306914e-06
-1.6771270699262579e-06   8.957942232899968e-07   3.3173947349306914e-06
-1.8747451297779622e-06   -3.1959373680292245e-07   8.391607949704096e-06
-1.8747451297779622e-06   -3.1959373680292245e-07   8.391607949704096e-06
-1.8747451297779622e-06   -3.1959373680292245e-07   8.391607949704096e-06
-1.8747451297779622e-06   -3.1959373680292245e-07   8.391607949704096e-06
1.1717496274339721e-06   5.985192303094473e-07   2.7632489074168e-06
1.1717496274339721e-06   5.985192303094473e-07   2.7632489074168e-06
1.1717496274339721e-06   5.985192303094473e-07   2.7632489074168e-06
1.1717496274339721e-06   5.985192303094473e-07   2.7632489074168e-06
-2.3706589361101026e-07   2.419717937739239e-07   5.325203237746437e-06
-2.3706589361101026e-07   2.419717937739239e-07   5.325203237746437e-06
-2.3706589361101026e-07   2.419717937739239e-07   5.325203237746437e-06
-2.3706589361101026e-07   2.419717937739239e-07   5.325203237746437e-06
1.1717496274339721e-06   -3.1959373680292245e-07   7.840740169436653e-06
1.1717496274339721e-06   -3.1959373680292245e-07   7.840740169436653e-06
1.1717496274339721e-06   -3.1959373680292245e-07   7.840740169436653e-06
1.1717496274339721e-06   -3.1959373680292245e-07   7.840740169436653e-06
-1.8747451297779622e-06   5.985192303094473e-07   3.31411668768423e-06
-1.8747451297779622e-06   5.985192303094473e-07   3.31411668768423e-06
-1.8747451297779622e-06   5.985192303094473e-07   3.31411668768423e-06
-1.8747451297779622e-06   5.985192303094473e-07   3.31411668768423e-06
-2.1192413272489553e-06   -4.5580251378720283e-07   8.160319893033236e-06
-2.1192413272489553e-06   -4.5580251378720283e-07   8.160319893033236e-06
-2.1192413272489553e-06   -4.5580251378720283e-07   8.160319893033236e-06
-2.1192413272489553e-06   -4.5580251378720283e-07   8.160319893033236e-06
6.504732142533005e-07   4.364611794789716e-07   3.008770774569843e-06
6.504732142533005e-07   4.364611794789716e-07   3.008770774569843e-06
6.504732142533005e-07   4.364611794789716e-07   3.008770774569843e-06
6.504732142533005e-07   4.364611794789716e-07   3.008770774569843e-06
-5.589953149938888e-07   1.1542238071988575e-07   5.217174935903912e-06
-5.589953149938888e-07   1.1542238071988575e-07   5.217174935903912e-06
-5.589953149938888e-07   1.1542238071988575e-07   5.217174935903912e-06
-5.589953149938888e-07   1.1542238071988575e-07   5.217174935903912e-06
6.504732142533005e-07   -4.558025137870944e-07   7.624961677073553e-06
6.504732142533005e-07   -4.558025137870944e-07   7.624961677073553e-06
6.504732142533005e-07   -4.558025137870944e-07   7.624961677073553e-06
6.504732142533005e-07   -4.558025137870944e-07   7.624961677073553e-06
-2.119241327248952e-06   4.364611794789716e-07   3.5441289905294854e-06
-2.119241327248952e-06   4.364611794789716e-07   3.5441289905294854e-06
-2.119241327248952e-06   4.364611794789716e-07   3.5441289905294854e-06
-2.119241327248952e-06   4.364611794789716e-07   3.5441289905294854e-06
-2.324215432725626e-06   -6.805756454880641e-07   8.060762393078086e-06
-2.324215432725626e-06   -6.805756454880641e-07   8.060762393078086e-06
-2.324215432725626e-06   -6.805756454880641e-07   8.060762393078086e-06
-2.324215432725626e-06   -6.805756454880641e-07   8.060762393078086e-06
-4.2747523833086705e-09   9.42734450706936e-08   3.7292851381724365e-06
-4.2747523833086705e-09   9.42734450706936e-08   3.7292851381724365e-06
-4.2747523833086705e-09   9.42734450706936e-08   3.7292851381724365e-06
-4.2747523833086705e-09   9.42734450706936e-08   3.7292851381724365e-06
-9.113048057755675e-07   1.738451864668339e-09   5.296522889749821e-06
-9.113048057755675e-07   1.738451864668339e-09   5.296522889749821e-06
-9.113048057755675e-07   1.738451864668339e-09   5.296522889749821e-06
-9.113048057755675e-07   1.738451864668339e-09   5.296522889749821e-06
-1.6771270699262579e-06   8.845740211878284e-07   1.3589201989292095e-05
-1.6771270699262579e-06   8.845740211878284e-07   1.3589201989292095e-05
-1.6771270699262579e-06   8.845740211878284e-07   1.3589201989292095e-05
-1.6771270699262579e-06   8.845740211878284e-07   1.3589201989292095e-05
-4.56041436196802e-06   1.0645422399465764e-06   8.891704100477704e-06
-4.56041436196802e-06   1.0645422399465764e-06   8.891704100477704e-06
-4.56041436196802e-06   1.0645422399465764e-06   8.891704100477704e-06
-4.56041436196802e-06   1.0645422399465764e-06   8.891704100477704e-06
-4.710235358548393e-06   5.261505043921942e-07   1.354927419510598e-05
-4.710235358548393e-06   5.261505043921942e-07   1.354927419510598e-05
-4.710235358548393e-06   5.261505043921942e-07   1.354927419510598e-05
-4.710235358548393e-06   5.261505043921942e-07   1.354927419510598e-05
-1.8747451297779622e-06   7.334153819249772e-07   8.699098220635505e-06
-1.8747451297779622e-06   7.334153819249772e-07   8.699098220635505e-06
-1.8747451297779622e-06   7.334153819249772e-07   8.699098220635505e-06
-1.8747451297779622e-06   7.334153819249772e-07   8.699098220635505e-06
-3.2263609886399813e-06   7.628662520866268e-07   1.0934120796641855e-05
-3.2263609886399813e-06   7.628662520866268e-07   1.0934120796641855e-05
-3.2263609886399813e-06   7.628662520866268e-07   1.0934120796641855e-05
-3.2263609886399813e-06   7.628662520866268e-07   1.0934120796641855e-05
-1.874745129777964e-06   5.261505043921942e-07   1.342491526858618e-05
-1.874745129777964e-06   5.261505043921942e-07   1.342491526858618e-05
-1.874745129777964e-06   5.261505043921942e-07   1.342491526858618e-05
-1.874745129777964e-06   5.261505043921942e-07   1.342491526858618e-05
-4.710235358548379e-06   7.334153819249772e-07   8.823457147155234e-06
-4.710235358548379e-06   7.334153819249772e-07   8.823457147155234e-06
-4.710235358548379e-06   7.334153819249772e-07   8.823457147155234e-06
-4.710235358548379e-06   7.334153819249772e-07   8.823457147155234e-06
-4.864880012962606e-06   2.2348984910110226e-07   1.356863571418842e-05
-4.864880012962606e-06   2.2348984910110226e-07   1.356863571418842e-05
-4.864880012962606e-06   2.2348984910110226e-07   1.356863571418842e-05
-4.864880012962606e-06   2.2348984910110226e-07   1.356863571418842e-05
-2.119241327248952e-06   4.2917133755962424e-07   8.869162344923884e-06
-2.119241327248952e-06   4.2917133755962424e-07   8.869162344923884e-06
-2.119241327248952e-06   4.2917133755962424e-07   8.869162344923884e-06
-2.119241327248952e-06   4.2917133755962424e-07   8.869162344923884e-06
-3.3795821536972764e-06   5.217249434345643e-07   1.0914198225479567e-05
-3.3795821536972764e-06   5.217249434345643e-07   1.0914198225479567e-05
-3.3795821536972764e-06   5.217249434345643e-07   1.0914198225479567e-05
-3.3795821536972764e-06   5.217249434345643e-07   1.0914198225479567e-05
-2.1192413272489553e-06   2.2348984910110226e-07   1.3445226821113274e-05
-2.1192413272489553e-06   2.2348984910110226e-07   1.3445226821113274e-05
-2.1192413272489553e-06   2.2348984910110226e-07   1.3445226821113274e-05
-2.1192413272489553e-06   2.2348984910110226e-07   1.3445226821113274e-05
-4.864880012962606e-06   4.2917133755962424e-07   8.992571237998945e-06
-4.864880012962606e-06   4.2917133755962424e-07   8.992571237998945e-06
-4.864880012962606e-06   4.2917133755962424e-07   8.992571237998945e-06
-4.864880012962606e-06   4.2917133755962424e-07   8.992571237998945e-06
-5.016875473917056e-06   -8.445668580377846e-08   1.3824907708315313e-05
-5.016875473917056e-06   -8.445668580377846e-08   1.3824907708315313e-05
-5.016875473917056e-06   -8.445668580377846e-08   1.3824907708315313e-05
-5.016875473917056e-06   -8.445668580377846e-08   1.3824907708315313e-05
-2.324215432725624e-06   1.0106311368709205e-07   9.225829093301714e-06
-2.324215432725624e-06   1.0106311368709205e-07   9.225829093301714e-06
-2.324215432725624e-06   1.0106311368709205e-07   9.225829093301714e-06
-2.324215432725624e-06   1.0106311368709205e-07   9.225829093301714e-06
-3.532114144883635e-06   2.8607216626325756e-07   1.1127988182019411e-05
-3.532114144883635e-06   2.8607216626325756e-07   1.1127988182019411e-05
-3.532114144883635e-06   2.8607216626325756e-07   1.1127988182019411e-05
-3.532114144883635e-06   2.8607216626325756e-07   1.1127988182019411e-05
-4.56041436196802e-06   1.6658146164747313e-06   1.528302525843488e-05
-4.56041436196802e-06   1.6658146164747313e-06   1.528302525843488e-05
-4.56041436196802e-06   1.6658146164747313e-06   1.528302525843488e-05
-4.56041436196802e-06   1.6658146164747313e-06   1.528302525843488e-05
-7.425906196023823e-06   1.2859623759238102e-06   1.0279294190678004e-05
-7.425906196023823e-06   1.2859623759238102e-06   1.0279294190678004e-05
-7.425906196023823e-06   1.2859623759238102e-06   1.0279294190678004e-05
-7.425906196023823e-06   1.2859623759238102e-06   1.0279294190678004e-05
-7.553225850073683e-06   1.3364995384304796e-06   1.4999569855876594e-05
-7.553225850073683e-06   1.3364995384304796e-06   1.4999569855876594e-05
-7.553225850073683e-06   1.3364995384304796e-06   1.4999569855876594e-05
-7.553225850073683e-06   1.3364995384304796e-06   1.4999569855876594e-05
-4.710235358548379e-06   9.80230903706563e-07   1.04750135508355e-05
-4.710235358548379e-06   9.80230903706563e-07   1.04750135508355e-05
-4.710235358548379e-06   9.80230903706563e-07   1.04750135508355e-05
-4.710235358548379e-06   9.80230903706563e-07   1.04750135508355e-05
-6.066035529308295e-06   1.2905426400080513e-06   1.2548493460321083e-05
-6.066035529308295e-06   1.2905426400080513e-06   1.2548493460321083e-05
-6.066035529308295e-06   1.2905426400080513e-06   1.2548493460321083e-05
-6.066035529308295e-06   1.2905426400080513e-06   1.2548493460321083e-05
-4.710235358548379e-06   1.3364995384304796e-06   1.5213331036710933e-05
-4.710235358548379e-06   1.3364995384304796e-06   1.5213331036710933e-05
-4.710235358548379e-06   1.3364995384304796e-06   1.5213331036710933e-05
-4.710235358548379e-06   1.3364995384304796e-06   1.5213331036710933e-05
-7.553225850073683e-06   9.80230903706563e-07   1.0261252370001133e-05
-7.553225850073683e-06   9.80230903706563e-07   1.0261252370001133e-05
-7.553225850073683e-06   9.80230903706563e-07   1.0261252370001133e-05
-7.553225850073683e-06   9.80230903706563e-07   1.0261252370001133e-05
-7.689456192048073e-06   1.0089038397665274e-06   1.5145003271257985e-05
-7.689456192048073e-06   1.0089038397665274e-06   1.5145003271257985e-05
-7.689456192048073e-06   1.0089038397665274e-06   1.5145003271257985e-05
-7.689456192048073e-06   1.0089038397665274e-06   1.5145003271257985e-05
-4.864880012962606e-06   6.696186595198973e-07   1.064094741426349e-05
-4.864880012962606e-06   6.696186595198973e-07   1.064094741426349e-05
-4.864880012962606e-06   6.696186595198973e-07   1.064094741426349e-05
-4.864880012962606e-06   6.696186595198973e-07   1.064094741426349e-05
-6.1748508105414845e-06   1.0463314268967672e-06   1.259820441646889e-05
-6.1748508105414845e-06   1.0463314268967672e-06   1.259820441646889e-05
-6.1748508105414845e-06   1.0463314268967672e-06   1.259820441646889e-05
-6.1748508105414845e-06   1.0463314268967672e-06   1.259820441646889e-05
-4.864880012962606e-06   1.008903839766419e-06   1.5348574379405843e-05
-4.864880012962606e-06   1.008903839766419e-06   1.5348574379405843e-05
-4.864880012962606e-06   1.008903839766419e-06   1.5348574379405843e-05
-4.864880012962606e-06   1.008903839766419e-06   1.5348574379405843e-05
-7.689456192048046e-06   6.696186595198973e-07   1.0437376306115576e-05
-7.689456192048046e-06   6.696186595198973e-07   1.0437376306115576e-05
-7.689456192048046e-06   6.696186595198973e-07   1.0437376306115576e-05
-7.689456192048046e-06   6.696186595198973e-07   1.0437376306115576e-05
-7.822886122009395e-06   6.955149069545231e-07   1.54526046313979e-05
-7.822886122009395e-06   6.955149069545231e-07   1.54526046313979e-05
-7.822886122009395e-06   6.955149069545231e-07   1.54526046313979e-05
-7.822886122009395e-06   6.955149069545231e-07   1.54526046313979e-05
-5.016875473917056e-06   3.757185656224184e-07   1.0967798022709971e-05
-5.016875473917056e-06   3.757185656224184e-07   1.0967798022709971e-05
-5.016875473917056e-06   3.757185656224184e-07   1.0967798022709971e-05
-5.016875473917056e-06   3.757185656224184e-07   1.0967798022709971e-05
-6.29604799298736e-06   8.060260430798076e-07   1.2841567734686013e-05
-6.29604799298736e-06   8.060260430798076e-07   1.2841567734686013e-05
-6.29604799298736e-06   8.060260430798076e-07   1.2841567734686013e-05
-6.29604799298736e-06   8.060260430798076e-07   1.2841567734686013e-05
-7.42590619602385e-06   2.482180135077259e-06   1.322368092048328e-05
-7.42590619602385e-06   2.482180135077259e-06   1.322368092048328e-05
-7.42590619602385e-06   2.482180135077259e-06   1.322368092048328e-05
-7.42590619602385e-06   2.482180135077259e-06   1.322368092048328e-05
-1.0247966374135972e-05   1.744569082728453e-06   8.07768065888708e-06
-1.0247966374135972e-05   1.744569082728453e-06   8.07768065888708e-06
-1.0247966374135972e-05   1.744569082728453e-06   8.07768065888708e-06
-1.0247966374135972e-05   1.744569082728453e-06   8.07768065888708e-06
-1.0388039677637894e-05   2.1505821133400863e-06   1.2835934082176619e-05
-1.0388039677637894e-05   2.1505821133400863e-06   1.2835934082176619e-05
-1.0388039677637894e-05   2.1505821133400863e-06   1.2835934082176619e-05
-1.0388039677637894e-05   2.1505821133400863e-06   1.2835934082176619e-05
-7.553225850073683e-06   1.4230504369521033e-06   8.54776337540244e-06
-7.553225850073683e-06   1.4230504369521033e-06   8.54776337540244e-06
-7.553225850073683e-06   1.4230504369521033e-06   8.54776337540244e-06
-7.553225850073683e-06   1.4230504369521033e-06   8.54776337540244e-06
-8.884893492392112e-06   1.9319269688455876e-06   1.0461883526797046e-05
-8.884893492392112e-06   1.9319269688455876e-06   1.0461883526797046e-05
-8.884893492392112e-06   1.9319269688455876e-06   1.0461883526797046e-05
-8.884893492392112e-06   1.9319269688455876e-06   1.0461883526797046e-05
-7.553225850073683e-06   2.1505821133401947e-06   1.327245308800943e-05
-7.553225850073683e-06   2.1505821133401947e-06   1.327245308800943e-05
-7.553225850073683e-06   2.1505821133401947e-06   1.327245308800943e-05
-7.553225850073683e-06   2.1505821133401947e-06   1.327245308800943e-05
-1.038803967763784e-05   1.4230504369521033e-06   8.111244369569587e-06
-1.038803967763784e-05   1.4230504369521033e-06   8.111244369569587e-06
-1.038803967763784e-05   1.4230504369521033e-06   8.111244369569587e-06
-1.038803967763784e-05   1.4230504369521033e-06   8.111244369569587e-06
-1.058054586997834e-05   1.8483834276063291e-06   1.326051984596355e-05
-1.058054586997834e-05   1.8483834276063291e-06   1.326051984596355e-05
-1.058054586997834e-05   1.8483834276063291e-06   1.326051984596355e-05
-1.058054586997834e-05   1.8483834276063291e-06   1.326051984596355e-05
-7.689456192048073e-06   1.136458921622164e-06   8.869191753003639e-06
-7.689456192048073e-06   1.136458921622164e-06   8.869191753003639e-06
-7.689456192048073e-06   1.136458921622164e-06   8.869191753003639e-06
-7.689456192048073e-06   1.136458921622164e-06   8.869191753003639e-06
-8.960954481420302e-06   1.6952845726414013e-06   1.065306017801243e-05
-8.960954481420302e-06   1.6952845726414013e-06   1.065306017801243e-05
-8.960954481420302e-06   1.6952845726414013e-06   1.065306017801243e-05
-8.960954481420302e-06   1.6952845726414013e-06   1.065306017801243e-05
-7.689456192048073e-06   1.8483834276064376e-06   1.368767454955382e-05
-7.689456192048073e-06   1.8483834276064376e-06   1.368767454955382e-05
-7.689456192048073e-06   1.8483834276064376e-06   1.368767454955382e-05
-7.689456192048073e-06   1.8483834276064376e-06   1.368767454955382e-05
-1.0580545869978285e-05   1.1364589216222723e-06   8.442037049413096e-06
-1.0580545869978285e-05   1.1364589216222723e-06   8.442037049413096e-06
-1.0580545869978285e-05   1.1364589216222723e-06   8.442037049413096e-06
-1.0580545869978285e-05   1.1364589216222723e-06   8.442037049413096e-06
-1.0734624170285047e-05   1.5246738058610765e-06   1.3730858089474685e-05
-1.0734624170285047e-05   1.5246738058610765e-06   1.3730858089474685e-05
-1.0734624170285047e-05   1.5246738058610765e-06   1.3730858089474685e-05
-1.0734624170285047e-05   1.5246738058610765e-06   1.3730858089474685e-05
-7.822886122009395e-06   8.43910905102478e-07   9.286419082803757e-06
-7.822886122009395e-06   8.43910905102478e-07   9.286419082803757e-06
-7.822886122009395e-06   8.43910905102478e-07   9.286419082803757e-06
-7.822886122009395e-06   8.43910905102478e-07   9.286419082803757e-06
-9.120993130597055e-06   1.4696064261970551e-06   1.1074513451126745e-05
-9.120993130597055e-06   1.4696064261970551e-06   1.1074513451126745e-05
-9.120993130597055e-06   1.4696064261970551e-06   1.1074513451126745e-05
-9.120993130597055e-06   1.4696064261970551e-06   1.1074513451126745e-05
-1.0247966374135972e-05   3.0656610666578068e-06   5.85514220149486e-06
-1.0247966374135972e-05   3.0656610666578068e-06   5.85514220149486e-06
-1.0247966374135972e-05   3.0656610666578068e-06   5.85514220149486e-06
-1.0247966374135972e-05   3.0656610666578068e-06   5.85514220149486e-06
-1.2491078569970191e-05   2.0716976839553957e-06   1.520243845483118e-06
-1.2491078569970191e-05   2.0716976839553957e-06   1.520243845483118e-06
-1.2491078569970191e-05   2.0716976839553957e-06   1.520243845483118e-06
-1.2491078569970191e-05   2.0716976839553957e-06   1.520243845483118e-06
-1.3019043167499298e-05   2.896861751257979e-06   6.872746855611316e-06
-1.3019043167499298e-05   2.896861751257979e-06   6.872746855611316e-06
-1.3019043167499298e-05   2.896861751257979e-06   6.872746855611316e-06
-1.3019043167499298e-05   2.896861751257979e-06   6.872746855611316e-06
-1.0388039677637867e-05   1.8579088195269785e-06   3.111112798214106e-06
-1.0388039677637867e-05   1.8579088195269785e-06   3.111112798214106e-06
-1.0388039677637867e-05   1.8579088195269785e-06   3.111112798214106e-06
-1.0388039677637867e-05   1.8579088195269785e-06   3.111112798214106e-06
-1.1135578340363184e-05   2.4461363139036563e-06   4.004074072796939e-06
-1.1135578340363184e-05   2.4461363139036563e-06   4.004074072796939e-06
-1.1135578340363184e-05   2.4461363139036563e-06   4.004074072796939e-06
-1.1135578340363184e-05   2.4461363139036563e-06   4.004074072796939e-06
-1.038803967763784e-05   2.896861751257979e-06   7.496118614649797e-06
-1.038803967763784e-05   2.896861751257979e-06   7.496118614649797e-06
-1.038803967763784e-05   2.896861751257979e-06   7.496118614649797e-06
-1.038803967763784e-05   2.896861751257979e-06   7.496118614649797e-06
-1.3019043167499379e-05   1.8579088195269785e-06   2.4877410391754453e-06
-1.3019043167499379e-05   1.8579088195269785e-06   2.4877410391754453e-06
-1.3019043167499379e-05   1.8579088195269785e-06   2.4877410391754453e-06
-1.3019043167499379e-05   1.8579088195269785e-06   2.4877410391754453e-06
-1.3471516042109388e-05   2.7543574037564326e-06   8.092878956096508e-06
-1.3471516042109388e-05   2.7543574037564326e-06   8.092878956096508e-06
-1.3471516042109388e-05   2.7543574037564326e-06   8.092878956096508e-06
-1.3471516042109388e-05   2.7543574037564326e-06   8.092878956096508e-06
-1.0580545869978312e-05   1.7105864095679673e-06   3.9008579323911315e-06
-1.0580545869978312e-05   1.7105864095679673e-06   3.9008579323911315e-06
-1.0580545869978312e-05   1.7105864095679673e-06   3.9008579323911315e-06
-1.0580545869978312e-05   1.7105864095679673e-06   3.9008579323911315e-06
-1.1584315329015967e-05   2.3632917207751583e-06   5.182183844063297e-06
-1.1584315329015967e-05   2.3632917207751583e-06   5.182183844063297e-06
-1.1584315329015967e-05   2.3632917207751583e-06   5.182183844063297e-06
-1.1584315329015967e-05   2.3632917207751583e-06   5.182183844063297e-06
-1.0580545869978312e-05   2.7543574037564326e-06   8.719141552609609e-06
-1.0580545869978312e-05   2.7543574037564326e-06   8.719141552609609e-06
-1.0580545869978312e-05   2.7543574037564326e-06   8.719141552609609e-06
-1.0580545869978312e-05   2.7543574037564326e-06   8.719141552609609e-06
-1.3471516042109469e-05   1.7105864095678588e-06   3.274595335878068e-06
-1.3471516042109469e-05   1.7105864095678588e-06   3.274595335878068e-06
-1.3471516042109469e-05   1.7105864095678588e-06   3.274595335878068e-06
-1.3471516042109469e-05   1.7105864095678588e-06   3.274595335878068e-06
-1.4045882368908915e-05   2.3643688043704317e-06   1.0298964429603184e-05
-1.4045882368908915e-05   2.3643688043704317e-06   1.0298964429603184e-05
-1.4045882368908915e-05   2.3643688043704317e-06   1.0298964429603184e-05
-1.4045882368908915e-05   2.3643688043704317e-06   1.0298964429603184e-05
-1.073462417028502e-05   1.3698356231323008e-06   5.376920673972848e-06
-1.073462417028502e-05   1.3698356231323008e-06   5.376920673972848e-06
-1.073462417028502e-05   1.3698356231323008e-06   5.376920673972848e-06
-1.073462417028502e-05   1.3698356231323008e-06   5.376920673972848e-06
-1.1710305706206682e-05   2.2011365758997474e-06   6.504275995515075e-06
-1.1710305706206682e-05   2.2011365758997474e-06   6.504275995515075e-06
-1.1710305706206682e-05   2.2011365758997474e-06   6.504275995515075e-06
-1.1710305706206682e-05   2.2011365758997474e-06   6.504275995515075e-06
-4.868228215728313e-06   8.957942232899968e-07   6.1326330795164375e-06
-4.868228215728313e-06   8.957942232899968e-07   6.1326330795164375e-06
-4.868228215728313e-06   8.957942232899968e-07   6.1326330795164375e-06
-4.868228215728313e-06   8.957942232899968e-07   6.1326330795164375e-06
-5.430929609286833e-06   1.7114491749361757e-06   5.684190394573258e-06
-5.430929609286833e-06   1.7114491749361757e-06   5.684190394573258e-06
-5.430929609286833e-06   1.7114491749361757e-06   5.684190394573258e-06
-5.430929609286833e-06   1.7114491749361757e-06   5.684190394573258e-06
-5.575988416370879e-06   5.985192303094473e-07   6.558480307123596e-06
-5.575988416370879e-06   5.985192303094473e-07   6.558480307123596e-06
-5.575988416370879e-06   5.985192303094473e-07   6.558480307123596e-06
-5.575988416370879e-06   5.985192303094473e-07   6.558480307123596e-06
-5.468100099597166e-06   1.3332124829213495e-06   5.937850494266926e-06
-5.468100099597166e-06   1.3332124829213495e-06   5.937850494266926e-06
-5.468100099597166e-06   1.3332124829213495e-06   5.937850494266926e-06
-5.468100099597166e-06   1.3332124829213495e-06   5.937850494266926e-06
-5.206485488414463e-06   1.058632673041468e-06   5.666574028223727e-06
-5.206485488414463e-06   1.058632673041468e-06   5.666574028223727e-06
-5.206485488414463e-06   1.058632673041468e-06   5.666574028223727e-06
-5.206485488414463e-06   1.058632673041468e-06   5.666574028223727e-06
-5.468100099597179e-06   5.985192303094473e-07   6.117664355556444e-06
-5.468100099597179e-06   5.985192303094473e-07   6.117664355556444e-06
-5.468100099597179e-06   5.985192303094473e-07   6.117664355556444e-06
-5.468100099597179e-06   5.985192303094473e-07   6.117664355556444e-06
-5.575988416370879e-06   1.3332124829213495e-06   6.3786664458340375e-06
-5.575988416370879e-06   1.3332124829213495e-06   6.3786664458340375e-06
-5.575988416370879e-06   1.3332124829213495e-06   6.3786664458340375e-06
-5.575988416370879e-06   1.3332124829213495e-06   6.3786664458340375e-06
-5.764053389647905e-06   4.3646117947886316e-07   6.74895059571038e-06
-5.764053389647905e-06   4.3646117947886316e-07   6.74895059571038e-06
-5.764053389647905e-06   4.3646117947886316e-07   6.74895059571038e-06
-5.764053389647905e-06   4.3646117947886316e-07   6.74895059571038e-06
-6.0527747055699e-06   1.0732738414204407e-06   6.848065191748673e-06
-6.0527747055699e-06   1.0732738414204407e-06   6.848065191748673e-06
-6.0527747055699e-06   1.0732738414204407e-06   6.848065191748673e-06
-6.0527747055699e-06   1.0732738414204407e-06   6.848065191748673e-06
-5.562936101854106e-06   8.959491751097098e-07   6.138062318675273e-06
-5.562936101854106e-06   8.959491751097098e-07   6.138062318675273e-06
-5.562936101854106e-06   8.959491751097098e-07   6.138062318675273e-06
-5.562936101854106e-06   8.959491751097098e-07   6.138062318675273e-06
-6.052774705569913e-06   4.3646117947886316e-07   6.366862998545184e-06
-6.052774705569913e-06   4.3646117947886316e-07   6.366862998545184e-06
-6.052774705569913e-06   4.3646117947886316e-07   6.366862998545184e-06
-6.052774705569913e-06   4.3646117947886316e-07   6.366862998545184e-06
-5.764053389647905e-06   1.0732738414204407e-06   7.230152788913571e-06
-5.764053389647905e-06   1.0732738414204407e-06   7.230152788913571e-06
-5.764053389647905e-06   1.0732738414204407e-06   7.230152788913571e-06
-5.764053389647905e-06   1.0732738414204407e-06   7.230152788913571e-06
-5.88570392375515e-06   9.42734450706936e-08   7.387800867744709e-06
-5.88570392375515e-06   9.42734450706936e-08   7.387800867744709e-06
-5.88570392375515e-06   9.42734450706936e-08   7.387800867744709e-06
-5.88570392375515e-06   9.42734450706936e-08   7.387800867744709e-06
-6.67607840547775e-06   4.347805311994638e-07   8.500787418938338e-06
-6.67607840547775e-06   4.347805311994638e-07   8.500787418938338e-06
-6.67607840547775e-06   4.347805311994638e-07   8.500787418938338e-06
-6.67607840547775e-06   4.347805311994638e-07   8.500787418938338e-06
-5.818786080621959e-06   6.982232198278612e-07   6.913901264334776e-06
-5.818786080621959e-06   6.982232198278612e-07   6.913901264334776e-06
-5.818786080621959e-06   6.982232198278612e-07   6.913901264334776e-06
-5.818786080621959e-06   6.982232198278612e-07   6.913901264334776e-06
-5.430929609286825e-06   1.0645422399466848e-06   1.2088354484795897e-05
-5.430929609286825e-06   1.0645422399466848e-06   1.2088354484795897e-05
-5.430929609286825e-06   1.0645422399466848e-06   1.2088354484795897e-05
-5.430929609286825e-06   1.0645422399466848e-06   1.2088354484795897e-05
-5.570509247539905e-06   4.439840105534146e-07   1.148338681673813e-05
-5.570509247539905e-06   4.439840105534146e-07   1.148338681673813e-05
-5.570509247539905e-06   4.439840105534146e-07   1.148338681673813e-05
-5.570509247539905e-06   4.439840105534146e-07   1.148338681673813e-05
-5.618242901888544e-06   7.334153819249772e-07   1.1629309186719338e-05
-5.618242901888544e-06   7.334153819249772e-07   1.1629309186719338e-05
-5.618242901888544e-06   7.334153819249772e-07   1.1629309186719338e-05
-5.618242901888544e-06   7.334153819249772e-07   1.1629309186719338e-05
-5.575988416370879e-06   2.0982762633230557e-07   1.1873037697545531e-05
-5.575988416370879e-06   2.0982762633230557e-07   1.1873037697545531e-05
-5.575988416370879e-06   2.0982762633230557e-07   1.1873037697545531e-05
-5.575988416370879e-06   2.0982762633230557e-07   1.1873037697545531e-05
-5.533367498354683e-06   5.408334035580703e-07   1.1603399367849694e-05
-5.533367498354683e-06   5.408334035580703e-07   1.1603399367849694e-05
-5.533367498354683e-06   5.408334035580703e-07   1.1603399367849694e-05
-5.533367498354683e-06   5.408334035580703e-07   1.1603399367849694e-05
-5.575988416370874e-06   7.334153819249772e-07   1.1943461840074746e-05
-5.575988416370874e-06   7.334153819249772e-07   1.1943461840074746e-05
-5.575988416370874e-06   7.334153819249772e-07   1.1943461840074746e-05
-5.575988416370874e-06   7.334153819249772e-07   1.1943461840074746e-05
-5.618242901888544e-06   2.0982762633230557e-07   1.1558885044189873e-05
-5.618242901888544e-06   2.0982762633230557e-07   1.1558885044189873e-05
-5.618242901888544e-06   2.0982762633230557e-07   1.1558885044189873e-05
-5.618242901888544e-06   2.0982762633230557e-07   1.1558885044189873e-05
-5.676822752464768e-06   4.291713375595158e-07   1.1781126369390688e-05
-5.676822752464768e-06   4.291713375595158e-07   1.1781126369390688e-05
-5.676822752464768e-06   4.291713375595158e-07   1.1781126369390688e-05
-5.676822752464768e-06   4.291713375595158e-07   1.1781126369390688e-05
-5.764053389647905e-06   -5.8924630297178295e-08   1.2219368345409823e-05
-5.764053389647905e-06   -5.8924630297178295e-08   1.2219368345409823e-05
-5.764053389647905e-06   -5.8924630297178295e-08   1.2219368345409823e-05
-5.764053389647905e-06   -5.8924630297178295e-08   1.2219368345409823e-05
-5.591249395216421e-06   3.4835771972336737e-07   1.1686992278011544e-05
-5.591249395216421e-06   3.4835771972336737e-07   1.1686992278011544e-05
-5.591249395216421e-06   3.4835771972336737e-07   1.1686992278011544e-05
-5.591249395216421e-06   3.4835771972336737e-07   1.1686992278011544e-05
-5.764053389647905e-06   4.291713375595158e-07   1.2073983950104531e-05
-5.764053389647905e-06   4.291713375595158e-07   1.2073983950104531e-05
-5.764053389647905e-06   4.291713375595158e-07   1.2073983950104531e-05
-5.764053389647905e-06   4.291713375595158e-07   1.2073983950104531e-05
-5.676822752464741e-06   -5.8924630297232505e-08   1.1926510764695804e-05
-5.676822752464741e-06   -5.8924630297232505e-08   1.1926510764695804e-05
-5.676822752464741e-06   -5.8924630297232505e-08   1.1926510764695804e-05
-5.676822752464741e-06   -5.8924630297232505e-08   1.1926510764695804e-05
-5.721080492265395e-06   1.0106311368720047e-07   1.2112567022233957e-05
-5.721080492265395e-06   1.0106311368720047e-07   1.2112567022233957e-05
-5.721080492265395e-06   1.0106311368720047e-07   1.2112567022233957e-05
-5.721080492265395e-06   1.0106311368720047e-07   1.2112567022233957e-05
-5.885703923755144e-06   -4.103841301543931e-07   1.2693807754354962e-05
-5.885703923755144e-06   -4.103841301543931e-07   1.2693807754354962e-05
-5.885703923755144e-06   -4.103841301543931e-07   1.2693807754354962e-05
-5.885703923755144e-06   -4.103841301543931e-07   1.2693807754354962e-05
-5.680133362996168e-06   1.238431802848554e-07   1.203065376682619e-05
-5.680133362996168e-06   1.238431802848554e-07   1.203065376682619e-05
-5.680133362996168e-06   1.238431802848554e-07   1.203065376682619e-05
-5.680133362996168e-06   1.238431802848554e-07   1.203065376682619e-05
-5.570509247539919e-06   1.2859623759238102e-06   1.3331520981690837e-05
-5.570509247539919e-06   1.2859623759238102e-06   1.3331520981690837e-05
-5.570509247539919e-06   1.2859623759238102e-06   1.3331520981690837e-05
-5.570509247539919e-06   1.2859623759238102e-06   1.3331520981690837e-05
-6.0518366272644016e-06   1.2494138722088984e-07   1.1832696088928216e-05
-6.0518366272644016e-06   1.2494138722088984e-07   1.1832696088928216e-05
-6.0518366272644016e-06   1.2494138722088984e-07   1.1832696088928216e-05
-6.0518366272644016e-06   1.2494138722088984e-07   1.1832696088928216e-05
-6.070716063918014e-06   9.80230903706563e-07   1.2650044493022936e-05
-6.070716063918014e-06   9.80230903706563e-07   1.2650044493022936e-05
-6.070716063918014e-06   9.80230903706563e-07   1.2650044493022936e-05
-6.070716063918014e-06   9.80230903706563e-07   1.2650044493022936e-05
-5.618242901888544e-06   -7.113759192118024e-08   1.2526743653683753e-05
-5.618242901888544e-06   -7.113759192118024e-08   1.2526743653683753e-05
-5.618242901888544e-06   -7.113759192118024e-08   1.2526743653683753e-05
-5.618242901888544e-06   -7.113759192118024e-08   1.2526743653683753e-05
-5.818577407751147e-06   5.595460993201894e-07   1.2482224282043235e-05
-5.818577407751147e-06   5.595460993201894e-07   1.2482224282043235e-05
-5.818577407751147e-06   5.595460993201894e-07   1.2482224282043235e-05
-5.818577407751147e-06   5.595460993201894e-07   1.2482224282043235e-05
-5.618242901888544e-06   9.80230903706563e-07   1.3280865590399441e-05
-5.618242901888544e-06   9.80230903706563e-07   1.3280865590399441e-05
-5.618242901888544e-06   9.80230903706563e-07   1.3280865590399441e-05
-5.618242901888544e-06   9.80230903706563e-07   1.3280865590399441e-05
-6.070716063918014e-06   -7.113759192118024e-08   1.1895922556307099e-05
-6.070716063918014e-06   -7.113759192118024e-08   1.1895922556307099e-05
-6.070716063918014e-06   -7.113759192118024e-08   1.1895922556307099e-05
-6.070716063918014e-06   -7.113759192118024e-08   1.1895922556307099e-05
-6.10175864057232e-06   6.696186595200057e-07   1.2844247406484217e-05
-6.10175864057232e-06   6.696186595200057e-07   1.2844247406484217e-05
-6.10175864057232e-06   6.696186595200057e-07   1.2844247406484217e-05
-6.10175864057232e-06   6.696186595200057e-07   1.2844247406484217e-05
-5.676822752464754e-06   -3.0580657243176e-07   1.2721276065475834e-05
-5.676822752464754e-06   -3.0580657243176e-07   1.2721276065475834e-05
-5.676822752464754e-06   -3.0580657243176e-07   1.2721276065475834e-05
-5.676822752464754e-06   -3.0580657243176e-07   1.2721276065475834e-05
-5.825798650253772e-06   3.660704034148311e-07   1.2566443042949158e-05
-5.825798650253772e-06   3.660704034148311e-07   1.2566443042949158e-05
-5.825798650253772e-06   3.660704034148311e-07   1.2566443042949158e-05
-5.825798650253772e-06   3.660704034148311e-07   1.2566443042949158e-05
-5.676822752464768e-06   6.696186595198973e-07   1.342950254565507e-05
-5.676822752464768e-06   6.696186595198973e-07   1.342950254565507e-05
-5.676822752464768e-06   6.696186595198973e-07   1.342950254565507e-05
-5.676822752464768e-06   6.696186595198973e-07   1.342950254565507e-05
-6.10175864057232e-06   -3.058065724317058e-07   1.2136020926304804e-05
-6.10175864057232e-06   -3.058065724317058e-07   1.2136020926304804e-05
-6.10175864057232e-06   -3.058065724317058e-07   1.2136020926304804e-05
-6.10175864057232e-06   -3.058065724317058e-07   1.2136020926304804e-05
-6.123260357293852e-06   3.757185656224184e-07   1.3193567737448627e-05
-6.123260357293852e-06   3.757185656224184e-07   1.3193567737448627e-05
-6.123260357293852e-06   3.757185656224184e-07   1.3193567737448627e-05
-6.123260357293852e-06   3.757185656224184e-07   1.3193567737448627e-05
-5.721080492265395e-06   -5.40375325209163e-07   1.3072924296900017e-05
-5.721080492265395e-06   -5.40375325209163e-07   1.3072924296900017e-05
-5.721080492265395e-06   -5.40375325209163e-07   1.3072924296900017e-05
-5.721080492265395e-06   -5.40375325209163e-07   1.3072924296900017e-05
-5.842923714884085e-06   1.6739560574534698e-07   1.2851333776024807e-05
-5.842923714884085e-06   1.6739560574534698e-07   1.2851333776024807e-05
-5.842923714884085e-06   1.6739560574534698e-07   1.2851333776024807e-05
-5.842923714884085e-06   1.6739560574534698e-07   1.2851333776024807e-05
-6.0518366272644016e-06   1.744569082728453e-06   1.0875861488087335e-05
-6.0518366272644016e-06   1.744569082728453e-06   1.0875861488087335e-05
-6.0518366272644016e-06   1.744569082728453e-06   1.0875861488087335e-05
-6.0518366272644016e-06   1.744569082728453e-06   1.0875861488087335e-05
-6.724104183335514e-06   5.75820036338747e-07   9.05416613346834e-06
-6.724104183335514e-06   5.75820036338747e-07   9.05416613346834e-06
-6.724104183335514e-06   5.75820036338747e-07   9.05416613346834e-06
-6.724104183335514e-06   5.75820036338747e-07   9.05416613346834e-06
-6.739413260216837e-06   1.4230504369521033e-06   1.0272868510588723e-05
-6.739413260216837e-06   1.4230504369521033e-06   1.0272868510588723e-05
-6.739413260216837e-06   1.4230504369521033e-06   1.0272868510588723e-05
-6.739413260216837e-06   1.4230504369521033e-06   1.0272868510588723e-05
-6.070716063918014e-06   3.169054572264374e-07   9.822060171259538e-06
-6.070716063918014e-06   3.169054572264374e-07   9.822060171259538e-06
-6.070716063918014e-06   3.169054572264374e-07   9.822060171259538e-06
-6.070716063918014e-06   3.169054572264374e-07   9.822060171259538e-06
-6.379922324027904e-06   1.0376972238339082e-06   9.90492887814479e-06
-6.379922324027904e-06   1.0376972238339082e-06   9.90492887814479e-06
-6.379922324027904e-06   1.0376972238339082e-06   9.90492887814479e-06
-6.379922324027904e-06   1.0376972238339082e-06   9.90492887814479e-06
-6.070716063918014e-06   1.4230504369521033e-06   1.093655549842408e-05
-6.070716063918014e-06   1.4230504369521033e-06   1.093655549842408e-05
-6.070716063918014e-06   1.4230504369521033e-06   1.093655549842408e-05
-6.070716063918014e-06   1.4230504369521033e-06   1.093655549842408e-05
-6.739413260216837e-06   3.169054572264374e-07   9.158373183424104e-06
-6.739413260216837e-06   3.169054572264374e-07   9.158373183424104e-06
-6.739413260216837e-06   3.169054572264374e-07   9.158373183424104e-06
-6.739413260216837e-06   3.169054572264374e-07   9.158373183424104e-06
-6.815952146567233e-06   1.136458921622164e-06   1.0651113621995686e-05
-6.815952146567233e-06   1.136458921622164e-06   1.0651113621995686e-05
-6.815952146567233e-06   1.136458921622164e-06   1.0651113621995686e-05
-6.815952146567233e-06   1.136458921622164e-06   1.0651113621995686e-05
-6.10175864057232e-06   9.487686932797834e-08   1.0085740343380604e-05
-6.10175864057232e-06   9.487686932797834e-08   1.0085740343380604e-05
-6.10175864057232e-06   9.487686932797834e-08   1.0085740343380604e-05
-6.10175864057232e-06   9.487686932797834e-08   1.0085740343380604e-05
-6.365540651819942e-06   8.257935227555134e-07   1.008682703673632e-05
-6.365540651819942e-06   8.257935227555134e-07   1.008682703673632e-05
-6.365540651819942e-06   8.257935227555134e-07   1.008682703673632e-05
-6.365540651819942e-06   8.257935227555134e-07   1.008682703673632e-05
-6.101758640572293e-06   1.136458921622164e-06   1.1276062853371872e-05
-6.101758640572293e-06   1.136458921622164e-06   1.1276062853371872e-05
-6.101758640572293e-06   1.136458921622164e-06   1.1276062853371872e-05
-6.101758640572293e-06   1.136458921622164e-06   1.1276062853371872e-05
-6.815952146567233e-06   9.487686932797834e-08   9.460791112004047e-06
-6.815952146567233e-06   9.487686932797834e-08   9.460791112004047e-06
-6.815952146567233e-06   9.487686932797834e-08   9.460791112004047e-06
-6.815952146567233e-06   9.487686932797834e-08   9.460791112004047e-06
-6.862748161021799e-06   8.43910905102478e-07   1.1120226989531218e-05
-6.862748161021799e-06   8.43910905102478e-07   1.1120226989531218e-05
-6.862748161021799e-06   8.43910905102478e-07   1.1120226989531218e-05
-6.862748161021799e-06   8.43910905102478e-07   1.1120226989531218e-05
-6.123260357293825e-06   -1.2915511624810505e-07   1.0471586929461726e-05
-6.123260357293825e-06   -1.2915511624810505e-07   1.0471586929461726e-05
-6.123260357293825e-06   -1.2915511624810505e-07   1.0471586929461726e-05
-6.123260357293825e-06   -1.2915511624810505e-07   1.0471586929461726e-05
-6.4015305354002476e-06   6.360915118370472e-07   1.047622258278769e-05
-6.4015305354002476e-06   6.360915118370472e-07   1.047622258278769e-05
-6.4015305354002476e-06   6.360915118370472e-07   1.047622258278769e-05
-6.4015305354002476e-06   6.360915118370472e-07   1.047622258278769e-05
-6.724104183335514e-06   2.0716976839553957e-06   4.213553276470952e-06
-6.724104183335514e-06   2.0716976839553957e-06   4.213553276470952e-06
-6.724104183335514e-06   2.0716976839553957e-06   4.213553276470952e-06
-6.724104183335514e-06   2.0716976839553957e-06   4.213553276470952e-06
-6.701303120924915e-06   9.562274573938307e-07   3.582272911218317e-06
-6.701303120924915e-06   9.562274573938307e-07   3.582272911218317e-06
-6.701303120924915e-06   9.562274573938307e-07   3.582272911218317e-06
-6.701303120924915e-06   9.562274573938307e-07   3.582272911218317e-06
-7.046197171900795e-06   1.8579088195268701e-06   4.621243192167801e-06
-7.046197171900795e-06   1.8579088195268701e-06   4.621243192167801e-06
-7.046197171900795e-06   1.8579088195268701e-06   4.621243192167801e-06
-7.046197171900795e-06   1.8579088195268701e-06   4.621243192167801e-06
-6.739413260216837e-06   7.720859077510857e-07   4.761430419759991e-06
-6.739413260216837e-06   7.720859077510857e-07   4.761430419759991e-06
-6.739413260216837e-06   7.720859077510857e-07   4.761430419759991e-06
-6.739413260216837e-06   7.720859077510857e-07   4.761430419759991e-06
-6.581169894177323e-06   1.4601537830417509e-06   4.084850751186414e-06
-6.581169894177323e-06   1.4601537830417509e-06   4.084850751186414e-06
-6.581169894177323e-06   1.4601537830417509e-06   4.084850751186414e-06
-6.581169894177323e-06   1.4601537830417509e-06   4.084850751186414e-06
-6.7394132602168096e-06   1.8579088195268701e-06   5.27273693923312e-06
-6.7394132602168096e-06   1.8579088195268701e-06   5.27273693923312e-06
-6.7394132602168096e-06   1.8579088195268701e-06   5.27273693923312e-06
-6.7394132602168096e-06   1.8579088195268701e-06   5.27273693923312e-06
-7.046197171900741e-06   7.720859077510857e-07   4.109936672694537e-06
-7.046197171900741e-06   7.720859077510857e-07   4.109936672694537e-06
-7.046197171900741e-06   7.720859077510857e-07   4.109936672694537e-06
-7.046197171900741e-06   7.720859077510857e-07   4.109936672694537e-06
-7.348584768291689e-06   1.7105864095678588e-06   5.474727906025056e-06
-7.348584768291689e-06   1.7105864095678588e-06   5.474727906025056e-06
-7.348584768291689e-06   1.7105864095678588e-06   5.474727906025056e-06
-7.348584768291689e-06   1.7105864095678588e-06   5.474727906025056e-06
-6.815952146567206e-06   6.51908744653425e-07   5.2222134687661946e-06
-6.815952146567206e-06   6.51908744653425e-07   5.2222134687661946e-06
-6.815952146567206e-06   6.51908744653425e-07   5.2222134687661946e-06
-6.815952146567206e-06   6.51908744653425e-07   5.2222134687661946e-06
-6.828519824531411e-06   1.3540201154214416e-06   4.821892776245415e-06
-6.828519824531411e-06   1.3540201154214416e-06   4.821892776245415e-06
-6.828519824531411e-06   1.3540201154214416e-06   4.821892776245415e-06
-6.828519824531411e-06   1.3540201154214416e-06   4.821892776245415e-06
-6.815952146567233e-06   1.7105864095679673e-06   6.109934504973532e-06
-6.815952146567233e-06   1.7105864095679673e-06   6.109934504973532e-06
-6.815952146567233e-06   1.7105864095679673e-06   6.109934504973532e-06
-6.815952146567233e-06   1.7105864095679673e-06   6.109934504973532e-06
-7.348584768291689e-06   6.51908744653425e-07   4.5870068698175695e-06
-7.348584768291689e-06   6.51908744653425e-07   4.5870068698175695e-06
-7.348584768291689e-06   6.51908744653425e-07   4.5870068698175695e-06
-7.348584768291689e-06   6.51908744653425e-07   4.5870068698175695e-06
-7.794579774701433e-06   1.3698356231323008e-06   7.041814349363932e-06
-7.794579774701433e-06   1.3698356231323008e-06   7.041814349363932e-06
-7.794579774701433e-06   1.3698356231323008e-06   7.041814349363932e-06
-7.794579774701433e-06   1.3698356231323008e-06   7.041814349363932e-06
-6.862748161021799e-06   4.075490034797873e-07   6.066133631689311e-06
-6.862748161021799e-06   4.075490034797873e-07   6.066133631689311e-06
-6.862748161021799e-06   4.075490034797873e-07   6.066133631689311e-06
-6.862748161021799e-06   4.075490034797873e-07   6.066133631689311e-06
-6.912501560643743e-06   1.2257653311456692e-06   5.658126167792596e-06
-6.912501560643743e-06   1.2257653311456692e-06   5.658126167792596e-06
-6.912501560643743e-06   1.2257653311456692e-06   5.658126167792596e-06
-6.912501560643743e-06   1.2257653311456692e-06   5.658126167792596e-06
-1.291506317791681e-05   1.7114491749361757e-06   5.168665560760315e-06
-1.291506317791681e-05   1.7114491749361757e-06   5.168665560760315e-06
-1.291506317791681e-05   1.7114491749361757e-06   5.168665560760315e-06
-1.291506317791681e-05   1.7114491749361757e-06   5.168665560760315e-06
-8.767398237890919e-06   2.363896156274667e-06   1.2472908649606619e-05
-8.767398237890919e-06   2.363896156274667e-06   1.2472908649606619e-05
-8.767398237890919e-06   2.363896156274667e-06   1.2472908649606619e-05
-8.767398237890919e-06   2.363896156274667e-06   1.2472908649606619e-05
-8.766546515807456e-06   1.3332124829213495e-06   5.826326048168697e-06
-8.766546515807456e-06   1.3332124829213495e-06   5.826326048168697e-06
-8.766546515807456e-06   1.3332124829213495e-06   5.826326048168697e-06
-8.766546515807456e-06   1.3332124829213495e-06   5.826326048168697e-06
-1.4252849830745189e-05   9.339044979942432e-07   1.5209749697354634e-05
-1.4252849830745189e-05   9.339044979942432e-07   1.5209749697354634e-05
-1.4252849830745189e-05   9.339044979942432e-07   1.5209749697354634e-05
-1.4252849830745189e-05   9.339044979942432e-07   1.5209749697354634e-05
-1.0597775480834616e-05   1.3952996628038578e-06   8.841122015284573e-06
-1.0597775480834616e-05   1.3952996628038578e-06   8.841122015284573e-06
-1.0597775480834616e-05   1.3952996628038578e-06   8.841122015284573e-06
-1.0597775480834616e-05   1.3952996628038578e-06   8.841122015284573e-06
-1.4252849830745216e-05   1.3332124829214037e-06   6.065910839124993e-06
-1.4252849830745216e-05   1.3332124829214037e-06   6.065910839124993e-06
-1.4252849830745216e-05   1.3332124829214037e-06   6.065910839124993e-06
-1.4252849830745216e-05   1.3332124829214037e-06   6.065910839124993e-06
-8.766546515807456e-06   9.339044979942432e-07   1.4970164906398352e-05
-8.766546515807456e-06   9.339044979942432e-07   1.4970164906398352e-05
-8.766546515807456e-06   9.339044979942432e-07   1.4970164906398352e-05
-8.766546515807456e-06   9.339044979942432e-07   1.4970164906398352e-05
-8.894607924204198e-06   1.0732738414204407e-06   6.495740254559065e-06
-8.894607924204198e-06   1.0732738414204407e-06   6.495740254559065e-06
-8.894607924204198e-06   1.0732738414204407e-06   6.495740254559065e-06
-8.894607924204198e-06   1.0732738414204407e-06   6.495740254559065e-06
-1.4310696465884087e-05   6.617285313820036e-07   1.5769481676715242e-05
-1.4310696465884087e-05   6.617285313820036e-07   1.5769481676715242e-05
-1.4310696465884087e-05   6.617285313820036e-07   1.5769481676715242e-05
-1.4310696465884087e-05   6.617285313820036e-07   1.5769481676715242e-05
-1.132228341835841e-05   8.629747330426724e-07   1.0668045543175947e-05
-1.132228341835841e-05   8.629747330426724e-07   1.0668045543175947e-05
-1.132228341835841e-05   8.629747330426724e-07   1.0668045543175947e-05
-1.132228341835841e-05   8.629747330426724e-07   1.0668045543175947e-05
-1.431069646588411e-05   1.0732738414204407e-06   6.74266744058217e-06
-1.431069646588411e-05   1.0732738414204407e-06   6.74266744058217e-06
-1.431069646588411e-05   1.0732738414204407e-06   6.74266744058217e-06
-1.431069646588411e-05   1.0732738414204407e-06   6.74266744058217e-06
-8.894607924204185e-06   6.617285313820036e-07   1.5522554490692177e-05
-8.894607924204185e-06   6.617285313820036e-07   1.5522554490692177e-05
-8.894607924204185e-06   6.617285313820036e-07   1.5522554490692177e-05
-8.894607924204185e-06   6.617285313820036e-07   1.5522554490692177e-05
-8.80800916896975e-06   4.347805311994638e-07   7.66496499325696e-06
-8.80800916896975e-06   4.347805311994638e-07   7.66496499325696e-06
-8.80800916896975e-06   4.347805311994638e-07   7.66496499325696e-06
-8.80800916896975e-06   4.347805311994638e-07   7.66496499325696e-06
-1.447883038451723e-05   -5.007107688359167e-07   1.767762846585727e-05
-1.447883038451723e-05   -5.007107688359167e-07   1.767762846585727e-05
-1.447883038451723e-05   -5.007107688359167e-07   1.767762846585727e-05
-1.447883038451723e-05   -5.007107688359167e-07   1.767762846585727e-05
-1.1158073000486062e-05   4.079423220366019e-07   1.1597840971281847e-05
-1.1158073000486062e-05   4.079423220366019e-07   1.1597840971281847e-05
-1.1158073000486062e-05   4.079423220366019e-07   1.1597840971281847e-05
-1.1158073000486062e-05   4.079423220366019e-07   1.1597840971281847e-05
-8.767398237890933e-06   4.439840105534146e-07   1.1731665109364272e-05
-8.767398237890933e-06   4.439840105534146e-07   1.1731665109364272e-05
-8.767398237890933e-06   4.439840105534146e-07   1.1731665109364272e-05
-8.767398237890933e-06   4.439840105534146e-07   1.1731665109364272e-05
-5.4027779808438095e-06   -2.745651998107212e-06   1.5425583932579762e-05
-5.4027779808438095e-06   -2.745651998107212e-06   1.5425583932579762e-05
-5.4027779808438095e-06   -2.745651998107212e-06   1.5425583932579762e-05
-5.4027779808438095e-06   -2.745651998107212e-06   1.5425583932579762e-05
-5.419174456318935e-06   2.0982762633230557e-07   9.841093583571573e-06
-5.419174456318935e-06   2.0982762633230557e-07   9.841093583571573e-06
-5.419174456318935e-06   2.0982762633230557e-07   9.841093583571573e-06
-5.419174456318935e-06   2.0982762633230557e-07   9.841093583571573e-06
-8.766546515807456e-06   -2.256178567515253e-06   1.689965073236107e-05
-8.766546515807456e-06   -2.256178567515253e-06   1.689965073236107e-05
-8.766546515807456e-06   -2.256178567515253e-06   1.689965073236107e-05
-8.766546515807456e-06   -2.256178567515253e-06   1.689965073236107e-05
-7.053405013504214e-06   -1.3593519352751238e-06   1.3506318915845002e-05
-7.053405013504214e-06   -1.3593519352751238e-06   1.3506318915845002e-05
-7.053405013504214e-06   -1.3593519352751238e-06   1.3506318915845002e-05
-7.053405013504214e-06   -1.3593519352751238e-06   1.3506318915845002e-05
-8.766546515807463e-06   2.0982762633230557e-07   1.1320697299880021e-05
-8.766546515807463e-06   2.0982762633230557e-07   1.1320697299880021e-05
-8.766546515807463e-06   2.0982762633230557e-07   1.1320697299880021e-05
-8.766546515807463e-06   2.0982762633230557e-07   1.1320697299880021e-05
-5.419174456318922e-06   -2.256178567515253e-06   1.5420047016052548e-05
-5.419174456318922e-06   -2.256178567515253e-06   1.5420047016052548e-05
-5.419174456318922e-06   -2.256178567515253e-06   1.5420047016052548e-05
-5.419174456318922e-06   -2.256178567515253e-06   1.5420047016052548e-05
-5.448236777090765e-06   -5.8924630297178295e-08   1.0137508245561158e-05
-5.448236777090765e-06   -5.8924630297178295e-08   1.0137508245561158e-05
-5.448236777090765e-06   -5.8924630297178295e-08   1.0137508245561158e-05
-5.448236777090765e-06   -5.8924630297178295e-08   1.0137508245561158e-05
-8.894607924204185e-06   -2.304670572787494e-06   1.7228907722911043e-05
-8.894607924204185e-06   -2.304670572787494e-06   1.7228907722911043e-05
-8.894607924204185e-06   -2.304670572787494e-06   1.7228907722911043e-05
-8.894607924204185e-06   -2.304670572787494e-06   1.7228907722911043e-05
-7.007492895897316e-06   -1.1880359098923043e-06   1.3413735211329034e-05
-7.007492895897316e-06   -1.1880359098923043e-06   1.3413735211329034e-05
-7.007492895897316e-06   -1.1880359098923043e-06   1.3413735211329034e-05
-7.007492895897316e-06   -1.1880359098923043e-06   1.3413735211329034e-05
-8.894607924204198e-06   -5.8924630297178295e-08   1.1484955811055358e-05
-8.894607924204198e-06   -5.8924630297178295e-08   1.1484955811055358e-05
-8.894607924204198e-06   -5.8924630297178295e-08   1.1484955811055358e-05
-8.894607924204198e-06   -5.8924630297178295e-08   1.1484955811055358e-05
-5.448236777090752e-06   -2.304670572787494e-06   1.5881460157416842e-05
-5.448236777090752e-06   -2.304670572787494e-06   1.5881460157416842e-05
-5.448236777090752e-06   -2.304670572787494e-06   1.5881460157416842e-05
-5.448236777090752e-06   -2.304670572787494e-06   1.5881460157416842e-05
-5.404384065776691e-06   -4.103841301543931e-07   1.0509040391161678e-05
-5.404384065776691e-06   -4.103841301543931e-07   1.0509040391161678e-05
-5.404384065776691e-06   -4.103841301543931e-07   1.0509040391161678e-05
-5.404384065776691e-06   -4.103841301543931e-07   1.0509040391161678e-05
-8.80800916896973e-06   -2.3181186065455246e-06   1.7326389582318028e-05
-8.80800916896973e-06   -2.3181186065455246e-06   1.7326389582318028e-05
-8.80800916896973e-06   -2.3181186065455246e-06   1.7326389582318028e-05
-8.80800916896973e-06   -2.3181186065455246e-06   1.7326389582318028e-05
-7.048366019876655e-06   -1.3288338276755646e-06   1.3800080133174249e-05
-7.048366019876655e-06   -1.3288338276755646e-06   1.3800080133174249e-05
-7.048366019876655e-06   -1.3288338276755646e-06   1.3800080133174249e-05
-7.048366019876655e-06   -1.3288338276755646e-06   1.3800080133174249e-05
-5.4027779808438095e-06   1.2494138722083563e-07   1.0863805369579736e-05
-5.4027779808438095e-06   1.2494138722083563e-07   1.0863805369579736e-05
-5.4027779808438095e-06   1.2494138722083563e-07   1.0863805369579736e-05
-5.4027779808438095e-06   1.2494138722083563e-07   1.0863805369579736e-05
-4.003683257823484e-06   -2.1457658412146914e-06   1.183320557088573e-05
-4.003683257823484e-06   -2.1457658412146914e-06   1.183320557088573e-05
-4.003683257823484e-06   -2.1457658412146914e-06   1.183320557088573e-05
-4.003683257823484e-06   -2.1457658412146914e-06   1.183320557088573e-05
-3.9742369019608165e-06   -7.113759192118024e-08   9.587177066656721e-06
-3.9742369019608165e-06   -7.113759192118024e-08   9.587177066656721e-06
-3.9742369019608165e-06   -7.113759192118024e-08   9.587177066656721e-06
-3.9742369019608165e-06   -7.113759192118024e-08   9.587177066656721e-06
-5.419174456318922e-06   -2.107429469268984e-06   1.3217181450329038e-05
-5.419174456318922e-06   -2.107429469268984e-06   1.3217181450329038e-05
-5.419174456318922e-06   -2.107429469268984e-06   1.3217181450329038e-05
-5.419174456318922e-06   -2.107429469268984e-06   1.3217181450329038e-05
-4.672045084576987e-06   -1.0826837904117314e-06   1.1357118423444912e-05
-4.672045084576987e-06   -1.0826837904117314e-06   1.1357118423444912e-05
-4.672045084576987e-06   -1.0826837904117314e-06   1.1357118423444912e-05
-4.672045084576987e-06   -1.0826837904117314e-06   1.1357118423444912e-05
-5.419174456318922e-06   -7.113759192118024e-08   1.0808952193065426e-05
-5.419174456318922e-06   -7.113759192118024e-08   1.0808952193065426e-05
-5.419174456318922e-06   -7.113759192118024e-08   1.0808952193065426e-05
-5.419174456318922e-06   -7.113759192118024e-08   1.0808952193065426e-05
-3.9742369019608165e-06   -2.107429469268984e-06   1.1995406323920358e-05
-3.9742369019608165e-06   -2.107429469268984e-06   1.1995406323920358e-05
-3.9742369019608165e-06   -2.107429469268984e-06   1.1995406323920358e-05
-3.9742369019608165e-06   -2.107429469268984e-06   1.1995406323920358e-05
-3.951110212205468e-06   -3.0580657243176e-07   9.813617276305817e-06
-3.951110212205468e-06   -3.0580657243176e-07   9.813617276305817e-06
-3.951110212205468e-06   -3.0580657243176e-07   9.813617276305817e-06
-3.951110212205468e-06   -3.0580657243176e-07   9.813617276305817e-06
-5.448236777090752e-06   -2.1702336891574496e-06   1.3427484487816638e-05
-5.448236777090752e-06   -2.1702336891574496e-06   1.3427484487816638e-05
-5.448236777090752e-06   -2.1702336891574496e-06   1.3427484487816638e-05
-5.448236777090752e-06   -2.1702336891574496e-06   1.3427484487816638e-05
-4.6371715763245894e-06   -1.151169951525363e-06   1.1464270910626842e-05
-4.6371715763245894e-06   -1.151169951525363e-06   1.1464270910626842e-05
-4.6371715763245894e-06   -1.151169951525363e-06   1.1464270910626842e-05
-4.6371715763245894e-06   -1.151169951525363e-06   1.1464270910626842e-05
-5.448236777090752e-06   -3.058065724317058e-07   1.0932273546341242e-05
-5.448236777090752e-06   -3.058065724317058e-07   1.0932273546341242e-05
-5.448236777090752e-06   -3.058065724317058e-07   1.0932273546341242e-05
-5.448236777090752e-06   -3.058065724317058e-07   1.0932273546341242e-05
-3.951110212205495e-06   -2.1702336891574496e-06   1.2308828217781234e-05
-3.951110212205495e-06   -2.1702336891574496e-06   1.2308828217781234e-05
-3.951110212205495e-06   -2.1702336891574496e-06   1.2308828217781234e-05
-3.951110212205495e-06   -2.1702336891574496e-06   1.2308828217781234e-05
-3.882519277848966e-06   -5.403753252091088e-07   1.0165242544697456e-05
-3.882519277848966e-06   -5.403753252091088e-07   1.0165242544697456e-05
-3.882519277848966e-06   -5.403753252091088e-07   1.0165242544697456e-05
-3.882519277848966e-06   -5.403753252091088e-07   1.0165242544697456e-05
-5.404384065776677e-06   -2.256679884066133e-06   1.373146659322446e-05
-5.404384065776677e-06   -2.256679884066133e-06   1.373146659322446e-05
-5.404384065776677e-06   -2.256679884066133e-06   1.373146659322446e-05
-5.404384065776677e-06   -2.256679884066133e-06   1.373146659322446e-05
-4.596882175935093e-06   -1.2525497044534864e-06   1.1783152002387584e-05
-4.596882175935093e-06   -1.2525497044534864e-06   1.1783152002387584e-05
-4.596882175935093e-06   -1.2525497044534864e-06   1.1783152002387584e-05
-4.596882175935093e-06   -1.2525497044534864e-06   1.1783152002387584e-05
-4.0036832578234296e-06   5.758200363386928e-07   7.4241005048923474e-06
-4.0036832578234296e-06   5.758200363386928e-07   7.4241005048923474e-06
-4.0036832578234296e-06   5.758200363386928e-07   7.4241005048923474e-06
-4.0036832578234296e-06   5.758200363386928e-07   7.4241005048923474e-06
-3.3720168890964523e-06   -8.833950560687754e-07   7.601348730659513e-06
-3.3720168890964523e-06   -8.833950560687754e-07   7.601348730659513e-06
-3.3720168890964523e-06   -8.833950560687754e-07   7.601348730659513e-06
-3.3720168890964523e-06   -8.833950560687754e-07   7.601348730659513e-06
-3.306871587138466e-06   3.169054572264374e-07   6.704349548993058e-06
-3.306871587138466e-06   3.169054572264374e-07   6.704349548993058e-06
-3.306871587138466e-06   3.169054572264374e-07   6.704349548993058e-06
-3.306871587138466e-06   3.169054572264374e-07   6.704349548993058e-06
-3.9742369019608165e-06   -1.0313697638003323e-06   8.625590206313218e-06
-3.9742369019608165e-06   -1.0313697638003323e-06   8.625590206313218e-06
-3.9742369019608165e-06   -1.0313697638003323e-06   8.625590206313218e-06
-3.9742369019608165e-06   -1.0313697638003323e-06   8.625590206313218e-06
-3.6377896228820874e-06   -2.0200693757462885e-07   7.56722704544667e-06
-3.6377896228820874e-06   -2.0200693757462885e-07   7.56722704544667e-06
-3.6377896228820874e-06   -2.0200693757462885e-07   7.56722704544667e-06
-3.6377896228820874e-06   -2.0200693757462885e-07   7.56722704544667e-06
-3.9742369019608165e-06   3.169054572264374e-07   7.51331468160912e-06
-3.9742369019608165e-06   3.169054572264374e-07   7.51331468160912e-06
-3.9742369019608165e-06   3.169054572264374e-07   7.51331468160912e-06
-3.9742369019608165e-06   3.169054572264374e-07   7.51331468160912e-06
-3.306871587138466e-06   -1.0313697638003323e-06   7.816625073697142e-06
-3.306871587138466e-06   -1.0313697638003323e-06   7.816625073697142e-06
-3.306871587138466e-06   -1.0313697638003323e-06   7.816625073697142e-06
-3.306871587138466e-06   -1.0313697638003323e-06   7.816625073697142e-06
-3.2817555619208067e-06   9.487686932797834e-08   7.0193087677105455e-06
-3.2817555619208067e-06   9.487686932797834e-08   7.0193087677105455e-06
-3.2817555619208067e-06   9.487686932797834e-08   7.0193087677105455e-06
-3.2817555619208067e-06   9.487686932797834e-08   7.0193087677105455e-06
-3.951110212205468e-06   -1.145169673457037e-06   8.878927777189254e-06
-3.951110212205468e-06   -1.145169673457037e-06   8.878927777189254e-06
-3.951110212205468e-06   -1.145169673457037e-06   8.878927777189254e-06
-3.951110212205468e-06   -1.145169673457037e-06   8.878927777189254e-06
-3.5729509333661886e-06   -3.586840387903448e-07   7.776770931656758e-06
-3.5729509333661886e-06   -3.586840387903448e-07   7.776770931656758e-06
-3.5729509333661886e-06   -3.586840387903448e-07   7.776770931656758e-06
-3.5729509333661886e-06   -3.586840387903448e-07   7.776770931656758e-06
-3.951110212205468e-06   9.487686932797834e-08   7.763336693381495e-06
-3.951110212205468e-06   9.487686932797834e-08   7.763336693381495e-06
-3.951110212205468e-06   9.487686932797834e-08   7.763336693381495e-06
-3.951110212205468e-06   9.487686932797834e-08   7.763336693381495e-06
-3.2817555619208338e-06   -1.145169673457037e-06   8.134899851518237e-06
-3.2817555619208338e-06   -1.145169673457037e-06   8.134899851518237e-06
-3.2817555619208338e-06   -1.145169673457037e-06   8.134899851518237e-06
-3.2817555619208338e-06   -1.145169673457037e-06   8.134899851518237e-06
-3.235646080477616e-06   -1.2915511624815926e-07   7.414813424458779e-06
-3.235646080477616e-06   -1.2915511624815926e-07   7.414813424458779e-06
-3.235646080477616e-06   -1.2915511624815926e-07   7.414813424458779e-06
-3.235646080477616e-06   -1.2915511624815926e-07   7.414813424458779e-06
-3.882519277848966e-06   -1.2937352617468348e-06   9.191683507376783e-06
-3.882519277848966e-06   -1.2937352617468348e-06   9.191683507376783e-06
-3.882519277848966e-06   -1.2937352617468348e-06   9.191683507376783e-06
-3.882519277848966e-06   -1.2937352617468348e-06   9.191683507376783e-06
-3.525302429811274e-06   -4.966743934796489e-07   8.118085573020559e-06
-3.525302429811274e-06   -4.966743934796489e-07   8.118085573020559e-06
-3.525302429811274e-06   -4.966743934796489e-07   8.118085573020559e-06
-3.525302429811274e-06   -4.966743934796489e-07   8.118085573020559e-06
-3.3720168890964523e-06   9.562274573938307e-07   1.7459603631348462e-06
-3.3720168890964523e-06   9.562274573938307e-07   1.7459603631348462e-06
-3.3720168890964523e-06   9.562274573938307e-07   1.7459603631348462e-06
-3.3720168890964523e-06   9.562274573938307e-07   1.7459603631348462e-06
-2.0027331293409525e-06   -9.414407214434063e-08   3.3978770450044738e-06
-2.0027331293409525e-06   -9.414407214434063e-08   3.3978770450044738e-06
-2.0027331293409525e-06   -9.414407214434063e-08   3.3978770450044738e-06
-2.0027331293409525e-06   -9.414407214434063e-08   3.3978770450044738e-06
-2.1222041736283803e-06   7.720859077510857e-07   1.7642160332817774e-06
-2.1222041736283803e-06   7.720859077510857e-07   1.7642160332817774e-06
-2.1222041736283803e-06   7.720859077510857e-07   1.7642160332817774e-06
-2.1222041736283803e-06   7.720859077510857e-07   1.7642160332817774e-06
-3.306871587138466e-06   -1.3323201232789527e-07   4.2818524745126606e-06
-3.306871587138466e-06   -1.3323201232789527e-07   4.2818524745126606e-06
-3.306871587138466e-06   -1.3323201232789527e-07   4.2818524745126606e-06
-3.306871587138466e-06   -1.3323201232789527e-07   4.2818524745126606e-06
-2.6079222349688634e-06   4.92735584379535e-07   2.7413563295390153e-06
-2.6079222349688634e-06   4.92735584379535e-07   2.7413563295390153e-06
-2.6079222349688634e-06   4.92735584379535e-07   2.7413563295390153e-06
-2.6079222349688634e-06   4.92735584379535e-07   2.7413563295390153e-06
-3.306871587138466e-06   7.720859077510857e-07   2.307406785328922e-06
-3.306871587138466e-06   7.720859077510857e-07   2.307406785328922e-06
-3.306871587138466e-06   7.720859077510857e-07   2.307406785328922e-06
-3.306871587138466e-06   7.720859077510857e-07   2.307406785328922e-06
-2.1222041736284345e-06   -1.3323201232786817e-07   3.738661722465245e-06
-2.1222041736284345e-06   -1.3323201232786817e-07   3.738661722465245e-06
-2.1222041736284345e-06   -1.3323201232786817e-07   3.738661722465245e-06
-2.1222041736284345e-06   -1.3323201232786817e-07   3.738661722465245e-06
-2.2212049954842424e-06   6.51908744653425e-07   2.278290782819787e-06
-2.2212049954842424e-06   6.51908744653425e-07   2.278290782819787e-06
-2.2212049954842424e-06   6.51908744653425e-07   2.278290782819787e-06
-2.2212049954842424e-06   6.51908744653425e-07   2.278290782819787e-06
-3.2817555619208067e-06   -1.8549182476815316e-07   4.548315401866894e-06
-3.2817555619208067e-06   -1.8549182476815316e-07   4.548315401866894e-06
-3.2817555619208067e-06   -1.8549182476815316e-07   4.548315401866894e-06
-3.2817555619208067e-06   -1.8549182476815316e-07   4.548315401866894e-06
-2.661483456608765e-06   4.02859449937312e-07   3.1615177948566935e-06
-2.661483456608765e-06   4.02859449937312e-07   3.1615177948566935e-06
-2.661483456608765e-06   4.02859449937312e-07   3.1615177948566935e-06
-2.661483456608765e-06   4.02859449937312e-07   3.1615177948566935e-06
-3.2817555619208067e-06   6.51908744653425e-07   2.7807311244727284e-06
-3.2817555619208067e-06   6.51908744653425e-07   2.7807311244727284e-06
-3.2817555619208067e-06   6.51908744653425e-07   2.7807311244727284e-06
-3.2817555619208067e-06   6.51908744653425e-07   2.7807311244727284e-06
-2.2212049954842424e-06   -1.8549182476815316e-07   4.045875060213925e-06
-2.2212049954842424e-06   -1.8549182476815316e-07   4.045875060213925e-06
-2.2212049954842424e-06   -1.8549182476815316e-07   4.045875060213925e-06
-2.2212049954842424e-06   -1.8549182476815316e-07   4.045875060213925e-06
-2.4523394731919713e-06   4.075490034797873e-07   3.1979919841846043e-06
-2.4523394731919713e-06   4.075490034797873e-07   3.1979919841846043e-06
-2.4523394731919713e-06   4.075490034797873e-07   3.1979919841846043e-06
-2.4523394731919713e-06   4.075490034797873e-07   3.1979919841846043e-06
-3.235646080477616e-06   -2.511305887072687e-07   4.898710751639651e-06
-3.235646080477616e-06   -2.511305887072687e-07   4.898710751639651e-06
-3.235646080477616e-06   -2.511305887072687e-07   4.898710751639651e-06
-3.235646080477616e-06   -2.511305887072687e-07   4.898710751639651e-06
-2.6738826135434016e-06   3.4087707934604087e-07   3.6072337059172297e-06
-2.6738826135434016e-06   3.4087707934604087e-07   3.6072337059172297e-06
-2.6738826135434016e-06   3.4087707934604087e-07   3.6072337059172297e-06
-2.6738826135434016e-06   3.4087707934604087e-07   3.6072337059172297e-06
-3.0520976833043096e-05   2.363896156274667e-06   1.3389542854866138e-05
-3.0520976833043096e-05   2.363896156274667e-06   1.3389542854866138e-05
-3.0520976833043096e-05   2.363896156274667e-06   1.3389542854866138e-05
-3.0520976833043096e-05   2.363896156274667e-06   1.3389542854866138e-05
-7.139392473985197e-06   -1.5294732708024133e-05   4.1763672801383385e-05
-7.139392473985197e-06   -1.5294732708024133e-05   4.1763672801383385e-05
-7.139392473985197e-06   -1.5294732708024133e-05   4.1763672801383385e-05
-7.139392473985197e-06   -1.5294732708024133e-05   4.1763672801383385e-05
-8.404291337183039e-06   9.339044979942432e-07   7.318730233612551e-06
-8.404291337183039e-06   9.339044979942432e-07   7.318730233612551e-06
-8.404291337183039e-06   9.339044979942432e-07   7.318730233612551e-06
-8.404291337183039e-06   9.339044979942432e-07   7.318730233612551e-06
-2.783626441488877e-05   -1.1945301459999457e-05   4.743287560458491e-05
-2.783626441488877e-05   -1.1945301459999457e-05   4.743287560458491e-05
-2.783626441488877e-05   -1.1945301459999457e-05   4.743287560458491e-05
-2.783626441488877e-05   -1.1945301459999457e-05   4.743287560458491e-05
-1.855028553162958e-05   -5.944411728030978e-06   2.8355710293305173e-05
-1.855028553162958e-05   -5.944411728030978e-06   2.8355710293305173e-05
-1.855028553162958e-05   -5.944411728030978e-06   2.8355710293305173e-05
-1.855028553162958e-05   -5.944411728030978e-06   2.8355710293305173e-05
-2.7836264414888723e-05   9.339044979942432e-07   1.5046253808408743e-05
-2.7836264414888723e-05   9.339044979942432e-07   1.5046253808408743e-05
-2.7836264414888723e-05   9.339044979942432e-07   1.5046253808408743e-05
-2.7836264414888723e-05   9.339044979942432e-07   1.5046253808408743e-05
-8.404291337183056e-06   -1.1945301459999457e-05   3.97053520297887e-05
-8.404291337183056e-06   -1.1945301459999457e-05   3.97053520297887e-05
-8.404291337183056e-06   -1.1945301459999457e-05   3.97053520297887e-05
-8.404291337183056e-06   -1.1945301459999457e-05   3.97053520297887e-05
-8.606559063887461e-06   6.617285313820036e-07   8.044623880382813e-06
-8.606559063887461e-06   6.617285313820036e-07   8.044623880382813e-06
-8.606559063887461e-06   6.617285313820036e-07   8.044623880382813e-06
-8.606559063887461e-06   6.617285313820036e-07   8.044623880382813e-06
-2.6266982329300577e-05   -1.0339027929622023e-05   4.40791165326737e-05
-2.6266982329300577e-05   -1.0339027929622023e-05   4.40791165326737e-05
-2.6266982329300577e-05   -1.0339027929622023e-05   4.40791165326737e-05
-2.6266982329300577e-05   -1.0339027929622023e-05   4.40791165326737e-05
-1.8005073666900713e-05   -5.6378141822428795e-06   2.74885405135798e-05
-1.8005073666900713e-05   -5.6378141822428795e-06   2.74885405135798e-05
-1.8005073666900713e-05   -5.6378141822428795e-06   2.74885405135798e-05
-1.8005073666900713e-05   -5.6378141822428795e-06   2.74885405135798e-05
-2.626698232930053e-05   6.617285313820036e-07   1.4645077756985224e-05
-2.626698232930053e-05   6.617285313820036e-07   1.4645077756985224e-05
-2.626698232930053e-05   6.617285313820036e-07   1.4645077756985224e-05
-2.626698232930053e-05   6.617285313820036e-07   1.4645077756985224e-05
-8.606559063887475e-06   -1.0339027929622023e-05   3.7478662656071274e-05
-8.606559063887475e-06   -1.0339027929622023e-05   3.7478662656071274e-05
-8.606559063887475e-06   -1.0339027929622023e-05   3.7478662656071274e-05
-8.606559063887475e-06   -1.0339027929622023e-05   3.7478662656071274e-05
-9.452484844642418e-06   -5.007107688358896e-07   1.006231358541626e-05
-9.452484844642418e-06   -5.007107688358896e-07   1.006231358541626e-05
-9.452484844642418e-06   -5.007107688358896e-07   1.006231358541626e-05
-9.452484844642418e-06   -5.007107688358896e-07   1.006231358541626e-05
-2.425132223758261e-05   -8.20098973800338e-06   3.934720995515034e-05
-2.425132223758261e-05   -8.20098973800338e-06   3.934720995515034e-05
-2.425132223758261e-05   -8.20098973800338e-06   3.934720995515034e-05
-2.425132223758261e-05   -8.20098973800338e-06   3.934720995515034e-05
-1.7331087433096808e-05   -5.20692280024181e-06   2.601704511835042e-05
-1.7331087433096808e-05   -5.20692280024181e-06   2.601704511835042e-05
-1.7331087433096808e-05   -5.20692280024181e-06   2.601704511835042e-05
-1.7331087433096808e-05   -5.20692280024181e-06   2.601704511835042e-05
-7.1393924739851865e-06   -2.745651998107212e-06   7.660822424456355e-06
-7.1393924739851865e-06   -2.745651998107212e-06   7.660822424456355e-06
-7.1393924739851865e-06   -2.745651998107212e-06   7.660822424456355e-06
-7.1393924739851865e-06   -2.745651998107212e-06   7.660822424456355e-06
-2.4764831856785422e-06   -4.846465503001896e-06   1.4171849802030669e-05
-2.4764831856785422e-06   -4.846465503001896e-06   1.4171849802030669e-05
-2.4764831856785422e-06   -4.846465503001896e-06   1.4171849802030669e-05
-2.4764831856785422e-06   -4.846465503001896e-06   1.4171849802030669e-05
-2.780870534797186e-06   -2.256178567515253e-06   6.772934875350252e-06
-2.780870534797186e-06   -2.256178567515253e-06   6.772934875350252e-06
-2.780870534797186e-06   -2.256178567515253e-06   6.772934875350252e-06
-2.780870534797186e-06   -2.256178567515253e-06   6.772934875350252e-06
-8.404291337183056e-06   -6.3816472078903424e-06   1.8620584063551695e-05
-8.404291337183056e-06   -6.3816472078903424e-06   1.8620584063551695e-05
-8.404291337183056e-06   -6.3816472078903424e-06   1.8620584063551695e-05
-8.404291337183056e-06   -6.3816472078903424e-06   1.8620584063551695e-05
-4.9288742695697585e-06   -3.3276472260148113e-06   1.0995822295070847e-05
-4.9288742695697585e-06   -3.3276472260148113e-06   1.0995822295070847e-05
-4.9288742695697585e-06   -3.3276472260148113e-06   1.0995822295070847e-05
-4.9288742695697585e-06   -3.3276472260148113e-06   1.0995822295070847e-05
-8.404291337183032e-06   -2.256178567515253e-06   9.248216059575223e-06
-8.404291337183032e-06   -2.256178567515253e-06   9.248216059575223e-06
-8.404291337183032e-06   -2.256178567515253e-06   9.248216059575223e-06
-8.404291337183032e-06   -2.256178567515253e-06   9.248216059575223e-06
-2.780870534797186e-06   -6.3816472078903424e-06   1.614530287932665e-05
-2.780870534797186e-06   -6.3816472078903424e-06   1.614530287932665e-05
-2.780870534797186e-06   -6.3816472078903424e-06   1.614530287932665e-05
-2.780870534797186e-06   -6.3816472078903424e-06   1.614530287932665e-05
-3.04275930602172e-06   -2.304670572787494e-06   7.617279314469765e-06
-3.04275930602172e-06   -2.304670572787494e-06   7.617279314469765e-06
-3.04275930602172e-06   -2.304670572787494e-06   7.617279314469765e-06
-3.04275930602172e-06   -2.304670572787494e-06   7.617279314469765e-06
-8.606559063887475e-06   -5.86083356967403e-06   1.902397670904456e-05
-8.606559063887475e-06   -5.86083356967403e-06   1.902397670904456e-05
-8.606559063887475e-06   -5.86083356967403e-06   1.902397670904456e-05
-8.606559063887475e-06   -5.86083356967403e-06   1.902397670904456e-05
-5.574127027238122e-06   -4.054533786528811e-06   1.2886143444741923e-05
-5.574127027238122e-06   -4.054533786528811e-06   1.2886143444741923e-05
-5.574127027238122e-06   -4.054533786528811e-06   1.2886143444741923e-05
-5.574127027238122e-06   -4.054533786528811e-06   1.2886143444741923e-05
-8.606559063887461e-06   -2.304670572787494e-06   9.750977112601679e-06
-8.606559063887461e-06   -2.304670572787494e-06   9.750977112601679e-06
-8.606559063887461e-06   -2.304670572787494e-06   9.750977112601679e-06
-8.606559063887461e-06   -2.304670572787494e-06   9.750977112601679e-06
-3.04275930602172e-06   -5.86083356967403e-06   1.689027891091265e-05
-3.04275930602172e-06   -5.86083356967403e-06   1.689027891091265e-05
-3.04275930602172e-06   -5.86083356967403e-06   1.689027891091265e-05
-3.04275930602172e-06   -5.86083356967403e-06   1.689027891091265e-05
-3.4711725348644145e-06   -2.3181186065455517e-06   8.345387906878374e-06
-3.4711725348644145e-06   -2.3181186065455517e-06   8.345387906878374e-06
-3.4711725348644145e-06   -2.3181186065455517e-06   8.345387906878374e-06
-3.4711725348644145e-06   -2.3181186065455517e-06   8.345387906878374e-06
-9.452484844642425e-06   -5.529754564911999e-06   2.0241223331528196e-05
-9.452484844642425e-06   -5.529754564911999e-06   2.0241223331528196e-05
-9.452484844642425e-06   -5.529754564911999e-06   2.0241223331528196e-05
-9.452484844642425e-06   -5.529754564911999e-06   2.0241223331528196e-05
-5.9591088462223304e-06   -3.7042660198626225e-06   1.3323636873798457e-05
-5.9591088462223304e-06   -3.7042660198626225e-06   1.3323636873798457e-05
-5.9591088462223304e-06   -3.7042660198626225e-06   1.3323636873798457e-05
-5.9591088462223304e-06   -3.7042660198626225e-06   1.3323636873798457e-05
-2.4764831856785422e-06   -2.1457658412146643e-06   4.170380296886778e-06
-2.4764831856785422e-06   -2.1457658412146643e-06   4.170380296886778e-06
-2.4764831856785422e-06   -2.1457658412146643e-06   4.170380296886778e-06
-2.4764831856785422e-06   -2.1457658412146643e-06   4.170380296886778e-06
-1.388165093899605e-06   -1.4134651304295182e-06   6.4236242096561615e-06
-1.388165093899605e-06   -1.4134651304295182e-06   6.4236242096561615e-06
-1.388165093899605e-06   -1.4134651304295182e-06   6.4236242096561615e-06
-1.388165093899605e-06   -1.4134651304295182e-06   6.4236242096561615e-06
-1.341792472671035e-06   -2.107429469268984e-06   4.736140957743446e-06
-1.341792472671035e-06   -2.107429469268984e-06   4.736140957743446e-06
-1.341792472671035e-06   -2.107429469268984e-06   4.736140957743446e-06
-1.341792472671035e-06   -2.107429469268984e-06   4.736140957743446e-06
-2.780870534797186e-06   -1.8306433890744267e-06   6.9685327465035605e-06
-2.780870534797186e-06   -1.8306433890744267e-06   6.9685327465035605e-06
-2.780870534797186e-06   -1.8306433890744267e-06   6.9685327465035605e-06
-2.780870534797186e-06   -1.8306433890744267e-06   6.9685327465035605e-06
-1.8697540566805932e-06   -1.7645298059007893e-06   5.410337133071667e-06
-1.8697540566805932e-06   -1.7645298059007893e-06   5.410337133071667e-06
-1.8697540566805932e-06   -1.7645298059007893e-06   5.410337133071667e-06
-1.8697540566805932e-06   -1.7645298059007893e-06   5.410337133071667e-06
-2.780870534797186e-06   -2.107429469268984e-06   4.570069309626701e-06
-2.780870534797186e-06   -2.107429469268984e-06   4.570069309626701e-06
-2.780870534797186e-06   -2.107429469268984e-06   4.570069309626701e-06
-2.780870534797186e-06   -2.107429469268984e-06   4.570069309626701e-06
-1.3417924726710079e-06   -1.8306433890744267e-06   7.134604394620319e-06
-1.3417924726710079e-06   -1.8306433890744267e-06   7.134604394620319e-06
-1.3417924726710079e-06   -1.8306433890744267e-06   7.134604394620319e-06
-1.3417924726710079e-06   -1.8306433890744267e-06   7.134604394620319e-06
-1.3519218617828407e-06   -2.1702336891574225e-06   5.068986509543271e-06
-1.3519218617828407e-06   -2.1702336891574225e-06   5.068986509543271e-06
-1.3519218617828407e-06   -2.1702336891574225e-06   5.068986509543271e-06
-1.3519218617828407e-06   -2.1702336891574225e-06   5.068986509543271e-06
-3.04275930602172e-06   -2.327428914701258e-06   7.981366051934319e-06
-3.04275930602172e-06   -2.327428914701258e-06   7.981366051934319e-06
-3.04275930602172e-06   -2.327428914701258e-06   7.981366051934319e-06
-3.04275930602172e-06   -2.327428914701258e-06   7.981366051934319e-06
-1.992330935088812e-06   -1.928804088175017e-06   5.99147720446372e-06
-1.992330935088812e-06   -1.928804088175017e-06   5.99147720446372e-06
-1.992330935088812e-06   -1.928804088175017e-06   5.99147720446372e-06
-1.992330935088812e-06   -1.928804088175017e-06   5.99147720446372e-06
-3.0427593060217064e-06   -2.1702336891574225e-06   5.163303644869547e-06
-3.0427593060217064e-06   -2.1702336891574225e-06   5.163303644869547e-06
-3.0427593060217064e-06   -2.1702336891574225e-06   5.163303644869547e-06
-3.0427593060217064e-06   -2.1702336891574225e-06   5.163303644869547e-06
-1.3519218617828407e-06   -2.327428914701258e-06   7.887048916607975e-06
-1.3519218617828407e-06   -2.327428914701258e-06   7.887048916607975e-06
-1.3519218617828407e-06   -2.327428914701258e-06   7.887048916607975e-06
-1.3519218617828407e-06   -2.327428914701258e-06   7.887048916607975e-06
-1.3866780848705376e-06   -2.256679884066133e-06   5.57009014285118e-06
-1.3866780848705376e-06   -2.256679884066133e-06   5.57009014285118e-06
-1.3866780848705376e-06   -2.256679884066133e-06   5.57009014285118e-06
-1.3866780848705376e-06   -2.256679884066133e-06   5.57009014285118e-06
-3.471172534864428e-06   -2.7983723186799683e-06   9.369263020275845e-06
-3.471172534864428e-06   -2.7983723186799683e-06   9.369263020275845e-06
-3.471172534864428e-06   -2.7983723186799683e-06   9.369263020275845e-06
-3.471172534864428e-06   -2.7983723186799683e-06   9.369263020275845e-06
-2.133853732390143e-06   -2.0990929356715636e-06   6.720830719680372e-06
-2.133853732390143e-06   -2.0990929356715636e-06   6.720830719680372e-06
-2.133853732390143e-06   -2.0990929356715636e-06   6.720830719680372e-06
-2.133853732390143e-06   -2.0990929356715636e-06   6.720830719680372e-06
-1.388165093899605e-06   -8.833950560687754e-07   1.2534329385762344e-06
-1.388165093899605e-06   -8.833950560687754e-07   1.2534329385762344e-06
-1.388165093899605e-06   -8.833950560687754e-07   1.2534329385762344e-06
-1.388165093899605e-06   -8.833950560687754e-07   1.2534329385762344e-06
-1.0457651590725235e-06   1.7533801164834164e-07   2.4593393372516147e-06
-1.0457651590725235e-06   1.7533801164834164e-07   2.4593393372516147e-06
-1.0457651590725235e-06   1.7533801164834164e-07   2.4593393372516147e-06
-1.0457651590725235e-06   1.7533801164834164e-07   2.4593393372516147e-06
-8.528161150546029e-07   -1.0313697638003594e-06   1.997448527945309e-06
-8.528161150546029e-07   -1.0313697638003594e-06   1.997448527945309e-06
-8.528161150546029e-07   -1.0313697638003594e-06   1.997448527945309e-06
-8.528161150546029e-07   -1.0313697638003594e-06   1.997448527945309e-06
-1.3417924726710079e-06   2.050304921472751e-08   2.1812854361635543e-06
-1.3417924726710079e-06   2.050304921472751e-08   2.1812854361635543e-06
-1.3417924726710079e-06   2.050304921472751e-08   2.1812854361635543e-06
-1.3417924726710079e-06   2.050304921472751e-08   2.1812854361635543e-06
-1.085153331830557e-06   -4.3552850947856374e-07   2.0271724699786058e-06
-1.085153331830557e-06   -4.3552850947856374e-07   2.0271724699786058e-06
-1.085153331830557e-06   -4.3552850947856374e-07   2.0271724699786058e-06
-1.085153331830557e-06   -4.3552850947856374e-07   2.0271724699786058e-06
-1.3417924726710079e-06   -1.0313697638003594e-06   1.3663248401363031e-06
-1.3417924726710079e-06   -1.0313697638003594e-06   1.3663248401363031e-06
-1.3417924726710079e-06   -1.0313697638003594e-06   1.3663248401363031e-06
-1.3417924726710079e-06   -1.0313697638003594e-06   1.3663248401363031e-06
-8.528161150546029e-07   2.050304921472751e-08   2.8124091239726146e-06
-8.528161150546029e-07   2.050304921472751e-08   2.8124091239726146e-06
-8.528161150546029e-07   2.050304921472751e-08   2.8124091239726146e-06
-8.528161150546029e-07   2.050304921472751e-08   2.8124091239726146e-06
-7.497976093502872e-07   -1.1451696734570641e-06   2.194997437119186e-06
-7.497976093502872e-07   -1.1451696734570641e-06   2.194997437119186e-06
-7.497976093502872e-07   -1.1451696734570641e-06   2.194997437119186e-06
-7.497976093502872e-07   -1.1451696734570641e-06   2.194997437119186e-06
-1.3519218617828407e-06   -2.1865072651066717e-07   2.642626489672144e-06
-1.3519218617828407e-06   -2.1865072651066717e-07   2.642626489672144e-06
-1.3519218617828407e-06   -2.1865072651066717e-07   2.642626489672144e-06
-1.3519218617828407e-06   -2.1865072651066717e-07   2.642626489672144e-06
-9.897550747048827e-07   -5.53375794214587e-07   2.2398502184979444e-06
-9.897550747048827e-07   -5.53375794214587e-07   2.2398502184979444e-06
-9.897550747048827e-07   -5.53375794214587e-07   2.2398502184979444e-06
-9.897550747048827e-07   -5.53375794214587e-07   2.2398502184979444e-06
-1.3519218617828407e-06   -1.1451696734570641e-06   1.6390860689512578e-06
-1.3519218617828407e-06   -1.1451696734570641e-06   1.6390860689512578e-06
-1.3519218617828407e-06   -1.1451696734570641e-06   1.6390860689512578e-06
-1.3519218617828407e-06   -1.1451696734570641e-06   1.6390860689512578e-06
-7.497976093502872e-07   -2.1865072651066717e-07   3.198537857839937e-06
-7.497976093502872e-07   -2.1865072651066717e-07   3.198537857839937e-06
-7.497976093502872e-07   -2.1865072651066717e-07   3.198537857839937e-06
-7.497976093502872e-07   -2.1865072651066717e-07   3.198537857839937e-06
-5.9219177627422e-07   -1.2937352617468348e-06   2.4151581118010733e-06
-5.9219177627422e-07   -1.2937352617468348e-06   2.4151581118010733e-06
-5.9219177627422e-07   -1.2937352617468348e-06   2.4151581118010733e-06
-5.9219177627422e-07   -1.2937352617468348e-06   2.4151581118010733e-06
-1.3866780848705376e-06   -7.019547292746138e-07   3.384233639978126e-06
-1.3866780848705376e-06   -7.019547292746138e-07   3.384233639978126e-06
-1.3866780848705376e-06   -7.019547292746138e-07   3.384233639978126e-06
-1.3866780848705376e-06   -7.019547292746138e-07   3.384233639978126e-06
-9.152218289549044e-07   -7.306007376536747e-07   2.6156608184797173e-06
-9.152218289549044e-07   -7.306007376536747e-07   2.6156608184797173e-06
-9.152218289549044e-07   -7.306007376536747e-07   2.6156608184797173e-06
-9.152218289549044e-07   -7.306007376536747e-07   2.6156608184797173e-06
-1.0457651590725235e-06   -9.414407214434063e-08   -1.684575988725702e-06
-1.0457651590725235e-06   -9.414407214434063e-08   -1.684575988725702e-06
-1.0457651590725235e-06   -9.414407214434063e-08   -1.684575988725702e-06
-1.0457651590725235e-06   -9.414407214434063e-08   -1.684575988725702e-06
-2.10288935583087e-07   1.4340106794301187e-07   -1.4958853219087858e-07
-2.10288935583087e-07   1.4340106794301187e-07   -1.4958853219087858e-07
-2.10288935583087e-07   1.4340106794301187e-07   -1.4958853219087858e-07
-2.10288935583087e-07   1.4340106794301187e-07   -1.4958853219087858e-07
-2.139831299451762e-08   -1.3323201232789527e-07   -1.310034703730042e-06
-2.139831299451762e-08   -1.3323201232789527e-07   -1.310034703730042e-06
-2.139831299451762e-08   -1.3323201232789527e-07   -1.310034703730042e-06
-2.139831299451762e-08   -1.3323201232789527e-07   -1.310034703730042e-06
-8.528161150546029e-07   2.4558360018741074e-07   -1.5162773447241354e-07
-8.528161150546029e-07   2.4558360018741074e-07   -1.5162773447241354e-07
-8.528161150546029e-07   2.4558360018741074e-07   -1.5162773447241354e-07
-8.528161150546029e-07   2.4558360018741074e-07   -1.5162773447241354e-07
-4.867016127626747e-07   6.820713061895817e-08   -6.55392689884746e-07
-4.867016127626747e-07   6.820713061895817e-08   -6.55392689884746e-07
-4.867016127626747e-07   6.820713061895817e-08   -6.55392689884746e-07
-4.867016127626747e-07   6.820713061895817e-08   -6.55392689884746e-07
-8.528161150546029e-07   -1.3323201232789527e-07   -1.5373240712392676e-06
-8.528161150546029e-07   -1.3323201232789527e-07   -1.5373240712392676e-06
-8.528161150546029e-07   -1.3323201232789527e-07   -1.5373240712392676e-06
-8.528161150546029e-07   -1.3323201232789527e-07   -1.5373240712392676e-06
-2.139831299446341e-08   2.4558360018741074e-07   7.566163303681208e-08
-2.139831299446341e-08   2.4558360018741074e-07   7.566163303681208e-08
-2.139831299446341e-08   2.4558360018741074e-07   7.566163303681208e-08
-2.139831299446341e-08   2.4558360018741074e-07   7.566163303681208e-08
7.455221285261994e-08   -1.8549182476815316e-07   -1.1583323858607697e-06
7.455221285261994e-08   -1.8549182476815316e-07   -1.1583323858607697e-06
7.455221285261994e-08   -1.8549182476815316e-07   -1.1583323858607697e-06
7.455221285261994e-08   -1.8549182476815316e-07   -1.1583323858607697e-06
-7.497976093502872e-07   2.0326588635092866e-07   -1.767064219411864e-08
-7.497976093502872e-07   2.0326588635092866e-07   -1.767064219411864e-08
-7.497976093502872e-07   2.0326588635092866e-07   -1.767064219411864e-08
-7.497976093502872e-07   2.0326588635092866e-07   -1.767064219411864e-08
-3.4863553993514957e-07   4.397445491809626e-08   -5.906992323594248e-07
-3.4863553993514957e-07   4.397445491809626e-08   -5.906992323594248e-07
-3.4863553993514957e-07   4.397445491809626e-08   -5.906992323594248e-07
-3.4863553993514957e-07   4.397445491809626e-08   -5.906992323594248e-07
-7.497976093502872e-07   -1.8549182476815316e-07   -1.3915870125322114e-06
-7.497976093502872e-07   -1.8549182476815316e-07   -1.3915870125322114e-06
-7.497976093502872e-07   -1.8549182476815316e-07   -1.3915870125322114e-06
-7.497976093502872e-07   -1.8549182476815316e-07   -1.3915870125322114e-06
7.455221285261994e-08   2.0326588635092866e-07   2.1558398447733655e-07
7.455221285261994e-08   2.0326588635092866e-07   2.1558398447733655e-07
7.455221285261994e-08   2.0326588635092866e-07   2.1558398447733655e-07
7.455221285261994e-08   2.0326588635092866e-07   2.1558398447733655e-07
1.9197657885762888e-07   -2.511305887072687e-07   -9.318455692204045e-07
1.9197657885762888e-07   -2.511305887072687e-07   -9.318455692204045e-07
1.9197657885762888e-07   -2.511305887072687e-07   -9.318455692204045e-07
1.9197657885762888e-07   -2.511305887072687e-07   -9.318455692204045e-07
-5.9219177627422e-07   1.6090439032032548e-07   1.2788070191606556e-07
-5.9219177627422e-07   1.6090439032032548e-07   1.2788070191606556e-07
-5.9219177627422e-07   1.6090439032032548e-07   1.2788070191606556e-07
-5.9219177627422e-07   1.6090439032032548e-07   1.2788070191606556e-07
-2.2436759080877446e-07   1.3298539251155686e-08   -3.9659609655146076e-07
-2.2436759080877446e-07   1.3298539251155686e-08   -3.9659609655146076e-07
-2.2436759080877446e-07   1.3298539251155686e-08   -3.9659609655146076e-07
-2.2436759080877446e-07   1.3298539251155686e-08   -3.9659609655146076e-07
              </DataArray>   
             <DataArray type="Float64" NumberOfComponents="3" Name="Stress" format="ascii">   
-1.5899297929681344   -0.3974824482420336   -0.3974824482420336
-1.5899297929681344   -0.3974824482420336   -0.3974824482420336
-1.5899297929681344   -0.3974824482420336   -0.3974824482420336
-1.5899297929681344   -0.3974824482420336   -0.3974824482420336
-0.9198453352214614   -0.029633153454247163   -0.0186347356871909
-0.9198453352214614   -0.029633153454247163   -0.0186347356871909
-0.9198453352214614   -0.029633153454247163   -0.0186347356871909
-0.9198453352214614   -0.029633153454247163   -0.0186347356871909
-0.991064181818618   -0.2477660454546545   -0.2477660454546545
-0.991064181818618   -0.2477660454546545   -0.2477660454546545
-0.991064181818618   -0.2477660454546545   -0.2477660454546545
-0.991064181818618   -0.2477660454546545   -0.2477660454546545
-1.5321743000674086   -0.12621071421425875   -0.04838808834175639
-1.5321743000674086   -0.12621071421425875   -0.04838808834175639
-1.5321743000674086   -0.12621071421425875   -0.04838808834175639
-1.5321743000674086   -0.12621071421425875   -0.04838808834175639
-1.2015597223449872   -0.19721752976629758   -0.003344638688455052
-1.2015597223449872   -0.19721752976629758   -0.003344638688455052
-1.2015597223449872   -0.19721752976629758   -0.003344638688455052
-1.2015597223449872   -0.19721752976629758   -0.003344638688455052
-1.6636161550624537   -0.41590403876561344   -0.41590403876561344
-1.6636161550624537   -0.41590403876561344   -0.41590403876561344
-1.6636161550624537   -0.41590403876561344   -0.41590403876561344
-1.6636161550624537   -0.41590403876561344   -0.41590403876561344
-0.8908337028217204   0.010715903098555302   -0.005095599023376307
-0.8908337028217204   0.010715903098555302   -0.005095599023376307
-0.8908337028217204   0.010715903098555302   -0.005095599023376307
-0.8908337028217204   0.010715903098555302   -0.005095599023376307
-0.9935787982481833   -0.24839469956204582   -0.24839469956204582
-0.9935787982481833   -0.24839469956204582   -0.24839469956204582
-0.9935787982481833   -0.24839469956204582   -0.24839469956204582
-0.9935787982481833   -0.24839469956204582   -0.24839469956204582
-1.5833528825957137   -0.12733325114074995   -0.07086620315291565
-1.5833528825957137   -0.12733325114074995   -0.07086620315291565
-1.5833528825957137   -0.12733325114074995   -0.07086620315291565
-1.5833528825957137   -0.12733325114074995   -0.07086620315291565
-1.246074356810991   -0.1855821689008122   -0.06610097020521921
-1.246074356810991   -0.1855821689008122   -0.06610097020521921
-1.246074356810991   -0.1855821689008122   -0.06610097020521921
-1.246074356810991   -0.1855821689008122   -0.06610097020521921
-1.7152366574855367   -0.42880916437138417   -0.42880916437138417
-1.7152366574855367   -0.42880916437138417   -0.42880916437138417
-1.7152366574855367   -0.42880916437138417   -0.42880916437138417
-1.7152366574855367   -0.42880916437138417   -0.42880916437138417
-0.887983041498973   0.026793195527977987   0.004396189093981463
-0.887983041498973   0.026793195527977987   0.004396189093981463
-0.887983041498973   0.026793195527977987   0.004396189093981463
-0.887983041498973   0.026793195527977987   0.004396189093981463
-0.9927405073341847   -0.24818512683354618   -0.24818512683354618
-0.9927405073341847   -0.24818512683354618   -0.24818512683354618
-0.9927405073341847   -0.24818512683354618   -0.24818512683354618
-0.9927405073341847   -0.24818512683354618   -0.24818512683354618
-1.674877365402437   -0.11148271216883404   -0.04266561161766878
-1.674877365402437   -0.11148271216883404   -0.04266561161766878
-1.674877365402437   -0.11148271216883404   -0.04266561161766878
-1.674877365402437   -0.11148271216883404   -0.04266561161766878
-1.2789931469893634   -0.18260865582385344   -0.11940845827860039
-1.2789931469893634   -0.18260865582385344   -0.11940845827860039
-1.2789931469893634   -0.18260865582385344   -0.11940845827860039
-1.2789931469893634   -0.18260865582385344   -0.11940845827860039
-1.0113241748813058   -0.25283104372032644   -0.25283104372032644
-1.0113241748813058   -0.25283104372032644   -0.25283104372032644
-1.0113241748813058   -0.25283104372032644   -0.25283104372032644
-1.0113241748813058   -0.25283104372032644   -0.25283104372032644
-0.4223242823064495   -0.0284234377627898   -0.009207761262599461
-0.4223242823064495   -0.0284234377627898   -0.009207761262599461
-0.4223242823064495   -0.0284234377627898   -0.009207761262599461
-0.4223242823064495   -0.0284234377627898   -0.009207761262599461
-0.44300107159599367   -0.11075026789899842   -0.11075026789899842
-0.44300107159599367   -0.11075026789899842   -0.11075026789899842
-0.44300107159599367   -0.11075026789899842   -0.11075026789899842
-0.44300107159599367   -0.11075026789899842   -0.11075026789899842
-0.9205588778014726   -0.10846229775936589   -0.034543273064216506
-0.9205588778014726   -0.10846229775936589   -0.034543273064216506
-0.9205588778014726   -0.10846229775936589   -0.034543273064216506
-0.9205588778014726   -0.10846229775936589   -0.034543273064216506
-0.6791477045685702   -0.12876658856997125   0.005259870301038529
-0.6791477045685702   -0.12876658856997125   0.005259870301038529
-0.6791477045685702   -0.12876658856997125   0.005259870301038529
-0.6791477045685702   -0.12876658856997125   0.005259870301038529
-0.9910641818186171   -0.24776604545465428   -0.24776604545465428
-0.9910641818186171   -0.24776604545465428   -0.24776604545465428
-0.9910641818186171   -0.24776604545465428   -0.24776604545465428
-0.9910641818186171   -0.24776604545465428   -0.24776604545465428
-0.3981951974755471   0.002854049899591371   -0.0003252150953556576
-0.3981951974755471   0.002854049899591371   -0.0003252150953556576
-0.3981951974755471   0.002854049899591371   -0.0003252150953556576
-0.3981951974755471   0.002854049899591371   -0.0003252150953556576
-0.43284134009969283   -0.10821033502492321   -0.10821033502492321
-0.43284134009969283   -0.10821033502492321   -0.10821033502492321
-0.43284134009969283   -0.10821033502492321   -0.10821033502492321
-0.43284134009969283   -0.10821033502492321   -0.10821033502492321
-0.9179720465953917   -0.08840766038525995   -0.030347980474873613
-0.9179720465953917   -0.08840766038525995   -0.030347980474873613
-0.9179720465953917   -0.08840766038525995   -0.030347980474873613
-0.9179720465953917   -0.08840766038525995   -0.030347980474873613
-0.6694211102931182   -0.10834805017122026   -0.03497007697817844
-0.6694211102931182   -0.10834805017122026   -0.03497007697817844
-0.6694211102931182   -0.10834805017122026   -0.03497007697817844
-0.6694211102931182   -0.10834805017122026   -0.03497007697817844
-0.9935787982481833   -0.24839469956204582   -0.24839469956204582
-0.9935787982481833   -0.24839469956204582   -0.24839469956204582
-0.9935787982481833   -0.24839469956204582   -0.24839469956204582
-0.9935787982481833   -0.24839469956204582   -0.24839469956204582
-0.3821264342571983   0.02688485834156562   0.010269000821060827
-0.3821264342571983   0.02688485834156562   0.010269000821060827
-0.3821264342571983   0.02688485834156562   0.010269000821060827
-0.3821264342571983   0.02688485834156562   0.010269000821060827
-0.42354379489383864   -0.10588594872345966   -0.10588594872345966
-0.42354379489383864   -0.10588594872345966   -0.10588594872345966
-0.42354379489383864   -0.10588594872345966   -0.10588594872345966
-0.42354379489383864   -0.10588594872345966   -0.10588594872345966
-0.9109300672417175   -0.06813849837050395   -0.019179554834264124
-0.9109300672417175   -0.06813849837050395   -0.019179554834264124
-0.9109300672417175   -0.06813849837050395   -0.019179554834264124
-0.9109300672417175   -0.06813849837050395   -0.019179554834264124
-0.6724400388199683   -0.09580398701871227   -0.07787037251158128
-0.6724400388199683   -0.09580398701871227   -0.07787037251158128
-0.6724400388199683   -0.09580398701871227   -0.07787037251158128
-0.6724400388199683   -0.09580398701871227   -0.07787037251158128
-0.46088671389041375   -0.11522167847260344   -0.11522167847260344
-0.46088671389041375   -0.11522167847260344   -0.11522167847260344
-0.46088671389041375   -0.11522167847260344   -0.11522167847260344
-0.46088671389041375   -0.11522167847260344   -0.11522167847260344
0.05380490475118322   0.003369565210438826   0.0004534029002294729
0.05380490475118322   0.003369565210438826   0.0004534029002294729
0.05380490475118322   0.003369565210438826   0.0004534029002294729
0.05380490475118322   0.003369565210438826   0.0004534029002294729
0.0704800175239028   0.0176200043809757   0.0176200043809757
0.0704800175239028   0.0176200043809757   0.0176200043809757
0.0704800175239028   0.0176200043809757   0.0176200043809757
0.0704800175239028   0.0176200043809757   0.0176200043809757
-0.41644348143389265   -0.07197139287663756   -0.016741192110857558
-0.41644348143389265   -0.07197139287663756   -0.016741192110857558
-0.41644348143389265   -0.07197139287663756   -0.016741192110857558
-0.41644348143389265   -0.07197139287663756   -0.016741192110857558
-0.1787240460935297   -0.04531964851927093   0.030114484876268395
-0.1787240460935297   -0.04531964851927093   0.030114484876268395
-0.1787240460935297   -0.04531964851927093   0.030114484876268395
-0.1787240460935297   -0.04531964851927093   0.030114484876268395
-0.44300107159599367   -0.11075026789899842   -0.11075026789899842
-0.44300107159599367   -0.11075026789899842   -0.11075026789899842
-0.44300107159599367   -0.11075026789899842   -0.11075026789899842
-0.44300107159599367   -0.11075026789899842   -0.11075026789899842
0.07177799702352401   0.031139268740857238   0.010590637519199756
0.07177799702352401   0.031139268740857238   0.010590637519199756
0.07177799702352401   0.031139268740857238   0.010590637519199756
0.07177799702352401   0.031139268740857238   0.010590637519199756
0.07963017615492841   0.019907544038732104   0.019907544038732104
0.07963017615492841   0.019907544038732104   0.019907544038732104
0.07963017615492841   0.019907544038732104   0.019907544038732104
0.07963017615492841   0.019907544038732104   0.019907544038732104
-0.401474177172552   -0.04836086199956169   -0.011223993414587324
-0.401474177172552   -0.04836086199956169   -0.011223993414587324
-0.401474177172552   -0.04836086199956169   -0.011223993414587324
-0.401474177172552   -0.04836086199956169   -0.011223993414587324
-0.17118643890346205   -0.02797193050049087   -0.010375749274424313
-0.17118643890346205   -0.02797193050049087   -0.010375749274424313
-0.17118643890346205   -0.02797193050049087   -0.010375749274424313
-0.17118643890346205   -0.02797193050049087   -0.010375749274424313
-0.43284134009969283   -0.10821033502492321   -0.10821033502492321
-0.43284134009969283   -0.10821033502492321   -0.10821033502492321
-0.43284134009969283   -0.10821033502492321   -0.10821033502492321
-0.43284134009969283   -0.10821033502492321   -0.10821033502492321
0.08624677899192369   0.055006456973949264   0.017891645288490732
0.08624677899192369   0.055006456973949264   0.017891645288490732
0.08624677899192369   0.055006456973949264   0.017891645288490732
0.08624677899192369   0.055006456973949264   0.017891645288490732
0.09184869111725727   0.022962172779314317   0.022962172779314317
0.09184869111725727   0.022962172779314317   0.022962172779314317
0.09184869111725727   0.022962172779314317   0.022962172779314317
0.09184869111725727   0.022962172779314317   0.022962172779314317
-0.38518757831882244   -0.020225512426888304   0.0002346978550450199
-0.38518757831882244   -0.020225512426888304   0.0002346978550450199
-0.38518757831882244   -0.020225512426888304   0.0002346978550450199
-0.38518757831882244   -0.020225512426888304   0.0002346978550450199
-0.16579705476615036   -0.011247765925958421   -0.05050404769431512
-0.16579705476615036   -0.011247765925958421   -0.05050404769431512
-0.16579705476615036   -0.011247765925958421   -0.05050404769431512
-0.16579705476615036   -0.011247765925958421   -0.05050404769431512
0.05893367903227739   0.014733419758069348   0.014733419758069348
0.05893367903227739   0.014733419758069348   0.014733419758069348
0.05893367903227739   0.014733419758069348   0.014733419758069348
0.05893367903227739   0.014733419758069348   0.014733419758069348
0.5752284603006195   0.052813898906520745   0.017896221614766582
0.5752284603006195   0.052813898906520745   0.017896221614766582
0.5752284603006195   0.052813898906520745   0.017896221614766582
0.5752284603006195   0.052813898906520745   0.017896221614766582
0.624880593912171   0.15622014847804275   0.15622014847804275
0.624880593912171   0.15622014847804275   0.15622014847804275
0.624880593912171   0.15622014847804275   0.15622014847804275
0.624880593912171   0.15622014847804275   0.15622014847804275
0.053668022626775364   -0.04047673263078915   -0.008343233092897693
0.053668022626775364   -0.04047673263078915   -0.008343233092897693
0.053668022626775364   -0.04047673263078915   -0.008343233092897693
0.053668022626775364   -0.04047673263078915   -0.008343233092897693
0.3277777404286408   0.04082444358723992   0.0594821444309551
0.3277777404286408   0.04082444358723992   0.0594821444309551
0.3277777404286408   0.04082444358723992   0.0594821444309551
0.3277777404286408   0.04082444358723992   0.0594821444309551
0.07048001752390304   0.01762000438097576   0.01762000438097576
0.07048001752390304   0.01762000438097576   0.01762000438097576
0.07048001752390304   0.01762000438097576   0.01762000438097576
0.07048001752390304   0.01762000438097576   0.01762000438097576
0.5823857954828715   0.07244060793410609   0.0275256968754823
0.5823857954828715   0.07244060793410609   0.0275256968754823
0.5823857954828715   0.07244060793410609   0.0275256968754823
0.5823857954828715   0.07244060793410609   0.0275256968754823
0.6224996171476846   0.15562490428692116   0.15562490428692116
0.6224996171476846   0.15562490428692116   0.15562490428692116
0.6224996171476846   0.15562490428692116   0.15562490428692116
0.6224996171476846   0.15562490428692116   0.15562490428692116
0.06822692177586463   -0.017378127116126428   0.00017694329827114622
0.06822692177586463   -0.017378127116126428   0.00017694329827114622
0.06822692177586463   -0.017378127116126428   0.00017694329827114622
0.06822692177586463   -0.017378127116126428   0.00017694329827114622
0.3256595249533836   0.053690733746082686   0.01540271300976298
0.3256595249533836   0.053690733746082686   0.01540271300976298
0.3256595249533836   0.053690733746082686   0.01540271300976298
0.3256595249533836   0.053690733746082686   0.01540271300976298
0.07963017615492848   0.01990754403873212   0.01990754403873212
0.07963017615492848   0.01990754403873212   0.01990754403873212
0.07963017615492848   0.01990754403873212   0.01990754403873212
0.07963017615492848   0.01990754403873212   0.01990754403873212
0.5856620548461365   0.09290492520957835   0.03415707185652319
0.5856620548461365   0.09290492520957835   0.03415707185652319
0.5856620548461365   0.09290492520957835   0.03415707185652319
0.5856620548461365   0.09290492520957835   0.03415707185652319
0.6348393020371351   0.15870982550928378   0.15870982550928378
0.6348393020371351   0.15870982550928378   0.15870982550928378
0.6348393020371351   0.15870982550928378   0.15870982550928378
0.6348393020371351   0.15870982550928378   0.15870982550928378
0.08723831501044443   0.013153169939299002   0.009719295085264831
0.08723831501044443   0.013153169939299002   0.009719295085264831
0.08723831501044443   0.013153169939299002   0.009719295085264831
0.08723831501044443   0.013153169939299002   0.009719295085264831
0.3309999611728866   0.07291048390692963   -0.02546700397463876
0.3309999611728866   0.07291048390692963   -0.02546700397463876
0.3309999611728866   0.07291048390692963   -0.02546700397463876
0.3309999611728866   0.07291048390692963   -0.02546700397463876
0.6234293735515134   0.15585734338787835   0.15585734338787835
0.6234293735515134   0.15585734338787835   0.15585734338787835
0.6234293735515134   0.15585734338787835   0.15585734338787835
0.6234293735515134   0.15585734338787835   0.15585734338787835
1.2949732345061118   0.09880533071612482   0.034244136640416874
1.2949732345061118   0.09880533071612482   0.034244136640416874
1.2949732345061118   0.09880533071612482   0.034244136640416874
1.2949732345061118   0.09880533071612482   0.034244136640416874
1.3239982699966066   0.33099956749915166   0.33099956749915166
1.3239982699966066   0.33099956749915166   0.33099956749915166
1.3239982699966066   0.33099956749915166   0.33099956749915166
1.3239982699966066   0.33099956749915166   0.33099956749915166
0.5555271924280915   -0.03143324893605742   -0.0028934615282548565
0.5555271924280915   -0.03143324893605742   -0.0028934615282548565
0.5555271924280915   -0.03143324893605742   -0.0028934615282548565
0.5555271924280915   -0.03143324893605742   -0.0028934615282548565
0.9233217729029016   0.13078472973534555   0.10411193679589346
0.9233217729029016   0.13078472973534555   0.10411193679589346
0.9233217729029016   0.13078472973534555   0.10411193679589346
0.9233217729029016   0.13078472973534555   0.10411193679589346
0.6248805939121704   0.1562201484780426   0.1562201484780426
0.6248805939121704   0.1562201484780426   0.1562201484780426
0.6248805939121704   0.1562201484780426   0.1562201484780426
0.6248805939121704   0.1562201484780426   0.1562201484780426
1.227105953988797   0.11580725556132529   0.061730299397951126
1.227105953988797   0.11580725556132529   0.061730299397951126
1.227105953988797   0.11580725556132529   0.061730299397951126
1.227105953988797   0.11580725556132529   0.061730299397951126
1.2847990257541497   0.32119975643853743   0.32119975643853743
1.2847990257541497   0.32119975643853743   0.32119975643853743
1.2847990257541497   0.32119975643853743   0.32119975643853743
1.2847990257541497   0.32119975643853743   0.32119975643853743
0.5577492626224467   -0.01717686064076923   0.004674896588422281
0.5577492626224467   -0.01717686064076923   0.004674896588422281
0.5577492626224467   -0.01717686064076923   0.004674896588422281
0.5577492626224467   -0.01717686064076923   0.004674896588422281
0.8962672751960215   0.13465265547178842   0.04990457625909976
0.8962672751960215   0.13465265547178842   0.04990457625909976
0.8962672751960215   0.13465265547178842   0.04990457625909976
0.8962672751960215   0.13465265547178842   0.04990457625909976
0.6224996171476846   0.15562490428692116   0.15562490428692116
0.6224996171476846   0.15562490428692116   0.15562490428692116
0.6224996171476846   0.15562490428692116   0.15562490428692116
0.6224996171476846   0.15562490428692116   0.15562490428692116
1.1879247123236627   0.11627403260560132   0.04175391311905745
1.1879247123236627   0.11627403260560132   0.04175391311905745
1.1879247123236627   0.11627403260560132   0.04175391311905745
1.1879247123236627   0.11627403260560132   0.04175391311905745
1.226235981687505   0.30655899542187626   0.30655899542187626
1.226235981687505   0.30655899542187626   0.30655899542187626
1.226235981687505   0.30655899542187626   0.30655899542187626
1.226235981687505   0.30655899542187626   0.30655899542187626
0.578689007127268   0.01873891599866545   0.01792926047056663
0.578689007127268   0.01873891599866545   0.01792926047056663
0.578689007127268   0.01873891599866545   0.01792926047056663
0.578689007127268   0.01873891599866545   0.01792926047056663
0.8585173654921522   0.14610899407254366   -0.013177263990964399
0.8585173654921522   0.14610899407254366   -0.013177263990964399
0.8585173654921522   0.14610899407254366   -0.013177263990964399
0.8585173654921522   0.14610899407254366   -0.013177263990964399
-1.2540562487503162   -0.08984672507258099   0.014508319749997368
-1.2540562487503162   -0.08984672507258099   0.014508319749997368
-1.2540562487503162   -0.08984672507258099   0.014508319749997368
-1.2540562487503162   -0.08984672507258099   0.014508319749997368
-0.7986106891617922   -0.01879380268857786   -0.00530172708767887
-0.7986106891617922   -0.01879380268857786   -0.00530172708767887
-0.7986106891617922   -0.01879380268857786   -0.00530172708767887
-0.7986106891617922   -0.01879380268857786   -0.00530172708767887
-0.8037106585549338   0.032566039399979235   0.017032038216959706
-0.8037106585549338   0.032566039399979235   0.017032038216959706
-0.8037106585549338   0.032566039399979235   0.017032038216959706
-0.8037106585549338   0.032566039399979235   0.017032038216959706
-1.272570172267877   -0.08700300726295854   -0.015241433400225053
-1.272570172267877   -0.08700300726295854   -0.015241433400225053
-1.272570172267877   -0.08700300726295854   -0.015241433400225053
-1.272570172267877   -0.08700300726295854   -0.015241433400225053
-0.9916565533786146   -0.033983249055325154   -0.004131712530701964
-0.9916565533786146   -0.033983249055325154   -0.004131712530701964
-0.9916565533786146   -0.033983249055325154   -0.004131712530701964
-0.9916565533786146   -0.033983249055325154   -0.004131712530701964
-1.2631423192997253   -0.061456446297379924   0.006351270474955435
-1.2631423192997253   -0.061456446297379924   0.006351270474955435
-1.2631423192997253   -0.061456446297379924   0.006351270474955435
-1.2631423192997253   -0.061456446297379924   0.006351270474955435
-0.8144549955395957   0.005702994417893653   -0.00982660172424947
-0.8144549955395957   0.005702994417893653   -0.00982660172424947
-0.8144549955395957   0.005702994417893653   -0.00982660172424947
-0.8144549955395957   0.005702994417893653   -0.00982660172424947
-0.8044842707910164   0.046479097086857185   0.019326926180424496
-0.8044842707910164   0.046479097086857185   0.019326926180424496
-0.8044842707910164   0.046479097086857185   0.019326926180424496
-0.8044842707910164   0.046479097086857185   0.019326926180424496
-1.2800255967192773   -0.07656601124738849   -0.020101781976060107
-1.2800255967192773   -0.07656601124738849   -0.020101781976060107
-1.2800255967192773   -0.07656601124738849   -0.020101781976060107
-1.2800255967192773   -0.07656601124738849   -0.020101781976060107
-1.0192734317681473   -0.022675328124670213   -0.009763175252190441
-1.0192734317681473   -0.022675328124670213   -0.009763175252190441
-1.0192734317681473   -0.022675328124670213   -0.009763175252190441
-1.0192734317681473   -0.022675328124670213   -0.009763175252190441
-1.2568475506646617   -0.03667871392836067   0.05590115097798042
-1.2568475506646617   -0.03667871392836067   0.05590115097798042
-1.2568475506646617   -0.03667871392836067   0.05590115097798042
-1.2568475506646617   -0.03667871392836067   0.05590115097798042
-0.8180545518061717   0.016199564807289124   -0.01824494661577744
-0.8180545518061717   0.016199564807289124   -0.01824494661577744
-0.8180545518061717   0.016199564807289124   -0.01824494661577744
-0.8180545518061717   0.016199564807289124   -0.01824494661577744
-0.7896438706331842   0.08108144368839454   0.03492167289922207
-0.7896438706331842   0.08108144368839454   0.03492167289922207
-0.7896438706331842   0.08108144368839454   0.03492167289922207
-0.7896438706331842   0.08108144368839454   0.03492167289922207
-1.2442633138732586   -0.06161856273004959   -0.032793278454698406
-1.2442633138732586   -0.06161856273004959   -0.032793278454698406
-1.2442633138732586   -0.06161856273004959   -0.032793278454698406
-1.2442633138732586   -0.06161856273004959   -0.032793278454698406
-0.980004706781465   0.009312714073268419   0.021782155255761305
-0.980004706781465   0.009312714073268419   0.021782155255761305
-0.980004706781465   0.009312714073268419   0.021782155255761305
-0.980004706781465   0.009312714073268419   0.021782155255761305
-0.8183395555075536   -0.10861076037625282   -0.01412910112881063
-0.8183395555075536   -0.10861076037625282   -0.01412910112881063
-0.8183395555075536   -0.10861076037625282   -0.01412910112881063
-0.8183395555075536   -0.10861076037625282   -0.01412910112881063
-0.3774900322804152   -0.00863385226697097   0.0039489220863260024
-0.3774900322804152   -0.00863385226697097   0.0039489220863260024
-0.3774900322804152   -0.00863385226697097   0.0039489220863260024
-0.3774900322804152   -0.00863385226697097   0.0039489220863260024
-0.38281388310279973   0.007157455228488846   0.005810497176386226
-0.38281388310279973   0.007157455228488846   0.005810497176386226
-0.38281388310279973   0.007157455228488846   0.005810497176386226
-0.38281388310279973   0.007157455228488846   0.005810497176386226
-0.8344439751175042   -0.0794657345456723   -0.024602770650240156
-0.8344439751175042   -0.0794657345456723   -0.024602770650240156
-0.8344439751175042   -0.0794657345456723   -0.024602770650240156
-0.8344439751175042   -0.0794657345456723   -0.024602770650240156
-0.603273181379969   -0.049097797102952395   -0.013928178592495906
-0.603273181379969   -0.049097797102952395   -0.013928178592495906
-0.603273181379969   -0.049097797102952395   -0.013928178592495906
-0.603273181379969   -0.049097797102952395   -0.013928178592495906
-0.8336208341606267   -0.08679716208388293   -0.013155638327645599
-0.8336208341606267   -0.08679716208388293   -0.013155638327645599
-0.8336208341606267   -0.08679716208388293   -0.013155638327645599
-0.8336208341606267   -0.08679716208388293   -0.013155638327645599
-0.38215396891217823   0.015971937914198986   0.00029558544378656057
-0.38215396891217823   0.015971937914198986   0.00029558544378656057
-0.38215396891217823   0.015971937914198986   0.00029558544378656057
-0.38215396891217823   0.015971937914198986   0.00029558544378656057
-0.38120715973179564   0.026578364142842745   0.007817255302044829
-0.38120715973179564   0.026578364142842745   0.007817255302044829
-0.38120715973179564   0.026578364142842745   0.007817255302044829
-0.38120715973179564   0.026578364142842745   0.007817255302044829
-0.8345982006113348   -0.05813982017677857   -0.026623805657532168
-0.8345982006113348   -0.05813982017677857   -0.026623805657532168
-0.8345982006113348   -0.05813982017677857   -0.026623805657532168
-0.8345982006113348   -0.05813982017677857   -0.026623805657532168
-0.601937600743635   -0.027284907103743386   -0.006628985199889654
-0.601937600743635   -0.027284907103743386   -0.006628985199889654
-0.601937600743635   -0.027284907103743386   -0.006628985199889654
-0.601937600743635   -0.027284907103743386   -0.006628985199889654
-0.8313031662391439   -0.0655516491780892   -0.002736804795266612
-0.8313031662391439   -0.0655516491780892   -0.002736804795266612
-0.8313031662391439   -0.0655516491780892   -0.002736804795266612
-0.8313031662391439   -0.0655516491780892   -0.002736804795266612
-0.38174604678721663   0.03674634046092515   -0.005045156293135698
-0.38174604678721663   0.03674634046092515   -0.005045156293135698
-0.38174604678721663   0.03674634046092515   -0.005045156293135698
-0.38174604678721663   0.03674634046092515   -0.005045156293135698
-0.37466671507661053   0.046069664194940727   0.015597905827853205
-0.37466671507661053   0.046069664194940727   0.015597905827853205
-0.37466671507661053   0.046069664194940727   0.015597905827853205
-0.37466671507661053   0.046069664194940727   0.015597905827853205
-0.8254775107165814   -0.03349636039171261   -0.029668723437659902
-0.8254775107165814   -0.03349636039171261   -0.029668723437659902
-0.8254775107165814   -0.03349636039171261   -0.029668723437659902
-0.8254775107165814   -0.03349636039171261   -0.029668723437659902
-0.5992441676492313   -0.00663970591554186   0.0029998068268195927
-0.5992441676492313   -0.00663970591554186   0.0029998068268195927
-0.5992441676492313   -0.00663970591554186   0.0029998068268195927
-0.5992441676492313   -0.00663970591554186   0.0029998068268195927
-0.39798680515159385   -0.09042768021455873   -0.01674111432198221
-0.39798680515159385   -0.09042768021455873   -0.01674111432198221
-0.39798680515159385   -0.09042768021455873   -0.01674111432198221
-0.39798680515159385   -0.09042768021455873   -0.01674111432198221
0.04033012856086554   0.009157806282143566   0.015502998849785949
0.04033012856086554   0.009157806282143566   0.015502998849785949
0.04033012856086554   0.009157806282143566   0.015502998849785949
0.04033012856086554   0.009157806282143566   0.015502998849785949
0.038619185962153586   0.022643591921677454   0.0012710644846712716
0.038619185962153586   0.022643591921677454   0.0012710644846712716
0.038619185962153586   0.022643591921677454   0.0012710644846712716
0.038619185962153586   0.022643591921677454   0.0012710644846712716
-0.39951496135868436   -0.059840121332178794   -0.01069731754236939
-0.39951496135868436   -0.059840121332178794   -0.01069731754236939
-0.39951496135868436   -0.059840121332178794   -0.01069731754236939
-0.39951496135868436   -0.059840121332178794   -0.01069731754236939
-0.18137841912151204   -0.030047231325025354   -0.005789451817742692
-0.18137841912151204   -0.030047231325025354   -0.005789451817742692
-0.18137841912151204   -0.030047231325025354   -0.005789451817742692
-0.18137841912151204   -0.030047231325025354   -0.005789451817742692
-0.40228370502304195   -0.06888952550963598   -0.015491631686700282
-0.40228370502304195   -0.06888952550963598   -0.015491631686700282
-0.40228370502304195   -0.06888952550963598   -0.015491631686700282
-0.40228370502304195   -0.06888952550963598   -0.015491631686700282
0.04291230427220728   0.03321737074483072   0.012162877211786514
0.04291230427220728   0.03321737074483072   0.012162877211786514
0.04291230427220728   0.03321737074483072   0.012162877211786514
0.04291230427220728   0.03321737074483072   0.012162877211786514
0.041911985632104985   0.04399904744045447   0.00718939098083549
0.041911985632104985   0.04399904744045447   0.00718939098083549
0.041911985632104985   0.04399904744045447   0.00718939098083549
0.041911985632104985   0.04399904744045447   0.00718939098083549
-0.3980415876358493   -0.036416828492994345   -0.013359691582386127
-0.3980415876358493   -0.036416828492994345   -0.013359691582386127
-0.3980415876358493   -0.036416828492994345   -0.013359691582386127
-0.3980415876358493   -0.036416828492994345   -0.013359691582386127
-0.17837530970484   -0.007363800983634015   0.002091730496122897
-0.17837530970484   -0.007363800983634015   0.002091730496122897
-0.17837530970484   -0.007363800983634015   0.002091730496122897
-0.17837530970484   -0.007363800983634015   0.002091730496122897
-0.3991247351002887   -0.04723718865142237   -0.007955068746155038
-0.3991247351002887   -0.04723718865142237   -0.007955068746155038
-0.3991247351002887   -0.04723718865142237   -0.007955068746155038
-0.3991247351002887   -0.04723718865142237   -0.007955068746155038
0.04463710962458598   0.056461384126924044   0.00835267425677057
0.04463710962458598   0.056461384126924044   0.00835267425677057
0.04463710962458598   0.056461384126924044   0.00835267425677057
0.04463710962458598   0.056461384126924044   0.00835267425677057
0.043070909525059   0.06773987663640059   0.01180315532760806
0.043070909525059   0.06773987663640059   0.01180315532760806
0.043070909525059   0.06773987663640059   0.01180315532760806
0.043070909525059   0.06773987663640059   0.01180315532760806
-0.3926489053870903   -0.01139032118692257   -0.016853060342680155
-0.3926489053870903   -0.01139032118692257   -0.016853060342680155
-0.3926489053870903   -0.01139032118692257   -0.016853060342680155
-0.3926489053870903   -0.01139032118692257   -0.016853060342680155
-0.1737320889734829   0.016357193176841936   0.01072013122496451
-0.1737320889734829   0.016357193176841936   0.01072013122496451
-0.1737320889734829   0.016357193176841936   0.01072013122496451
-0.1737320889734829   0.016357193176841936   0.01072013122496451
0.01799981710257423   -0.06634102040662236   -0.02064973175290466
0.01799981710257423   -0.06634102040662236   -0.02064973175290466
0.01799981710257423   -0.06634102040662236   -0.02064973175290466
0.01799981710257423   -0.06634102040662236   -0.02064973175290466
0.47211089257918976   0.0324767186016658   0.02851276704780398
0.47211089257918976   0.0324767186016658   0.02851276704780398
0.47211089257918976   0.0324767186016658   0.02851276704780398
0.47211089257918976   0.0324767186016658   0.02851276704780398
0.4717004382080083   0.04387912977815144   -0.0045963366294295305
0.4717004382080083   0.04387912977815144   -0.0045963366294295305
0.4717004382080083   0.04387912977815144   -0.0045963366294295305
0.4717004382080083   0.04387912977815144   -0.0045963366294295305
0.026480373426109587   -0.03973407736689776   0.0029546710930264883
0.026480373426109587   -0.03973407736689776   0.0029546710930264883
0.026480373426109587   -0.03973407736689776   0.0029546710930264883
0.026480373426109587   -0.03973407736689776   0.0029546710930264883
0.24401692559067326   -0.00576324167967162   0.00045726764585536303
0.24401692559067326   -0.00576324167967162   0.00045726764585536303
0.24401692559067326   -0.00576324167967162   0.00045726764585536303
0.24401692559067326   -0.00576324167967162   0.00045726764585536303
0.02105847570897061   -0.048423145306402945   -0.015465749553162867
0.02105847570897061   -0.048423145306402945   -0.015465749553162867
0.02105847570897061   -0.048423145306402945   -0.015465749553162867
0.02105847570897061   -0.048423145306402945   -0.015465749553162867
0.47987314331463893   0.05531900510714759   0.02482731357472391
0.47987314331463893   0.05531900510714759   0.02482731357472391
0.47987314331463893   0.05531900510714759   0.02482731357472391
0.47987314331463893   0.05531900510714759   0.02482731357472391
0.47566149808831365   0.06501244025902007   0.004695203861553619
0.47566149808831365   0.06501244025902007   0.004695203861553619
0.47566149808831365   0.06501244025902007   0.004695203861553619
0.47566149808831365   0.06501244025902007   0.004695203861553619
0.0276587688894276   -0.018788617731967827   -0.0012890275601291305
0.0276587688894276   -0.018788617731967827   -0.0012890275601291305
0.0276587688894276   -0.018788617731967827   -0.0012890275601291305
0.0276587688894276   -0.018788617731967827   -0.0012890275601291305
0.24750406156956922   0.01443000512198881   0.010144797503050328
0.24750406156956922   0.01443000512198881   0.010144797503050328
0.24750406156956922   0.01443000512198881   0.010144797503050328
0.24750406156956922   0.01443000512198881   0.010144797503050328
0.023688691598819568   -0.028588973466847564   -0.011339058278289458
0.023688691598819568   -0.028588973466847564   -0.011339058278289458
0.023688691598819568   -0.028588973466847564   -0.011339058278289458
0.023688691598819568   -0.028588973466847564   -0.011339058278289458
0.48162399759286634   0.07680521820784289   0.02271492343548573
0.48162399759286634   0.07680521820784289   0.02271492343548573
0.48162399759286634   0.07680521820784289   0.02271492343548573
0.48162399759286634   0.07680521820784289   0.02271492343548573
0.46821432842576327   0.08939773115772538   0.009966087762077948
0.46821432842576327   0.08939773115772538   0.009966087762077948
0.46821432842576327   0.08939773115772538   0.009966087762077948
0.46821432842576327   0.08939773115772538   0.009966087762077948
0.027600681241771417   0.007115648993956576   -0.004923758446385837
0.027600681241771417   0.007115648993956576   -0.004923758446385837
0.027600681241771417   0.007115648993956576   -0.004923758446385837
0.027600681241771417   0.007115648993956576   -0.004923758446385837
0.2513889434911679   0.037508579831350565   0.019123848814339532
0.2513889434911679   0.037508579831350565   0.019123848814339532
0.2513889434911679   0.037508579831350565   0.019123848814339532
0.2513889434911679   0.037508579831350565   0.019123848814339532
0.43469488557148356   -0.087764396897247   -0.03832615249181406
0.43469488557148356   -0.087764396897247   -0.03832615249181406
0.43469488557148356   -0.087764396897247   -0.03832615249181406
0.43469488557148356   -0.087764396897247   -0.03832615249181406
0.8960190066481815   0.05919473067635786   0.02795771275289196
0.8960190066481815   0.05919473067635786   0.02795771275289196
0.8960190066481815   0.05919473067635786   0.02795771275289196
0.8960190066481815   0.05919473067635786   0.02795771275289196
0.9064027172841608   0.02778577265767468   -0.05767387841566368
0.9064027172841608   0.02778577265767468   -0.05767387841566368
0.9064027172841608   0.02778577265767468   -0.05767387841566368
0.9064027172841608   0.02778577265767468   -0.05767387841566368
0.4636553604662266   -0.017724093720893036   0.016781498160699584
0.4636553604662266   -0.017724093720893036   0.016781498160699584
0.4636553604662266   -0.017724093720893036   0.016781498160699584
0.4636553604662266   -0.017724093720893036   0.016781498160699584
0.6415882891422773   -0.011411045555522442   -0.01620335253959474
0.6415882891422773   -0.011411045555522442   -0.01620335253959474
0.6415882891422773   -0.011411045555522442   -0.01620335253959474
0.6415882891422773   -0.011411045555522442   -0.01620335253959474
0.4472155387191997   -0.05762102352604065   -0.02552068076928122
0.4472155387191997   -0.05762102352604065   -0.02552068076928122
0.4472155387191997   -0.05762102352604065   -0.02552068076928122
0.4472155387191997   -0.05762102352604065   -0.02552068076928122
0.931113511853827   0.07595367528546287   0.017712191804878832
0.931113511853827   0.07595367528546287   0.017712191804878832
0.931113511853827   0.07595367528546287   0.017712191804878832
0.931113511853827   0.07595367528546287   0.017712191804878832
0.9167406929696075   0.0510266722159875   -0.01329886947495472
0.9167406929696075   0.0510266722159875   -0.01329886947495472
0.9167406929696075   0.0510266722159875   -0.01329886947495472
0.9167406929696075   0.0510266722159875   -0.01329886947495472
0.462016672073344   -0.007257253549432088   0.008740767595148809
0.462016672073344   -0.007257253549432088   0.008740767595148809
0.462016672073344   -0.007257253549432088   0.008740767595148809
0.462016672073344   -0.007257253549432088   0.008740767595148809
0.6755583196031985   0.01689546341484846   0.011139706427416698
0.6755583196031985   0.01689546341484846   0.011139706427416698
0.6755583196031985   0.01689546341484846   0.011139706427416698
0.6755583196031985   0.01689546341484846   0.011139706427416698
0.44879496122756557   -0.044023090228386325   -0.020601949954783927
0.44879496122756557   -0.044023090228386325   -0.020601949954783927
0.44879496122756557   -0.044023090228386325   -0.020601949954783927
0.44879496122756557   -0.044023090228386325   -0.020601949954783927
0.9288897585093794   0.08671986358893638   0.01175326685095577
0.9288897585093794   0.08671986358893638   0.01175326685095577
0.9288897585093794   0.08671986358893638   0.01175326685095577
0.9288897585093794   0.08671986358893638   0.01175326685095577
0.9156069022098783   0.07848307482928166   -0.020267840458963723
0.9156069022098783   0.07848307482928166   -0.020267840458963723
0.9156069022098783   0.07848307482928166   -0.020267840458963723
0.9156069022098783   0.07848307482928166   -0.020267840458963723
0.45268462696330536   0.016791088282917213   0.004924223324588389
0.45268462696330536   0.016791088282917213   0.004924223324588389
0.45268462696330536   0.016791088282917213   0.004924223324588389
0.45268462696330536   0.016791088282917213   0.004924223324588389
0.6585614496200952   0.029748623795524884   0.008380202956121251
0.6585614496200952   0.029748623795524884   0.008380202956121251
0.6585614496200952   0.029748623795524884   0.008380202956121251
0.6585614496200952   0.029748623795524884   0.008380202956121251
-0.9835572643855924   -0.044510856656288955   0.05105957829756594
-0.9835572643855924   -0.044510856656288955   0.05105957829756594
-0.9835572643855924   -0.044510856656288955   0.05105957829756594
-0.9835572643855924   -0.044510856656288955   0.05105957829756594
-0.6538579763611432   -0.025117331053949643   -0.013285655937216902
-0.6538579763611432   -0.025117331053949643   -0.013285655937216902
-0.6538579763611432   -0.025117331053949643   -0.013285655937216902
-0.6538579763611432   -0.025117331053949643   -0.013285655937216902
-0.6300435714656368   0.05310905309936262   0.04279226760914031
-0.6300435714656368   0.05310905309936262   0.04279226760914031
-0.6300435714656368   0.05310905309936262   0.04279226760914031
-0.6300435714656368   0.05310905309936262   0.04279226760914031
-0.988002174219127   -0.07063419946686034   -0.020791178840405114
-0.988002174219127   -0.07063419946686034   -0.020791178840405114
-0.988002174219127   -0.07063419946686034   -0.020791178840405114
-0.988002174219127   -0.07063419946686034   -0.020791178840405114
-0.7808627003029824   -0.012068075891217972   -0.0016326778681406903
-0.7808627003029824   -0.012068075891217972   -0.0016326778681406903
-0.7808627003029824   -0.012068075891217972   -0.0016326778681406903
-0.7808627003029824   -0.012068075891217972   -0.0016326778681406903
-0.9603034835396556   -0.010073139849375912   0.05714121493946655
-0.9603034835396556   -0.010073139849375912   0.05714121493946655
-0.9603034835396556   -0.010073139849375912   0.05714121493946655
-0.9603034835396556   -0.010073139849375912   0.05714121493946655
-0.6533839854938469   -0.0030937298668607116   -0.01770701956568692
-0.6533839854938469   -0.0030937298668607116   -0.01770701956568692
-0.6533839854938469   -0.0030937298668607116   -0.01770701956568692
-0.6533839854938469   -0.0030937298668607116   -0.01770701956568692
-0.6273755056526109   0.0659105237865317   0.03963080212687467
-0.6273755056526109   0.0659105237865317   0.03963080212687467
-0.6273755056526109   0.0659105237865317   0.03963080212687467
-0.6273755056526109   0.0659105237865317   0.03963080212687467
-0.97248460777194   -0.059019308424439254   -0.028436097611578982
-0.97248460777194   -0.059019308424439254   -0.028436097611578982
-0.97248460777194   -0.059019308424439254   -0.028436097611578982
-0.97248460777194   -0.059019308424439254   -0.028436097611578982
-0.7823464659676312   0.0029696971470133393   0.008923021578845475
-0.7823464659676312   0.0029696971470133393   0.008923021578845475
-0.7823464659676312   0.0029696971470133393   0.008923021578845475
-0.7823464659676312   0.0029696971470133393   0.008923021578845475
-0.9467032069170287   0.002007618963317359   0.03944397927522081
-0.9467032069170287   0.002007618963317359   0.03944397927522081
-0.9467032069170287   0.002007618963317359   0.03944397927522081
-0.9467032069170287   0.002007618963317359   0.03944397927522081
-0.6517217583194601   0.006318744586837816   -0.022508682007673468
-0.6517217583194601   0.006318744586837816   -0.022508682007673468
-0.6517217583194601   0.006318744586837816   -0.022508682007673468
-0.6517217583194601   0.006318744586837816   -0.022508682007673468
-0.6278935565756291   0.07450365866061517   0.03144807120099593
-0.6278935565756291   0.07450365866061517   0.03144807120099593
-0.6278935565756291   0.07450365866061517   0.03144807120099593
-0.6278935565756291   0.07450365866061517   0.03144807120099593
-0.9524007728891464   -0.04662287852323577   -0.0362352199681003
-0.9524007728891464   -0.04662287852323577   -0.0362352199681003
-0.9524007728891464   -0.04662287852323577   -0.0362352199681003
-0.9524007728891464   -0.04662287852323577   -0.0362352199681003
-0.7597103424369345   0.016462197947791468   0.018732013183653612
-0.7597103424369345   0.016462197947791468   0.018732013183653612
-0.7597103424369345   0.016462197947791468   0.018732013183653612
-0.7597103424369345   0.016462197947791468   0.018732013183653612
-0.6556822152214994   -0.06213909127586867   0.014614909982921538
-0.6556822152214994   -0.06213909127586867   0.014614909982921538
-0.6556822152214994   -0.06213909127586867   0.014614909982921538
-0.6556822152214994   -0.06213909127586867   0.014614909982921538
-0.3317411523027358   -0.012150676395770846   0.0006060596097195829
-0.3317411523027358   -0.012150676395770846   0.0006060596097195829
-0.3317411523027358   -0.012150676395770846   0.0006060596097195829
-0.3317411523027358   -0.012150676395770846   0.0006060596097195829
-0.32221225120677593   0.03254938970563648   0.023241126695575536
-0.32221225120677593   0.03254938970563648   0.023241126695575536
-0.32221225120677593   0.03254938970563648   0.023241126695575536
-0.32221225120677593   0.03254938970563648   0.023241126695575536
-0.6660717847500173   -0.061278995257669736   -0.022960750455735746
-0.6660717847500173   -0.061278995257669736   -0.022960750455735746
-0.6660717847500173   -0.061278995257669736   -0.022960750455735746
-0.6660717847500173   -0.061278995257669736   -0.022960750455735746
-0.49219429278491134   -0.024155310545730793   -0.01006518935613256
-0.49219429278491134   -0.024155310545730793   -0.01006518935613256
-0.49219429278491134   -0.024155310545730793   -0.01006518935613256
-0.49219429278491134   -0.024155310545730793   -0.01006518935613256
-0.6535077581448276   -0.035534882965483294   0.014115270278028343
-0.6535077581448276   -0.035534882965483294   0.014115270278028343
-0.6535077581448276   -0.035534882965483294   0.014115270278028343
-0.6535077581448276   -0.035534882965483294   0.014115270278028343
-0.3322374528557637   0.00934410236965394   -0.0036795942133785696
-0.3322374528557637   0.00934410236965394   -0.0036795942133785696
-0.3322374528557637   0.00934410236965394   -0.0036795942133785696
-0.3322374528557637   0.00934410236965394   -0.0036795942133785696
-0.32110361620181666   0.05390219949712008   0.020091708302442904
-0.32110361620181666   0.05390219949712008   0.020091708302442904
-0.32110361620181666   0.05390219949712008   0.020091708302442904
-0.32110361620181666   0.05390219949712008   0.020091708302442904
-0.6621808774405812   -0.04136490087065289   -0.02712063215579185
-0.6621808774405812   -0.04136490087065289   -0.02712063215579185
-0.6621808774405812   -0.04136490087065289   -0.02712063215579185
-0.6621808774405812   -0.04136490087065289   -0.02712063215579185
-0.486724809874292   -0.0025803178009801003   -8.640930389404791e-05
-0.486724809874292   -0.0025803178009801003   -8.640930389404791e-05
-0.486724809874292   -0.0025803178009801003   -8.640930389404791e-05
-0.486724809874292   -0.0025803178009801003   -8.640930389404791e-05
-0.6493623476333821   -0.013872054373142817   0.009479170382693747
-0.6493623476333821   -0.013872054373142817   0.009479170382693747
-0.6493623476333821   -0.013872054373142817   0.009479170382693747
-0.6493623476333821   -0.013872054373142817   0.009479170382693747
-0.33185543351295865   0.02847606549566807   -0.008241244251809436
-0.33185543351295865   0.02847606549566807   -0.008241244251809436
-0.33185543351295865   0.02847606549566807   -0.008241244251809436
-0.33185543351295865   0.02847606549566807   -0.008241244251809436
-0.3209225713002917   0.0763566940848856   0.015041609529041378
-0.3209225713002917   0.0763566940848856   0.015041609529041378
-0.3209225713002917   0.0763566940848856   0.015041609529041378
-0.3209225713002917   0.0763566940848856   0.015041609529041378
-0.6588900735014149   -0.019853967338239492   -0.02917688742908007
-0.6588900735014149   -0.019853967338239492   -0.02917688742908007
-0.6588900735014149   -0.019853967338239492   -0.02917688742908007
-0.6588900735014149   -0.019853967338239492   -0.02917688742908007
-0.4869359529468559   0.01723477458806212   0.007554463052306441
-0.4869359529468559   0.01723477458806212   0.007554463052306441
-0.4869359529468559   0.01723477458806212   0.007554463052306441
-0.4869359529468559   0.01723477458806212   0.007554463052306441
-0.3440455655517454   -0.07119272409713019   -0.0018739589339718727
-0.3440455655517454   -0.07119272409713019   -0.0018739589339718727
-0.3440455655517454   -0.07119272409713019   -0.0018739589339718727
-0.3440455655517454   -0.07119272409713019   -0.0018739589339718727
-0.012562337293882047   0.003317153824483171   0.014685337180351669
-0.012562337293882047   0.003317153824483171   0.014685337180351669
-0.012562337293882047   0.003317153824483171   0.014685337180351669
-0.012562337293882047   0.003317153824483171   0.014685337180351669
-0.013736388249343697   0.02086112879627739   0.007030359990570864
-0.013736388249343697   0.02086112879627739   0.007030359990570864
-0.013736388249343697   0.02086112879627739   0.007030359990570864
-0.013736388249343697   0.02086112879627739   0.007030359990570864
-0.3441901207344967   -0.045537693699927786   -0.008561137537463976
-0.3441901207344967   -0.045537693699927786   -0.008561137537463976
-0.3441901207344967   -0.045537693699927786   -0.008561137537463976
-0.3441901207344967   -0.045537693699927786   -0.008561137537463976
-0.17918636324929926   -0.022379476725304326   -0.005653404799041735
-0.17918636324929926   -0.022379476725304326   -0.005653404799041735
-0.17918636324929926   -0.022379476725304326   -0.005653404799041735
-0.17918636324929926   -0.022379476725304326   -0.005653404799041735
-0.34381863662684975   -0.04750806251430781   -0.0047333481848491005
-0.34381863662684975   -0.04750806251430781   -0.0047333481848491005
-0.34381863662684975   -0.04750806251430781   -0.0047333481848491005
-0.34381863662684975   -0.04750806251430781   -0.0047333481848491005
-0.012216838321869986   0.02472253164577941   0.010766706778437583
-0.012216838321869986   0.02472253164577941   0.010766706778437583
-0.012216838321869986   0.02472253164577941   0.010766706778437583
-0.012216838321869986   0.02472253164577941   0.010766706778437583
-0.012077918313821571   0.04411678687188681   0.0033447159199919627
-0.012077918313821571   0.04411678687188681   0.0033447159199919627
-0.012077918313821571   0.04411678687188681   0.0033447159199919627
-0.012077918313821571   0.04411678687188681   0.0033447159199919627
-0.34323383761195386   -0.024091256343810735   -0.012565942907309533
-0.34323383761195386   -0.024091256343810735   -0.012565942907309533
-0.34323383761195386   -0.024091256343810735   -0.012565942907309533
-0.34323383761195386   -0.024091256343810735   -0.012565942907309533
-0.17736101391679215   -0.0008880434789112282   0.002413812979954938
-0.17736101391679215   -0.0008880434789112282   0.002413812979954938
-0.17736101391679215   -0.0008880434789112282   0.002413812979954938
-0.17736101391679215   -0.0008880434789112282   0.002413812979954938
-0.3427198274233733   -0.02458163982972119   -0.009505508478496303
-0.3427198274233733   -0.02458163982972119   -0.009505508478496303
-0.3427198274233733   -0.02458163982972119   -0.009505508478496303
-0.3427198274233733   -0.02458163982972119   -0.009505508478496303
-0.011031166458290213   0.04616793240190922   0.006527329667626576
-0.011031166458290213   0.04616793240190922   0.006527329667626576
-0.011031166458290213   0.04616793240190922   0.006527329667626576
-0.011031166458290213   0.04616793240190922   0.006527329667626576
-0.011654777454849153   0.06806200049079315   -0.000585579886342634
-0.011654777454849153   0.06806200049079315   -0.000585579886342634
-0.011654777454849153   0.06806200049079315   -0.000585579886342634
-0.011654777454849153   0.06806200049079315   -0.000585579886342634
-0.34298304147519787   -0.0022850569310121777   -0.01661899032959333
-0.34298304147519787   -0.0022850569310121777   -0.01661899032959333
-0.34298304147519787   -0.0022850569310121777   -0.01661899032959333
-0.34298304147519787   -0.0022850569310121777   -0.01661899032959333
-0.1759233217977167   0.02062429084337475   0.009813189947628666
-0.1759233217977167   0.02062429084337475   0.009813189947628666
-0.1759233217977167   0.02062429084337475   0.009813189947628666
-0.1759233217977167   0.02062429084337475   0.009813189947628666
-0.03519276206165119   -0.07809707691905378   -0.017052555914956868
-0.03519276206165119   -0.07809707691905378   -0.017052555914956868
-0.03519276206165119   -0.07809707691905378   -0.017052555914956868
-0.03519276206165119   -0.07809707691905378   -0.017052555914956868
0.3052622745167881   0.021397383369238777   0.02793091086386204
0.3052622745167881   0.021397383369238777   0.02793091086386204
0.3052622745167881   0.021397383369238777   0.02793091086386204
0.3052622745167881   0.021397383369238777   0.02793091086386204
0.2952513568344177   0.011206550345689424   -0.011113173752345704
0.2952513568344177   0.011206550345689424   -0.011113173752345704
0.2952513568344177   0.011206550345689424   -0.011113173752345704
0.2952513568344177   0.011206550345689424   -0.011113173752345704
-0.02379476801896708   -0.028479858609755403   0.006079448548486948
-0.02379476801896708   -0.028479858609755403   0.006079448548486948
-0.02379476801896708   -0.028479858609755403   0.006079448548486948
-0.02379476801896708   -0.028479858609755403   0.006079448548486948
0.13345574056326967   -0.01820241745818047   -0.003210971439453784
0.13345574056326967   -0.01820241745818047   -0.003210971439453784
0.13345574056326967   -0.01820241745818047   -0.003210971439453784
0.13345574056326967   -0.01820241745818047   -0.003210971439453784
-0.034984135580333274   -0.056906135800342934   -0.02144111206775652
-0.034984135580333274   -0.056906135800342934   -0.02144111206775652
-0.034984135580333274   -0.056906135800342934   -0.02144111206775652
-0.034984135580333274   -0.056906135800342934   -0.02144111206775652
0.3085921306329698   0.04178423377346157   0.025013011812642642
0.3085921306329698   0.04178423377346157   0.025013011812642642
0.3085921306329698   0.04178423377346157   0.025013011812642642
0.3085921306329698   0.04178423377346157   0.025013011812642642
0.30017180639155533   0.03285046282731154   -0.01560666226586001
0.30017180639155533   0.03285046282731154   -0.01560666226586001
0.30017180639155533   0.03285046282731154   -0.01560666226586001
0.30017180639155533   0.03285046282731154   -0.01560666226586001
-0.023062471953753057   -0.009261949275569429   0.0018006838677912017
-0.023062471953753057   -0.009261949275569429   0.0018006838677912017
-0.023062471953753057   -0.009261949275569429   0.0018006838677912017
-0.023062471953753057   -0.009261949275569429   0.0018006838677912017
0.13474881386914883   0.0012603744304536535   0.004812732826384261
0.13474881386914883   0.0012603744304536535   0.004812732826384261
0.13474881386914883   0.0012603744304536535   0.004812732826384261
0.13474881386914883   0.0012603744304536535   0.004812732826384261
-0.033947351661152286   -0.03602430759917742   -0.025861356345597185
-0.033947351661152286   -0.03602430759917742   -0.025861356345597185
-0.033947351661152286   -0.03602430759917742   -0.025861356345597185
-0.033947351661152286   -0.03602430759917742   -0.025861356345597185
0.3134018898381366   0.061958024890101576   0.021436192904256517
0.3134018898381366   0.061958024890101576   0.021436192904256517
0.3134018898381366   0.061958024890101576   0.021436192904256517
0.3134018898381366   0.061958024890101576   0.021436192904256517
0.30324348312168964   0.05996303795745258   -0.016329615508827885
0.30324348312168964   0.05996303795745258   -0.016329615508827885
0.30324348312168964   0.05996303795745258   -0.016329615508827885
0.30324348312168964   0.05996303795745258   -0.016329615508827885
-0.02301004059158529   0.01316844713348697   -0.0024683422127168893
-0.02301004059158529   0.01316844713348697   -0.0024683422127168893
-0.02301004059158529   0.01316844713348697   -0.0024683422127168893
-0.02301004059158529   0.01316844713348697   -0.0024683422127168893
0.13954678274273508   0.022932698374761896   0.014328158120490821
0.13954678274273508   0.022932698374761896   0.014328158120490821
0.13954678274273508   0.022932698374761896   0.014328158120490821
0.13954678274273508   0.022932698374761896   0.014328158120490821
0.2732169706356794   -0.07761405342600744   -0.03328417174643255
0.2732169706356794   -0.07761405342600744   -0.03328417174643255
0.2732169706356794   -0.07761405342600744   -0.03328417174643255
0.2732169706356794   -0.07761405342600744   -0.03328417174643255
0.6017913397889946   0.044727561057879645   0.031192776221417383
0.6017913397889946   0.044727561057879645   0.031192776221417383
0.6017913397889946   0.044727561057879645   0.031192776221417383
0.6017913397889946   0.044727561057879645   0.031192776221417383
0.5971303333721186   -0.0032470753951800713   -0.04430838311662762
0.5971303333721186   -0.0032470753951800713   -0.04430838311662762
0.5971303333721186   -0.0032470753951800713   -0.04430838311662762
0.5971303333721186   -0.0032470753951800713   -0.04430838311662762
0.2981684351824997   -0.006294914991167522   0.020973683324923092
0.2981684351824997   -0.006294914991167522   0.020973683324923092
0.2981684351824997   -0.006294914991167522   0.020973683324923092
0.2981684351824997   -0.006294914991167522   0.020973683324923092
0.4210865866542034   -0.015243553017226047   -0.013893465528387591
0.4210865866542034   -0.015243553017226047   -0.013893465528387591
0.4210865866542034   -0.015243553017226047   -0.013893465528387591
0.4210865866542034   -0.015243553017226047   -0.013893465528387591
0.2735855956964114   -0.06728452677194396   -0.0409509023247399
0.2735855956964114   -0.06728452677194396   -0.0409509023247399
0.2735855956964114   -0.06728452677194396   -0.0409509023247399
0.2735855956964114   -0.06728452677194396   -0.0409509023247399
0.6234763610613527   0.05950572458874255   0.02466895534562043
0.6234763610613527   0.05950572458874255   0.02466895534562043
0.6234763610613527   0.05950572458874255   0.02466895534562043
0.6234763610613527   0.05950572458874255   0.02466895534562043
0.6120137495614256   0.009098238840641398   -0.059478847942565354
0.6120137495614256   0.009098238840641398   -0.059478847942565354
0.6120137495614256   0.009098238840641398   -0.059478847942565354
0.6120137495614256   0.009098238840641398   -0.059478847942565354
0.300480053626231   0.003126072565193136   0.015658964169641385
0.300480053626231   0.003126072565193136   0.015658964169641385
0.300480053626231   0.003126072565193136   0.015658964169641385
0.300480053626231   0.003126072565193136   0.015658964169641385
0.44034790185333933   -0.0018781489846472627   -0.0041943829163810405
0.44034790185333933   -0.0018781489846472627   -0.0041943829163810405
0.44034790185333933   -0.0018781489846472627   -0.0041943829163810405
0.44034790185333933   -0.0018781489846472627   -0.0041943829163810405
0.276809034419242   -0.05496745538275395   -0.04460260391735852
0.276809034419242   -0.05496745538275395   -0.04460260391735852
0.276809034419242   -0.05496745538275395   -0.04460260391735852
0.276809034419242   -0.05496745538275395   -0.04460260391735852
0.6395829237730846   0.07108992179325911   0.01637534016311769
0.6395829237730846   0.07108992179325911   0.01637534016311769
0.6395829237730846   0.07108992179325911   0.01637534016311769
0.6395829237730846   0.07108992179325911   0.01637534016311769
0.6356333401490347   0.04119540452850559   -0.056002908633199136
0.6356333401490347   0.04119540452850559   -0.056002908633199136
0.6356333401490347   0.04119540452850559   -0.056002908633199136
0.6356333401490347   0.04119540452850559   -0.056002908633199136
0.301581985199339   0.023871104865332456   0.011454827971543168
0.301581985199339   0.023871104865332456   0.011454827971543168
0.301581985199339   0.023871104865332456   0.011454827971543168
0.301581985199339   0.023871104865332456   0.011454827971543168
0.44381481587702604   0.013376144897938036   0.006566537673280779
0.44381481587702604   0.013376144897938036   0.006566537673280779
0.44381481587702604   0.013376144897938036   0.006566537673280779
0.44381481587702604   0.013376144897938036   0.006566537673280779
-0.7012439399592733   -0.022708261463692453   0.04614565561219918
-0.7012439399592733   -0.022708261463692453   0.04614565561219918
-0.7012439399592733   -0.022708261463692453   0.04614565561219918
-0.7012439399592733   -0.022708261463692453   0.04614565561219918
-0.4914575211697549   -0.03303941388564338   -0.01737863296707947
-0.4914575211697549   -0.03303941388564338   -0.01737863296707947
-0.4914575211697549   -0.03303941388564338   -0.01737863296707947
-0.4914575211697549   -0.03303941388564338   -0.01737863296707947
-0.46244365722594244   0.04649986929164601   0.03932064795894237
-0.46244365722594244   0.04649986929164601   0.03932064795894237
-0.46244365722594244   0.04649986929164601   0.03932064795894237
-0.46244365722594244   0.04649986929164601   0.03932064795894237
-0.7012890667744197   -0.05777236880740197   -0.025431436452942394
-0.7012890667744197   -0.05777236880740197   -0.025431436452942394
-0.7012890667744197   -0.05777236880740197   -0.025431436452942394
-0.7012890667744197   -0.05777236880740197   -0.025431436452942394
-0.5650192712467282   -0.008957304076276831   -0.001414549540689567
-0.5650192712467282   -0.008957304076276831   -0.001414549540689567
-0.5650192712467282   -0.008957304076276831   -0.001414549540689567
-0.5650192712467282   -0.008957304076276831   -0.001414549540689567
-0.674890018365739   0.004920629023758394   0.04387080775930076
-0.674890018365739   0.004920629023758394   0.04387080775930076
-0.674890018365739   0.004920629023758394   0.04387080775930076
-0.674890018365739   0.004920629023758394   0.04387080775930076
-0.4866909825738474   -0.014041405478737556   -0.021374704010192633
-0.4866909825738474   -0.014041405478737556   -0.021374704010192633
-0.4866909825738474   -0.014041405478737556   -0.021374704010192633
-0.4866909825738474   -0.014041405478737556   -0.021374704010192633
-0.458080868787002   0.05619075921320313   0.03321050159169483
-0.458080868787002   0.05619075921320313   0.03321050159169483
-0.458080868787002   0.05619075921320313   0.03321050159169483
-0.458080868787002   0.05619075921320313   0.03321050159169483
-0.6845863215204069   -0.04696566944078828   -0.03212360796808828
-0.6845863215204069   -0.04696566944078828   -0.03212360796808828
-0.6845863215204069   -0.04696566944078828   -0.03212360796808828
-0.6845863215204069   -0.04696566944078828   -0.03212360796808828
-0.5609946969477826   0.0038139978558324877   0.005817727214920229
-0.5609946969477826   0.0038139978558324877   0.005817727214920229
-0.5609946969477826   0.0038139978558324877   0.005817727214920229
-0.5609946969477826   0.0038139978558324877   0.005817727214920229
-0.6584276447744126   0.01651677080133404   0.035187335519760214
-0.6584276447744126   0.01651677080133404   0.035187335519760214
-0.6584276447744126   0.01651677080133404   0.035187335519760214
-0.6584276447744126   0.01651677080133404   0.035187335519760214
-0.48229791004418093   -0.005350045540103127   -0.026333899940888382
-0.48229791004418093   -0.005350045540103127   -0.026333899940888382
-0.48229791004418093   -0.005350045540103127   -0.026333899940888382
-0.48229791004418093   -0.005350045540103127   -0.026333899940888382
-0.4556686653534406   0.06568565053245459   0.028575317774653414
-0.4556686653534406   0.06568565053245459   0.028575317774653414
-0.4556686653534406   0.06568565053245459   0.028575317774653414
-0.4556686653534406   0.06568565053245459   0.028575317774653414
-0.6622452193827937   -0.032652186556665214   -0.03844529950028401
-0.6622452193827937   -0.032652186556665214   -0.03844529950028401
-0.6622452193827937   -0.032652186556665214   -0.03844529950028401
-0.6622452193827937   -0.032652186556665214   -0.03844529950028401
-0.5398899874248742   0.01580514610987685   0.01593184265018012
-0.5398899874248742   0.01580514610987685   0.01593184265018012
-0.5398899874248742   0.01580514610987685   0.01593184265018012
-0.5398899874248742   0.01580514610987685   0.01593184265018012
-0.48580830541894554   -0.03959976046724556   0.01742779236856344
-0.48580830541894554   -0.03959976046724556   0.01742779236856344
-0.48580830541894554   -0.03959976046724556   0.01742779236856344
-0.48580830541894554   -0.03959976046724556   0.01742779236856344
-0.2824555657867458   -0.021403828676700917   -0.0028080211574324568
-0.2824555657867458   -0.021403828676700917   -0.0028080211574324568
-0.2824555657867458   -0.021403828676700917   -0.0028080211574324568
-0.2824555657867458   -0.021403828676700917   -0.0028080211574324568
-0.2680854380835864   0.027149887201358656   0.02119731517297536
-0.2680854380835864   0.027149887201358656   0.02119731517297536
-0.2680854380835864   0.027149887201358656   0.02119731517297536
-0.2680854380835864   0.027149887201358656   0.02119731517297536
-0.4931528802781377   -0.047179813332300424   -0.020545784678087445
-0.4931528802781377   -0.047179813332300424   -0.020545784678087445
-0.4931528802781377   -0.047179813332300424   -0.020545784678087445
-0.4931528802781377   -0.047179813332300424   -0.020545784678087445
-0.3808603233425641   -0.018520321137855886   -0.007848517040267837
-0.3808603233425641   -0.018520321137855886   -0.007848517040267837
-0.3808603233425641   -0.018520321137855886   -0.007848517040267837
-0.3808603233425641   -0.018520321137855886   -0.007848517040267837
-0.4800875020595292   -0.016641441676578342   0.014242734759233083
-0.4800875020595292   -0.016641441676578342   0.014242734759233083
-0.4800875020595292   -0.016641441676578342   0.014242734759233083
-0.4800875020595292   -0.016641441676578342   0.014242734759233083
-0.2794736932541688   -0.001711361406337264   -0.006882712072240546
-0.2794736932541688   -0.001711361406337264   -0.006882712072240546
-0.2794736932541688   -0.001711361406337264   -0.006882712072240546
-0.2794736932541688   -0.001711361406337264   -0.006882712072240546
-0.2646786097258881   0.04703369780330802   0.01737009349932737
-0.2646786097258881   0.04703369780330802   0.01737009349932737
-0.2646786097258881   0.04703369780330802   0.01737009349932737
-0.2646786097258881   0.04703369780330802   0.01737009349932737
-0.48649177399699683   -0.02843890337166735   -0.024214361873408842
-0.48649177399699683   -0.02843890337166735   -0.024214361873408842
-0.48649177399699683   -0.02843890337166735   -0.024214361873408842
-0.48649177399699683   -0.02843890337166735   -0.024214361873408842
-0.37354150105587464   0.000995160172112819   0.0005371651655108681
-0.37354150105587464   0.000995160172112819   0.0005371651655108681
-0.37354150105587464   0.000995160172112819   0.0005371651655108681
-0.37354150105587464   0.000995160172112819   0.0005371651655108681
-0.47243810055679314   0.004609001107041585   0.0130061008489003
-0.47243810055679314   0.004609001107041585   0.0130061008489003
-0.47243810055679314   0.004609001107041585   0.0130061008489003
-0.47243810055679314   0.004609001107041585   0.0130061008489003
-0.2766496731420318   0.01606840334865954   -0.011519929126739444
-0.2766496731420318   0.01606840334865954   -0.011519929126739444
-0.2766496731420318   0.01606840334865954   -0.011519929126739444
-0.2766496731420318   0.01606840334865954   -0.011519929126739444
-0.26138610403223206   0.06824342265672084   0.013806093076546441
-0.26138610403223206   0.06824342265672084   0.013806093076546441
-0.26138610403223206   0.06824342265672084   0.013806093076546441
-0.26138610403223206   0.06824342265672084   0.013806093076546441
-0.48151490682917497   -0.008219124068077815   -0.02675111500348213
-0.48151490682917497   -0.008219124068077815   -0.02675111500348213
-0.48151490682917497   -0.008219124068077815   -0.02675111500348213
-0.48151490682917497   -0.008219124068077815   -0.02675111500348213
-0.3706945912952023   0.019389085262557837   0.008534030179043466
-0.3706945912952023   0.019389085262557837   0.008534030179043466
-0.3706945912952023   0.019389085262557837   0.008534030179043466
-0.3706945912952023   0.019389085262557837   0.008534030179043466
-0.28838216780085146   -0.05462737641159479   0.0007825165069312786
-0.28838216780085146   -0.05462737641159479   0.0007825165069312786
-0.28838216780085146   -0.05462737641159479   0.0007825165069312786
-0.28838216780085146   -0.05462737641159479   0.0007825165069312786
-0.07553838437498693   -0.006549466664414883   0.0117409368709239
-0.07553838437498693   -0.006549466664414883   0.0117409368709239
-0.07553838437498693   -0.006549466664414883   0.0117409368709239
-0.07553838437498693   -0.006549466664414883   0.0117409368709239
-0.07371873049686423   0.011069726468815867   0.004004573068621772
-0.07371873049686423   0.011069726468815867   0.004004573068621772
-0.07371873049686423   0.011069726468815867   0.004004573068621772
-0.07371873049686423   0.011069726468815867   0.004004573068621772
-0.2852224271783885   -0.031880929499382135   -0.005456813600297247
-0.2852224271783885   -0.031880929499382135   -0.005456813600297247
-0.2852224271783885   -0.031880929499382135   -0.005456813600297247
-0.2852224271783885   -0.031880929499382135   -0.005456813600297247
-0.1810272370750112   -0.01961593040142251   -0.005587329645475472
-0.1810272370750112   -0.01961593040142251   -0.005587329645475472
-0.1810272370750112   -0.01961593040142251   -0.005587329645475472
-0.1810272370750112   -0.01961593040142251   -0.005587329645475472
-0.2847521889987508   -0.03244599190465329   -0.0025405602968374304
-0.2847521889987508   -0.03244599190465329   -0.0025405602968374304
-0.2847521889987508   -0.03244599190465329   -0.0025405602968374304
-0.2847521889987508   -0.03244599190465329   -0.0025405602968374304
-0.07250746787705421   0.013316289673534761   0.007814322962952924
-0.07250746787705421   0.013316289673534761   0.007814322962952924
-0.07250746787705421   0.013316289673534761   0.007814322962952924
-0.07250746787705421   0.013316289673534761   0.007814322962952924
-0.06960283628425944   0.03335117986932373   0.001015236830668365
-0.06960283628425944   0.03335117986932373   0.001015236830668365
-0.06960283628425944   0.03335117986932373   0.001015236830668365
-0.06960283628425944   0.03335117986932373   0.001015236830668365
-0.28181079756452115   -0.01187440603123862   -0.00938274185929129
-0.28181079756452115   -0.01187440603123862   -0.00938274185929129
-0.28181079756452115   -0.01187440603123862   -0.00938274185929129
-0.28181079756452115   -0.01187440603123862   -0.00938274185929129
-0.176629916085368   0.0003950188517413064   0.0023210258420918676
-0.176629916085368   0.0003950188517413064   0.0023210258420918676
-0.176629916085368   0.0003950188517413064   0.0023210258420918676
-0.176629916085368   0.0003950188517413064   0.0023210258420918676
-0.2807594841205473   -0.010236094331833034   -0.005764486338827573
-0.2807594841205473   -0.010236094331833034   -0.005764486338827573
-0.2807594841205473   -0.010236094331833034   -0.005764486338827573
-0.2807594841205473   -0.010236094331833034   -0.005764486338827573
-0.06910147797506962   0.03326553992308319   0.003607668322858616
-0.06910147797506962   0.03326553992308319   0.003607668322858616
-0.06910147797506962   0.03326553992308319   0.003607668322858616
-0.06910147797506962   0.03326553992308319   0.003607668322858616
-0.06590692413479562   0.05595591972226793   -0.0024902244036027615
-0.06590692413479562   0.05595591972226793   -0.0024902244036027615
-0.06590692413479562   0.05595591972226793   -0.0024902244036027615
-0.06590692413479562   0.05595591972226793   -0.0024902244036027615
-0.2788229002648841   0.008361491492540132   -0.013495956922534181
-0.2788229002648841   0.008361491492540132   -0.013495956922534181
-0.2788229002648841   0.008361491492540132   -0.013495956922534181
-0.2788229002648841   0.008361491492540132   -0.013495956922534181
-0.172615864848003   0.020502145657362622   0.009940070606383042
-0.172615864848003   0.020502145657362622   0.009940070606383042
-0.172615864848003   0.020502145657362622   0.009940070606383042
-0.172615864848003   0.020502145657362622   0.009940070606383042
-0.09305933152717064   -0.06694647760267282   -0.015466787951737246
-0.09305933152717064   -0.06694647760267282   -0.015466787951737246
-0.09305933152717064   -0.06694647760267282   -0.015466787951737246
-0.09305933152717064   -0.06694647760267282   -0.015466787951737246
0.1284766115288981   0.010092728313610709   0.025450993948595894
0.1284766115288981   0.010092728313610709   0.025450993948595894
0.1284766115288981   0.010092728313610709   0.025450993948595894
0.1284766115288981   0.010092728313610709   0.025450993948595894
0.11932627824967908   -0.003936137581673542   -0.014322992579742231
0.11932627824967908   -0.003936137581673542   -0.014322992579742231
0.11932627824967908   -0.003936137581673542   -0.014322992579742231
0.11932627824967908   -0.003936137581673542   -0.014322992579742231
-0.07793396735524455   -0.015477998635182445   0.009476113880718484
-0.07793396735524455   -0.015477998635182445   0.009476113880718484
-0.07793396735524455   -0.015477998635182445   0.009476113880718484
-0.07793396735524455   -0.015477998635182445   0.009476113880718484
0.018394191031270404   -0.018536071235603288   -0.003983805827576881
0.018394191031270404   -0.018536071235603288   -0.003983805827576881
0.018394191031270404   -0.018536071235603288   -0.003983805827576881
0.018394191031270404   -0.018536071235603288   -0.003983805827576881
-0.08989044117205852   -0.046726444764814884   -0.019057809073718984
-0.08989044117205852   -0.046726444764814884   -0.019057809073718984
-0.08989044117205852   -0.046726444764814884   -0.019057809073718984
-0.08989044117205852   -0.046726444764814884   -0.019057809073718984
0.133283104832367   0.029312661313832512   0.022212341438189398
0.133283104832367   0.029312661313832512   0.022212341438189398
0.133283104832367   0.029312661313832512   0.022212341438189398
0.133283104832367   0.029312661313832512   0.022212341438189398
0.12699680319011633   0.01714290509741893   -0.016234319411136386
0.12699680319011633   0.01714290509741893   -0.016234319411136386
0.12699680319011633   0.01714290509741893   -0.016234319411136386
0.12699680319011633   0.01714290509741893   -0.016234319411136386
-0.07496496950332789   0.0024134882513827116   0.00514226235326778
-0.07496496950332789   0.0024134882513827116   0.00514226235326778
-0.07496496950332789   0.0024134882513827116   0.00514226235326778
-0.07496496950332789   0.0024134882513827116   0.00514226235326778
0.02248212390221341   -0.00037462921878037275   0.004066704128548438
0.02248212390221341   -0.00037462921878037275   0.004066704128548438
0.02248212390221341   -0.00037462921878037275   0.004066704128548438
0.02248212390221341   -0.00037462921878037275   0.004066704128548438
-0.08650391491014013   -0.026948474938571457   -0.02319050149083954
-0.08650391491014013   -0.026948474938571457   -0.02319050149083954
-0.08650391491014013   -0.026948474938571457   -0.02319050149083954
-0.08650391491014013   -0.026948474938571457   -0.02319050149083954
0.14027106778887363   0.0482401874793178   0.0190397212007494
0.14027106778887363   0.0482401874793178   0.0190397212007494
0.14027106778887363   0.0482401874793178   0.0190397212007494
0.14027106778887363   0.0482401874793178   0.0190397212007494
0.1331785789417485   0.04114565065842586   -0.01877094412135625
0.1331785789417485   0.04114565065842586   -0.01877094412135625
0.1331785789417485   0.04114565065842586   -0.01877094412135625
0.1331785789417485   0.04114565065842586   -0.01877094412135625
-0.07179315357459605   0.023015269084438007   0.0010192790352242936
-0.07179315357459605   0.023015269084438007   0.0010192790352242936
-0.07179315357459605   0.023015269084438007   0.0010192790352242936
-0.07179315357459605   0.023015269084438007   0.0010192790352242936
0.02877055476558962   0.019350410543889574   0.012392972799257924
0.02877055476558962   0.019350410543889574   0.012392972799257924
0.02877055476558962   0.019350410543889574   0.012392972799257924
0.02877055476558962   0.019350410543889574   0.012392972799257924
0.1017225515134112   -0.06764172283713825   -0.03058485497808875
0.1017225515134112   -0.06764172283713825   -0.03058485497808875
0.1017225515134112   -0.06764172283713825   -0.03058485497808875
0.1017225515134112   -0.06764172283713825   -0.03058485497808875
0.30927765668839174   0.030593597127283108   0.03306641441051604
0.30927765668839174   0.030593597127283108   0.03306641441051604
0.30927765668839174   0.030593597127283108   0.03306641441051604
0.30927765668839174   0.030593597127283108   0.03306641441051604
0.30612960171994613   -0.016952536530683848   -0.04027559091010502
0.30612960171994613   -0.016952536530683848   -0.04027559091010502
0.30612960171994613   -0.016952536530683848   -0.04027559091010502
0.30612960171994613   -0.016952536530683848   -0.04027559091010502
0.12905937087684935   0.005714444015808791   0.024691888958625757
0.12905937087684935   0.005714444015808791   0.024691888958625757
0.12905937087684935   0.005714444015808791   0.024691888958625757
0.12905937087684935   0.005714444015808791   0.024691888958625757
0.2005086251787535   -0.014092583284976125   -0.010692093727078064
0.2005086251787535   -0.014092583284976125   -0.010692093727078064
0.2005086251787535   -0.014092583284976125   -0.010692093727078064
0.2005086251787535   -0.014092583284976125   -0.010692093727078064
0.10464633815737595   -0.05627153098813596   -0.035387299634795435
0.10464633815737595   -0.05627153098813596   -0.035387299634795435
0.10464633815737595   -0.05627153098813596   -0.035387299634795435
0.10464633815737595   -0.05627153098813596   -0.035387299634795435
0.3325820477147353   0.047072851748579086   0.027961250784583665
0.3325820477147353   0.047072851748579086   0.027961250784583665
0.3325820477147353   0.047072851748579086   0.027961250784583665
0.3325820477147353   0.047072851748579086   0.027961250784583665
0.32309121967677995   -0.005151386071285319   -0.0483394950632999
0.32309121967677995   -0.005151386071285319   -0.0483394950632999
0.32309121967677995   -0.005151386071285319   -0.0483394950632999
0.32309121967677995   -0.005151386071285319   -0.0483394950632999
0.1335421089448334   0.014361253718291576   0.019273860741574493
0.1335421089448334   0.014361253718291576   0.019273860741574493
0.1335421089448334   0.014361253718291576   0.019273860741574493
0.1335421089448334   0.014361253718291576   0.019273860741574493
0.21758397441842028   -0.0021768148573556995   -0.0012229262980502746
0.21758397441842028   -0.0021768148573556995   -0.0012229262980502746
0.21758397441842028   -0.0021768148573556995   -0.0012229262980502746
0.21758397441842028   -0.0021768148573556995   -0.0012229262980502746
0.10931189532668549   -0.046452118879015625   -0.04106383475185696
0.10931189532668549   -0.046452118879015625   -0.04106383475185696
0.10931189532668549   -0.046452118879015625   -0.04106383475185696
0.10931189532668549   -0.046452118879015625   -0.04106383475185696
0.349449714494941   0.05779026772603612   0.02051132523018962
0.349449714494941   0.05779026772603612   0.02051132523018962
0.349449714494941   0.05779026772603612   0.02051132523018962
0.349449714494941   0.05779026772603612   0.02051132523018962
0.3491689653434988   0.020742133462047334   -0.0517770091890422
0.3491689653434988   0.020742133462047334   -0.0517770091890422
0.3491689653434988   0.020742133462047334   -0.0517770091890422
0.3491689653434988   0.020742133462047334   -0.0517770091890422
0.13812755636135468   0.03179717684643119   0.015322416788668287
0.13812755636135468   0.03179717684643119   0.015322416788668287
0.13812755636135468   0.03179717684643119   0.015322416788668287
0.13812755636135468   0.03179717684643119   0.015322416788668287
0.22619437011420218   0.010928450387114957   0.00695111205002596
0.22619437011420218   0.010928450387114957   0.00695111205002596
0.22619437011420218   0.010928450387114957   0.00695111205002596
0.22619437011420218   0.010928450387114957   0.00695111205002596
-0.41880310210666477   -0.006779955657491316   0.04126423911059072
-0.41880310210666477   -0.006779955657491316   0.04126423911059072
-0.41880310210666477   -0.006779955657491316   0.04126423911059072
-0.41880310210666477   -0.006779955657491316   0.04126423911059072
-0.3277173637688958   -0.04177020651772666   -0.020334466455233267
-0.3277173637688958   -0.04177020651772666   -0.020334466455233267
-0.3277173637688958   -0.04177020651772666   -0.020334466455233267
-0.3277173637688958   -0.04177020651772666   -0.020334466455233267
-0.29659965219582474   0.035304131374867556   0.03526164987981027
-0.29659965219582474   0.035304131374867556   0.03526164987981027
-0.29659965219582474   0.035304131374867556   0.03526164987981027
-0.29659965219582474   0.035304131374867556   0.03526164987981027
-0.4170858630714611   -0.045473561361452836   -0.02770993694533625
-0.4170858630714611   -0.045473561361452836   -0.02770993694533625
-0.4170858630714611   -0.045473561361452836   -0.02770993694533625
-0.4170858630714611   -0.045473561361452836   -0.02770993694533625
-0.3511288351844106   -0.009610849190822474   -0.005332449808339478
-0.3511288351844106   -0.009610849190822474   -0.005332449808339478
-0.3511288351844106   -0.009610849190822474   -0.005332449808339478
-0.3511288351844106   -0.009610849190822474   -0.005332449808339478
-0.3911217032161644   0.017229042823980356   0.03940825814571393
-0.3911217032161644   0.017229042823980356   0.03940825814571393
-0.3911217032161644   0.017229042823980356   0.03940825814571393
-0.3911217032161644   0.017229042823980356   0.03940825814571393
-0.3207504301546356   -0.025585090914079178   -0.024603017625293433
-0.3207504301546356   -0.025585090914079178   -0.024603017625293433
-0.3207504301546356   -0.025585090914079178   -0.024603017625293433
-0.3207504301546356   -0.025585090914079178   -0.024603017625293433
-0.28929707795455484   0.044478512987376276   0.029808060606890185
-0.28929707795455484   0.044478512987376276   0.029808060606890185
-0.28929707795455484   0.044478512987376276   0.029808060606890185
-0.28929707795455484   0.044478512987376276   0.029808060606890185
-0.3978847535862258   -0.03507484738478708   -0.03459366444467767
-0.3978847535862258   -0.03507484738478708   -0.03459366444467767
-0.3978847535862258   -0.03507484738478708   -0.03459366444467767
-0.3978847535862258   -0.03507484738478708   -0.03459366444467767
-0.34108980360073393   0.0023857512231703626   0.002338764004871201
-0.34108980360073393   0.0023857512231703626   0.002338764004871201
-0.34108980360073393   0.0023857512231703626   0.002338764004871201
-0.34108980360073393   0.0023857512231703626   0.002338764004871201
-0.3719149185380042   0.028357887859697575   0.03182277555194607
-0.3719149185380042   0.028357887859697575   0.03182277555194607
-0.3719149185380042   0.028357887859697575   0.03182277555194607
-0.3719149185380042   0.028357887859697575   0.03182277555194607
-0.3135539934610209   -0.017241302715352555   -0.029756701222709882
-0.3135539934610209   -0.017241302715352555   -0.029756701222709882
-0.3135539934610209   -0.017241302715352555   -0.029756701222709882
-0.3135539934610209   -0.017241302715352555   -0.029756701222709882
-0.283399056381055   0.05594716867051164   0.025705313633861665
-0.283399056381055   0.05594716867051164   0.025705313633861665
-0.283399056381055   0.05594716867051164   0.025705313633861665
-0.283399056381055   0.05594716867051164   0.025705313633861665
-0.3720965085827449   -0.01841844326649611   -0.04002347028153136
-0.3720965085827449   -0.01841844326649611   -0.04002347028153136
-0.3720965085827449   -0.01841844326649611   -0.04002347028153136
-0.3720965085827449   -0.01841844326649611   -0.04002347028153136
-0.3208691471145881   0.014238827030044462   0.011836765638637049
-0.3208691471145881   0.014238827030044462   0.011836765638637049
-0.3208691471145881   0.014238827030044462   0.011836765638637049
-0.3208691471145881   0.014238827030044462   0.011836765638637049
-0.3161155760947446   -0.02366114452271252   0.019565409920508363
-0.3161155760947446   -0.02366114452271252   0.019565409920508363
-0.3161155760947446   -0.02366114452271252   0.019565409920508363
-0.3161155760947446   -0.02366114452271252   0.019565409920508363
-0.23300734442736468   -0.031656981975430876   -0.006014564432363795
-0.23300734442736468   -0.031656981975430876   -0.006014564432363795
-0.23300734442736468   -0.031656981975430876   -0.006014564432363795
-0.23300734442736468   -0.031656981975430876   -0.006014564432363795
-0.2156977682788337   0.016026277936537325   0.018029559666797236
-0.2156977682788337   0.016026277936537325   0.018029559666797236
-0.2156977682788337   0.016026277936537325   0.018029559666797236
-0.2156977682788337   0.016026277936537325   0.018029559666797236
-0.3208845169660324   -0.03353723900436793   -0.01732130359198884
-0.3208845169660324   -0.03353723900436793   -0.01732130359198884
-0.3208845169660324   -0.03353723900436793   -0.01732130359198884
-0.3208845169660324   -0.03353723900436793   -0.01732130359198884
-0.2706995386048484   -0.016757347787618587   -0.007346545507366756
-0.2706995386048484   -0.016757347787618587   -0.007346545507366756
-0.2706995386048484   -0.016757347787618587   -0.007346545507366756
-0.2706995386048484   -0.016757347787618587   -0.007346545507366756
-0.3079220945910479   -0.0026948211696287833   0.01664839044818864
-0.3079220945910479   -0.0026948211696287833   0.01664839044818864
-0.3079220945910479   -0.0026948211696287833   0.01664839044818864
-0.3079220945910479   -0.0026948211696287833   0.01664839044818864
-0.22719793161297094   -0.013353880857356809   -0.010091098209994712
-0.22719793161297094   -0.013353880857356809   -0.010091098209994712
-0.22719793161297094   -0.013353880857356809   -0.010091098209994712
-0.22719793161297094   -0.013353880857356809   -0.010091098209994712
-0.20940681383841053   0.03470369609704936   0.014413675311588436
-0.20940681383841053   0.03470369609704936   0.014413675311588436
-0.20940681383841053   0.03470369609704936   0.014413675311588436
-0.20940681383841053   0.03470369609704936   0.014413675311588436
-0.3114242503708028   -0.015607104167715692   -0.020742184319253794
-0.3114242503708028   -0.015607104167715692   -0.020742184319253794
-0.3114242503708028   -0.015607104167715692   -0.020742184319253794
-0.3114242503708028   -0.015607104167715692   -0.020742184319253794
-0.26157530771175685   0.0012243318392305136   0.0007067028701453031
-0.26157530771175685   0.0012243318392305136   0.0007067028701453031
-0.26157530771175685   0.0012243318392305136   0.0007067028701453031
-0.26157530771175685   0.0012243318392305136   0.0007067028701453031
-0.2976998765875695   0.017180720475615405   0.015091859953577612
-0.2976998765875695   0.017180720475615405   0.015091859953577612
-0.2976998765875695   0.017180720475615405   0.015091859953577612
-0.2976998765875695   0.017180720475615405   0.015091859953577612
-0.22144322557908658   0.003603833496274682   -0.014668520791018087
-0.22144322557908658   0.003603833496274682   -0.014668520791018087
-0.22144322557908658   0.003603833496274682   -0.014668520791018087
-0.22144322557908658   0.003603833496274682   -0.014668520791018087
-0.20313486716955026   0.05500101785848807   0.010969554969722566
-0.20313486716955026   0.05500101785848807   0.010969554969722566
-0.20313486716955026   0.05500101785848807   0.010969554969722566
-0.20313486716955026   0.05500101785848807   0.010969554969722566
-0.30363427726482667   0.004000729438264544   -0.023524351552747614
-0.30363427726482667   0.004000729438264544   -0.023524351552747614
-0.30363427726482667   0.004000729438264544   -0.023524351552747614
-0.30363427726482667   0.004000729438264544   -0.023524351552747614
-0.2549857240335627   0.01888102946130684   0.008594290806800287
-0.2549857240335627   0.01888102946130684   0.008594290806800287
-0.2549857240335627   0.01888102946130684   0.008594290806800287
-0.2549857240335627   0.01888102946130684   0.008594290806800287
-0.23269951666987934   -0.039630301684710434   0.0034978940643385597
-0.23269951666987934   -0.039630301684710434   0.0034978940643385597
-0.23269951666987934   -0.039630301684710434   0.0034978940643385597
-0.23269951666987934   -0.039630301684710434   0.0034978940643385597
-0.1395058142959101   -0.01683401020031893   0.008520406175609141
-0.1395058142959101   -0.01683401020031893   0.008520406175609141
-0.1395058142959101   -0.01683401020031893   0.008520406175609141
-0.1395058142959101   -0.01683401020031893   0.008520406175609141
-0.13484432116895606   -0.0004958510504516483   0.0010904726349227206
-0.13484432116895606   -0.0004958510504516483   0.0010904726349227206
-0.13484432116895606   -0.0004958510504516483   0.0010904726349227206
-0.13484432116895606   -0.0004958510504516483   0.0010904726349227206
-0.226510191460321   -0.01801878405019413   -0.0019874942539077033
-0.226510191460321   -0.01801878405019413   -0.0019874942539077033
-0.226510191460321   -0.01801878405019413   -0.0019874942539077033
-0.226510191460321   -0.01801878405019413   -0.0019874942539077033
-0.18368362673650712   -0.0178648399317483   -0.005358559280342877
-0.18368362673650712   -0.0178648399317483   -0.005358559280342877
-0.18368362673650712   -0.0178648399317483   -0.005358559280342877
-0.18368362673650712   -0.0178648399317483   -0.005358559280342877
-0.22622959046716237   -0.018926378420616473   0.0003231050823049031
-0.22622959046716237   -0.018926378420616473   0.0003231050823049031
-0.22622959046716237   -0.018926378420616473   0.0003231050823049031
-0.22622959046716237   -0.018926378420616473   0.0003231050823049031
-0.13367002166708644   0.0018666438149984518   0.004599475278820656
-0.13367002166708644   0.0018666438149984518   0.004599475278820656
-0.13367002166708644   0.0018666438149984518   0.004599475278820656
-0.13367002166708644   0.0018666438149984518   0.004599475278820656
-0.1280031027381698   0.02038965512197501   -0.0018701309195821407
-0.1280031027381698   0.02038965512197501   -0.0018701309195821407
-0.1280031027381698   0.02038965512197501   -0.0018701309195821407
-0.1280031027381698   0.02038965512197501   -0.0018701309195821407
-0.2202067479301262   0.0009498218766773939   -0.005832120926618925
-0.2202067479301262   0.0009498218766773939   -0.005832120926618925
-0.2202067479301262   0.0009498218766773939   -0.005832120926618925
-0.2202067479301262   0.0009498218766773939   -0.005832120926618925
-0.17646314711722869   0.0009000220683939575   0.002457329934590741
-0.17646314711722869   0.0009000220683939575   0.002457329934590741
-0.17646314711722869   0.0009000220683939575   0.002457329934590741
-0.17646314711722869   0.0009000220683939575   0.002457329934590741
-0.2194334793875247   0.001895345590527578   -0.0029113019274644193
-0.2194334793875247   0.001895345590527578   -0.0029113019274644193
-0.2194334793875247   0.001895345590527578   -0.0029113019274644193
-0.2194334793875247   0.001895345590527578   -0.0029113019274644193
-0.12746016440212463   0.020760338286773778   0.00047387759584604193
-0.12746016440212463   0.020760338286773778   0.00047387759584604193
-0.12746016440212463   0.020760338286773778   0.00047387759584604193
-0.12746016440212463   0.020760338286773778   0.00047387759584604193
-0.1215401818892343   0.04146936506589445   -0.0052393074314124495
-0.1215401818892343   0.04146936506589445   -0.0052393074314124495
-0.1215401818892343   0.04146936506589445   -0.0052393074314124495
-0.1215401818892343   0.04146936506589445   -0.0052393074314124495
-0.21430604617558072   0.0200637745063601   -0.00994909670829983
-0.21430604617558072   0.0200637745063601   -0.00994909670829983
-0.21430604617558072   0.0200637745063601   -0.00994909670829983
-0.21430604617558072   0.0200637745063601   -0.00994909670829983
-0.16963835486186882   0.019732663894736463   0.009957989132492805
-0.16963835486186882   0.019732663894736463   0.009957989132492805
-0.16963835486186882   0.019732663894736463   0.009957989132492805
-0.16963835486186882   0.019732663894736463   0.009957989132492805
-0.15108518324082085   -0.05345993264992117   -0.01275051609934452
-0.15108518324082085   -0.05345993264992117   -0.01275051609934452
-0.15108518324082085   -0.05345993264992117   -0.01275051609934452
-0.15108518324082085   -0.05345993264992117   -0.01275051609934452
-0.048812123558487706   -0.0010996697935590537   0.022325420875917844
-0.048812123558487706   -0.0010996697935590537   0.022325420875917844
-0.048812123558487706   -0.0010996697935590537   0.022325420875917844
-0.048812123558487706   -0.0010996697935590537   0.022325420875917844
-0.055253172478421334   -0.016145587644874428   -0.016542626044564638
-0.055253172478421334   -0.016145587644874428   -0.016542626044564638
-0.055253172478421334   -0.016145587644874428   -0.016542626044564638
-0.055253172478421334   -0.016145587644874428   -0.016542626044564638
-0.1328058700616863   -0.0020335999514155094   0.012820477072234198
-0.1328058700616863   -0.0020335999514155094   0.012820477072234198
-0.1328058700616863   -0.0020335999514155094   0.012820477072234198
-0.1328058700616863   -0.0020335999514155094   0.012820477072234198
-0.09695103025389017   -0.01739417302741724   -0.003869560702550073
-0.09695103025389017   -0.01739417302741724   -0.003869560702550073
-0.09695103025389017   -0.01739417302741724   -0.003869560702550073
-0.09695103025389017   -0.01739417302741724   -0.003869560702550073
-0.14499634757778326   -0.03401566628980609   -0.016149844169861056
-0.14499634757778326   -0.03401566628980609   -0.016149844169861056
-0.14499634757778326   -0.03401566628980609   -0.016149844169861056
-0.14499634757778326   -0.03401566628980609   -0.016149844169861056
-0.04143371829887246   0.017465455356970624   0.018943601851335663
-0.04143371829887246   0.017465455356970624   0.018943601851335663
-0.04143371829887246   0.017465455356970624   0.018943601851335663
-0.04143371829887246   0.017465455356970624   0.018943601851335663
-0.045209309815452785   0.003610867674452529   -0.018626500219250552
-0.045209309815452785   0.003610867674452529   -0.018626500219250552
-0.045209309815452785   0.003610867674452529   -0.018626500219250552
-0.045209309815452785   0.003610867674452529   -0.018626500219250552
-0.12699575321930656   0.014996059659443318   0.008560212137265604
-0.12699575321930656   0.014996059659443318   0.008560212137265604
-0.12699575321930656   0.014996059659443318   0.008560212137265604
-0.12699575321930656   0.014996059659443318   0.008560212137265604
-0.08925259035319762   9.659781712395565e-05   0.004100439440708752
-0.08925259035319762   9.659781712395565e-05   0.004100439440708752
-0.08925259035319762   9.659781712395565e-05   0.004100439440708752
-0.08925259035319762   9.659781712395565e-05   0.004100439440708752
-0.1387986513055398   -0.01539445358883881   -0.020063765045620206
-0.1387986513055398   -0.01539445358883881   -0.020063765045620206
-0.1387986513055398   -0.01539445358883881   -0.020063765045620206
-0.1387986513055398   -0.01539445358883881   -0.020063765045620206
-0.03188959468964886   0.035518197962302656   0.016064745121919903
-0.03188959468964886   0.035518197962302656   0.016064745121919903
-0.03188959468964886   0.035518197962302656   0.016064745121919903
-0.03188959468964886   0.035518197962302656   0.016064745121919903
-0.036716887556984254   0.025651546883394126   -0.020875597987606912
-0.036716887556984254   0.025651546883394126   -0.020875597987606912
-0.036716887556984254   0.025651546883394126   -0.020875597987606912
-0.036716887556984254   0.025651546883394126   -0.020875597987606912
-0.1210472683366374   0.03424186353823146   0.004452761859235023
-0.1210472683366374   0.03424186353823146   0.004452761859235023
-0.1210472683366374   0.03424186353823146   0.004452761859235023
-0.1210472683366374   0.03424186353823146   0.004452761859235023
-0.08130335820058611   0.018298209130031634   0.012060878805041043
-0.08130335820058611   0.018298209130031634   0.012060878805041043
-0.08130335820058611   0.018298209130031634   0.012060878805041043
-0.08130335820058611   0.018298209130031634   0.012060878805041043
-0.07010199617006706   -0.057450282268016385   -0.027773329707522554
-0.07010199617006706   -0.057450282268016385   -0.027773329707522554
-0.07010199617006706   -0.057450282268016385   -0.027773329707522554
-0.07010199617006706   -0.057450282268016385   -0.027773329707522554
0.01901219579745392   0.016670921276406476   0.034146095402777216
0.01901219579745392   0.016670921276406476   0.034146095402777216
0.01901219579745392   0.016670921276406476   0.034146095402777216
0.01901219579745392   0.016670921276406476   0.034146095402777216
0.019090363661881875   -0.028578841607248304   -0.03680553194169223
0.019090363661881875   -0.028578841607248304   -0.03680553194169223
0.019090363661881875   -0.028578841607248304   -0.03680553194169223
0.019090363661881875   -0.028578841607248304   -0.03680553194169223
-0.03956822788799801   0.017785312744958627   0.027951196517718938
-0.03956822788799801   0.017785312744958627   0.027951196517718938
-0.03956822788799801   0.017785312744958627   0.027951196517718938
-0.03956822788799801   0.017785312744958627   0.027951196517718938
-0.01848459855022098   -0.012299255902167003   -0.006417054589548473
-0.01848459855022098   -0.012299255902167003   -0.006417054589548473
-0.01848459855022098   -0.012299255902167003   -0.006417054589548473
-0.01848459855022098   -0.012299255902167003   -0.006417054589548473
-0.06394576075124125   -0.04421265926020074   -0.0319384957933389
-0.06394576075124125   -0.04421265926020074   -0.0319384957933389
-0.06394576075124125   -0.04421265926020074   -0.0319384957933389
-0.06394576075124125   -0.04421265926020074   -0.0319384957933389
0.04520788857572306   0.03515912244851012   0.0300441285717553
0.04520788857572306   0.03515912244851012   0.0300441285717553
0.04520788857572306   0.03515912244851012   0.0300441285717553
0.04520788857572306   0.03515912244851012   0.0300441285717553
0.03838439374111092   -0.01727461619035496   -0.043747773597928016
0.03838439374111092   -0.01727461619035496   -0.043747773597928016
0.03838439374111092   -0.01727461619035496   -0.043747773597928016
0.03838439374111092   -0.01727461619035496   -0.043747773597928016
-0.03252231290614611   0.02598880011937424   0.022430551882362038
-0.03252231290614611   0.02598880011937424   0.022430551882362038
-0.03252231290614611   0.02598880011937424   0.022430551882362038
-0.03252231290614611   0.02598880011937424   0.022430551882362038
-0.0026846122203725803   -0.000654188033730028   0.0022039419411835543
-0.0026846122203725803   -0.000654188033730028   0.0022039419411835543
-0.0026846122203725803   -0.000654188033730028   0.0022039419411835543
-0.0026846122203725803   -0.000654188033730028   0.0022039419411835543
-0.05658033424940323   -0.034910131676483915   -0.03696062303806632
-0.05658033424940323   -0.034910131676483915   -0.03696062303806632
-0.05658033424940323   -0.034910131676483915   -0.03696062303806632
-0.05658033424940323   -0.034910131676483915   -0.03696062303806632
0.06418658931046722   0.04536848983160383   0.022620098226896673
0.06418658931046722   0.04536848983160383   0.022620098226896673
0.06418658931046722   0.04536848983160383   0.022620098226896673
0.06418658931046722   0.04536848983160383   0.022620098226896673
0.06548184865643383   0.004828637136634799   -0.04687457405539283
0.06548184865643383   0.004828637136634799   -0.04687457405539283
0.06548184865643383   0.004828637136634799   -0.04687457405539283
0.06548184865643383   0.004828637136634799   -0.04687457405539283
-0.0259448785630738   0.04040495425880454   0.018231039606534907
-0.0259448785630738   0.04040495425880454   0.018231039606534907
-0.0259448785630738   0.04040495425880454   0.018231039606534907
-0.0259448785630738   0.04040495425880454   0.018231039606534907
0.011656020691116143   0.011554872996129409   0.01065339433643156
0.011656020691116143   0.011554872996129409   0.01065339433643156
0.011656020691116143   0.011554872996129409   0.01065339433643156
0.011656020691116143   0.011554872996129409   0.01065339433643156
-0.13710845246526512   0.008223458878838363   0.039024949223961186
-0.13710845246526512   0.008223458878838363   0.039024949223961186
-0.13710845246526512   0.008223458878838363   0.039024949223961186
-0.13710845246526512   0.008223458878838363   0.039024949223961186
-0.16494783114584216   -0.05077558601660564   -0.022907958953368807
-0.16494783114584216   -0.05077558601660564   -0.022907958953368807
-0.16494783114584216   -0.05077558601660564   -0.022907958953368807
-0.16494783114584216   -0.05077558601660564   -0.022907958953368807
-0.13169233839413735   0.023533382237220735   0.0319312563707079
-0.13169233839413735   0.023533382237220735   0.0319312563707079
-0.13169233839413735   0.023533382237220735   0.0319312563707079
-0.13169233839413735   0.023533382237220735   0.0319312563707079
-0.13319767837429486   -0.03313294613487717   -0.029562185545078005
-0.13319767837429486   -0.03313294613487717   -0.029562185545078005
-0.13319767837429486   -0.03313294613487717   -0.029562185545078005
-0.13319767837429486   -0.03313294613487717   -0.029562185545078005
-0.13821595140230658   -0.010620569635760087   -0.010763791410029068
-0.13821595140230658   -0.010620569635760087   -0.010763791410029068
-0.13821595140230658   -0.010620569635760087   -0.010763791410029068
-0.13821595140230658   -0.010620569635760087   -0.010763791410029068
-0.10754187604493906   0.029244999521902328   0.036338880444917565
-0.10754187604493906   0.029244999521902328   0.036338880444917565
-0.10754187604493906   0.029244999521902328   0.036338880444917565
-0.10754187604493906   0.029244999521902328   0.036338880444917565
-0.15572680019448437   -0.03722322289055028   -0.027484447503254045
-0.15572680019448437   -0.03722322289055028   -0.027484447503254045
-0.15572680019448437   -0.03722322289055028   -0.027484447503254045
-0.15572680019448437   -0.03722322289055028   -0.027484447503254045
-0.12152934485583541   0.032486052889250015   0.026855428195132813
-0.12152934485583541   0.032486052889250015   0.026855428195132813
-0.12152934485583541   0.032486052889250015   0.026855428195132813
-0.12152934485583541   0.032486052889250015   0.026855428195132813
-0.11125949087836248   -0.02301526342192297   -0.036791615369731565
-0.11125949087836248   -0.02301526342192297   -0.036791615369731565
-0.11125949087836248   -0.02301526342192297   -0.036791615369731565
-0.11125949087836248   -0.02301526342192297   -0.036791615369731565
-0.12203500076078275   0.0008039061999672789   -0.0023242931623639338
-0.12203500076078275   0.0008039061999672789   -0.0023242931623639338
-0.12203500076078275   0.0008039061999672789   -0.0023242931623639338
-0.12203500076078275   0.0008039061999672789   -0.0023242931623639338
-0.08547002893622652   0.04012909718162461   0.029011333737396845
-0.08547002893622652   0.04012909718162461   0.029011333737396845
-0.08547002893622652   0.04012909718162461   0.029011333737396845
-0.08547002893622652   0.04012909718162461   0.029011333737396845
-0.14579405518866023   -0.02913355610498415   -0.03284851447475504
-0.14579405518866023   -0.02913355610498415   -0.03284851447475504
-0.14579405518866023   -0.02913355610498415   -0.03284851447475504
-0.14579405518866023   -0.02913355610498415   -0.03284851447475504
-0.11224541568744435   0.04619492119154728   0.023192259113385013
-0.11224541568744435   0.04619492119154728   0.023192259113385013
-0.11224541568744435   0.04619492119154728   0.023192259113385013
-0.11224541568744435   0.04619492119154728   0.023192259113385013
-0.08196918454983074   -0.00378637128516196   -0.041436372684026175
-0.08196918454983074   -0.00378637128516196   -0.041436372684026175
-0.08196918454983074   -0.00378637128516196   -0.041436372684026175
-0.08196918454983074   -0.00378637128516196   -0.041436372684026175
-0.10262167894282569   0.01276409289524064   0.006694961437040155
-0.10262167894282569   0.01276409289524064   0.006694961437040155
-0.10262167894282569   0.01276409289524064   0.006694961437040155
-0.10262167894282569   0.01276409289524064   0.006694961437040155
-0.14753723366910554   -0.008905132045471113   0.022274574459175894
-0.14753723366910554   -0.008905132045471113   0.022274574459175894
-0.14753723366910554   -0.008905132045471113   0.022274574459175894
-0.14753723366910554   -0.008905132045471113   0.022274574459175894
-0.184452083820536   -0.041425956372821024   -0.00894732394145888
-0.184452083820536   -0.041425956372821024   -0.00894732394145888
-0.184452083820536   -0.041425956372821024   -0.00894732394145888
-0.184452083820536   -0.041425956372821024   -0.00894732394145888
-0.16462182632803674   0.004144111414732823   0.014822757865534544
-0.16462182632803674   0.004144111414732823   0.014822757865534544
-0.16462182632803674   0.004144111414732823   0.014822757865534544
-0.16462182632803674   0.004144111414732823   0.014822757865534544
-0.1493611182503696   -0.019369801251895975   -0.013509459421332743
-0.1493611182503696   -0.019369801251895975   -0.013509459421332743
-0.1493611182503696   -0.019369801251895975   -0.013509459421332743
-0.1493611182503696   -0.019369801251895975   -0.013509459421332743
-0.16162933838396787   -0.015121296749675796   -0.0075303985824790145
-0.16162933838396787   -0.015121296749675796   -0.0075303985824790145
-0.16162933838396787   -0.015121296749675796   -0.0075303985824790145
-0.16162933838396787   -0.015121296749675796   -0.0075303985824790145
-0.13677029243533548   0.010637366917131026   0.019437501484809005
-0.13677029243533548   0.010637366917131026   0.019437501484809005
-0.13677029243533548   0.010637366917131026   0.019437501484809005
-0.13677029243533548   0.010637366917131026   0.019437501484809005
-0.17594121076384767   -0.024591615375069105   -0.013038437523720308
-0.17594121076384767   -0.024591615375069105   -0.013038437523720308
-0.17594121076384767   -0.024591615375069105   -0.013038437523720308
-0.17594121076384767   -0.024591615375069105   -0.013038437523720308
-0.15555502649789346   0.021975863820432658   0.011303431748578676
-0.15555502649789346   0.021975863820432658   0.011303431748578676
-0.15555502649789346   0.021975863820432658   0.011303431748578676
-0.15555502649789346   0.021975863820432658   0.011303431748578676
-0.13719470566994935   -0.002209949138288203   -0.016775373847894626
-0.13719470566994935   -0.002209949138288203   -0.016775373847894626
-0.13719470566994935   -0.002209949138288203   -0.016775373847894626
-0.13719470566994935   -0.002209949138288203   -0.016775373847894626
-0.15077876464195503   0.0014943651635015848   0.00025144303115745906
-0.15077876464195503   0.0014943651635015848   0.00025144303115745906
-0.15077876464195503   0.0014943651635015848   0.00025144303115745906
-0.15077876464195503   0.0014943651635015848   0.00025144303115745906
-0.12398945097444024   0.029530402228068665   0.017510548263290113
-0.12398945097444024   0.029530402228068665   0.017510548263290113
-0.12398945097444024   0.029530402228068665   0.017510548263290113
-0.12398945097444024   0.029530402228068665   0.017510548263290113
-0.16740450481397356   -0.00840871116649379   -0.01755938484489831
-0.16740450481397356   -0.00840871116649379   -0.01755938484489831
-0.16740450481397356   -0.00840871116649379   -0.01755938484489831
-0.16740450481397356   -0.00840871116649379   -0.01755938484489831
-0.14644196598589895   0.041735682177367214   0.007958100863837945
-0.14644196598589895   0.041735682177367214   0.007958100863837945
-0.14644196598589895   0.041735682177367214   0.007958100863837945
-0.14644196598589895   0.041735682177367214   0.007958100863837945
-0.12671794035088407   0.01685928106161553   -0.01983472407387988
-0.12671794035088407   0.01685928106161553   -0.01983472407387988
-0.12671794035088407   0.01685928106161553   -0.01983472407387988
-0.12671794035088407   0.01685928106161553   -0.01983472407387988
-0.14051786048908024   0.018679830367067378   0.008181114385413706
-0.14051786048908024   0.018679830367067378   0.008181114385413706
-0.14051786048908024   0.018679830367067378   0.008181114385413706
-0.14051786048908024   0.018679830367067378   0.008181114385413706
-0.17811898298854997   -0.0250019003373664   0.006294124183011661
-0.17811898298854997   -0.0250019003373664   0.006294124183011661
-0.17811898298854997   -0.0250019003373664   0.006294124183011661
-0.17811898298854997   -0.0250019003373664   0.006294124183011661
-0.20382797647165263   -0.026300304676346573   0.005395546385917089
-0.20382797647165263   -0.026300304676346573   0.005395546385917089
-0.20382797647165263   -0.026300304676346573   0.005395546385917089
-0.20382797647165263   -0.026300304676346573   0.005395546385917089
-0.19658800909511412   -0.012023640495005074   -0.0019339588431692804
-0.19658800909511412   -0.012023640495005074   -0.0019339588431692804
-0.19658800909511412   -0.012023640495005074   -0.0019339588431692804
-0.19658800909511412   -0.012023640495005074   -0.0019339588431692804
-0.16875847093130697   -0.0034941197058637255   0.0017777659697779963
-0.16875847093130697   -0.0034941197058637255   0.0017777659697779963
-0.16875847093130697   -0.0034941197058637255   0.0017777659697779963
-0.16875847093130697   -0.0034941197058637255   0.0017777659697779963
-0.18710394552207577   -0.015758810024800434   -0.005011463878409262
-0.18710394552207577   -0.015758810024800434   -0.005011463878409262
-0.18710394552207577   -0.015758810024800434   -0.005011463878409262
-0.18710394552207577   -0.015758810024800434   -0.005011463878409262
-0.16887799537767753   -0.005464700980395722   0.0031507250124561863
-0.16887799537767753   -0.005464700980395722   0.0031507250124561863
-0.16887799537767753   -0.005464700980395722   0.0031507250124561863
-0.16887799537767753   -0.005464700980395722   0.0031507250124561863
-0.195267901783328   -0.00885247635505991   0.0014954135758181112
-0.195267901783328   -0.00885247635505991   0.0014954135758181112
-0.195267901783328   -0.00885247635505991   0.0014954135758181112
-0.195267901783328   -0.00885247635505991   0.0014954135758181112
-0.187055699633915   0.0077669353184765325   -0.00489760201384982
-0.187055699633915   0.0077669353184765325   -0.00489760201384982
-0.187055699633915   0.0077669353184765325   -0.00489760201384982
-0.187055699633915   0.0077669353184765325   -0.00489760201384982
-0.1597220019634808   0.014433909108089678   -0.0019894908670151784
-0.1597220019634808   0.014433909108089678   -0.0019894908670151784
-0.1597220019634808   0.014433909108089678   -0.0019894908670151784
-0.1597220019634808   0.014433909108089678   -0.0019894908670151784
-0.1771404828016001   0.0019205966125734192   0.002678159150910752
-0.1771404828016001   0.0019205966125734192   0.002678159150910752
-0.1771404828016001   0.0019205966125734192   0.002678159150910752
-0.1771404828016001   0.0019205966125734192   0.002678159150910752
-0.15938516365922498   0.014255237390543012   -0.00012662762819210145
-0.15938516365922498   0.014255237390543012   -0.00012662762819210145
-0.15938516365922498   0.014255237390543012   -0.00012662762819210145
-0.15938516365922498   0.014255237390543012   -0.00012662762819210145
-0.18634408816016929   0.008994056814021718   -0.0025666661406665014
-0.18634408816016929   0.008994056814021718   -0.0025666661406665014
-0.18634408816016929   0.008994056814021718   -0.0025666661406665014
-0.18634408816016929   0.008994056814021718   -0.0025666661406665014
-0.17792742060802236   0.027682281980202172   -0.008235184906647822
-0.17792742060802236   0.027682281980202172   -0.008235184906647822
-0.17792742060802236   0.027682281980202172   -0.008235184906647822
-0.17792742060802236   0.027682281980202172   -0.008235184906647822
-0.15112039328896168   0.03243538902707391   -0.006133742501182388
-0.15112039328896168   0.03243538902707391   -0.006133742501182388
-0.15112039328896168   0.03243538902707391   -0.006133742501182388
-0.15112039328896168   0.03243538902707391   -0.006133742501182388
-0.16764423444457793   0.019633414012458772   0.010007181902695452
-0.16764423444457793   0.019633414012458772   0.010007181902695452
-0.16764423444457793   0.019633414012458772   0.010007181902695452
-0.16764423444457793   0.019633414012458772   0.010007181902695452
-0.20961168262123728   -0.03974110299080316   -0.010082186047553135
-0.20961168262123728   -0.03974110299080316   -0.010082186047553135
-0.20961168262123728   -0.03974110299080316   -0.010082186047553135
-0.20961168262123728   -0.03974110299080316   -0.010082186047553135
-0.224934614666651   -0.011480822647798261   0.019086854462635472
-0.224934614666651   -0.011480822647798261   0.019086854462635472
-0.224934614666651   -0.011480822647798261   0.019086854462635472
-0.224934614666651   -0.011480822647798261   0.019086854462635472
-0.22864727984232405   -0.027552408965018153   -0.018932158215141246
-0.22864727984232405   -0.027552408965018153   -0.018932158215141246
-0.22864727984232405   -0.027552408965018153   -0.018932158215141246
-0.22864727984232405   -0.027552408965018153   -0.018932158215141246
-0.1881912975605129   0.01186917935951462   0.016156778975317275
-0.1881912975605129   0.01186917935951462   0.016156778975317275
-0.1881912975605129   0.01186917935951462   0.016156778975317275
-0.1881912975605129   0.01186917935951462   0.016156778975317275
-0.21194842200167574   -0.015653087805216636   -0.003155424766054584
-0.21194842200167574   -0.015653087805216636   -0.003155424766054584
-0.21194842200167574   -0.015653087805216636   -0.003155424766054584
-0.21194842200167574   -0.015653087805216636   -0.003155424766054584
-0.2006284242817222   -0.020828451053424756   -0.013331224217791515
-0.2006284242817222   -0.020828451053424756   -0.013331224217791515
-0.2006284242817222   -0.020828451053424756   -0.013331224217791515
-0.2006284242817222   -0.020828451053424756   -0.013331224217791515
-0.2149516311193284   0.006403743449709856   0.015589932985109002
-0.2149516311193284   0.006403743449709856   0.015589932985109002
-0.2149516311193284   0.006403743449709856   0.015589932985109002
-0.2149516311193284   0.006403743449709856   0.015589932985109002
-0.21611344787394232   -0.008788134089532669   -0.021243061952978586
-0.21611344787394232   -0.008788134089532669   -0.021243061952978586
-0.21611344787394232   -0.008788134089532669   -0.021243061952978586
-0.21611344787394232   -0.008788134089532669   -0.021243061952978586
-0.17962213137040065   0.028035093077317906   0.012002081544879147
-0.17962213137040065   0.028035093077317906   0.012002081544879147
-0.17962213137040065   0.028035093077317906   0.012002081544879147
-0.17962213137040065   0.028035093077317906   0.012002081544879147
-0.2005987644022422   0.0013821704407206634   0.0047868980062328245
-0.2005987644022422   0.0013821704407206634   0.0047868980062328245
-0.2005987644022422   0.0013821704407206634   0.0047868980062328245
-0.2005987644022422   0.0013821704407206634   0.0047868980062328245
-0.19167257069016488   -0.0030786255479248736   -0.01713639642870174
-0.19167257069016488   -0.0030786255479248736   -0.01713639642870174
-0.19167257069016488   -0.0030786255479248736   -0.01713639642870174
-0.19167257069016488   -0.0030786255479248736   -0.01713639642870174
-0.20279122433504165   0.02359736875484389   0.012982552897150078
-0.20279122433504165   0.02359736875484389   0.012982552897150078
-0.20279122433504165   0.02359736875484389   0.012982552897150078
-0.20279122433504165   0.02359736875484389   0.012982552897150078
-0.20515143303029243   0.011866901874913016   -0.023317881763686737
-0.20515143303029243   0.011866901874913016   -0.023317881763686737
-0.20515143303029243   0.011866901874913016   -0.023317881763686737
-0.20515143303029243   0.011866901874913016   -0.023317881763686737
-0.17102981667008427   0.04603144997391549   0.007903666789329262
-0.17102981667008427   0.04603144997391549   0.007903666789329262
-0.17102981667008427   0.04603144997391549   0.007903666789329262
-0.17102981667008427   0.04603144997391549   0.007903666789329262
-0.19099802359771872   0.01826000319821059   0.012371824313082374
-0.19099802359771872   0.01826000319821059   0.012371824313082374
-0.19099802359771872   0.01826000319821059   0.012371824313082374
-0.19099802359771872   0.01826000319821059   0.012371824313082374
-0.2409656226488289   -0.04721971926051396   -0.025329288835542144
-0.2409656226488289   -0.04721971926051396   -0.025329288835542144
-0.2409656226488289   -0.04721971926051396   -0.025329288835542144
-0.2409656226488289   -0.04721971926051396   -0.025329288835542144
-0.26783463195948354   0.0033334738227236912   0.03446426438624443
-0.26783463195948354   0.0033334738227236912   0.03446426438624443
-0.26783463195948354   0.0033334738227236912   0.03446426438624443
-0.26783463195948354   0.0033334738227236912   0.03446426438624443
-0.2644307501015711   -0.03953413188308498   -0.03378350440892608
-0.2644307501015711   -0.03953413188308498   -0.03378350440892608
-0.2644307501015711   -0.03953413188308498   -0.03378350440892608
-0.2644307501015711   -0.03953413188308498   -0.03378350440892608
-0.20721098881193642   0.029807619840533213   0.030889268131244683
-0.20721098881193642   0.029807619840533213   0.030889268131244683
-0.20721098881193642   0.029807619840533213   0.030889268131244683
-0.20721098881193642   0.029807619840533213   0.030889268131244683
-0.2352600166708197   -0.010246116017552806   -0.0014565185924793021
-0.2352600166708197   -0.010246116017552806   -0.0014565185924793021
-0.2352600166708197   -0.010246116017552806   -0.0014565185924793021
-0.2352600166708197   -0.010246116017552806   -0.0014565185924793021
-0.23154319226845496   -0.03199395441403597   -0.028970174896781775
-0.23154319226845496   -0.03199395441403597   -0.028970174896781775
-0.23154319226845496   -0.03199395441403597   -0.028970174896781775
-0.23154319226845496   -0.03199395441403597   -0.028970174896781775
-0.238768839159363   0.0235971498571732   0.031394768561855926
-0.238768839159363   0.0235971498571732   0.031394768561855926
-0.238768839159363   0.0235971498571732   0.031394768561855926
-0.238768839159363   0.0235971498571732   0.031394768561855926
-0.24269872390181954   -0.028589995978045728   -0.040287017609064384
-0.24269872390181954   -0.028589995978045728   -0.040287017609064384
-0.24269872390181954   -0.028589995978045728   -0.040287017609064384
-0.24269872390181954   -0.028589995978045728   -0.040287017609064384
-0.1975450578957836   0.03751687909033863   0.025293874757943716
-0.1975450578957836   0.03751687909033863   0.025293874757943716
-0.1975450578957836   0.03751687909033863   0.025293874757943716
-0.1975450578957836   0.03751687909033863   0.025293874757943716
-0.22064075563543584   0.0012048859828795652   0.00615100748892387
-0.22064075563543584   0.0012048859828795652   0.00615100748892387
-0.22064075563543584   0.0012048859828795652   0.00615100748892387
-0.22064075563543584   0.0012048859828795652   0.00615100748892387
-0.22141184940839992   -0.02298321525042414   -0.03353998846437605
-0.22141184940839992   -0.02298321525042414   -0.03353998846437605
-0.22141184940839992   -0.02298321525042414   -0.03353998846437605
-0.22141184940839992   -0.02298321525042414   -0.03353998846437605
-0.21743718509841026   0.03330484565351237   0.02412583477642375
-0.21743718509841026   0.03330484565351237   0.02412583477642375
-0.21743718509841026   0.03330484565351237   0.02412583477642375
-0.21743718509841026   0.03330484565351237   0.02412583477642375
-0.21411116528113647   -0.009684522018399866   -0.044050055061424426
-0.21411116528113647   -0.009684522018399866   -0.044050055061424426
-0.21411116528113647   -0.009684522018399866   -0.044050055061424426
-0.21411116528113647   -0.009684522018399866   -0.044050055061424426
-0.18890155540190526   0.04896449610029329   0.020833912152866858
-0.18890155540190526   0.04896449610029329   0.020833912152866858
-0.18890155540190526   0.04896449610029329   0.020833912152866858
-0.18890155540190526   0.04896449610029329   0.020833912152866858
-0.20045900352528215   0.012622377204881859   0.014981401278780416
-0.20045900352528215   0.012622377204881859   0.014981401278780416
-0.20045900352528215   0.012622377204881859   0.014981401278780416
-0.20045900352528215   0.012622377204881859   0.014981401278780416
0.14606055893130762   0.0235321812688591   0.03762248739678974
0.14606055893130762   0.0235321812688591   0.03762248739678974
0.14606055893130762   0.0235321812688591   0.03762248739678974
0.14606055893130762   0.0235321812688591   0.03762248739678974
-0.0029888054442063303   -0.06037784620211717   -0.024774973902899268
-0.0029888054442063303   -0.06037784620211717   -0.024774973902899268
-0.0029888054442063303   -0.06037784620211717   -0.024774973902899268
-0.0029888054442063303   -0.06037784620211717   -0.024774973902899268
0.032347785117553075   0.011697749971910719   0.02904583149701352
0.032347785117553075   0.011697749971910719   0.02904583149701352
0.032347785117553075   0.011697749971910719   0.02904583149701352
0.032347785117553075   0.011697749971910719   0.02904583149701352
0.1521406460428423   -0.020877165524832927   -0.031046962595138346
0.1521406460428423   -0.020877165524832927   -0.031046962595138346
0.1521406460428423   -0.020877165524832927   -0.031046962595138346
0.1521406460428423   -0.020877165524832927   -0.031046962595138346
0.07458997811564401   -0.01162578234378134   -0.017975101642494867
0.07458997811564401   -0.01162578234378134   -0.017975101642494867
0.07458997811564401   -0.01162578234378134   -0.017975101642494867
0.07458997811564401   -0.01162578234378134   -0.017975101642494867
0.17766229133518588   0.04174025382031991   0.03394384452142668
0.17766229133518588   0.04174025382031991   0.03394384452142668
0.17766229133518588   0.04174025382031991   0.03394384452142668
0.17766229133518588   0.04174025382031991   0.03394384452142668
0.008409484440178078   -0.04933632475827354   -0.029611597159677212
0.008409484440178078   -0.04933632475827354   -0.029611597159677212
0.008409484440178078   -0.04933632475827354   -0.029611597159677212
0.008409484440178078   -0.04933632475827354   -0.029611597159677212
0.04512890871512256   0.020465632647995575   0.024224465386376126
0.04512890871512256   0.020465632647995575   0.024224465386376126
0.04512890871512256   0.020465632647995575   0.024224465386376126
0.04512890871512256   0.020465632647995575   0.024224465386376126
0.17676552630868483   -0.01097599725164708   -0.03880011411527538
0.17676552630868483   -0.01097599725164708   -0.03880011411527538
0.17676552630868483   -0.01097599725164708   -0.03880011411527538
0.17676552630868483   -0.01097599725164708   -0.03880011411527538
0.09682790400569082   -0.0007107320569523651   -0.008494486100176096
0.09682790400569082   -0.0007107320569523651   -0.008494486100176096
0.09682790400569082   -0.0007107320569523651   -0.008494486100176096
0.09682790400569082   -0.0007107320569523651   -0.008494486100176096
0.20255352517748484   0.05244869954884029   0.026715183428237404
0.20255352517748484   0.05244869954884029   0.026715183428237404
0.20255352517748484   0.05244869954884029   0.026715183428237404
0.20255352517748484   0.05244869954884029   0.026715183428237404
0.020883660407203537   -0.04141631359161047   -0.035119829913611025
0.020883660407203537   -0.04141631359161047   -0.035119829913611025
0.020883660407203537   -0.04141631359161047   -0.035119829913611025
0.020883660407203537   -0.04141631359161047   -0.035119829913611025
0.057526732138565406   0.03659224732464572   0.020960803676616055
0.057526732138565406   0.03659224732464572   0.020960803676616055
0.057526732138565406   0.03659224732464572   0.020960803676616055
0.057526732138565406   0.03659224732464572   0.020960803676616055
0.20947037912762556   0.011176003389682762   -0.042776906585407934
0.20947037912762556   0.011176003389682762   -0.042776906585407934
0.20947037912762556   0.011176003389682762   -0.042776906585407934
0.20947037912762556   0.011176003389682762   -0.042776906585407934
0.11541510950317656   0.011544229807727808   0.00045089838184347864
0.11541510950317656   0.011544229807727808   0.00045089838184347864
0.11541510950317656   0.011544229807727808   0.00045089838184347864
0.11541510950317656   0.011544229807727808   0.00045089838184347864
0.020460467768300968   0.006470606603949238   0.025622939353570802
0.020460467768300968   0.006470606603949238   0.025622939353570802
0.020460467768300968   0.006470606603949238   0.025622939353570802
0.020460467768300968   0.006470606603949238   0.025622939353570802
-0.13753455951662982   -0.05130084242950049   -0.01137302723275258
-0.13753455951662982   -0.05130084242950049   -0.01137302723275258
-0.13753455951662982   -0.05130084242950049   -0.01137302723275258
-0.13753455951662982   -0.05130084242950049   -0.01137302723275258
-0.11529644933232855   -0.007522059101949925   0.011664582410356438
-0.11529644933232855   -0.007522059101949925   0.011664582410356438
-0.11529644933232855   -0.007522059101949925   0.011664582410356438
-0.11529644933232855   -0.007522059101949925   0.011664582410356438
0.021266251143204074   -0.005679745881522529   -0.008984342521298259
0.021266251143204074   -0.005679745881522529   -0.008984342521298259
0.021266251143204074   -0.005679745881522529   -0.008984342521298259
0.021266251143204074   -0.005679745881522529   -0.008984342521298259
-0.05392199697808438   -0.013194977744987117   -0.008618756698227651
-0.05392199697808438   -0.013194977744987117   -0.008618756698227651
-0.05392199697808438   -0.013194977744987117   -0.008618756698227651
-0.05392199697808438   -0.013194977744987117   -0.008618756698227651
0.03364059630313053   0.024478300852027422   0.02272933654478409
0.03364059630313053   0.024478300852027422   0.02272933654478409
0.03364059630313053   0.024478300852027422   0.02272933654478409
0.03364059630313053   0.024478300852027422   0.02272933654478409
-0.12651402873139125   -0.03652334007463611   -0.015422033612270859
-0.12651402873139125   -0.03652334007463611   -0.015422033612270859
-0.12651402873139125   -0.03652334007463611   -0.015422033612270859
-0.12651402873139125   -0.03652334007463611   -0.015422033612270859
-0.10364998746832196   0.009501765951766591   0.008238483400751975
-0.10364998746832196   0.009501765951766591   0.008238483400751975
-0.10364998746832196   0.009501765951766591   0.008238483400751975
-0.10364998746832196   0.009501765951766591   0.008238483400751975
0.03584832539002951   0.010453121189132534   -0.012165939780226093
0.03584832539002951   0.010453121189132534   -0.012165939780226093
0.03584832539002951   0.010453121189132534   -0.012165939780226093
0.03584832539002951   0.010453121189132534   -0.012165939780226093
-0.041573224248339286   0.001805547118416911   -0.0010667188100428626
-0.041573224248339286   0.001805547118416911   -0.0010667188100428626
-0.041573224248339286   0.001805547118416911   -0.0010667188100428626
-0.041573224248339286   0.001805547118416911   -0.0010667188100428626
0.04874573082840203   0.042406712209262336   0.0203674963915067
0.04874573082840203   0.042406712209262336   0.0203674963915067
0.04874573082840203   0.042406712209262336   0.0203674963915067
0.04874573082840203   0.042406712209262336   0.0203674963915067
-0.11543250712488917   -0.021336939286555334   -0.019835409643762104
-0.11543250712488917   -0.021336939286555334   -0.019835409643762104
-0.11543250712488917   -0.021336939286555334   -0.019835409643762104
-0.11543250712488917   -0.021336939286555334   -0.019835409643762104
-0.09193066729068283   0.028778234861503625   0.004972771865359323
-0.09193066729068283   0.028778234861503625   0.004972771865359323
-0.09193066729068283   0.028778234861503625   0.004972771865359323
-0.09193066729068283   0.028778234861503625   0.004972771865359323
0.048665261843520505   0.02877162202838565   -0.015525922502348403
0.048665261843520505   0.02877162202838565   -0.015525922502348403
0.048665261843520505   0.02877162202838565   -0.015525922502348403
0.048665261843520505   0.02877162202838565   -0.015525922502348403
-0.02789082294796649   0.018392742869712382   0.006993995007538638
-0.02789082294796649   0.018392742869712382   0.006993995007538638
-0.02789082294796649   0.018392742869712382   0.006993995007538638
-0.02789082294796649   0.018392742869712382   0.006993995007538638
-0.1251068546940849   -0.009785215589934811   0.00924987004040819
-0.1251068546940849   -0.009785215589934811   0.00924987004040819
-0.1251068546940849   -0.009785215589934811   0.00924987004040819
-0.1251068546940849   -0.009785215589934811   0.00924987004040819
-0.2696236292053469   -0.03659556603729075   0.002325507192997135
-0.2696236292053469   -0.03659556603729075   0.002325507192997135
-0.2696236292053469   -0.03659556603729075   0.002325507192997135
-0.2696236292053469   -0.03659556603729075   0.002325507192997135
-0.25945419312327717   -0.02300285889587611   -0.005070207788313725
-0.25945419312327717   -0.02300285889587611   -0.005070207788313725
-0.25945419312327717   -0.02300285889587611   -0.005070207788313725
-0.25945419312327717   -0.02300285889587611   -0.005070207788313725
-0.11307041715345464   0.009577262064161231   0.0056954221386148005
-0.11307041715345464   0.009577262064161231   0.0056954221386148005
-0.11307041715345464   0.009577262064161231   0.0056954221386148005
-0.11307041715345464   0.009577262064161231   0.0056954221386148005
-0.19209298956785836   -0.013736022467234758   -0.005036620732480325
-0.19209298956785836   -0.013736022467234758   -0.005036620732480325
-0.19209298956785836   -0.013736022467234758   -0.005036620732480325
-0.19209298956785836   -0.013736022467234758   -0.005036620732480325
-0.11320268527375953   0.008486460793283739   0.006124882807967894
-0.11320268527375953   0.008486460793283739   0.006124882807967894
-0.11320268527375953   0.008486460793283739   0.006124882807967894
-0.11320268527375953   0.008486460793283739   0.006124882807967894
-0.2583259739555017   -0.020916106577525496   -0.0015158642677871124
-0.2583259739555017   -0.020916106577525496   -0.0015158642677871124
-0.2583259739555017   -0.020916106577525496   -0.0015158642677871124
-0.2583259739555017   -0.020916106577525496   -0.0015158642677871124
-0.24720106983535972   -0.004258490880831585   -0.007972422939742575
-0.24720106983535972   -0.004258490880831585   -0.007972422939742575
-0.24720106983535972   -0.004258490880831585   -0.007972422939742575
-0.24720106983535972   -0.004258490880831585   -0.007972422939742575
-0.1015405682525389   0.02617501577750743   0.0021123296539283173
-0.1015405682525389   0.02617501577750743   0.0021123296539283173
-0.1015405682525389   0.02617501577750743   0.0021123296539283173
-0.1015405682525389   0.02617501577750743   0.0021123296539283173
-0.1794369628242019   0.002719183517108696   0.0025783376985649455
-0.1794369628242019   0.002719183517108696   0.0025783376985649455
-0.1794369628242019   0.002719183517108696   0.0025783376985649455
-0.1794369628242019   0.002719183517108696   0.0025783376985649455
-0.10122574536942228   0.02708612547475684   0.002775334372262076
-0.10122574536942228   0.02708612547475684   0.002775334372262076
-0.10122574536942228   0.02708612547475684   0.002775334372262076
-0.10122574536942228   0.02708612547475684   0.002775334372262076
-0.24671716359863052   -0.004370871458238022   -0.005440511178692048
-0.24671716359863052   -0.004370871458238022   -0.005440511178692048
-0.24671716359863052   -0.004370871458238022   -0.005440511178692048
-0.24671716359863052   -0.004370871458238022   -0.005440511178692048
-0.23544092408916728   0.014542773363974144   -0.01127629001647561
-0.23544092408916728   0.014542773363974144   -0.01127629001647561
-0.23544092408916728   0.014542773363974144   -0.01127629001647561
-0.23544092408916728   0.014542773363974144   -0.01127629001647561
-0.09052084969951736   0.042821487486724055   -0.0020213928040318657
-0.09052084969951736   0.042821487486724055   -0.0020213928040318657
-0.09052084969951736   0.042821487486724055   -0.0020213928040318657
-0.09052084969951736   0.042821487486724055   -0.0020213928040318657
-0.16744772101944927   0.019131686908551847   0.009696399153527551
-0.16744772101944927   0.019131686908551847   0.009696399153527551
-0.16744772101944927   0.019131686908551847   0.009696399153527551
-0.16744772101944927   0.019131686908551847   0.009696399153527551
-0.2694357049270646   -0.02572041590248674   -0.007610021550393337
-0.2694357049270646   -0.02572041590248674   -0.007610021550393337
-0.2694357049270646   -0.02572041590248674   -0.007610021550393337
-0.2694357049270646   -0.02572041590248674   -0.007610021550393337
-0.40055147005236375   -0.022767657533927114   0.015758421409912682
-0.40055147005236375   -0.022767657533927114   0.015758421409912682
-0.40055147005236375   -0.022767657533927114   0.015758421409912682
-0.40055147005236375   -0.022767657533927114   0.015758421409912682
-0.40085001300795675   -0.03818117881276126   -0.021436296438618274
-0.40085001300795675   -0.03818117881276126   -0.021436296438618274
-0.40085001300795675   -0.03818117881276126   -0.021436296438618274
-0.40085001300795675   -0.03818117881276126   -0.021436296438618274
-0.24512533767214817   0.024189109886966757   0.019382100684488382
-0.24512533767214817   0.024189109886966757   0.019382100684488382
-0.24512533767214817   0.024189109886966757   0.019382100684488382
-0.24512533767214817   0.024189109886966757   0.019382100684488382
-0.32714278706997374   -0.014035507768535023   -0.0021352673015489643
-0.32714278706997374   -0.014035507768535023   -0.0021352673015489643
-0.32714278706997374   -0.014035507768535023   -0.0021352673015489643
-0.32714278706997374   -0.014035507768535023   -0.0021352673015489643
-0.25743409635158576   -0.0073377106324247   -0.01063487219330641
-0.25743409635158576   -0.0073377106324247   -0.01063487219330641
-0.25743409635158576   -0.0073377106324247   -0.01063487219330641
-0.25743409635158576   -0.0073377106324247   -0.01063487219330641
-0.38771308299553864   -0.005826186960388391   0.011893361771103103
-0.38771308299553864   -0.005826186960388391   0.011893361771103103
-0.38771308299553864   -0.005826186960388391   0.011893361771103103
-0.38771308299553864   -0.005826186960388391   0.011893361771103103
-0.385462905365284   -0.02030426264733272   -0.02385392308349063
-0.385462905365284   -0.02030426264733272   -0.02385392308349063
-0.385462905365284   -0.02030426264733272   -0.02385392308349063
-0.385462905365284   -0.02030426264733272   -0.02385392308349063
-0.23381139197035486   0.03928933504975253   0.015428140454697866
-0.23381139197035486   0.03928933504975253   0.015428140454697866
-0.23381139197035486   0.03928933504975253   0.015428140454697866
-0.23381139197035486   0.03928933504975253   0.015428140454697866
-0.31192314847876934   0.002556638296349209   0.0057177980290358775
-0.31192314847876934   0.002556638296349209   0.0057177980290358775
-0.31192314847876934   0.002556638296349209   0.0057177980290358775
-0.31192314847876934   0.002556638296349209   0.0057177980290358775
-0.2457103069761093   0.009551351451946431   -0.014328450976269558
-0.2457103069761093   0.009551351451946431   -0.014328450976269558
-0.2457103069761093   0.009551351451946431   -0.014328450976269558
-0.2457103069761093   0.009551351451946431   -0.014328450976269558
-0.37263374304929153   0.010363968260713743   0.009623657588425275
-0.37263374304929153   0.010363968260713743   0.009623657588425275
-0.37263374304929153   0.010363968260713743   0.009623657588425275
-0.37263374304929153   0.010363968260713743   0.009623657588425275
-0.3717027095852384   -0.0008205266122424948   -0.02568332322630654
-0.3717027095852384   -0.0008205266122424948   -0.02568332322630654
-0.3717027095852384   -0.0008205266122424948   -0.02568332322630654
-0.3717027095852384   -0.0008205266122424948   -0.02568332322630654
-0.22261648221211736   0.05594574445207495   0.011442948280673174
-0.22261648221211736   0.05594574445207495   0.011442948280673174
-0.22261648221211736   0.05594574445207495   0.011442948280673174
-0.22261648221211736   0.05594574445207495   0.011442948280673174
-0.30058868849894377   0.01801053373542591   0.01274991427124273
-0.30058868849894377   0.01801053373542591   0.01274991427124273
-0.30058868849894377   0.01801053373542591   0.01274991427124273
-0.30058868849894377   0.01801053373542591   0.01274991427124273
-0.4111725005687074   -0.036874858764597084   -0.023239529941135574
-0.4111725005687074   -0.036874858764597084   -0.023239529941135574
-0.4111725005687074   -0.036874858764597084   -0.023239529941135574
-0.4111725005687074   -0.036874858764597084   -0.023239529941135574
-0.5499775455111593   -0.009919947403347507   0.03430211823416296
-0.5499775455111593   -0.009919947403347507   0.03430211823416296
-0.5499775455111593   -0.009919947403347507   0.03430211823416296
-0.5499775455111593   -0.009919947403347507   0.03430211823416296
-0.5425626453012476   -0.049656428846776623   -0.031079318816008478
-0.5425626453012476   -0.049656428846776623   -0.031079318816008478
-0.5425626453012476   -0.049656428846776623   -0.031079318816008478
-0.5425626453012476   -0.049656428846776623   -0.031079318816008478
-0.37397661440831215   0.04093549475111276   0.033814022995730594
-0.37397661440831215   0.04093549475111276   0.033814022995730594
-0.37397661440831215   0.04093549475111276   0.033814022995730594
-0.37397661440831215   0.04093549475111276   0.033814022995730594
-0.44916738674951573   -0.007997268667126509   0.003809215135318487
-0.44916738674951573   -0.007997268667126509   0.003809215135318487
-0.44916738674951573   -0.007997268667126509   0.003809215135318487
-0.44916738674951573   -0.007997268667126509   0.003809215135318487
-0.3981484992597272   -0.01981643098109724   -0.026293475529132165
-0.3981484992597272   -0.01981643098109724   -0.026293475529132165
-0.3981484992597272   -0.01981643098109724   -0.026293475529132165
-0.3981484992597272   -0.01981643098109724   -0.026293475529132165
-0.5176357694887145   0.011850487846550406   0.032048143553321154
-0.5176357694887145   0.011850487846550406   0.032048143553321154
-0.5176357694887145   0.011850487846550406   0.032048143553321154
-0.5176357694887145   0.011850487846550406   0.032048143553321154
-0.5181267375075509   -0.03905987499942379   -0.03700821607910104
-0.5181267375075509   -0.03905987499942379   -0.03700821607910104
-0.5181267375075509   -0.03905987499942379   -0.03700821607910104
-0.5181267375075509   -0.03905987499942379   -0.03700821607910104
-0.36147290118039277   0.04790433305618334   0.027887502137446236
-0.36147290118039277   0.04790433305618334   0.027887502137446236
-0.36147290118039277   0.04790433305618334   0.027887502137446236
-0.36147290118039277   0.04790433305618334   0.027887502137446236
-0.43543918116911157   0.0031362387007360937   0.010140541454981371
-0.43543918116911157   0.0031362387007360937   0.010140541454981371
-0.43543918116911157   0.0031362387007360937   0.010140541454981371
-0.43543918116911157   0.0031362387007360937   0.010140541454981371
-0.3849268425403828   -0.011094855926191943   -0.03038301568012531
-0.3849268425403828   -0.011094855926191943   -0.03038301568012531
-0.3849268425403828   -0.011094855926191943   -0.03038301568012531
-0.3849268425403828   -0.011094855926191943   -0.03038301568012531
-0.49375270110660463   0.020859409023909897   0.02494268190229087
-0.49375270110660463   0.020859409023909897   0.02494268190229087
-0.49375270110660463   0.020859409023909897   0.02494268190229087
-0.49375270110660463   0.020859409023909897   0.02494268190229087
-0.487961292249249   -0.023273150892331368   -0.04129458596291273
-0.487961292249249   -0.023273150892331368   -0.04129458596291273
-0.487961292249249   -0.023273150892331368   -0.04129458596291273
-0.487961292249249   -0.023273150892331368   -0.04129458596291273
-0.35050511524446587   0.05625627697338831   0.023227844891925323
-0.35050511524446587   0.05625627697338831   0.023227844891925323
-0.35050511524446587   0.05625627697338831   0.023227844891925323
-0.35050511524446587   0.05625627697338831   0.023227844891925323
-0.4094011850766818   0.01354328655881809   0.019085721318802443
-0.4094011850766818   0.01354328655881809   0.019085721318802443
-0.4094011850766818   0.01354328655881809   0.019085721318802443
-0.4094011850766818   0.01354328655881809   0.019085721318802443
0.4341885077149043   0.03950022893659362   0.03743808863155937
0.4341885077149043   0.03950022893659362   0.03743808863155937
0.4341885077149043   0.03950022893659362   0.03743808863155937
0.4341885077149043   0.03950022893659362   0.03743808863155937
0.15874897210615707   -0.07171862374869725   -0.024631311072512627
0.15874897210615707   -0.07171862374869725   -0.024631311072512627
0.15874897210615707   -0.07171862374869725   -0.024631311072512627
0.15874897210615707   -0.07171862374869725   -0.024631311072512627
0.1956568506347474   -0.0005818612257928943   0.02691335430815671
0.1956568506347474   -0.0005818612257928943   0.02691335430815671
0.1956568506347474   -0.0005818612257928943   0.02691335430815671
0.1956568506347474   -0.0005818612257928943   0.02691335430815671
0.44185108860857286   -0.009607700409851372   -0.031462537638266494
0.44185108860857286   -0.009607700409851372   -0.031462537638266494
0.44185108860857286   -0.009607700409851372   -0.031462537638266494
0.44185108860857286   -0.009607700409851372   -0.031462537638266494
0.2886946772254638   -0.012872202007841574   -0.027765601369121803
0.2886946772254638   -0.012872202007841574   -0.027765601369121803
0.2886946772254638   -0.012872202007841574   -0.027765601369121803
0.2886946772254638   -0.012872202007841574   -0.027765601369121803
0.4675573952032589   0.05492319650944975   0.03253809841585842
0.4675573952032589   0.05492319650944975   0.03253809841585842
0.4675573952032589   0.05492319650944975   0.03253809841585842
0.4675573952032589   0.05492319650944975   0.03253809841585842
0.17178118014367855   -0.06328212204147718   -0.029764737331501208
0.17178118014367855   -0.06328212204147718   -0.029764737331501208
0.17178118014367855   -0.06328212204147718   -0.029764737331501208
0.17178118014367855   -0.06328212204147718   -0.029764737331501208
0.21012207971959254   0.007890597524126602   0.02217630635268533
0.21012207971959254   0.007890597524126602   0.02217630635268533
0.21012207971959254   0.007890597524126602   0.02217630635268533
0.21012207971959254   0.007890597524126602   0.02217630635268533
0.4683621797103879   1.377649058119379e-05   -0.039583004813620745
0.4683621797103879   1.377649058119379e-05   -0.039583004813620745
0.4683621797103879   1.377649058119379e-05   -0.039583004813620745
0.4683621797103879   1.377649058119379e-05   -0.039583004813620745
0.31642768975958374   -0.0024932669207635844   -0.016848066858371927
0.31642768975958374   -0.0024932669207635844   -0.016848066858371927
0.31642768975958374   -0.0024932669207635844   -0.016848066858371927
0.31642768975958374   -0.0024932669207635844   -0.016848066858371927
0.4943413440891086   0.06530375653466997   0.025022837035886116
0.4943413440891086   0.06530375653466997   0.025022837035886116
0.4943413440891086   0.06530375653466997   0.025022837035886116
0.4943413440891086   0.06530375653466997   0.025022837035886116
0.18608064138190297   -0.05546165647893714   -0.03467863133269687
0.18608064138190297   -0.05546165647893714   -0.03467863133269687
0.18608064138190297   -0.05546165647893714   -0.03467863133269687
0.18608064138190297   -0.05546165647893714   -0.03467863133269687
0.22456957680887962   0.026595153604192102   0.01921964680588471
0.22456957680887962   0.026595153604192102   0.01921964680588471
0.22456957680887962   0.026595153604192102   0.01921964680588471
0.22456957680887962   0.026595153604192102   0.01921964680588471
0.5032007975066625   0.025100038005428232   -0.0426826253816653
0.5032007975066625   0.025100038005428232   -0.0426826253816653
0.5032007975066625   0.025100038005428232   -0.0426826253816653
0.5032007975066625   0.025100038005428232   -0.0426826253816653
0.3334117270745559   0.010158276763945928   -0.007433043784579069
0.3334117270745559   0.010158276763945928   -0.007433043784579069
0.3334117270745559   0.010158276763945928   -0.007433043784579069
0.3334117270745559   0.010158276763945928   -0.007433043784579069
0.18845968545231612   0.022177781993963565   0.030025849915621752
0.18845968545231612   0.022177781993963565   0.030025849915621752
0.18845968545231612   0.022177781993963565   0.030025849915621752
0.18845968545231612   0.022177781993963565   0.030025849915621752
-0.09233365699969588   -0.0669361587309432   -0.01292139196106988
-0.09233365699969588   -0.0669361587309432   -0.01292139196106988
-0.09233365699969588   -0.0669361587309432   -0.01292139196106988
-0.09233365699969588   -0.0669361587309432   -0.01292139196106988
-0.06701833784261942   -0.01973095630920589   0.009044194326108422
-0.06701833784261942   -0.01973095630920589   0.009044194326108422
-0.06701833784261942   -0.01973095630920589   0.009044194326108422
-0.06701833784261942   -0.01973095630920589   0.009044194326108422
0.18979024202048939   0.0008981519591521048   -0.0038997019480762913
0.18979024202048939   0.0008981519591521048   -0.0038997019480762913
0.18979024202048939   0.0008981519591521048   -0.0038997019480762913
0.18979024202048939   0.0008981519591521048   -0.0038997019480762913
0.05224179766698829   -0.014048805470216995   -0.011792681709659686
0.05224179766698829   -0.014048805470216995   -0.011792681709659686
0.05224179766698829   -0.014048805470216995   -0.011792681709659686
0.05224179766698829   -0.014048805470216995   -0.011792681709659686
0.20333329204753745   0.03789439236072249   0.026819307785593487
0.20333329204753745   0.03789439236072249   0.026819307785593487
0.20333329204753745   0.03789439236072249   0.026819307785593487
0.20333329204753745   0.03789439236072249   0.026819307785593487
-0.07944968454535296   -0.0556154933864618   -0.017228002110303432
-0.07944968454535296   -0.0556154933864618   -0.017228002110303432
-0.07944968454535296   -0.0556154933864618   -0.017228002110303432
-0.07944968454535296   -0.0556154933864618   -0.017228002110303432
-0.05354933265390703   -0.0038521955624780356   0.005705134505657599
-0.05354933265390703   -0.0038521955624780356   0.005705134505657599
-0.05354933265390703   -0.0038521955624780356   0.005705134505657599
-0.05354933265390703   -0.0038521955624780356   0.005705134505657599
0.20567325832955033   0.015127245177194836   -0.0073044482505920634
0.20567325832955033   0.015127245177194836   -0.0073044482505920634
0.20567325832955033   0.015127245177194836   -0.0073044482505920634
0.20567325832955033   0.015127245177194836   -0.0073044482505920634
0.06524220848376311   -0.0015116472636268648   -0.004684101921220439
0.06524220848376311   -0.0015116472636268648   -0.004684101921220439
0.06524220848376311   -0.0015116472636268648   -0.004684101921220439
0.06524220848376311   -0.0015116472636268648   -0.004684101921220439
0.21976059460204525   0.054433882204496645   0.023825596084578744
0.21976059460204525   0.054433882204496645   0.023825596084578744
0.21976059460204525   0.054433882204496645   0.023825596084578744
0.21976059460204525   0.054433882204496645   0.023825596084578744
-0.06652397048600078   -0.0420461341493739   -0.020974116067915306
-0.06652397048600078   -0.0420461341493739   -0.020974116067915306
-0.06652397048600078   -0.0420461341493739   -0.020974116067915306
-0.06652397048600078   -0.0420461341493739   -0.020974116067915306
-0.04024372847877028   0.01457182838849138   0.002384099620471017
-0.04024372847877028   0.01457182838849138   0.002384099620471017
-0.04024372847877028   0.01457182838849138   0.002384099620471017
-0.04024372847877028   0.01457182838849138   0.002384099620471017
0.21973844121718478   0.03209488543454801   -0.010435762982943485
0.21973844121718478   0.03209488543454801   -0.010435762982943485
0.21973844121718478   0.03209488543454801   -0.010435762982943485
0.21973844121718478   0.03209488543454801   -0.010435762982943485
0.08136160369425466   0.013887213884655854   0.003622406543252657
0.08136160369425466   0.013887213884655854   0.003622406543252657
0.08136160369425466   0.013887213884655854   0.003622406543252657
0.08136160369425466   0.013887213884655854   0.003622406543252657
-0.07283068775653344   0.004857816598860285   0.012799478924938852
-0.07283068775653344   0.004857816598860285   0.012799478924938852
-0.07283068775653344   0.004857816598860285   0.012799478924938852
-0.07283068775653344   0.004857816598860285   0.012799478924938852
-0.33844394182560783   -0.05916764898190284   -0.0017490155382417312
-0.33844394182560783   -0.05916764898190284   -0.0017490155382417312
-0.33844394182560783   -0.05916764898190284   -0.0017490155382417312
-0.33844394182560783   -0.05916764898190284   -0.0017490155382417312
-0.3225014755534841   -0.0350356498097938   -0.007938078831130903
-0.3225014755534841   -0.0350356498097938   -0.007938078831130903
-0.3225014755534841   -0.0350356498097938   -0.007938078831130903
-0.3225014755534841   -0.0350356498097938   -0.007938078831130903
-0.06136456880396643   0.009102021488252364   0.008480061721915125
-0.06136456880396643   0.009102021488252364   0.008480061721915125
-0.06136456880396643   0.009102021488252364   0.008480061721915125
-0.06136456880396643   0.009102021488252364   0.008480061721915125
-0.19913117638513927   -0.018156914883855024   -0.007370899262030525
-0.19913117638513927   -0.018156914883855024   -0.007370899262030525
-0.19913117638513927   -0.018156914883855024   -0.007370899262030525
-0.19913117638513927   -0.018156914883855024   -0.007370899262030525
-0.05869062237998207   0.021253749714292187   0.009698065615797018
-0.05869062237998207   0.021253749714292187   0.009698065615797018
-0.05869062237998207   0.021253749714292187   0.009698065615797018
-0.05869062237998207   0.021253749714292187   0.009698065615797018
-0.32442435056074054   -0.04643630661910579   -0.006151797058101507
-0.32442435056074054   -0.04643630661910579   -0.006151797058101507
-0.32442435056074054   -0.04643630661910579   -0.006151797058101507
-0.32442435056074054   -0.04643630661910579   -0.006151797058101507
-0.3076510835281321   -0.017613631439331756   -0.010720391154674436
-0.3076510835281321   -0.017613631439331756   -0.010720391154674436
-0.3076510835281321   -0.017613631439331756   -0.010720391154674436
-0.3076510835281321   -0.017613631439331756   -0.010720391154674436
-0.04825803953406296   0.023479982477625564   0.004829422064772427
-0.04825803953406296   0.023479982477625564   0.004829422064772427
-0.04825803953406296   0.023479982477625564   0.004829422064772427
-0.04825803953406296   0.023479982477625564   0.004829422064772427
-0.18414865123620683   -0.0035839331781865186   -0.000107869341000634
-0.18414865123620683   -0.0035839331781865186   -0.000107869341000634
-0.18414865123620683   -0.0035839331781865186   -0.000107869341000634
-0.18414865123620683   -0.0035839331781865186   -0.000107869341000634
-0.04502792739844831   0.03828922588469512   0.006170739335776158
-0.04502792739844831   0.03828922588469512   0.006170739335776158
-0.04502792739844831   0.03828922588469512   0.006170739335776158
-0.04502792739844831   0.03828922588469512   0.006170739335776158
-0.3101853540022871   -0.0317270331849417   -0.00927834177983974
-0.3101853540022871   -0.0317270331849417   -0.00927834177983974
-0.3101853540022871   -0.0317270331849417   -0.00927834177983974
-0.3101853540022871   -0.0317270331849417   -0.00927834177983974
-0.293824133193926   -0.0002421216797624942   -0.014036155142056032
-0.293824133193926   -0.0002421216797624942   -0.014036155142056032
-0.293824133193926   -0.0002421216797624942   -0.014036155142056032
-0.293824133193926   -0.0002421216797624942   -0.014036155142056032
-0.0357596873651422   0.038156805159143006   0.0012193284179597922
-0.0357596873651422   0.038156805159143006   0.0012193284179597922
-0.0357596873651422   0.038156805159143006   0.0012193284179597922
-0.0357596873651422   0.038156805159143006   0.0012193284179597922
-0.1703924755903579   0.010936043504261264   0.006799876115286386
-0.1703924755903579   0.010936043504261264   0.006799876115286386
-0.1703924755903579   0.010936043504261264   0.006799876115286386
-0.1703924755903579   0.010936043504261264   0.006799876115286386
-0.32980059368061965   -0.012757626083834038   -0.004942297711366074
-0.32980059368061965   -0.012757626083834038   -0.004942297711366074
-0.32980059368061965   -0.012757626083834038   -0.004942297711366074
-0.32980059368061965   -0.012757626083834038   -0.004942297711366074
-0.5792452986965091   -0.048056229703699466   0.010980657695948776
-0.5792452986965091   -0.048056229703699466   0.010980657695948776
-0.5792452986965091   -0.048056229703699466   0.010980657695948776
-0.5792452986965091   -0.048056229703699466   0.010980657695948776
-0.571645458186999   -0.049763232598903084   -0.023859491230009938
-0.571645458186999   -0.049763232598903084   -0.023859491230009938
-0.571645458186999   -0.049763232598903084   -0.023859491230009938
-0.571645458186999   -0.049763232598903084   -0.023859491230009938
-0.30515789355232037   0.022502047876750142   0.02124213348814636
-0.30515789355232037   0.022502047876750142   0.02124213348814636
-0.30515789355232037   0.022502047876750142   0.02124213348814636
-0.30515789355232037   0.022502047876750142   0.02124213348814636
-0.4433746376502617   -0.01927066562608236   -0.00257856302344716
-0.4433746376502617   -0.01927066562608236   -0.00257856302344716
-0.4433746376502617   -0.01927066562608236   -0.00257856302344716
-0.4433746376502617   -0.01927066562608236   -0.00257856302344716
-0.3144323917160775   0.004938014208757058   -0.007566323662646136
-0.3144323917160775   0.004938014208757058   -0.007566323662646136
-0.3144323917160775   0.004938014208757058   -0.007566323662646136
-0.3144323917160775   0.004938014208757058   -0.007566323662646136
-0.5623074689848258   -0.03213570789249051   0.00520293007444856
-0.5623074689848258   -0.03213570789249051   0.00520293007444856
-0.5623074689848258   -0.03213570789249051   0.00520293007444856
-0.5623074689848258   -0.03213570789249051   0.00520293007444856
-0.5522104893806878   -0.032754467652107766   -0.02639177564427062
-0.5522104893806878   -0.032754467652107766   -0.02639177564427062
-0.5522104893806878   -0.032754467652107766   -0.02639177564427062
-0.5522104893806878   -0.032754467652107766   -0.02639177564427062
-0.2913468301944466   0.036196896446204774   0.016990347628219007
-0.2913468301944466   0.036196896446204774   0.016990347628219007
-0.2913468301944466   0.036196896446204774   0.016990347628219007
-0.2913468301944466   0.036196896446204774   0.016990347628219007
-0.42357220545880686   -0.0031706459912907298   0.004716211210951567
-0.42357220545880686   -0.0031706459912907298   0.004716211210951567
-0.42357220545880686   -0.0031706459912907298   0.004716211210951567
-0.42357220545880686   -0.0031706459912907298   0.004716211210951567
-0.300053898569933   0.020737988398579613   -0.011086086201588626
-0.300053898569933   0.020737988398579613   -0.011086086201588626
-0.300053898569933   0.020737988398579613   -0.011086086201588626
-0.300053898569933   0.020737988398579613   -0.011086086201588626
-0.5430172241922512   -0.016809362791527296   0.003629445437332523
-0.5430172241922512   -0.016809362791527296   0.003629445437332523
-0.5430172241922512   -0.016809362791527296   0.003629445437332523
-0.5430172241922512   -0.016809362791527296   0.003629445437332523
-0.5348352652620509   -0.014338010328437761   -0.027757042571956894
-0.5348352652620509   -0.014338010328437761   -0.027757042571956894
-0.5348352652620509   -0.014338010328437761   -0.027757042571956894
-0.5348352652620509   -0.014338010328437761   -0.027757042571956894
-0.2779708554263984   0.05123178953624627   0.013756322479575988
-0.2779708554263984   0.05123178953624627   0.013756322479575988
-0.2779708554263984   0.05123178953624627   0.013756322479575988
-0.2779708554263984   0.05123178953624627   0.013756322479575988
-0.41026282858466734   0.010574991095414613   0.011002368266427535
-0.41026282858466734   0.010574991095414613   0.011002368266427535
-0.41026282858466734   0.010574991095414613   0.011002368266427535
-0.41026282858466734   0.010574991095414613   0.011002368266427535
-0.5815787089446143   -0.027374273655438736   -0.021368349592838204
-0.5815787089446143   -0.027374273655438736   -0.021368349592838204
-0.5815787089446143   -0.027374273655438736   -0.021368349592838204
-0.5815787089446143   -0.027374273655438736   -0.021368349592838204
-0.8295051964292808   -0.029999669240139054   0.03699313876716878
-0.8295051964292808   -0.029999669240139054   0.03699313876716878
-0.8295051964292808   -0.029999669240139054   0.03699313876716878
-0.8295051964292808   -0.029999669240139054   0.03699313876716878
-0.8139488856471532   -0.05950353766486963   -0.02840886784534026
-0.8139488856471532   -0.05950353766486963   -0.02840886784534026
-0.8139488856471532   -0.05950353766486963   -0.02840886784534026
-0.8139488856471532   -0.05950353766486963   -0.02840886784534026
-0.5401519180603555   0.046195330866988016   0.037649645937317
-0.5401519180603555   0.046195330866988016   0.037649645937317
-0.5401519180603555   0.046195330866988016   0.037649645937317
-0.5401519180603555   0.046195330866988016   0.037649645937317
-0.6606125648563047   -0.008157539909870337   0.00778382385677711
-0.6606125648563047   -0.008157539909870337   0.00778382385677711
-0.6606125648563047   -0.008157539909870337   0.00778382385677711
-0.6606125648563047   -0.008157539909870337   0.00778382385677711
-0.5633651180247079   -0.008457679312336264   -0.02376334370511879
-0.5633651180247079   -0.008457679312336264   -0.02376334370511879
-0.5633651180247079   -0.008457679312336264   -0.02376334370511879
-0.5633651180247079   -0.008457679312336264   -0.02376334370511879
-0.7903320995932279   -0.004446941395973292   0.03461846615538293
-0.7903320995932279   -0.004446941395973292   0.03461846615538293
-0.7903320995932279   -0.004446941395973292   0.03461846615538293
-0.7903320995932279   -0.004446941395973292   0.03461846615538293
-0.7844389249404338   -0.04896134285893802   -0.03347485367811962
-0.7844389249404338   -0.04896134285893802   -0.03347485367811962
-0.7844389249404338   -0.04896134285893802   -0.03347485367811962
-0.7844389249404338   -0.04896134285893802   -0.03347485367811962
-0.5238710320710657   0.05269473684669512   0.029856306405037718
-0.5238710320710657   0.05269473684669512   0.029856306405037718
-0.5238710320710657   0.05269473684669512   0.029856306405037718
-0.5238710320710657   0.05269473684669512   0.029856306405037718
-0.6455715865052296   0.003357798892507202   0.013821542248696445
-0.6455715865052296   0.003357798892507202   0.013821542248696445
-0.6455715865052296   0.003357798892507202   0.013821542248696445
-0.6455715865052296   0.003357798892507202   0.013821542248696445
-0.5457849826318704   5.0562023283656776e-05   -0.027069271575574587
-0.5457849826318704   5.0562023283656776e-05   -0.027069271575574587
-0.5457849826318704   5.0562023283656776e-05   -0.027069271575574587
-0.5457849826318704   5.0562023283656776e-05   -0.027069271575574587
-0.7621183591499975   0.004089447194097706   0.02507718522101319
-0.7621183591499975   0.004089447194097706   0.02507718522101319
-0.7621183591499975   0.004089447194097706   0.02507718522101319
-0.7621183591499975   0.004089447194097706   0.02507718522101319
-0.7521273048213974   -0.036348493801534376   -0.03817381940575654
-0.7521273048213974   -0.036348493801534376   -0.03817381940575654
-0.7521273048213974   -0.036348493801534376   -0.03817381940575654
-0.7521273048213974   -0.036348493801534376   -0.03817381940575654
-0.5095902565465373   0.05871106596032685   0.025418924716846113
-0.5095902565465373   0.05871106596032685   0.025418924716846113
-0.5095902565465373   0.05871106596032685   0.025418924716846113
-0.5095902565465373   0.05871106596032685   0.025418924716846113
-0.6128899038201464   0.012908123099747232   0.02299985104049518
-0.6128899038201464   0.012908123099747232   0.02299985104049518
-0.6128899038201464   0.012908123099747232   0.02299985104049518
-0.6128899038201464   0.012908123099747232   0.02299985104049518
0.7263071887320133   0.054363881546515516   0.03822299877769497
0.7263071887320133   0.054363881546515516   0.03822299877769497
0.7263071887320133   0.054363881546515516   0.03822299877769497
0.7263071887320133   0.054363881546515516   0.03822299877769497
0.3199596647255516   -0.0850571813301162   -0.017673836888385183
0.3199596647255516   -0.0850571813301162   -0.017673836888385183
0.3199596647255516   -0.0850571813301162   -0.017673836888385183
0.3199596647255516   -0.0850571813301162   -0.017673836888385183
0.35641086280838324   -0.015160707998653877   0.026212650217941277
0.35641086280838324   -0.015160707998653877   0.026212650217941277
0.35641086280838324   -0.015160707998653877   0.026212650217941277
0.35641086280838324   -0.015160707998653877   0.026212650217941277
0.7341173797021591   -0.0008646813827639654   -0.027626184106125933
0.7341173797021591   -0.0008646813827639654   -0.027626184106125933
0.7341173797021591   -0.0008646813827639654   -0.027626184106125933
0.7341173797021591   -0.0008646813827639654   -0.027626184106125933
0.5029313610626587   -0.015053998334930693   -0.039165865213806175
0.5029313610626587   -0.015053998334930693   -0.039165865213806175
0.5029313610626587   -0.015053998334930693   -0.039165865213806175
0.5029313610626587   -0.015053998334930693   -0.039165865213806175
0.7595329457061162   0.06661547620290227   0.03197148832798913
0.7595329457061162   0.06661547620290227   0.03197148832798913
0.7595329457061162   0.06661547620290227   0.03197148832798913
0.7595329457061162   0.06661547620290227   0.03197148832798913
0.33344039005783277   -0.08019577233091357   -0.02360464920254756
0.33344039005783277   -0.08019577233091357   -0.02360464920254756
0.33344039005783277   -0.08019577233091357   -0.02360464920254756
0.33344039005783277   -0.08019577233091357   -0.02360464920254756
0.37058701870693733   -0.007389670614064259   0.02117492066663313
0.37058701870693733   -0.007389670614064259   0.02117492066663313
0.37058701870693733   -0.007389670614064259   0.02117492066663313
0.37058701870693733   -0.007389670614064259   0.02117492066663313
0.7590078003330436   0.007696337356212862   -0.034467843490361506
0.7590078003330436   0.007696337356212862   -0.034467843490361506
0.7590078003330436   0.007696337356212862   -0.034467843490361506
0.7590078003330436   0.007696337356212862   -0.034467843490361506
0.5342668549111935   -0.0059217244648615   -0.026671143813953774
0.5342668549111935   -0.0059217244648615   -0.026671143813953774
0.5342668549111935   -0.0059217244648615   -0.026671143813953774
0.5342668549111935   -0.0059217244648615   -0.026671143813953774
0.784267654240731   0.07584752086685456   0.023680242537433678
0.784267654240731   0.07584752086685456   0.023680242537433678
0.784267654240731   0.07584752086685456   0.023680242537433678
0.784267654240731   0.07584752086685456   0.023680242537433678
0.34746271944501644   -0.0734052994789395   -0.028430946778096274
0.34746271944501644   -0.0734052994789395   -0.028430946778096274
0.34746271944501644   -0.0734052994789395   -0.028430946778096274
0.34746271944501644   -0.0734052994789395   -0.028430946778096274
0.3834395896908541   0.013397311920391466   0.01856495200895908
0.3834395896908541   0.013397311920391466   0.01856495200895908
0.3834395896908541   0.013397311920391466   0.01856495200895908
0.3834395896908541   0.013397311920391466   0.01856495200895908
0.7896685366856233   0.03276164965634257   -0.036077239799408266
0.7896685366856233   0.03276164965634257   -0.036077239799408266
0.7896685366856233   0.03276164965634257   -0.036077239799408266
0.7896685366856233   0.03276164965634257   -0.036077239799408266
0.5458288879377746   0.006402808251621234   -0.018049832302961404
0.5458288879377746   0.006402808251621234   -0.018049832302961404
0.5458288879377746   0.006402808251621234   -0.018049832302961404
0.5458288879377746   0.006402808251621234   -0.018049832302961404
0.35391692883172626   0.03192441440835764   0.035130887904012184
0.35391692883172626   0.03192441440835764   0.035130887904012184
0.35391692883172626   0.03192441440835764   0.035130887904012184
0.35391692883172626   0.03192441440835764   0.035130887904012184
-0.04459976008469514   -0.10460774988670032   -0.010093234272152182
-0.04459976008469514   -0.10460774988670032   -0.010093234272152182
-0.04459976008469514   -0.10460774988670032   -0.010093234272152182
-0.04459976008469514   -0.10460774988670032   -0.010093234272152182
-0.013291008042426215   -0.037170087238015716   0.00884035212896955
-0.013291008042426215   -0.037170087238015716   0.00884035212896955
-0.013291008042426215   -0.037170087238015716   0.00884035212896955
-0.013291008042426215   -0.037170087238015716   0.00884035212896955
0.3508473572291631   -0.018567269629311337   0.0018016839524980822
0.3508473572291631   -0.018567269629311337   0.0018016839524980822
0.3508473572291631   -0.018567269629311337   0.0018016839524980822
0.3508473572291631   -0.018567269629311337   0.0018016839524980822
0.1573318228632736   -0.028947034099202733   -0.018575332578383227
0.1573318228632736   -0.028947034099202733   -0.018575332578383227
0.1573318228632736   -0.028947034099202733   -0.018575332578383227
0.1573318228632736   -0.028947034099202733   -0.018575332578383227
0.369182609014121   0.043782250330912875   0.031128422917065284
0.369182609014121   0.043782250330912875   0.031128422917065284
0.369182609014121   0.043782250330912875   0.031128422917065284
0.369182609014121   0.043782250330912875   0.031128422917065284
-0.030328975832126126   -0.09822232320298162   -0.015297250854564091
-0.030328975832126126   -0.09822232320298162   -0.015297250854564091
-0.030328975832126126   -0.09822232320298162   -0.015297250854564091
-0.030328975832126126   -0.09822232320298162   -0.015297250854564091
0.0011601726753597379   -0.023240696563846294   0.005368928698362212
0.0011601726753597379   -0.023240696563846294   0.005368928698362212
0.0011601726753597379   -0.023240696563846294   0.005368928698362212
0.0011601726753597379   -0.023240696563846294   0.005368928698362212
0.36567139650276403   -0.008061306267432358   -0.0027315547008654358
0.36567139650276403   -0.008061306267432358   -0.0027315547008654358
0.36567139650276403   -0.008061306267432358   -0.0027315547008654358
0.36567139650276403   -0.008061306267432358   -0.0027315547008654358
0.16985273217839014   -0.020387263162114415   -0.012024085336476913
0.16985273217839014   -0.020387263162114415   -0.012024085336476913
0.16985273217839014   -0.020387263162114415   -0.012024085336476913
0.16985273217839014   -0.020387263162114415   -0.012024085336476913
0.38499192489828155   0.05801152028576967   0.0277982607235202
0.38499192489828155   0.05801152028576967   0.0277982607235202
0.38499192489828155   0.05801152028576967   0.0277982607235202
0.38499192489828155   0.05801152028576967   0.0277982607235202
-0.017380975403917462   -0.08853414280080799   -0.022043365461062097
-0.017380975403917462   -0.08853414280080799   -0.022043365461062097
-0.017380975403917462   -0.08853414280080799   -0.022043365461062097
-0.017380975403917462   -0.08853414280080799   -0.022043365461062097
0.012508998271915966   -0.006891155890842097   0.001863473335374787
0.012508998271915966   -0.006891155890842097   0.001863473335374787
0.012508998271915966   -0.006891155890842097   0.001863473335374787
0.012508998271915966   -0.006891155890842097   0.001863473335374787
0.3767558773184616   0.005362464479167883   -0.006818762411785757
0.3767558773184616   0.005362464479167883   -0.006818762411785757
0.3767558773184616   0.005362464479167883   -0.006818762411785757
0.3767558773184616   0.005362464479167883   -0.006818762411785757
0.18528025636795628   -0.007569492412045256   -0.00497214177931745
0.18528025636795628   -0.007569492412045256   -0.00497214177931745
0.18528025636795628   -0.007569492412045256   -0.00497214177931745
0.18528025636795628   -0.007569492412045256   -0.00497214177931745
-0.016342983148827695   0.009099104970993619   0.017483795549491123
-0.016342983148827695   0.009099104970993619   0.017483795549491123
-0.016342983148827695   0.009099104970993619   0.017483795549491123
-0.016342983148827695   0.009099104970993619   0.017483795549491123
-0.4063070111626603   -0.1310824609898717   -0.008062441300999588
-0.4063070111626603   -0.1310824609898717   -0.008062441300999588
-0.4063070111626603   -0.1310824609898717   -0.008062441300999588
-0.4063070111626603   -0.1310824609898717   -0.008062441300999588
-0.3747418844808523   -0.05698382171467053   -0.008571838615844164
-0.3747418844808523   -0.05698382171467053   -0.008571838615844164
-0.3747418844808523   -0.05698382171467053   -0.008571838615844164
-0.3747418844808523   -0.05698382171467053   -0.008571838615844164
-0.014873894865870336   -0.04418138164601634   0.00793721241974958
-0.014873894865870336   -0.04418138164601634   0.00793721241974958
-0.014873894865870336   -0.04418138164601634   0.00793721241974958
-0.014873894865870336   -0.04418138164601634   0.00793721241974958
-0.2039723851215095   -0.05279351491135065   -0.01656853966614967
-0.2039723851215095   -0.05279351491135065   -0.01656853966614967
-0.2039723851215095   -0.05279351491135065   -0.01656853966614967
-0.2039723851215095   -0.05279351491135065   -0.01656853966614967
-0.0002878576949293856   0.02246546224280362   0.01422055438563437
-0.0002878576949293856   0.02246546224280362   0.01422055438563437
-0.0002878576949293856   0.02246546224280362   0.01422055438563437
-0.0002878576949293856   0.02246546224280362   0.01422055438563437
-0.3883877116589575   -0.12269045561066497   -0.011094340610375756
-0.3883877116589575   -0.12269045561066497   -0.011094340610375756
-0.3883877116589575   -0.12269045561066497   -0.011094340610375756
-0.3883877116589575   -0.12269045561066497   -0.011094340610375756
-0.3568097296572618   -0.041525585698630935   -0.011646728693311178
-0.3568097296572618   -0.041525585698630935   -0.011646728693311178
-0.3568097296572618   -0.041525585698630935   -0.011646728693311178
-0.3568097296572618   -0.041525585698630935   -0.011646728693311178
-0.001418475721432692   -0.03407860304801429   0.0033135931985680614
-0.001418475721432692   -0.03407860304801429   0.0033135931985680614
-0.001418475721432692   -0.03407860304801429   0.0033135931985680614
-0.001418475721432692   -0.03407860304801429   0.0033135931985680614
-0.18656445740639016   -0.041667305322698155   -0.009169334218284824
-0.18656445740639016   -0.041667305322698155   -0.009169334218284824
-0.18656445740639016   -0.041667305322698155   -0.009169334218284824
-0.18656445740639016   -0.041667305322698155   -0.009169334218284824
0.014401032173463757   0.03726034860931969   0.011072181015716318
0.014401032173463757   0.03726034860931969   0.011072181015716318
0.014401032173463757   0.03726034860931969   0.011072181015716318
0.014401032173463757   0.03726034860931969   0.011072181015716318
-0.3726156247300601   -0.11285092453386134   -0.019350865222070433
-0.3726156247300601   -0.11285092453386134   -0.019350865222070433
-0.3726156247300601   -0.11285092453386134   -0.019350865222070433
-0.3726156247300601   -0.11285092453386134   -0.019350865222070433
-0.3441332508460616   -0.02677737096140405   -0.015077988703886724
-0.3441332508460616   -0.02677737096140405   -0.015077988703886724
-0.3441332508460616   -0.02677737096140405   -0.015077988703886724
-0.3441332508460616   -0.02677737096140405   -0.015077988703886724
0.007405169692802442   -0.025972931307900265   -0.004573894143136572
0.007405169692802442   -0.025972931307900265   -0.004573894143136572
0.007405169692802442   -0.025972931307900265   -0.004573894143136572
0.007405169692802442   -0.025972931307900265   -0.004573894143136572
-0.1738012302588763   -0.03127331678495259   -0.004513388001458616
-0.1738012302588763   -0.03127331678495259   -0.004513388001458616
-0.1738012302588763   -0.03127331678495259   -0.004513388001458616
-0.1738012302588763   -0.03127331678495259   -0.004513388001458616
-0.38070614491618593   -0.010643870582104115   -0.0004967004763976046
-0.38070614491618593   -0.010643870582104115   -0.0004967004763976046
-0.38070614491618593   -0.010643870582104115   -0.0004967004763976046
-0.38070614491618593   -0.010643870582104115   -0.0004967004763976046
-0.7698728572368587   -0.14092923663006202   -0.006430628137911258
-0.7698728572368587   -0.14092923663006202   -0.006430628137911258
-0.7698728572368587   -0.14092923663006202   -0.006430628137911258
-0.7698728572368587   -0.14092923663006202   -0.006430628137911258
-0.7360832990959698   -0.07300687418567041   -0.02537707128033757
-0.7360832990959698   -0.07300687418567041   -0.02537707128033757
-0.7360832990959698   -0.07300687418567041   -0.02537707128033757
-0.7360832990959698   -0.07300687418567041   -0.02537707128033757
-0.36747053052989703   -0.04593353133272354   0.016734640756982333
-0.36747053052989703   -0.04593353133272354   0.016734640756982333
-0.36747053052989703   -0.04593353133272354   0.016734640756982333
-0.36747053052989703   -0.04593353133272354   0.016734640756982333
-0.5586261358861693   -0.06357340953999757   -0.011664243821581925
-0.5586261358861693   -0.06357340953999757   -0.011664243821581925
-0.5586261358861693   -0.06357340953999757   -0.011664243821581925
-0.5586261358861693   -0.06357340953999757   -0.011664243821581925
-0.36089374316431566   0.006536217089300897   -0.002851170837135191
-0.36089374316431566   0.006536217089300897   -0.002851170837135191
-0.36089374316431566   0.006536217089300897   -0.002851170837135191
-0.36089374316431566   0.006536217089300897   -0.002851170837135191
-0.7429250416006236   -0.12574157774676625   -0.006851080242504636
-0.7429250416006236   -0.12574157774676625   -0.006851080242504636
-0.7429250416006236   -0.12574157774676625   -0.006851080242504636
-0.7429250416006236   -0.12574157774676625   -0.006851080242504636
-0.7104195858817022   -0.056889786002260204   -0.029370308926881045
-0.7104195858817022   -0.056889786002260204   -0.029370308926881045
-0.7104195858817022   -0.056889786002260204   -0.029370308926881045
-0.7104195858817022   -0.056889786002260204   -0.029370308926881045
-0.35007847043569384   -0.03385134753375884   0.014335329249658193
-0.35007847043569384   -0.03385134753375884   0.014335329249658193
-0.35007847043569384   -0.03385134753375884   0.014335329249658193
-0.35007847043569384   -0.03385134753375884   0.014335329249658193
-0.5322021996851027   -0.04810824565661377   -0.00376334305501997
-0.5322021996851027   -0.04810824565661377   -0.00376334305501997
-0.5322021996851027   -0.04810824565661377   -0.00376334305501997
-0.5322021996851027   -0.04810824565661377   -0.00376334305501997
-0.342924649582897   0.021444900199044117   -0.005191814219164554
-0.342924649582897   0.021444900199044117   -0.005191814219164554
-0.342924649582897   0.021444900199044117   -0.005191814219164554
-0.342924649582897   0.021444900199044117   -0.005191814219164554
-0.7187828294498951   -0.11339545645045918   -0.014680856319642136
-0.7187828294498951   -0.11339545645045918   -0.014680856319642136
-0.7187828294498951   -0.11339545645045918   -0.014680856319642136
-0.7187828294498951   -0.11339545645045918   -0.014680856319642136
-0.6896504404576852   -0.03991922605981481   -0.030319170469411797
-0.6896504404576852   -0.03991922605981481   -0.030319170469411797
-0.6896504404576852   -0.03991922605981481   -0.030319170469411797
-0.6896504404576852   -0.03991922605981481   -0.030319170469411797
-0.340098391258843   -0.026169856756783176   0.0044887950275886174
-0.340098391258843   -0.026169856756783176   0.0044887950275886174
-0.340098391258843   -0.026169856756783176   0.0044887950275886174
-0.340098391258843   -0.026169856756783176   0.0044887950275886174
-0.5177644239091675   -0.03869062012924339   -0.00116922368207115
-0.5177644239091675   -0.03869062012924339   -0.00116922368207115
-0.5177644239091675   -0.03869062012924339   -0.00116922368207115
-0.5177644239091675   -0.03869062012924339   -0.00116922368207115
-0.749072175406883   -0.024985819927260094   -0.018370635690834303
-0.749072175406883   -0.024985819927260094   -0.018370635690834303
-0.749072175406883   -0.024985819927260094   -0.018370635690834303
-0.749072175406883   -0.024985819927260094   -0.018370635690834303
-1.1296273977773423   -0.09576606412869379   0.04218029202619781
-1.1296273977773423   -0.09576606412869379   0.04218029202619781
-1.1296273977773423   -0.09576606412869379   0.04218029202619781
-1.1296273977773423   -0.09576606412869379   0.04218029202619781
-1.091475986366918   -0.07654128026693122   -0.024709341425716694
-1.091475986366918   -0.07654128026693122   -0.024709341425716694
-1.091475986366918   -0.07654128026693122   -0.024709341425716694
-1.091475986366918   -0.07654128026693122   -0.024709341425716694
-0.7045445319209094   0.020407505131664394   0.03890238527762352
-0.7045445319209094   0.020407505131664394   0.03890238527762352
-0.7045445319209094   0.020407505131664394   0.03890238527762352
-0.7045445319209094   0.020407505131664394   0.03890238527762352
-0.877522077273124   -0.029910020994643405   0.00449359924682366
-0.877522077273124   -0.029910020994643405   0.00449359924682366
-0.877522077273124   -0.029910020994643405   0.00449359924682366
-0.877522077273124   -0.029910020994643405   0.00449359924682366
-0.7207885247971013   -0.001536612051797448   -0.020373461919864486
-0.7207885247971013   -0.001536612051797448   -0.020373461919864486
-0.7207885247971013   -0.001536612051797448   -0.020373461919864486
-0.7207885247971013   -0.001536612051797448   -0.020373461919864486
-1.0726142856534662   -0.05197945524620809   0.04503733712081803
-1.0726142856534662   -0.05197945524620809   0.04503733712081803
-1.0726142856534662   -0.05197945524620809   0.04503733712081803
-1.0726142856534662   -0.05197945524620809   0.04503733712081803
-1.0505128678082845   -0.06449015773275926   -0.029426330754984763
-1.0505128678082845   -0.06449015773275926   -0.029426330754984763
-1.0505128678082845   -0.06449015773275926   -0.029426330754984763
-1.0505128678082845   -0.06449015773275926   -0.029426330754984763
-0.6791881349110203   0.03237711939958249   0.037520040524685806
-0.6791881349110203   0.03237711939958249   0.037520040524685806
-0.6791881349110203   0.03237711939958249   0.037520040524685806
-0.6791881349110203   0.03237711939958249   0.037520040524685806
-0.8536021085376135   -0.01206137766932966   0.01755919576605764
-0.8536021085376135   -0.01206137766932966   0.01755919576605764
-0.8536021085376135   -0.01206137766932966   0.01755919576605764
-0.8536021085376135   -0.01206137766932966   0.01755919576605764
-0.6959938396581965   0.007893867738283211   -0.022025231549891007
-0.6959938396581965   0.007893867738283211   -0.022025231549891007
-0.6959938396581965   0.007893867738283211   -0.022025231549891007
-0.6959938396581965   0.007893867738283211   -0.022025231549891007
-1.0331600807683305   -0.03945982377867288   0.0323072704906887
-1.0331600807683305   -0.03945982377867288   0.0323072704906887
-1.0331600807683305   -0.03945982377867288   0.0323072704906887
-1.0331600807683305   -0.03945982377867288   0.0323072704906887
-1.0081210779699712   -0.05319493006675971   -0.03558023399515301
-1.0081210779699712   -0.05319493006675971   -0.03558023399515301
-1.0081210779699712   -0.05319493006675971   -0.03558023399515301
-1.0081210779699712   -0.05319493006675971   -0.03558023399515301
-0.6604972686770028   0.04656009604096478   0.028967366333220945
-0.6604972686770028   0.04656009604096478   0.028967366333220945
-0.6604972686770028   0.04656009604096478   0.028967366333220945
-0.6604972686770028   0.04656009604096478   0.028967366333220945
-0.8078746379766667   0.003163974303927064   0.030734508399888692
-0.8078746379766667   0.003163974303927064   0.030734508399888692
-0.8078746379766667   0.003163974303927064   0.030734508399888692
-0.8078746379766667   0.003163974303927064   0.030734508399888692
0.9897901317395115   0.059562437464512674   0.03559379007079948
0.9897901317395115   0.059562437464512674   0.03559379007079948
0.9897901317395115   0.059562437464512674   0.03559379007079948
0.9897901317395115   0.059562437464512674   0.03559379007079948
0.47128121608009754   -0.08792543771056208   0.0076709147637789715
0.47128121608009754   -0.08792543771056208   0.0076709147637789715
0.47128121608009754   -0.08792543771056208   0.0076709147637789715
0.47128121608009754   -0.08792543771056208   0.0076709147637789715
0.49702836801996225   -0.037298936344452194   0.02729155276762974
0.49702836801996225   -0.037298936344452194   0.02729155276762974
0.49702836801996225   -0.037298936344452194   0.02729155276762974
0.49702836801996225   -0.037298936344452194   0.02729155276762974
0.9948487418290856   0.009022414849233606   -0.008167407150892661
0.9948487418290856   0.009022414849233606   -0.008167407150892661
0.9948487418290856   0.009022414849233606   -0.008167407150892661
0.9948487418290856   0.009022414849233606   -0.008167407150892661
0.695559432932468   -0.0187218614554103   -0.04602591724074916
0.695559432932468   -0.0187218614554103   -0.04602591724074916
0.695559432932468   -0.0187218614554103   -0.04602591724074916
0.695559432932468   -0.0187218614554103   -0.04602591724074916
1.0135387137854128   0.06617149645925627   0.028133371020721422
1.0135387137854128   0.06617149645925627   0.028133371020721422
1.0135387137854128   0.06617149645925627   0.028133371020721422
1.0135387137854128   0.06617149645925627   0.028133371020721422
0.48280347987373273   -0.08998293414437701   0.008851109836406953
0.48280347987373273   -0.08998293414437701   0.008851109836406953
0.48280347987373273   -0.08998293414437701   0.008851109836406953
0.48280347987373273   -0.08998293414437701   0.008851109836406953
0.5067178749025291   -0.03171883185969053   0.020746235860635946
0.5067178749025291   -0.03171883185969053   0.020746235860635946
0.5067178749025291   -0.03171883185969053   0.020746235860635946
0.5067178749025291   -0.03171883185969053   0.020746235860635946
1.012077631196968   0.015302696650103753   -0.0027291060955337357
1.012077631196968   0.015302696650103753   -0.0027291060955337357
1.012077631196968   0.015302696650103753   -0.0027291060955337357
1.012077631196968   0.015302696650103753   -0.0027291060955337357
0.724046562781158   -0.014763547479696215   -0.03149967761769228
0.724046562781158   -0.014763547479696215   -0.03149967761769228
0.724046562781158   -0.014763547479696215   -0.03149967761769228
0.724046562781158   -0.014763547479696215   -0.03149967761769228
1.0279102003511362   0.07226472776915499   0.019471708556256427
1.0279102003511362   0.07226472776915499   0.019471708556256427
1.0279102003511362   0.07226472776915499   0.019471708556256427
1.0279102003511362   0.07226472776915499   0.019471708556256427
0.49399076262969605   -0.08557540609740648   0.010967248734186925
0.49399076262969605   -0.08557540609740648   0.010967248734186925
0.49399076262969605   -0.08557540609740648   0.010967248734186925
0.49399076262969605   -0.08557540609740648   0.010967248734186925
0.521007631403263   -0.009961733685812116   0.018966748772178514
0.521007631403263   -0.009961733685812116   0.018966748772178514
0.521007631403263   -0.009961733685812116   0.018966748772178514
0.521007631403263   -0.009961733685812116   0.018966748772178514
1.0300419893087864   0.029798943020981267   -0.0006999651018265649
1.0300419893087864   0.029798943020981267   -0.0006999651018265649
1.0300419893087864   0.029798943020981267   -0.0006999651018265649
1.0300419893087864   0.029798943020981267   -0.0006999651018265649
0.7273998569748226   -0.006687905935780475   -0.023624068083772723
0.7273998569748226   -0.006687905935780475   -0.023624068083772723
0.7273998569748226   -0.006687905935780475   -0.023624068083772723
0.7273998569748226   -0.006687905935780475   -0.023624068083772723
0.497501388359726   0.013333661955738471   0.03751267649562062
0.497501388359726   0.013333661955738471   0.03751267649562062
0.497501388359726   0.013333661955738471   0.03751267649562062
0.497501388359726   0.013333661955738471   0.03751267649562062
0.024799176378099017   -0.1743196987063949   0.017619847241384476
0.024799176378099017   -0.1743196987063949   0.017619847241384476
0.024799176378099017   -0.1743196987063949   0.017619847241384476
0.024799176378099017   -0.1743196987063949   0.017619847241384476
0.0582395978419514   -0.07413533420744778   0.016569120449027645
0.0582395978419514   -0.07413533420744778   0.016569120449027645
0.0582395978419514   -0.07413533420744778   0.016569120449027645
0.0582395978419514   -0.07413533420744778   0.016569120449027645
0.48481555096352136   -0.08252861511800583   0.011457146258974982
0.48481555096352136   -0.08252861511800583   0.011457146258974982
0.48481555096352136   -0.08252861511800583   0.011457146258974982
0.48481555096352136   -0.08252861511800583   0.011457146258974982
0.2577201550855571   -0.0777162169699037   -0.029224613974985228
0.2577201550855571   -0.0777162169699037   -0.029224613974985228
0.2577201550855571   -0.0777162169699037   -0.029224613974985228
0.2577201550855571   -0.0777162169699037   -0.029224613974985228
0.5091024245354805   0.01899665570133896   0.031366243299432134
0.5091024245354805   0.01899665570133896   0.031366243299432134
0.5091024245354805   0.01899665570133896   0.031366243299432134
0.5091024245354805   0.01899665570133896   0.031366243299432134
0.040367579805913434   -0.16924574949087   0.02231944555226191
0.040367579805913434   -0.16924574949087   0.02231944555226191
0.040367579805913434   -0.16924574949087   0.02231944555226191
0.040367579805913434   -0.16924574949087   0.02231944555226191
0.07164429739530416   -0.06392920985671624   0.011956026460175042
0.07164429739530416   -0.06392920985671624   0.011956026460175042
0.07164429739530416   -0.06392920985671624   0.011956026460175042
0.07164429739530416   -0.06392920985671624   0.011956026460175042
0.4963068766826922   -0.07714663593776146   0.014119048839522343
0.4963068766826922   -0.07714663593776146   0.014119048839522343
0.4963068766826922   -0.07714663593776146   0.014119048839522343
0.4963068766826922   -0.07714663593776146   0.014119048839522343
0.2690873520084163   -0.07378061329335421   -0.014617313890442143
0.2690873520084163   -0.07378061329335421   -0.014617313890442143
0.2690873520084163   -0.07378061329335421   -0.014617313890442143
0.2690873520084163   -0.07378061329335421   -0.014617313890442143
0.5199327419472879   0.0286313513388278   0.026470387885911478
0.5199327419472879   0.0286313513388278   0.026470387885911478
0.5199327419472879   0.0286313513388278   0.026470387885911478
0.5199327419472879   0.0286313513388278   0.026470387885911478
0.05418638628945673   -0.16353924297455724   0.024276504048778937
0.05418638628945673   -0.16353924297455724   0.024276504048778937
0.05418638628945673   -0.16353924297455724   0.024276504048778937
0.05418638628945673   -0.16353924297455724   0.024276504048778937
0.09224572412391907   -0.048602138621295816   0.007868375280407642
0.09224572412391907   -0.048602138621295816   0.007868375280407642
0.09224572412391907   -0.048602138621295816   0.007868375280407642
0.09224572412391907   -0.048602138621295816   0.007868375280407642
0.5088622027082397   -0.06898228863176918   0.017260160243023098
0.5088622027082397   -0.06898228863176918   0.017260160243023098
0.5088622027082397   -0.06898228863176918   0.017260160243023098
0.5088622027082397   -0.06898228863176918   0.017260160243023098
0.2891708698793993   -0.06429534651234187   0.0023987605257039663
0.2891708698793993   -0.06429534651234187   0.0023987605257039663
0.2891708698793993   -0.06429534651234187   0.0023987605257039663
0.2891708698793993   -0.06429534651234187   0.0023987605257039663
0.05447118997482929   -0.032485240998709815   0.024145457517350814
0.05447118997482929   -0.032485240998709815   0.024145457517350814
0.05447118997482929   -0.032485240998709815   0.024145457517350814
0.05447118997482929   -0.032485240998709815   0.024145457517350814
-0.42514138635291604   -0.2988136891822855   0.025732613957062098
-0.42514138635291604   -0.2988136891822855   0.025732613957062098
-0.42514138635291604   -0.2988136891822855   0.025732613957062098
-0.42514138635291604   -0.2988136891822855   0.025732613957062098
-0.3723839578878513   -0.11696156710830749   0.001546348130274695
-0.3723839578878513   -0.11696156710830749   0.001546348130274695
-0.3723839578878513   -0.11696156710830749   0.001546348130274695
-0.3723839578878513   -0.11696156710830749   0.001546348130274695
0.028579792186136058   -0.21592096015147186   0.010055718113976875
0.028579792186136058   -0.21592096015147186   0.010055718113976875
0.028579792186136058   -0.21592096015147186   0.010055718113976875
0.028579792186136058   -0.21592096015147186   0.010055718113976875
-0.18408479972368252   -0.16722149876063305   -0.0350559395876297
-0.18408479972368252   -0.16722149876063305   -0.0350559395876297
-0.18408479972368252   -0.16722149876063305   -0.0350559395876297
-0.18408479972368252   -0.16722149876063305   -0.0350559395876297
0.0685084239361682   -0.025280647522521175   0.019058564235186863
0.0685084239361682   -0.025280647522521175   0.019058564235186863
0.0685084239361682   -0.025280647522521175   0.019058564235186863
0.0685084239361682   -0.025280647522521175   0.019058564235186863
-0.40299517339786683   -0.29828446349724097   0.029813166969134178
-0.40299517339786683   -0.29828446349724097   0.029813166969134178
-0.40299517339786683   -0.29828446349724097   0.029813166969134178
-0.40299517339786683   -0.29828446349724097   0.029813166969134178
-0.35202728986580406   -0.10491658077345681   -0.00026748128430381136
-0.35202728986580406   -0.10491658077345681   -0.00026748128430381136
-0.35202728986580406   -0.10491658077345681   -0.00026748128430381136
-0.35202728986580406   -0.10491658077345681   -0.00026748128430381136
0.04272238015500842   -0.21101860426522898   0.014435834667209109
0.04272238015500842   -0.21101860426522898   0.014435834667209109
0.04272238015500842   -0.21101860426522898   0.014435834667209109
0.04272238015500842   -0.21101860426522898   0.014435834667209109
-0.16343756182088653   -0.16136482654561657   -0.012983808332036231
-0.16343756182088653   -0.16136482654561657   -0.012983808332036231
-0.16343756182088653   -0.16136482654561657   -0.012983808332036231
-0.16343756182088653   -0.16136482654561657   -0.012983808332036231
0.08134382442635868   -0.015736642755352803   0.012261094514084164
0.08134382442635868   -0.015736642755352803   0.012261094514084164
0.08134382442635868   -0.015736642755352803   0.012261094514084164
0.08134382442635868   -0.015736642755352803   0.012261094514084164
-0.3822696632802426   -0.2918194714264254   0.035423542296478004
-0.3822696632802426   -0.2918194714264254   0.035423542296478004
-0.3822696632802426   -0.2918194714264254   0.035423542296478004
-0.3822696632802426   -0.2918194714264254   0.035423542296478004
-0.318426976680423   -0.09105538739061686   -0.004154028183494118
-0.318426976680423   -0.09105538739061686   -0.004154028183494118
-0.318426976680423   -0.09105538739061686   -0.004154028183494118
-0.318426976680423   -0.09105538739061686   -0.004154028183494118
0.06479014659015148   -0.19759729642796287   0.01958564541823675
0.06479014659015148   -0.19759729642796287   0.01958564541823675
0.06479014659015148   -0.19759729642796287   0.01958564541823675
0.06479014659015148   -0.19759729642796287   0.01958564541823675
-0.13667592745017676   -0.14847536116564686   0.010028739160545988
-0.13667592745017676   -0.14847536116564686   0.010028739160545988
-0.13667592745017676   -0.14847536116564686   0.010028739160545988
-0.13667592745017676   -0.14847536116564686   0.010028739160545988
-0.3800982699047457   -0.05938441011077677   0.01151891712640195
-0.3800982699047457   -0.05938441011077677   0.01151891712640195
-0.3800982699047457   -0.05938441011077677   0.01151891712640195
-0.3800982699047457   -0.05938441011077677   0.01151891712640195
-0.942998106153123   -0.46426198657983064   -0.021215003964529272
-0.942998106153123   -0.46426198657983064   -0.021215003964529272
-0.942998106153123   -0.46426198657983064   -0.021215003964529272
-0.942998106153123   -0.46426198657983064   -0.021215003964529272
-0.8560519653604918   -0.15218006972662923   -0.025916616381951307
-0.8560519653604918   -0.15218006972662923   -0.025916616381951307
-0.8560519653604918   -0.15218006972662923   -0.025916616381951307
-0.8560519653604918   -0.15218006972662923   -0.025916616381951307
-0.4251061181239627   -0.3871070213315832   0.008081001172993221
-0.4251061181239627   -0.3871070213315832   0.008081001172993221
-0.4251061181239627   -0.3871070213315832   0.008081001172993221
-0.4251061181239627   -0.3871070213315832   0.008081001172993221
-0.6503530934248988   -0.27466471269863757   -0.03689232148500573
-0.6503530934248988   -0.27466471269863757   -0.03689232148500573
-0.6503530934248988   -0.27466471269863757   -0.03689232148500573
-0.6503530934248988   -0.27466471269863757   -0.03689232148500573
-0.3560746435843252   -0.044812509655905094   0.010943862195502682
-0.3560746435843252   -0.044812509655905094   0.010943862195502682
-0.3560746435843252   -0.044812509655905094   0.010943862195502682
-0.3560746435843252   -0.044812509655905094   0.010943862195502682
-0.9228115527969245   -0.4922026942991025   -0.019691928991641405
-0.9228115527969245   -0.4922026942991025   -0.019691928991641405
-0.9228115527969245   -0.4922026942991025   -0.019691928991641405
-0.9228115527969245   -0.4922026942991025   -0.019691928991641405
-0.8288733945688814   -0.13776654715384234   -0.0264457447175718
-0.8288733945688814   -0.13776654715384234   -0.0264457447175718
-0.8288733945688814   -0.13776654715384234   -0.0264457447175718
-0.8288733945688814   -0.13776654715384234   -0.0264457447175718
-0.40531554084436444   -0.3838594192748681   0.012234102324308452
-0.40531554084436444   -0.3838594192748681   0.012234102324308452
-0.40531554084436444   -0.3838594192748681   0.012234102324308452
-0.40531554084436444   -0.3838594192748681   0.012234102324308452
-0.6217093024633594   -0.2669922457272593   -0.025539673112653503
-0.6217093024633594   -0.2669922457272593   -0.025539673112653503
-0.6217093024633594   -0.2669922457272593   -0.025539673112653503
-0.6217093024633594   -0.2669922457272593   -0.025539673112653503
-0.33692282902301307   -0.03334969722492923   0.003687939381125398
-0.33692282902301307   -0.03334969722492923   0.003687939381125398
-0.33692282902301307   -0.03334969722492923   0.003687939381125398
-0.33692282902301307   -0.03334969722492923   0.003687939381125398
-0.897102265308459   -0.4881124281220066   -0.017244217447289267
-0.897102265308459   -0.4881124281220066   -0.017244217447289267
-0.897102265308459   -0.4881124281220066   -0.017244217447289267
-0.897102265308459   -0.4881124281220066   -0.017244217447289267
-0.786402682773707   -0.1223266887543086   -0.02999107344517457
-0.786402682773707   -0.1223266887543086   -0.02999107344517457
-0.786402682773707   -0.1223266887543086   -0.02999107344517457
-0.786402682773707   -0.1223266887543086   -0.02999107344517457
-0.3624869677643292   -0.3443777888988183   0.028868417905182103
-0.3624869677643292   -0.3443777888988183   0.028868417905182103
-0.3624869677643292   -0.3443777888988183   0.028868417905182103
-0.3624869677643292   -0.3443777888988183   0.028868417905182103
-0.5898621110747392   -0.24155979412410664   -0.013788830567103984
-0.5898621110747392   -0.24155979412410664   -0.013788830567103984
-0.5898621110747392   -0.24155979412410664   -0.013788830567103984
-0.5898621110747392   -0.24155979412410664   -0.013788830567103984
-0.8572660234777749   -0.050910969256281385   -0.005905607911338352
-0.8572660234777749   -0.050910969256281385   -0.005905607911338352
-0.8572660234777749   -0.050910969256281385   -0.005905607911338352
-0.8572660234777749   -0.050910969256281385   -0.005905607911338352
-1.5096004861139791   -0.2988298428942183   0.015451271642887399
-1.5096004861139791   -0.2988298428942183   0.015451271642887399
-1.5096004861139791   -0.2988298428942183   0.015451271642887399
-1.5096004861139791   -0.2988298428942183   0.015451271642887399
-1.4506357323139325   -0.14288004626411172   -0.03144417130820308
-1.4506357323139325   -0.14288004626411172   -0.03144417130820308
-1.4506357323139325   -0.14288004626411172   -0.03144417130820308
-1.4506357323139325   -0.14288004626411172   -0.03144417130820308
-0.8393037494369545   -0.1556098926546426   0.06125428616374162
-0.8393037494369545   -0.1556098926546426   0.06125428616374162
-0.8393037494369545   -0.1556098926546426   0.06125428616374162
-0.8393037494369545   -0.1556098926546426   0.06125428616374162
-1.1171157069364686   -0.17306060491401498   0.015568143559736972
-1.1171157069364686   -0.17306060491401498   0.015568143559736972
-1.1171157069364686   -0.17306060491401498   0.015568143559736972
-1.1171157069364686   -0.17306060491401498   0.015568143559736972
-0.8225867595743919   -0.010946290741816633   0.00017563356373163919
-0.8225867595743919   -0.010946290741816633   0.00017563356373163919
-0.8225867595743919   -0.010946290741816633   0.00017563356373163919
-0.8225867595743919   -0.010946290741816633   0.00017563356373163919
-1.4728726350073602   -0.2930635610078043   0.007554829968338728
-1.4728726350073602   -0.2930635610078043   0.007554829968338728
-1.4728726350073602   -0.2930635610078043   0.007554829968338728
-1.4728726350073602   -0.2930635610078043   0.007554829968338728
-1.4184453336184308   -0.130963463261893   -0.039925674075311515
-1.4184453336184308   -0.130963463261893   -0.039925674075311515
-1.4184453336184308   -0.130963463261893   -0.039925674075311515
-1.4184453336184308   -0.130963463261893   -0.039925674075311515
-0.8113368956530099   -0.14797778215751   0.07144798486546
-0.8113368956530099   -0.14797778215751   0.07144798486546
-0.8113368956530099   -0.14797778215751   0.07144798486546
-0.8113368956530099   -0.14797778215751   0.07144798486546
-1.1003679614687465   -0.14263221140476048   0.015067528259571299
-1.1003679614687465   -0.14263221140476048   0.015067528259571299
-1.1003679614687465   -0.14263221140476048   0.015067528259571299
-1.1003679614687465   -0.14263221140476048   0.015067528259571299
-0.7976828349003116   -0.0003981061741038239   -0.007861387354454345
-0.7976828349003116   -0.0003981061741038239   -0.007861387354454345
-0.7976828349003116   -0.0003981061741038239   -0.007861387354454345
-0.7976828349003116   -0.0003981061741038239   -0.007861387354454345
-1.434040899614253   -0.2804846444884305   0.03161767717210062
-1.434040899614253   -0.2804846444884305   0.03161767717210062
-1.434040899614253   -0.2804846444884305   0.03161767717210062
-1.434040899614253   -0.2804846444884305   0.03161767717210062
-1.351569935809306   -0.10640047687968168   -0.04476283113770779
-1.351569935809306   -0.10640047687968168   -0.04476283113770779
-1.351569935809306   -0.10640047687968168   -0.04476283113770779
-1.351569935809306   -0.10640047687968168   -0.04476283113770779
-0.7677660555823452   -0.13781678030416877   0.07868215406150128
-0.7677660555823452   -0.13781678030416877   0.07868215406150128
-0.7677660555823452   -0.13781678030416877   0.07868215406150128
-0.7677660555823452   -0.13781678030416877   0.07868215406150128
-1.035234706962608   -0.1091150636544886   0.031302899273227935
-1.035234706962608   -0.1091150636544886   0.031302899273227935
-1.035234706962608   -0.1091150636544886   0.031302899273227935
-1.035234706962608   -0.1091150636544886   0.031302899273227935
1.0841902103998815   0.03614735304096134   0.0151258742016121
1.0841902103998815   0.03614735304096134   0.0151258742016121
1.0841902103998815   0.03614735304096134   0.0151258742016121
1.0841902103998815   0.03614735304096134   0.0151258742016121
0.552651777955955   -0.029495080294262704   0.0108788612317159
0.552651777955955   -0.029495080294262704   0.0108788612317159
0.552651777955955   -0.029495080294262704   0.0108788612317159
0.552651777955955   -0.029495080294262704   0.0108788612317159
0.5313518013839335   -0.07769736243363182   0.021730646879932203
0.5313518013839335   -0.07769736243363182   0.021730646879932203
0.5313518013839335   -0.07769736243363182   0.021730646879932203
0.5313518013839335   -0.07769736243363182   0.021730646879932203
1.076357601934288   0.06060125595321847   0.007781346626165399
1.076357601934288   0.06060125595321847   0.007781346626165399
1.076357601934288   0.06060125595321847   0.007781346626165399
1.076357601934288   0.06060125595321847   0.007781346626165399
0.7679134000273049   -0.010743680507808273   -0.028411383932088467
0.7679134000273049   -0.010743680507808273   -0.028411383932088467
0.7679134000273049   -0.010743680507808273   -0.028411383932088467
0.7679134000273049   -0.010743680507808273   -0.028411383932088467
1.070612583867303   0.028116805946623108   0.01154070629783717
1.070612583867303   0.028116805946623108   0.01154070629783717
1.070612583867303   0.028116805946623108   0.01154070629783717
1.070612583867303   0.028116805946623108   0.01154070629783717
0.53537044114836   -0.0469392907295946   0.011065773998027752
0.53537044114836   -0.0469392907295946   0.011065773998027752
0.53537044114836   -0.0469392907295946   0.011065773998027752
0.53537044114836   -0.0469392907295946   0.011065773998027752
0.5177206784975661   -0.07943400561735423   0.017944335266578175
0.5177206784975661   -0.07943400561735423   0.017944335266578175
0.5177206784975661   -0.07943400561735423   0.017944335266578175
0.5177206784975661   -0.07943400561735423   0.017944335266578175
1.0639396344132073   0.05804505107903263   0.01362993588241343
1.0639396344132073   0.05804505107903263   0.01362993588241343
1.0639396344132073   0.05804505107903263   0.01362993588241343
1.0639396344132073   0.05804505107903263   0.01362993588241343
0.7658416182069274   -0.014809002701011265   -0.032746285679409286
0.7658416182069274   -0.014809002701011265   -0.032746285679409286
0.7658416182069274   -0.014809002701011265   -0.032746285679409286
0.7658416182069274   -0.014809002701011265   -0.032746285679409286
1.055328718929364   0.02518568110343969   0.0034347284387806556
1.055328718929364   0.02518568110343969   0.0034347284387806556
1.055328718929364   0.02518568110343969   0.0034347284387806556
1.055328718929364   0.02518568110343969   0.0034347284387806556
0.5232103131092319   -0.04969591651394539   0.015654419221498683
0.5232103131092319   -0.04969591651394539   0.015654419221498683
0.5232103131092319   -0.04969591651394539   0.015654419221498683
0.5232103131092319   -0.04969591651394539   0.015654419221498683
0.5033678995639302   -0.07229617754116834   0.01549852183228139
0.5033678995639302   -0.07229617754116834   0.01549852183228139
0.5033678995639302   -0.07229617754116834   0.01549852183228139
0.5033678995639302   -0.07229617754116834   0.01549852183228139
1.0448359402800496   0.058894511213768486   0.019732105452831793
1.0448359402800496   0.058894511213768486   0.019732105452831793
1.0448359402800496   0.058894511213768486   0.019732105452831793
1.0448359402800496   0.058894511213768486   0.019732105452831793
0.7372745459288619   -0.014846686527454966   -0.04408554247023109
0.7372745459288619   -0.014846686527454966   -0.04408554247023109
0.7372745459288619   -0.014846686527454966   -0.04408554247023109
0.7372745459288619   -0.014846686527454966   -0.04408554247023109
0.5482489840926216   -0.06773312023967504   0.027102931860461185
0.5482489840926216   -0.06773312023967504   0.027102931860461185
0.5482489840926216   -0.06773312023967504   0.027102931860461185
0.5482489840926216   -0.06773312023967504   0.027102931860461185
0.10424874104117038   -0.0652441798120236   0.005527755274850051
0.10424874104117038   -0.0652441798120236   0.005527755274850051
0.10424874104117038   -0.0652441798120236   0.005527755274850051
0.10424874104117038   -0.0652441798120236   0.005527755274850051
0.06749254289611893   -0.16258349367294564   0.028505761551678305
0.06749254289611893   -0.16258349367294564   0.028505761551678305
0.06749254289611893   -0.16258349367294564   0.028505761551678305
0.06749254289611893   -0.16258349367294564   0.028505761551678305
0.5511087503896573   0.021957298081342197   0.020860731393577338
0.5511087503896573   0.021957298081342197   0.020860731393577338
0.5511087503896573   0.021957298081342197   0.020860731393577338
0.5511087503896573   0.021957298081342197   0.020860731393577338
0.31287998093794483   -0.06868000705062609   -0.0012469938383465676
0.31287998093794483   -0.06868000705062609   -0.0012469938383465676
0.31287998093794483   -0.06868000705062609   -0.0012469938383465676
0.31287998093794483   -0.06868000705062609   -0.0012469938383465676
0.5329678955852019   -0.07063902029578073   0.022752775748420037
0.5329678955852019   -0.07063902029578073   0.022752775748420037
0.5329678955852019   -0.07063902029578073   0.022752775748420037
0.5329678955852019   -0.07063902029578073   0.022752775748420037
0.08104650435574903   -0.07457406864064857   0.008266143817531754
0.08104650435574903   -0.07457406864064857   0.008266143817531754
0.08104650435574903   -0.07457406864064857   0.008266143817531754
0.08104650435574903   -0.07457406864064857   0.008266143817531754
0.05099184271339748   -0.16393204468035244   0.025507039095862237
0.05099184271339748   -0.16393204468035244   0.025507039095862237
0.05099184271339748   -0.16393204468035244   0.025507039095862237
0.05099184271339748   -0.16393204468035244   0.025507039095862237
0.5385425462246808   0.017943012604655625   0.024676655680141952
0.5385425462246808   0.017943012604655625   0.024676655680141952
0.5385425462246808   0.017943012604655625   0.024676655680141952
0.5385425462246808   0.017943012604655625   0.024676655680141952
0.2904346030807765   -0.07316423322844516   -0.014889322666031046
0.2904346030807765   -0.07316423322844516   -0.014889322666031046
0.2904346030807765   -0.07316423322844516   -0.014889322666031046
0.2904346030807765   -0.07316423322844516   -0.014889322666031046
0.5194796685156721   -0.07156235949259496   0.018867639232344427
0.5194796685156721   -0.07156235949259496   0.018867639232344427
0.5194796685156721   -0.07156235949259496   0.018867639232344427
0.5194796685156721   -0.07156235949259496   0.018867639232344427
0.06506540426863351   -0.0794159887368702   0.01135879092856015
0.06506540426863351   -0.0794159887368702   0.01135879092856015
0.06506540426863351   -0.0794159887368702   0.01135879092856015
0.06506540426863351   -0.0794159887368702   0.01135879092856015
0.03253800428932291   -0.16371690116190046   0.019911296011283525
0.03253800428932291   -0.16371690116190046   0.019911296011283525
0.03253800428932291   -0.16371690116190046   0.019911296011283525
0.03253800428932291   -0.16371690116190046   0.019911296011283525
0.5242807541101686   0.01829910524819249   0.02946751177411321
0.5242807541101686   0.01829910524819249   0.02946751177411321
0.5242807541101686   0.01829910524819249   0.02946751177411321
0.5242807541101686   0.01829910524819249   0.02946751177411321
0.2767956733728831   -0.07248998003909785   -0.02646302704653617
0.2767956733728831   -0.07248998003909785   -0.02646302704653617
0.2767956733728831   -0.07248998003909785   -0.02646302704653617
0.2767956733728831   -0.07248998003909785   -0.02646302704653617
0.08148892244398648   -0.19778104476578037   0.024265527242685242
0.08148892244398648   -0.19778104476578037   0.024265527242685242
0.08148892244398648   -0.19778104476578037   0.024265527242685242
0.08148892244398648   -0.19778104476578037   0.024265527242685242
-0.32698318654157205   -0.10091687141110822   0.0001275482171955531
-0.32698318654157205   -0.10091687141110822   0.0001275482171955531
-0.32698318654157205   -0.10091687141110822   0.0001275482171955531
-0.32698318654157205   -0.10091687141110822   0.0001275482171955531
-0.3934780441779011   -0.29581048645976066   0.03266592293657006
-0.3934780441779011   -0.29581048645976066   0.03266592293657006
-0.3934780441779011   -0.29581048645976066   0.03266592293657006
-0.3934780441779011   -0.29581048645976066   0.03266592293657006
0.09373902115999144   -0.016099990052436765   0.013254649250532016
0.09373902115999144   -0.016099990052436765   0.013254649250532016
0.09373902115999144   -0.016099990052436765   0.013254649250532016
0.09373902115999144   -0.016099990052436765   0.013254649250532016
-0.13452858201723256   -0.1504943466932931   0.005709933903335136
-0.13452858201723256   -0.1504943466932931   0.005709933903335136
-0.13452858201723256   -0.1504943466932931   0.005709933903335136
-0.13452858201723256   -0.1504943466932931   0.005709933903335136
0.0560220484886801   -0.20894141112120893   0.017511206962747453
0.0560220484886801   -0.20894141112120893   0.017511206962747453
0.0560220484886801   -0.20894141112120893   0.017511206962747453
0.0560220484886801   -0.20894141112120893   0.017511206962747453
-0.36220104966914685   -0.10940904355355088   0.002649452574130443
-0.36220104966914685   -0.10940904355355088   0.002649452574130443
-0.36220104966914685   -0.10940904355355088   0.002649452574130443
-0.36220104966914685   -0.10940904355355088   0.002649452574130443
-0.4164249656791484   -0.3003941876281635   0.026705263686693355
-0.4164249656791484   -0.3003941876281635   0.026705263686693355
-0.4164249656791484   -0.3003941876281635   0.026705263686693355
-0.4164249656791484   -0.3003941876281635   0.026705263686693355
0.07826967958765986   -0.020551178171018303   0.01851535695783997
0.07826967958765986   -0.020551178171018303   0.01851535695783997
0.07826967958765986   -0.020551178171018303   0.01851535695783997
0.07826967958765986   -0.020551178171018303   0.01851535695783997
-0.16322227973131348   -0.1595479571285346   -0.013431488419129098
-0.16322227973131348   -0.1595479571285346   -0.013431488419129098
-0.16322227973131348   -0.1595479571285346   -0.013431488419129098
-0.16322227973131348   -0.1595479571285346   -0.013431488419129098
0.03844561207703017   -0.21249363047294317   0.011337471706616427
0.03844561207703017   -0.21249363047294317   0.011337471706616427
0.03844561207703017   -0.21249363047294317   0.011337471706616427
0.03844561207703017   -0.21249363047294317   0.011337471706616427
-0.3842924369457289   -0.11614327410344924   0.0031169938290740162
-0.3842924369457289   -0.11614327410344924   0.0031169938290740162
-0.3842924369457289   -0.11614327410344924   0.0031169938290740162
-0.3842924369457289   -0.11614327410344924   0.0031169938290740162
-0.44133657822531724   -0.2982759997459941   0.02231885364354934
-0.44133657822531724   -0.2982759997459941   0.02231885364354934
-0.44133657822531724   -0.2982759997459941   0.02231885364354934
-0.44133657822531724   -0.2982759997459941   0.02231885364354934
0.06106808247794589   -0.022998115437748948   0.021842901230246875
0.06106808247794589   -0.022998115437748948   0.021842901230246875
0.06106808247794589   -0.022998115437748948   0.021842901230246875
0.06106808247794589   -0.022998115437748948   0.021842901230246875
-0.18653534071590114   -0.16294887338621855   -0.032619053666562786
-0.18653534071590114   -0.16294887338621855   -0.032619053666562786
-0.18653534071590114   -0.16294887338621855   -0.032619053666562786
-0.18653534071590114   -0.16294887338621855   -0.032619053666562786
-0.3689436175287105   -0.33943865307330223   0.028847174943700232
-0.3689436175287105   -0.33943865307330223   0.028847174943700232
-0.3689436175287105   -0.33943865307330223   0.028847174943700232
-0.3689436175287105   -0.33943865307330223   0.028847174943700232
-0.8161242521163752   -0.12554156425221302   -0.018736396091484094
-0.8161242521163752   -0.12554156425221302   -0.018736396091484094
-0.8161242521163752   -0.12554156425221302   -0.018736396091484094
-0.8161242521163752   -0.12554156425221302   -0.018736396091484094
-0.9324212580146609   -0.495245517654683   -0.02529634055180735
-0.9324212580146609   -0.495245517654683   -0.02529634055180735
-0.9324212580146609   -0.495245517654683   -0.02529634055180735
-0.9324212580146609   -0.495245517654683   -0.02529634055180735
-0.3440113282058975   -0.02726356485810502   0.011452581194931099
-0.3440113282058975   -0.02726356485810502   0.011452581194931099
-0.3440113282058975   -0.02726356485810502   0.011452581194931099
-0.3440113282058975   -0.02726356485810502   0.011452581194931099
-0.6094213771527326   -0.23709664751919624   -0.019965339954469256
-0.6094213771527326   -0.23709664751919624   -0.019965339954469256
-0.6094213771527326   -0.23709664751919624   -0.019965339954469256
-0.6094213771527326   -0.23709664751919624   -0.019965339954469256
-0.415841508190635   -0.3848855635807403   0.009923679993880316
-0.415841508190635   -0.3848855635807403   0.009923679993880316
-0.415841508190635   -0.3848855635807403   0.009923679993880316
-0.415841508190635   -0.3848855635807403   0.009923679993880316
-0.8588370340658106   -0.13586947496793456   -0.016751263494303715
-0.8588370340658106   -0.13586947496793456   -0.016751263494303715
-0.8588370340658106   -0.13586947496793456   -0.016751263494303715
-0.8588370340658106   -0.13586947496793456   -0.016751263494303715
-0.9597570382054101   -0.5030444131819194   -0.029249369849901924
-0.9597570382054101   -0.5030444131819194   -0.029249369849901924
-0.9597570382054101   -0.5030444131819194   -0.029249369849901924
-0.9597570382054101   -0.5030444131819194   -0.029249369849901924
-0.36520945480764555   -0.03461745820091633   0.017006088616957613
-0.36520945480764555   -0.03461745820091633   0.017006088616957613
-0.36520945480764555   -0.03461745820091633   0.017006088616957613
-0.36520945480764555   -0.03461745820091633   0.017006088616957613
-0.6428741263592133   -0.26288832372038246   -0.028656945900598807
-0.6428741263592133   -0.26288832372038246   -0.028656945900598807
-0.6428741263592133   -0.26288832372038246   -0.028656945900598807
-0.6428741263592133   -0.26288832372038246   -0.028656945900598807
-0.4393751349712385   -0.3923384272045749   0.003898656802648545
-0.4393751349712385   -0.3923384272045749   0.003898656802648545
-0.4393751349712385   -0.3923384272045749   0.003898656802648545
-0.4393751349712385   -0.3923384272045749   0.003898656802648545
-0.8858490984359945   -0.14558118457243988   -0.017172899612311165
-0.8858490984359945   -0.14558118457243988   -0.017172899612311165
-0.8858490984359945   -0.14558118457243988   -0.017172899612311165
-0.8858490984359945   -0.14558118457243988   -0.017172899612311165
-0.9830212471698643   -0.48085357708332865   -0.03297624361183471
-0.9830212471698643   -0.48085357708332865   -0.03297624361183471
-0.9830212471698643   -0.48085357708332865   -0.03297624361183471
-0.9830212471698643   -0.48085357708332865   -0.03297624361183471
-0.39198974774517475   -0.045024316826344446   0.01580132312460542
-0.39198974774517475   -0.045024316826344446   0.01580132312460542
-0.39198974774517475   -0.045024316826344446   0.01580132312460542
-0.39198974774517475   -0.045024316826344446   0.01580132312460542
-0.6737870437651541   -0.27160950449361865   -0.037047698245957945
-0.6737870437651541   -0.27160950449361865   -0.037047698245957945
-0.6737870437651541   -0.27160950449361865   -0.037047698245957945
-0.6737870437651541   -0.27160950449361865   -0.037047698245957945
-0.8024548960023531   -0.1463976792959923   0.07046649952239162
-0.8024548960023531   -0.1463976792959923   0.07046649952239162
-0.8024548960023531   -0.1463976792959923   0.07046649952239162
-0.8024548960023531   -0.1463976792959923   0.07046649952239162
-1.4086934862641622   -0.10490345927057265   -0.02454440724112872
-1.4086934862641622   -0.10490345927057265   -0.02454440724112872
-1.4086934862641622   -0.10490345927057265   -0.02454440724112872
-1.4086934862641622   -0.10490345927057265   -0.02454440724112872
-1.494250223337324   -0.2949922772000546   0.019288837337051168
-1.494250223337324   -0.2949922772000546   0.019288837337051168
-1.494250223337324   -0.2949922772000546   0.019288837337051168
-1.494250223337324   -0.2949922772000546   0.019288837337051168
-0.8244125623896554   0.01232280434519123   0.007178815573340339
-0.8244125623896554   0.01232280434519123   0.007178815573340339
-0.8244125623896554   0.01232280434519123   0.007178815573340339
-0.8244125623896554   0.01232280434519123   0.007178815573340339
-1.0785310995382091   -0.10359043170234189   0.021572995864036708
-1.0785310995382091   -0.10359043170234189   0.021572995864036708
-1.0785310995382091   -0.10359043170234189   0.021572995864036708
-1.0785310995382091   -0.10359043170234189   0.021572995864036708
-0.8472057291849666   -0.15694499054049915   0.06248077648247083
-0.8472057291849666   -0.15694499054049915   0.06248077648247083
-0.8472057291849666   -0.15694499054049915   0.06248077648247083
-0.8472057291849666   -0.15694499054049915   0.06248077648247083
-1.467797477184169   -0.1220649029565189   -0.02137480614069666
-1.467797477184169   -0.1220649029565189   -0.02137480614069666
-1.467797477184169   -0.1220649029565189   -0.02137480614069666
-1.467797477184169   -0.1220649029565189   -0.02137480614069666
-1.5302717991146606   -0.3074133520346294   -0.006794961058486371
-1.5302717991146606   -0.3074133520346294   -0.006794961058486371
-1.5302717991146606   -0.3074133520346294   -0.006794961058486371
-1.5302717991146606   -0.3074133520346294   -0.006794961058486371
-0.8498912259021472   0.004019571127058225   0.013015707357427526
-0.8498912259021472   0.004019571127058225   0.013015707357427526
-0.8498912259021472   0.004019571127058225   0.013015707357427526
-0.8498912259021472   0.004019571127058225   0.013015707357427526
-1.1423903468028518   -0.13660840893590137   0.008784793808518147
-1.1423903468028518   -0.13660840893590137   0.008784793808518147
-1.1423903468028518   -0.13660840893590137   0.008784793808518147
-1.1423903468028518   -0.13660840893590137   0.008784793808518147
-0.8759428903214926   -0.16486098898895576   0.051637945376713845
-0.8759428903214926   -0.16486098898895576   0.051637945376713845
-0.8759428903214926   -0.16486098898895576   0.051637945376713845
-0.8759428903214926   -0.16486098898895576   0.051637945376713845
-1.4967797444348785   -0.13109240165817468   -0.015655638036005746
-1.4967797444348785   -0.13109240165817468   -0.015655638036005746
-1.4967797444348785   -0.13109240165817468   -0.015655638036005746
-1.4967797444348785   -0.13109240165817468   -0.015655638036005746
-1.5613284434989705   -0.3123065304596099   -0.00020420879907873113
-1.5613284434989705   -0.3123065304596099   -0.00020420879907873113
-1.5613284434989705   -0.3123065304596099   -0.00020420879907873113
-1.5613284434989705   -0.3123065304596099   -0.00020420879907873113
-0.8857269621297033   -0.03277180004816138   0.005413404553803153
-0.8857269621297033   -0.03277180004816138   0.005413404553803153
-0.8857269621297033   -0.03277180004816138   0.005413404553803153
-0.8857269621297033   -0.03277180004816138   0.005413404553803153
-1.1558414996823103   -0.16488351963723086   0.013832243561156157
-1.1558414996823103   -0.16488351963723086   0.013832243561156157
-1.1558414996823103   -0.16488351963723086   0.013832243561156157
-1.1558414996823103   -0.16488351963723086   0.013832243561156157
0.9521036993558061   0.04414749450346811   -0.020360186179481196
0.9521036993558061   0.04414749450346811   -0.020360186179481196
0.9521036993558061   0.04414749450346811   -0.020360186179481196
0.9521036993558061   0.04414749450346811   -0.020360186179481196
0.47851233521684305   -0.010088897936399638   0.009886964589470162
0.47851233521684305   -0.010088897936399638   0.009886964589470162
0.47851233521684305   -0.010088897936399638   0.009886964589470162
0.47851233521684305   -0.010088897936399638   0.009886964589470162
0.4484336565173124   -0.07015932484879978   -0.018097611966919835
0.4484336565173124   -0.07015932484879978   -0.018097611966919835
0.4484336565173124   -0.07015932484879978   -0.018097611966919835
0.4484336565173124   -0.07015932484879978   -0.018097611966919835
0.9411800995714961   0.068545345990673   0.011567556065914496
0.9411800995714961   0.068545345990673   0.011567556065914496
0.9411800995714961   0.068545345990673   0.011567556065914496
0.9411800995714961   0.068545345990673   0.011567556065914496
0.6681023616357051   0.0016478312291830222   -0.0257960335885555
0.6681023616357051   0.0016478312291830222   -0.0257960335885555
0.6681023616357051   0.0016478312291830222   -0.0257960335885555
0.6681023616357051   0.0016478312291830222   -0.0257960335885555
0.926010150462721   0.02485677303017486   -0.0205936165174552
0.926010150462721   0.02485677303017486   -0.0205936165174552
0.926010150462721   0.02485677303017486   -0.0205936165174552
0.926010150462721   0.02485677303017486   -0.0205936165174552
0.46277165607015375   -0.027302701444234842   0.010735762392717597
0.46277165607015375   -0.027302701444234842   0.010735762392717597
0.46277165607015375   -0.027302701444234842   0.010735762392717597
0.46277165607015375   -0.027302701444234842   0.010735762392717597
0.43222277950668087   -0.07402029907878455   -0.014979960000146064
0.43222277950668087   -0.07402029907878455   -0.014979960000146064
0.43222277950668087   -0.07402029907878455   -0.014979960000146064
0.43222277950668087   -0.07402029907878455   -0.014979960000146064
0.9186918772645952   0.06304996248975833   0.016991524292076572
0.9186918772645952   0.06304996248975833   0.016991524292076572
0.9186918772645952   0.06304996248975833   0.016991524292076572
0.9186918772645952   0.06304996248975833   0.016991524292076572
0.6594194537219482   -0.006569035504268739   -0.030673497718676453
0.6594194537219482   -0.006569035504268739   -0.030673497718676453
0.6594194537219482   -0.006569035504268739   -0.030673497718676453
0.6594194537219482   -0.006569035504268739   -0.030673497718676453
0.9034031866130249   0.01994281753942509   -0.016344784015441843
0.9034031866130249   0.01994281753942509   -0.016344784015441843
0.9034031866130249   0.01994281753942509   -0.016344784015441843
0.9034031866130249   0.01994281753942509   -0.016344784015441843
0.4463448222941214   -0.03207980199258112   0.013689756850853059
0.4463448222941214   -0.03207980199258112   0.013689756850853059
0.4463448222941214   -0.03207980199258112   0.013689756850853059
0.4463448222941214   -0.03207980199258112   0.013689756850853059
0.4165462367007668   -0.07276843035848087   -0.010292898829101449
0.4165462367007668   -0.07276843035848087   -0.010292898829101449
0.4165462367007668   -0.07276843035848087   -0.010292898829101449
0.4165462367007668   -0.07276843035848087   -0.010292898829101449
0.8908696328232317   0.05945779870298412   0.02218603019414802
0.8908696328232317   0.05945779870298412   0.02218603019414802
0.8908696328232317   0.05945779870298412   0.02218603019414802
0.8908696328232317   0.05945779870298412   0.02218603019414802
0.6270892498698649   -0.01142928673262944   -0.04021155489019913
0.6270892498698649   -0.01142928673262944   -0.04021155489019913
0.6270892498698649   -0.01142928673262944   -0.04021155489019913
0.6270892498698649   -0.01142928673262944   -0.04021155489019913
0.4814608139358524   0.010000646467971205   0.0045398137801421524
0.4814608139358524   0.010000646467971205   0.0045398137801421524
0.4814608139358524   0.010000646467971205   0.0045398137801421524
0.4814608139358524   0.010000646467971205   0.0045398137801421524
0.04500594236143741   -0.02909058400579033   -0.00123927692810232
0.04500594236143741   -0.02909058400579033   -0.00123927692810232
0.04500594236143741   -0.02909058400579033   -0.00123927692810232
0.04500594236143741   -0.02909058400579033   -0.00123927692810232
0.016658772998384953   -0.09259700432280653   -0.017460803235863236
0.016658772998384953   -0.09259700432280653   -0.017460803235863236
0.016658772998384953   -0.09259700432280653   -0.017460803235863236
0.016658772998384953   -0.09259700432280653   -0.017460803235863236
0.4819670891802037   0.0556787762744252   0.023731450224307275
0.4819670891802037   0.0556787762744252   0.023731450224307275
0.4819670891802037   0.0556787762744252   0.023731450224307275
0.4819670891802037   0.0556787762744252   0.023731450224307275
0.25157279497522483   -0.012805803345691466   -0.009871842239552706
0.25157279497522483   -0.012805803345691466   -0.009871842239552706
0.25157279497522483   -0.012805803345691466   -0.009871842239552706
0.25157279497522483   -0.012805803345691466   -0.009871842239552706
0.46813420032244185   0.002699498525968874   0.007546283683956816
0.46813420032244185   0.002699498525968874   0.007546283683956816
0.46813420032244185   0.002699498525968874   0.007546283683956816
0.46813420032244185   0.002699498525968874   0.007546283683956816
0.03102533547692113   -0.03908405295357546   0.0008590577875865618
0.03102533547692113   -0.03908405295357546   0.0008590577875865618
0.03102533547692113   -0.03908405295357546   0.0008590577875865618
0.03102533547692113   -0.03908405295357546   0.0008590577875865618
0.0010273870276329491   -0.09693742036955696   -0.012210349993873144
0.0010273870276329491   -0.09693742036955696   -0.012210349993873144
0.0010273870276329491   -0.09693742036955696   -0.012210349993873144
0.0010273870276329491   -0.09693742036955696   -0.012210349993873144
0.46481184156088207   0.047783926176970866   0.026161125015104397
0.46481184156088207   0.047783926176970866   0.026161125015104397
0.46481184156088207   0.047783926176970866   0.026161125015104397
0.46481184156088207   0.047783926176970866   0.026161125015104397
0.23353940550632096   -0.020092503793050137   -0.013975247705410542
0.23353940550632096   -0.020092503793050137   -0.013975247705410542
0.23353940550632096   -0.020092503793050137   -0.013975247705410542
0.23353940550632096   -0.020092503793050137   -0.013975247705410542
0.45176167705999737   -0.002174705522320325   0.010868934209976387
0.45176167705999737   -0.002174705522320325   0.010868934209976387
0.45176167705999737   -0.002174705522320325   0.010868934209976387
0.45176167705999737   -0.002174705522320325   0.010868934209976387
0.01400871391304709   -0.047047626285740746   0.0028064903493813294
0.01400871391304709   -0.047047626285740746   0.0028064903493813294
0.01400871391304709   -0.047047626285740746   0.0028064903493813294
0.01400871391304709   -0.047047626285740746   0.0028064903493813294
-0.01573924094150612   -0.09727310853143512   -0.008373562072380762
-0.01573924094150612   -0.09727310853143512   -0.008373562072380762
-0.01573924094150612   -0.09727310853143512   -0.008373562072380762
-0.01573924094150612   -0.09727310853143512   -0.008373562072380762
0.447501444820307   0.04281472471292869   0.028899986697192334
0.447501444820307   0.04281472471292869   0.028899986697192334
0.447501444820307   0.04281472471292869   0.028899986697192334
0.447501444820307   0.04281472471292869   0.028899986697192334
0.2195107641113231   -0.022927329478411   -0.017471848829324496
0.2195107641113231   -0.022927329478411   -0.017471848829324496
0.2195107641113231   -0.022927329478411   -0.017471848829324496
0.2195107641113231   -0.022927329478411   -0.017471848829324496
0.046241321521014414   -0.025940060391026296   0.001787095255018703
0.046241321521014414   -0.025940060391026296   0.001787095255018703
0.046241321521014414   -0.025940060391026296   0.001787095255018703
0.046241321521014414   -0.025940060391026296   0.001787095255018703
-0.37417916679640517   -0.04315722756951353   -0.011748098642840136
-0.37417916679640517   -0.04315722756951353   -0.011748098642840136
-0.37417916679640517   -0.04315722756951353   -0.011748098642840136
-0.37417916679640517   -0.04315722756951353   -0.011748098642840136
-0.40569516828620805   -0.12262922141842203   -0.019957318133194797
-0.40569516828620805   -0.12262922141842203   -0.019957318133194797
-0.40569516828620805   -0.12262922141842203   -0.019957318133194797
-0.40569516828620805   -0.12262922141842203   -0.019957318133194797
0.0495881501002368   0.04091149710814488   0.013677580842444602
0.0495881501002368   0.04091149710814488   0.013677580842444602
0.0495881501002368   0.04091149710814488   0.013677580842444602
0.0495881501002368   0.04091149710814488   0.013677580842444602
-0.17150012730341008   -0.0359029410870742   -0.009767415020645227
-0.17150012730341008   -0.0359029410870742   -0.009767415020645227
-0.17150012730341008   -0.0359029410870742   -0.009767415020645227
-0.17150012730341008   -0.0359029410870742   -0.009767415020645227
0.034487297383457176   -0.028986918153759797   0.008071732520451135
0.034487297383457176   -0.028986918153759797   0.008071732520451135
0.034487297383457176   -0.028986918153759797   0.008071732520451135
0.034487297383457176   -0.028986918153759797   0.008071732520451135
-0.38943036684857496   -0.051566857435668974   -0.009695674927782208
-0.38943036684857496   -0.051566857435668974   -0.009695674927782208
-0.38943036684857496   -0.051566857435668974   -0.009695674927782208
-0.38943036684857496   -0.051566857435668974   -0.009695674927782208
-0.4240155940520722   -0.1273725352175849   -0.013306154635261053
-0.4240155940520722   -0.1273725352175849   -0.013306154635261053
-0.4240155940520722   -0.1273725352175849   -0.013306154635261053
-0.4240155940520722   -0.1273725352175849   -0.013306154635261053
0.032440642557016244   0.03246631457430473   0.015452192709181623
0.032440642557016244   0.03246631457430473   0.015452192709181623
0.032440642557016244   0.03246631457430473   0.015452192709181623
0.032440642557016244   0.03246631457430473   0.015452192709181623
-0.18666712998820756   -0.040904576973703366   -0.011706035037391567
-0.18666712998820756   -0.040904576973703366   -0.011706035037391567
-0.18666712998820756   -0.040904576973703366   -0.011706035037391567
-0.18666712998820756   -0.040904576973703366   -0.011706035037391567
0.018263468539823642   -0.034040803610540724   0.011073440808064071
0.018263468539823642   -0.034040803610540724   0.011073440808064071
0.018263468539823642   -0.034040803610540724   0.011073440808064071
0.018263468539823642   -0.034040803610540724   0.011073440808064071
-0.40958830370685106   -0.06061530070471187   -0.007926937422034097
-0.40958830370685106   -0.06061530070471187   -0.007926937422034097
-0.40958830370685106   -0.06061530070471187   -0.007926937422034097
-0.40958830370685106   -0.06061530070471187   -0.007926937422034097
-0.4443316818572724   -0.1308115506430739   -0.011824510461159623
-0.4443316818572724   -0.1308115506430739   -0.011824510461159623
-0.4443316818572724   -0.1308115506430739   -0.011824510461159623
-0.4443316818572724   -0.1308115506430739   -0.011824510461159623
0.013891359809852876   0.025261490305907058   0.017244842847072048
0.013891359809852876   0.025261490305907058   0.017244842847072048
0.013891359809852876   0.025261490305907058   0.017244842847072048
0.013891359809852876   0.025261490305907058   0.017244842847072048
-0.20635803451652696   -0.04689135207191572   -0.016391361572248637
-0.20635803451652696   -0.04689135207191572   -0.016391361572248637
-0.20635803451652696   -0.04689135207191572   -0.016391361572248637
-0.20635803451652696   -0.04689135207191572   -0.016391361572248637
-0.3682373002829581   -0.031046744496886457   0.00585075085176231
-0.3682373002829581   -0.031046744496886457   0.00585075085176231
-0.3682373002829581   -0.031046744496886457   0.00585075085176231
-0.3682373002829581   -0.031046744496886457   0.00585075085176231
-0.7837374813302154   -0.05053229799053127   -0.02061408371134868
-0.7837374813302154   -0.05053229799053127   -0.02061408371134868
-0.7837374813302154   -0.05053229799053127   -0.02061408371134868
-0.7837374813302154   -0.05053229799053127   -0.02061408371134868
-0.8195248896504317   -0.1286650370162173   -0.020041218151096236
-0.8195248896504317   -0.1286650370162173   -0.020041218151096236
-0.8195248896504317   -0.1286650370162173   -0.020041218151096236
-0.8195248896504317   -0.1286650370162173   -0.020041218151096236
-0.3701125643994959   0.03135817710957678   0.003968302772359388
-0.3701125643994959   0.03135817710957678   0.003968302772359388
-0.3701125643994959   0.03135817710957678   0.003968302772359388
-0.3701125643994959   0.03135817710957678   0.003968302772359388
-0.5806004871367635   -0.04265418040258126   -0.008143485366233764
-0.5806004871367635   -0.04265418040258126   -0.008143485366233764
-0.5806004871367635   -0.04265418040258126   -0.008143485366233764
-0.5806004871367635   -0.04265418040258126   -0.008143485366233764
-0.3812477182613266   -0.03422601416135003   0.013876724734135048
-0.3812477182613266   -0.03422601416135003   0.013876724734135048
-0.3812477182613266   -0.03422601416135003   0.013876724734135048
-0.3812477182613266   -0.03422601416135003   0.013876724734135048
-0.8061224585424486   -0.06081356849913892   -0.020880531128266506
-0.8061224585424486   -0.06081356849913892   -0.020880531128266506
-0.8061224585424486   -0.06081356849913892   -0.020880531128266506
-0.8061224585424486   -0.06081356849913892   -0.020880531128266506
-0.8448413292092338   -0.13677155865677687   -0.014132539260756832
-0.8448413292092338   -0.13677155865677687   -0.014132539260756832
-0.8448413292092338   -0.13677155865677687   -0.014132539260756832
-0.8448413292092338   -0.13677155865677687   -0.014132539260756832
-0.3904939168021652   0.02210392485670805   0.004825771539975144
-0.3904939168021652   0.02210392485670805   0.004825771539975144
-0.3904939168021652   0.02210392485670805   0.004825771539975144
-0.3904939168021652   0.02210392485670805   0.004825771539975144
-0.5965306959699591   -0.04709564068494579   -0.00813672014627348
-0.5965306959699591   -0.04709564068494579   -0.00813672014627348
-0.5965306959699591   -0.04709564068494579   -0.00813672014627348
-0.5965306959699591   -0.04709564068494579   -0.00813672014627348
-0.40147002034718804   -0.04238412774825211   0.014433306419821226
-0.40147002034718804   -0.04238412774825211   0.014433306419821226
-0.40147002034718804   -0.04238412774825211   0.014433306419821226
-0.40147002034718804   -0.04238412774825211   0.014433306419821226
-0.8323427885822707   -0.07076106896987637   -0.017650325812841493
-0.8323427885822707   -0.07076106896987637   -0.017650325812841493
-0.8323427885822707   -0.07076106896987637   -0.017650325812841493
-0.8323427885822707   -0.07076106896987637   -0.017650325812841493
-0.8734642368047252   -0.14749522639321816   -0.015078735650212598
-0.8734642368047252   -0.14749522639321816   -0.015078735650212598
-0.8734642368047252   -0.14749522639321816   -0.015078735650212598
-0.8734642368047252   -0.14749522639321816   -0.015078735650212598
-0.4125258047549365   0.010653918248457642   0.005739406158982524
-0.4125258047549365   0.010653918248457642   0.005739406158982524
-0.4125258047549365   0.010653918248457642   0.005739406158982524
-0.4125258047549365   0.010653918248457642   0.005739406158982524
-0.6250397785296269   -0.05814765008670314   -0.013308551791065874
-0.6250397785296269   -0.05814765008670314   -0.013308551791065874
-0.6250397785296269   -0.05814765008670314   -0.013308551791065874
-0.6250397785296269   -0.05814765008670314   -0.013308551791065874
-0.7574144259296218   0.035295844420648925   0.025173050880438974
-0.7574144259296218   0.035295844420648925   0.025173050880438974
-0.7574144259296218   0.035295844420648925   0.025173050880438974
-0.7574144259296218   0.035295844420648925   0.025173050880438974
-1.1739997190564222   -0.058456132348153306   -0.015515022924322365
-1.1739997190564222   -0.058456132348153306   -0.015515022924322365
-1.1739997190564222   -0.058456132348153306   -0.015515022924322365
-1.1739997190564222   -0.058456132348153306   -0.015515022924322365
-1.2024055667054607   -0.05955498534134651   0.025782871456456788
-1.2024055667054607   -0.05955498534134651   0.025782871456456788
-1.2024055667054607   -0.05955498534134651   0.025782871456456788
-1.2024055667054607   -0.05955498534134651   0.025782871456456788
-0.7860695700739518   0.02462032048088958   -0.0060499777658113915
-0.7860695700739518   0.02462032048088958   -0.0060499777658113915
-0.7860695700739518   0.02462032048088958   -0.0060499777658113915
-0.7860695700739518   0.02462032048088958   -0.0060499777658113915
-0.9342754787104953   0.0005950014718920649   0.0237720407862198
-0.9342754787104953   0.0005950014718920649   0.0237720407862198
-0.9342754787104953   0.0005950014718920649   0.0237720407862198
-0.9342754787104953   0.0005950014718920649   0.0237720407862198
-0.7781041562352686   0.02652350403591547   0.03187390787257467
-0.7781041562352686   0.02652350403591547   0.03187390787257467
-0.7781041562352686   0.02652350403591547   0.03187390787257467
-0.7781041562352686   0.02652350403591547   0.03187390787257467
-1.2098329079417853   -0.06092009629401965   -0.009988723772493387
-1.2098329079417853   -0.06092009629401965   -0.009988723772493387
-1.2098329079417853   -0.06092009629401965   -0.009988723772493387
-1.2098329079417853   -0.06092009629401965   -0.009988723772493387
-1.2382111364463684   -0.06922548326420638   0.03511034594532562
-1.2382111364463684   -0.06922548326420638   0.03511034594532562
-1.2382111364463684   -0.06922548326420638   0.03511034594532562
-1.2382111364463684   -0.06922548326420638   0.03511034594532562
-0.8123219296472287   0.01804217628490018   -0.006349276392414317
-0.8123219296472287   0.01804217628490018   -0.006349276392414317
-0.8123219296472287   0.01804217628490018   -0.006349276392414317
-0.8123219296472287   0.01804217628490018   -0.006349276392414317
-0.9807077732111329   -0.010696694046062744   0.013195773466748127
-0.9807077732111329   -0.010696694046062744   0.013195773466748127
-0.9807077732111329   -0.010696694046062744   0.013195773466748127
-0.9807077732111329   -0.010696694046062744   0.013195773466748127
-0.8050372796326459   0.01667537408546077   0.03144077587993905
-0.8050372796326459   0.01667537408546077   0.03144077587993905
-0.8050372796326459   0.01667537408546077   0.03144077587993905
-0.8050372796326459   0.01667537408546077   0.03144077587993905
-1.2468681943635136   -0.06923108896732963   -0.008169337937278455
-1.2468681943635136   -0.06923108896732963   -0.008169337937278455
-1.2468681943635136   -0.06923108896732963   -0.008169337937278455
-1.2468681943635136   -0.06923108896732963   -0.008169337937278455
-1.289175819180944   -0.10846617385405549   0.030390392575604205
-1.289175819180944   -0.10846617385405549   0.030390392575604205
-1.289175819180944   -0.10846617385405549   0.030390392575604205
-1.289175819180944   -0.10846617385405549   0.030390392575604205
-0.8425930126957413   -0.0022247372141360466   -0.005993104284387936
-0.8425930126957413   -0.0022247372141360466   -0.005993104284387936
-0.8425930126957413   -0.0022247372141360466   -0.005993104284387936
-0.8425930126957413   -0.0022247372141360466   -0.005993104284387936
-1.0000972265944736   -0.024981179542741733   0.003990651466131298
-1.0000972265944736   -0.024981179542741733   0.003990651466131298
-1.0000972265944736   -0.024981179542741733   0.003990651466131298
-1.0000972265944736   -0.024981179542741733   0.003990651466131298
0.7742437381818187   0.04163982568403159   -0.027200820273349458
0.7742437381818187   0.04163982568403159   -0.027200820273349458
0.7742437381818187   0.04163982568403159   -0.027200820273349458
0.7742437381818187   0.04163982568403159   -0.027200820273349458
0.3832080178708304   -0.0008254154295809502   0.009743094924369804
0.3832080178708304   -0.0008254154295809502   0.009743094924369804
0.3832080178708304   -0.0008254154295809502   0.009743094924369804
0.3832080178708304   -0.0008254154295809502   0.009743094924369804
0.3506705999430299   -0.056877901795630834   -0.025039183237138503
0.3506705999430299   -0.056877901795630834   -0.025039183237138503
0.3506705999430299   -0.056877901795630834   -0.025039183237138503
0.3506705999430299   -0.056877901795630834   -0.025039183237138503
0.7598766681401898   0.062402644081898245   0.012233572219958508
0.7598766681401898   0.062402644081898245   0.012233572219958508
0.7598766681401898   0.062402644081898245   0.012233572219958508
0.7598766681401898   0.062402644081898245   0.012233572219958508
0.5376863490339285   0.004729363213623439   -0.017706911089023503
0.5376863490339285   0.004729363213623439   -0.017706911089023503
0.5376863490339285   0.004729363213623439   -0.017706911089023503
0.5376863490339285   0.004729363213623439   -0.017706911089023503
0.7440101863121293   0.021548844631607417   -0.02624503747004662
0.7440101863121293   0.021548844631607417   -0.02624503747004662
0.7440101863121293   0.021548844631607417   -0.02624503747004662
0.7440101863121293   0.021548844631607417   -0.02624503747004662
0.36586545108946344   -0.016695733026966947   0.010752903726358912
0.36586545108946344   -0.016695733026966947   0.010752903726358912
0.36586545108946344   -0.016695733026966947   0.010752903726358912
0.36586545108946344   -0.016695733026966947   0.010752903726358912
0.33440105411736465   -0.061564656812397645   -0.02179074907147279
0.33440105411736465   -0.061564656812397645   -0.02179074907147279
0.33440105411736465   -0.061564656812397645   -0.02179074907147279
0.33440105411736465   -0.061564656812397645   -0.02179074907147279
0.7355548461984572   0.05593981450598565   0.016788377099378117
0.7355548461984572   0.05593981450598565   0.016788377099378117
0.7355548461984572   0.05593981450598565   0.016788377099378117
0.7355548461984572   0.05593981450598565   0.016788377099378117
0.5251159177444544   -0.0037639573808540966   -0.023128596692742164
0.5251159177444544   -0.0037639573808540966   -0.023128596692742164
0.5251159177444544   -0.0037639573808540966   -0.023128596692742164
0.5251159177444544   -0.0037639573808540966   -0.023128596692742164
0.7200196271046825   0.01577302235555078   -0.020720926219048495
0.7200196271046825   0.01577302235555078   -0.020720926219048495
0.7200196271046825   0.01577302235555078   -0.020720926219048495
0.7200196271046825   0.01577302235555078   -0.020720926219048495
0.3493262102070603   -0.022007927666040483   0.013278302230644426
0.3493262102070603   -0.022007927666040483   0.013278302230644426
0.3493262102070603   -0.022007927666040483   0.013278302230644426
0.3493262102070603   -0.022007927666040483   0.013278302230644426
0.31956550942693684   -0.0628023552915748   -0.017810616382382398
0.31956550942693684   -0.0628023552915748   -0.017810616382382398
0.31956550942693684   -0.0628023552915748   -0.017810616382382398
0.31956550942693684   -0.0628023552915748   -0.017810616382382398
0.7081364032622228   0.050389581436062064   0.020951186961256398
0.7081364032622228   0.050389581436062064   0.020951186961256398
0.7081364032622228   0.050389581436062064   0.020951186961256398
0.7081364032622228   0.050389581436062064   0.020951186961256398
0.49530157688530646   -0.009563710776646722   -0.0313495289510695
0.49530157688530646   -0.009563710776646722   -0.0313495289510695
0.49530157688530646   -0.009563710776646722   -0.0313495289510695
0.49530157688530646   -0.009563710776646722   -0.0313495289510695
0.39001563553567076   0.040625302982062426   0.0023304648369281266
0.39001563553567076   0.040625302982062426   0.0023304648369281266
0.39001563553567076   0.040625302982062426   0.0023304648369281266
0.39001563553567076   0.040625302982062426   0.0023304648369281266
0.012432125387536628   -0.013090234539577784   -0.0017070746835208617
0.012432125387536628   -0.013090234539577784   -0.0017070746835208617
0.012432125387536628   -0.013090234539577784   -0.0017070746835208617
0.012432125387536628   -0.013090234539577784   -0.0017070746835208617
-0.012098643749641515   -0.05130112065233053   -0.017102301479626145
-0.012098643749641515   -0.05130112065233053   -0.017102301479626145
-0.012098643749641515   -0.05130112065233053   -0.017102301479626145
-0.012098643749641515   -0.05130112065233053   -0.017102301479626145
0.38259420415625917   0.056596267304998935   0.021104668728371526
0.38259420415625917   0.056596267304998935   0.021104668728371526
0.38259420415625917   0.056596267304998935   0.021104668728371526
0.38259420415625917   0.056596267304998935   0.021104668728371526
0.19022085846504228   0.00806799913413965   -0.002129237820170011
0.19022085846504228   0.00806799913413965   -0.002129237820170011
0.19022085846504228   0.00806799913413965   -0.002129237820170011
0.19022085846504228   0.00806799913413965   -0.002129237820170011
0.37399919657205277   0.030236739441996147   0.0044891586703436
0.37399919657205277   0.030236739441996147   0.0044891586703436
0.37399919657205277   0.030236739441996147   0.0044891586703436
0.37399919657205277   0.030236739441996147   0.0044891586703436
-0.0033478687565885747   -0.024785825380486085   0.0001362782137941101
-0.0033478687565885747   -0.024785825380486085   0.0001362782137941101
-0.0033478687565885747   -0.024785825380486085   0.0001362782137941101
-0.0033478687565885747   -0.024785825380486085   0.0001362782137941101
-0.027509035263417067   -0.05887362015089892   -0.014805729799945384
-0.027509035263417067   -0.05887362015089892   -0.014805729799945384
-0.027509035263417067   -0.05887362015089892   -0.014805729799945384
-0.027509035263417067   -0.05887362015089892   -0.014805729799945384
0.36513418533777803   0.04697037753064791   0.023339872687544796
0.36513418533777803   0.04697037753064791   0.023339872687544796
0.36513418533777803   0.04697037753064791   0.023339872687544796
0.36513418533777803   0.04697037753064791   0.023339872687544796
0.17135542316157978   -0.0014344453831492063   -0.007522432448392829
0.17135542316157978   -0.0014344453831492063   -0.007522432448392829
0.17135542316157978   -0.0014344453831492063   -0.007522432448392829
0.17135542316157978   -0.0014344453831492063   -0.007522432448392829
0.35686517411913166   0.022296172092160664   0.006669022032803852
0.35686517411913166   0.022296172092160664   0.006669022032803852
0.35686517411913166   0.022296172092160664   0.006669022032803852
0.35686517411913166   0.022296172092160664   0.006669022032803852
-0.01922630805268541   -0.03418569872032578   0.0019199848231397643
-0.01922630805268541   -0.03418569872032578   0.0019199848231397643
-0.01922630805268541   -0.03418569872032578   0.0019199848231397643
-0.01922630805268541   -0.03418569872032578   0.0019199848231397643
-0.042756850677493186   -0.0633795324879016   -0.011813003809158895
-0.042756850677493186   -0.0633795324879016   -0.011813003809158895
-0.042756850677493186   -0.0633795324879016   -0.011813003809158895
-0.042756850677493186   -0.0633795324879016   -0.011813003809158895
0.34852644834302837   0.038893156262874644   0.025298566643621075
0.34852644834302837   0.038893156262874644   0.025298566643621075
0.34852644834302837   0.038893156262874644   0.025298566643621075
0.34852644834302837   0.038893156262874644   0.025298566643621075
0.15747301696535299   -0.007455374004974286   -0.011478410626248131
0.15747301696535299   -0.007455374004974286   -0.011478410626248131
0.15747301696535299   -0.007455374004974286   -0.011478410626248131
0.15747301696535299   -0.007455374004974286   -0.011478410626248131
0.02532561829103419   0.04085615019617838   0.00881400509821078
0.02532561829103419   0.04085615019617838   0.00881400509821078
0.02532561829103419   0.04085615019617838   0.00881400509821078
0.02532561829103419   0.04085615019617838   0.00881400509821078
-0.3469665793447425   -0.022676865202619377   -0.011908748295060658
-0.3469665793447425   -0.022676865202619377   -0.011908748295060658
-0.3469665793447425   -0.022676865202619377   -0.011908748295060658
-0.3469665793447425   -0.022676865202619377   -0.011908748295060658
-0.3661025656357484   -0.04714836331968989   -0.010931005560744054
-0.3661025656357484   -0.04714836331968989   -0.010931005560744054
-0.3661025656357484   -0.04714836331968989   -0.010931005560744054
-0.3661025656357484   -0.04714836331968989   -0.010931005560744054
0.012911203129124261   0.046365853740966814   0.010279958520905392
0.012911203129124261   0.046365853740966814   0.010279958520905392
0.012911203129124261   0.046365853740966814   0.010279958520905392
0.012911203129124261   0.046365853740966814   0.010279958520905392
-0.16849357971416318   0.005110929858300889   0.0006697959394404256
-0.16849357971416318   0.005110929858300889   0.0006697959394404256
-0.16849357971416318   0.005110929858300889   0.0006697959394404256
-0.16849357971416318   0.005110929858300889   0.0006697959394404256
0.010293698585979253   0.0325239571216949   0.01103433242445226
0.010293698585979253   0.0325239571216949   0.01103433242445226
0.010293698585979253   0.0325239571216949   0.01103433242445226
0.010293698585979253   0.0325239571216949   0.01103433242445226
-0.36306271631012316   -0.032884121917937756   -0.009996000334369978
-0.36306271631012316   -0.032884121917937756   -0.009996000334369978
-0.36306271631012316   -0.032884121917937756   -0.009996000334369978
-0.36306271631012316   -0.032884121917937756   -0.009996000334369978
-0.38263660652241965   -0.055462795894273165   -0.009116110554271986
-0.38263660652241965   -0.055462795894273165   -0.009116110554271986
-0.38263660652241965   -0.055462795894273165   -0.009116110554271986
-0.38263660652241965   -0.055462795894273165   -0.009116110554271986
-0.0029880387662194197   0.036466852705983745   0.0124587798291621
-0.0029880387662194197   0.036466852705983745   0.0124587798291621
-0.0029880387662194197   0.036466852705983745   0.0124587798291621
-0.0029880387662194197   0.036466852705983745   0.0124587798291621
-0.1843382341666334   -0.003050307823320296   -0.0033711618789133355
-0.1843382341666334   -0.003050307823320296   -0.0033711618789133355
-0.1843382341666334   -0.003050307823320296   -0.0033711618789133355
-0.1843382341666334   -0.003050307823320296   -0.0033711618789133355
-0.005219622430002113   0.02449780489859236   0.01326990931763811
-0.005219622430002113   0.02449780489859236   0.01326990931763811
-0.005219622430002113   0.02449780489859236   0.01326990931763811
-0.005219622430002113   0.02449780489859236   0.01326990931763811
-0.3800453575610803   -0.043134082789325214   -0.008488578852521753
-0.3800453575610803   -0.043134082789325214   -0.008488578852521753
-0.3800453575610803   -0.043134082789325214   -0.008488578852521753
-0.3800453575610803   -0.043134082789325214   -0.008488578852521753
-0.39905307787521394   -0.061995554399451674   -0.00609594299465482
-0.39905307787521394   -0.061995554399451674   -0.00609594299465482
-0.39905307787521394   -0.061995554399451674   -0.00609594299465482
-0.39905307787521394   -0.061995554399451674   -0.00609594299465482
-0.019462322306337754   0.027141819868535005   0.014138285690181645
-0.019462322306337754   0.027141819868535005   0.014138285690181645
-0.019462322306337754   0.027141819868535005   0.014138285690181645
-0.019462322306337754   0.027141819868535005   0.014138285690181645
-0.20138902630966188   -0.011348632903411218   -0.007793587787935312
-0.20138902630966188   -0.011348632903411218   -0.007793587787935312
-0.20138902630966188   -0.011348632903411218   -0.007793587787935312
-0.20138902630966188   -0.011348632903411218   -0.007793587787935312
-0.3272612864813055   0.04806160657119064   0.015879244248320254
-0.3272612864813055   0.04806160657119064   0.015879244248320254
-0.3272612864813055   0.04806160657119064   0.015879244248320254
-0.3272612864813055   0.04806160657119064   0.015879244248320254
-0.6948428788686939   -0.03111684521427152   -0.01946448321462555
-0.6948428788686939   -0.03111684521427152   -0.01946448321462555
-0.6948428788686939   -0.03111684521427152   -0.01946448321462555
-0.6948428788686939   -0.03111684521427152   -0.01946448321462555
-0.7097500440618061   -0.03802604865548871   -0.003315346390657909
-0.7097500440618061   -0.03802604865548871   -0.003315346390657909
-0.7097500440618061   -0.03802604865548871   -0.003315346390657909
-0.7097500440618061   -0.03802604865548871   -0.003315346390657909
-0.3475508481954821   0.035141206121320004   -0.0004619878004205047
-0.3475508481954821   0.035141206121320004   -0.0004619878004205047
-0.3475508481954821   0.035141206121320004   -0.0004619878004205047
-0.3475508481954821   0.035141206121320004   -0.0004619878004205047
-0.516091338236004   0.005076859521442323   0.0037841100436883796
-0.516091338236004   0.005076859521442323   0.0037841100436883796
-0.516091338236004   0.005076859521442323   0.0037841100436883796
-0.516091338236004   0.005076859521442323   0.0037841100436883796
-0.3430155466873826   0.03954588772483915   0.01780983813655788
-0.3430155466873826   0.03954588772483915   0.01780983813655788
-0.3430155466873826   0.03954588772483915   0.01780983813655788
-0.3430155466873826   0.03954588772483915   0.01780983813655788
-0.7137205675714049   -0.0418659522605081   -0.019328060333638222
-0.7137205675714049   -0.0418659522605081   -0.019328060333638222
-0.7137205675714049   -0.0418659522605081   -0.019328060333638222
-0.7137205675714049   -0.0418659522605081   -0.019328060333638222
-0.7301053937839326   -0.04738167264893889   -0.0029907390065228856
-0.7301053937839326   -0.04738167264893889   -0.0029907390065228856
-0.7301053937839326   -0.04738167264893889   -0.0029907390065228856
-0.7301053937839326   -0.04738167264893889   -0.0029907390065228856
-0.3642867807345212   0.025695176105508838   0.0014750463854399203
-0.3642867807345212   0.025695176105508838   0.0014750463854399203
-0.3642867807345212   0.025695176105508838   0.0014750463854399203
-0.3642867807345212   0.025695176105508838   0.0014750463854399203
-0.5302875953150232   -0.0023563942853000314   0.0004748082638353808
-0.5302875953150232   -0.0023563942853000314   0.0004748082638353808
-0.5302875953150232   -0.0023563942853000314   0.0004748082638353808
-0.5302875953150232   -0.0023563942853000314   0.0004748082638353808
-0.3593144343226161   0.03148421496226447   0.02054773958820816
-0.3593144343226161   0.03148421496226447   0.02054773958820816
-0.3593144343226161   0.03148421496226447   0.02054773958820816
-0.3593144343226161   0.03148421496226447   0.02054773958820816
-0.7339181722156507   -0.05201114352551402   -0.017425160288544784
-0.7339181722156507   -0.05201114352551402   -0.017425160288544784
-0.7339181722156507   -0.05201114352551402   -0.017425160288544784
-0.7339181722156507   -0.05201114352551402   -0.017425160288544784
-0.7488346483584764   -0.05741148801966091   0.0017212184219602585
-0.7488346483584764   -0.05741148801966091   0.0017212184219602585
-0.7488346483584764   -0.05741148801966091   0.0017212184219602585
-0.7488346483584764   -0.05741148801966091   0.0017212184219602585
-0.38202354639531344   0.014427966722422317   0.002628193282981129
-0.38202354639531344   0.014427966722422317   0.002628193282981129
-0.38202354639531344   0.014427966722422317   0.002628193282981129
-0.38202354639531344   0.014427966722422317   0.002628193282981129
-0.5525976379105204   -0.012863082270528695   -0.00400131548797333
-0.5525976379105204   -0.012863082270528695   -0.00400131548797333
-0.5525976379105204   -0.012863082270528695   -0.00400131548797333
-0.5525976379105204   -0.012863082270528695   -0.00400131548797333
-0.6703388234807939   0.049805700878297055   0.022133247632301283
-0.6703388234807939   0.049805700878297055   0.022133247632301283
-0.6703388234807939   0.049805700878297055   0.022133247632301283
-0.6703388234807939   0.049805700878297055   0.022133247632301283
-1.026061918914856   -0.04751805436137049   -0.0177865782414664
-1.026061918914856   -0.04751805436137049   -0.0177865782414664
-1.026061918914856   -0.04751805436137049   -0.0177865782414664
-1.026061918914856   -0.04751805436137049   -0.0177865782414664
-1.0398782778526792   -0.021178465796342166   0.01876479862678803
-1.0398782778526792   -0.021178465796342166   0.01876479862678803
-1.0398782778526792   -0.021178465796342166   0.01876479862678803
-1.0398782778526792   -0.021178465796342166   0.01876479862678803
-0.6991999792664719   0.02126788598487625   -0.009858957054351601
-0.6991999792664719   0.02126788598487625   -0.009858957054351601
-0.6991999792664719   0.02126788598487625   -0.009858957054351601
-0.6991999792664719   0.02126788598487625   -0.009858957054351601
-0.8208710474636004   0.010254889322435623   0.018966886627120344
-0.8208710474636004   0.010254889322435623   0.018966886627120344
-0.8208710474636004   0.010254889322435623   0.018966886627120344
-0.8208710474636004   0.010254889322435623   0.018966886627120344
-0.6862155988559484   0.05088939706189444   0.0254414339212402
-0.6862155988559484   0.05088939706189444   0.0254414339212402
-0.6862155988559484   0.05088939706189444   0.0254414339212402
-0.6862155988559484   0.05088939706189444   0.0254414339212402
-1.0520975081709683   -0.05003482678112384   -0.013474991979855681
-1.0520975081709683   -0.05003482678112384   -0.013474991979855681
-1.0520975081709683   -0.05003482678112384   -0.013474991979855681
-1.0520975081709683   -0.05003482678112384   -0.013474991979855681
-1.0651698272862438   -0.026074964209308604   0.025912918775556758
-1.0651698272862438   -0.026074964209308604   0.025912918775556758
-1.0651698272862438   -0.026074964209308604   0.025912918775556758
-1.0651698272862438   -0.026074964209308604   0.025912918775556758
-0.7186157282149145   0.015841515166555215   -0.008765598976926907
-0.7186157282149145   0.015841515166555215   -0.008765598976926907
-0.7186157282149145   0.015841515166555215   -0.008765598976926907
-0.7186157282149145   0.015841515166555215   -0.008765598976926907
-0.855883756255117   0.005081126062546931   0.01230686238286622
-0.855883756255117   0.005081126062546931   0.01230686238286622
-0.855883756255117   0.005081126062546931   0.01230686238286622
-0.855883756255117   0.005081126062546931   0.01230686238286622
-0.7042713285058178   0.04723477894890632   0.03156313578620542
-0.7042713285058178   0.04723477894890632   0.03156313578620542
-0.7042713285058178   0.04723477894890632   0.03156313578620542
-0.7042713285058178   0.04723477894890632   0.03156313578620542
-1.078769974124461   -0.05672397512077754   -0.01143880450404424
-1.078769974124461   -0.05672397512077754   -0.01143880450404424
-1.078769974124461   -0.05672397512077754   -0.01143880450404424
-1.078769974124461   -0.05672397512077754   -0.01143880450404424
-1.099482034391243   -0.0472636440898235   0.025701383032676738
-1.099482034391243   -0.0472636440898235   0.025701383032676738
-1.099482034391243   -0.0472636440898235   0.025701383032676738
-1.099482034391243   -0.0472636440898235   0.025701383032676738
-0.7394619259114951   -0.0005791458668194527   -0.008247511495974337
-0.7394619259114951   -0.0005791458668194527   -0.008247511495974337
-0.7394619259114951   -0.0005791458668194527   -0.008247511495974337
-0.7394619259114951   -0.0005791458668194527   -0.008247511495974337
-0.8657842759289567   -0.0024321770976291623   0.010163752983651839
-0.8657842759289567   -0.0024321770976291623   0.010163752983651839
-0.8657842759289567   -0.0024321770976291623   0.010163752983651839
-0.8657842759289567   -0.0024321770976291623   0.010163752983651839
0.58945879863452   0.03292709962372084   -0.02774511057281092
0.58945879863452   0.03292709962372084   -0.02774511057281092
0.58945879863452   0.03292709962372084   -0.02774511057281092
0.58945879863452   0.03292709962372084   -0.02774511057281092
0.27990610238380165   0.005243465842491267   0.010489962171642787
0.27990610238380165   0.005243465842491267   0.010489962171642787
0.27990610238380165   0.005243465842491267   0.010489962171642787
0.27990610238380165   0.005243465842491267   0.010489962171642787
0.2491248752501678   -0.04747512400298659   -0.02640347531444366
0.2491248752501678   -0.04747512400298659   -0.02640347531444366
0.2491248752501678   -0.04747512400298659   -0.02640347531444366
0.2491248752501678   -0.04747512400298659   -0.02640347531444366
0.5769165918513897   0.053980121913516935   0.012984553226109505
0.5769165918513897   0.053980121913516935   0.012984553226109505
0.5769165918513897   0.053980121913516935   0.012984553226109505
0.5769165918513897   0.053980121913516935   0.012984553226109505
0.40196135617844075   0.005421053811892854   -0.011896288680489819
0.40196135617844075   0.005421053811892854   -0.011896288680489819
0.40196135617844075   0.005421053811892854   -0.011896288680489819
0.40196135617844075   0.005421053811892854   -0.011896288680489819
0.5612679634061709   0.014982079394841169   -0.02626054648130803
0.5612679634061709   0.014982079394841169   -0.02626054648130803
0.5612679634061709   0.014982079394841169   -0.02626054648130803
0.5612679634061709   0.014982079394841169   -0.02626054648130803
0.2644680789578158   -0.00878250622188189   0.011619925442689163
0.2644680789578158   -0.00878250622188189   0.011619925442689163
0.2644680789578158   -0.00878250622188189   0.011619925442689163
0.2644680789578158   -0.00878250622188189   0.011619925442689163
0.23476244103650484   -0.05208547112713369   -0.022545645904266158
0.23476244103650484   -0.05208547112713369   -0.022545645904266158
0.23476244103650484   -0.05208547112713369   -0.022545645904266158
0.23476244103650484   -0.05208547112713369   -0.022545645904266158
0.5545796616819371   0.047377920550662464   0.017127818166106132
0.5545796616819371   0.047377920550662464   0.017127818166106132
0.5545796616819371   0.047377920550662464   0.017127818166106132
0.5545796616819371   0.047377920550662464   0.017127818166106132
0.3892280842513844   -0.0026062869010339274   -0.01659817573611424
0.3892280842513844   -0.0026062869010339274   -0.01659817573611424
0.3892280842513844   -0.0026062869010339274   -0.01659817573611424
0.3892280842513844   -0.0026062869010339274   -0.01659817573611424
0.5392864487839873   0.009113662040522538   -0.021073987813498212
0.5392864487839873   0.009113662040522538   -0.021073987813498212
0.5392864487839873   0.009113662040522538   -0.021073987813498212
0.5392864487839873   0.009113662040522538   -0.021073987813498212
0.24966264852927733   -0.014214218022165485   0.014084138454626138
0.24966264852927733   -0.014214218022165485   0.014084138454626138
0.24966264852927733   -0.014214218022165485   0.014084138454626138
0.24966264852927733   -0.014214218022165485   0.014084138454626138
0.22183540410687225   -0.05481719841509394   -0.01878171313920368
0.22183540410687225   -0.05481719841509394   -0.01878171313920368
0.22183540410687225   -0.05481719841509394   -0.01878171313920368
0.22183540410687225   -0.05481719841509394   -0.01878171313920368
0.5293755448104915   0.04030843865120268   0.02038963546386953
0.5293755448104915   0.04030843865120268   0.02038963546386953
0.5293755448104915   0.04030843865120268   0.02038963546386953
0.5293755448104915   0.04030843865120268   0.02038963546386953
0.3636799076785759   -0.00863409255010214   -0.02362078190981081
0.3636799076785759   -0.00863409255010214   -0.02362078190981081
0.3636799076785759   -0.00863409255010214   -0.02362078190981081
0.3636799076785759   -0.00863409255010214   -0.02362078190981081
0.28474138802212084   0.041412503470991784   -0.0015026472652571992
0.28474138802212084   0.041412503470991784   -0.0015026472652571992
0.28474138802212084   0.041412503470991784   -0.0015026472652571992
0.28474138802212084   0.041412503470991784   -0.0015026472652571992
-0.01900205626953479   -0.0043063383948281865   -0.0002513480010561584
-0.01900205626953479   -0.0043063383948281865   -0.0002513480010561584
-0.01900205626953479   -0.0043063383948281865   -0.0002513480010561584
-0.01900205626953479   -0.0043063383948281865   -0.0002513480010561584
-0.04068880763444195   -0.03564990799459982   -0.01684319597892118
-0.04068880763444195   -0.03564990799459982   -0.01684319597892118
-0.04068880763444195   -0.03564990799459982   -0.01684319597892118
-0.04068880763444195   -0.03564990799459982   -0.01684319597892118
0.2774803111728928   0.049118724612691185   0.018779855683501
0.2774803111728928   0.049118724612691185   0.018779855683501
0.2774803111728928   0.049118724612691185   0.018779855683501
0.2774803111728928   0.049118724612691185   0.018779855683501
0.12369121275468932   0.0120715627881782   0.0009099055752870957
0.12369121275468932   0.0120715627881782   0.0009099055752870957
0.12369121275468932   0.0120715627881782   0.0009099055752870957
0.12369121275468932   0.0120715627881782   0.0009099055752870957
0.2701049536934853   0.030068201705501243   0.000953591193656917
0.2701049536934853   0.030068201705501243   0.000953591193656917
0.2701049536934853   0.030068201705501243   0.000953591193656917
0.2701049536934853   0.030068201705501243   0.000953591193656917
-0.033189152063800055   -0.016475086996174906   0.0014802608758633907
-0.033189152063800055   -0.016475086996174906   0.0014802608758633907
-0.033189152063800055   -0.016475086996174906   0.0014802608758633907
-0.033189152063800055   -0.016475086996174906   0.0014802608758633907
-0.054213299349913625   -0.04435731511474383   -0.013951105851722257
-0.054213299349913625   -0.04435731511474383   -0.013951105851722257
-0.054213299349913625   -0.04435731511474383   -0.013951105851722257
-0.054213299349913625   -0.04435731511474383   -0.013951105851722257
0.2615298639692762   0.03868101161924758   0.020524986013207125
0.2615298639692762   0.03868101161924758   0.020524986013207125
0.2615298639692762   0.03868101161924758   0.020524986013207125
0.2615298639692762   0.03868101161924758   0.020524986013207125
0.10698704364274603   0.001738099041200522   -0.004273884432273698
0.10698704364274603   0.001738099041200522   -0.004273884432273698
0.10698704364274603   0.001738099041200522   -0.004273884432273698
0.10698704364274603   0.001738099041200522   -0.004273884432273698
0.25440135261643426   0.020723770518766352   0.00283967034948078
0.25440135261643426   0.020723770518766352   0.00283967034948078
0.25440135261643426   0.020723770518766352   0.00283967034948078
0.25440135261643426   0.020723770518766352   0.00283967034948078
-0.04719261661005671   -0.026507902627247268   0.0033028953600657534
-0.04719261661005671   -0.026507902627247268   0.0033028953600657534
-0.04719261661005671   -0.026507902627247268   0.0033028953600657534
-0.04719261661005671   -0.026507902627247268   0.0033028953600657534
-0.06755568914972739   -0.05162993218212643   -0.011234738088628567
-0.06755568914972739   -0.05162993218212643   -0.011234738088628567
-0.06755568914972739   -0.05162993218212643   -0.011234738088628567
-0.06755568914972739   -0.05162993218212643   -0.011234738088628567
0.24680249115434683   0.029067977582501063   0.02216854610057335
0.24680249115434683   0.029067977582501063   0.02216854610057335
0.24680249115434683   0.029067977582501063   0.02216854610057335
0.24680249115434683   0.029067977582501063   0.02216854610057335
0.09423126087496927   -0.0060443666104328525   -0.008575625619527925
0.09423126087496927   -0.0060443666104328525   -0.008575625619527925
0.09423126087496927   -0.0060443666104328525   -0.008575625619527925
0.09423126087496927   -0.0060443666104328525   -0.008575625619527925
-0.006899813469222646   0.04909078596052635   0.00686274164514811
-0.006899813469222646   0.04909078596052635   0.00686274164514811
-0.006899813469222646   0.04909078596052635   0.00686274164514811
-0.006899813469222646   0.04909078596052635   0.00686274164514811
-0.31157082005826753   -0.01377245962022592   -0.01033111453821303
-0.31157082005826753   -0.01377245962022592   -0.01033111453821303
-0.31157082005826753   -0.01377245962022592   -0.01033111453821303
-0.31157082005826753   -0.01377245962022592   -0.01033111453821303
-0.3255429955008956   -0.024998655610803833   -0.00808838960792797
-0.3255429955008956   -0.024998655610803833   -0.00808838960792797
-0.3255429955008956   -0.024998655610803833   -0.00808838960792797
-0.3255429955008956   -0.024998655610803833   -0.00808838960792797
-0.02061404170798503   0.03966100255712014   0.00821972310164346
-0.02061404170798503   0.03966100255712014   0.00821972310164346
-0.02061404170798503   0.03966100255712014   0.00821972310164346
-0.02061404170798503   0.03966100255712014   0.00821972310164346
-0.16576143267244514   0.012566921030562048   0.00324626367339286
-0.16576143267244514   0.012566921030562048   0.00324626367339286
-0.16576143267244514   0.012566921030562048   0.00324626367339286
-0.16576143267244514   0.012566921030562048   0.00324626367339286
-0.020352808029659705   0.039578698845927594   0.00960819520446262
-0.020352808029659705   0.039578698845927594   0.00960819520446262
-0.020352808029659705   0.039578698845927594   0.00960819520446262
-0.020352808029659705   0.039578698845927594   0.00960819520446262
-0.32554531715851787   -0.024657439878903134   -0.00844121362794005
-0.32554531715851787   -0.024657439878903134   -0.00844121362794005
-0.32554531715851787   -0.024657439878903134   -0.00844121362794005
-0.32554531715851787   -0.024657439878903134   -0.00844121362794005
-0.33939754173286174   -0.03442086672941994   -0.005570314381213951
-0.33939754173286174   -0.03442086672941994   -0.005570314381213951
-0.33939754173286174   -0.03442086672941994   -0.005570314381213951
-0.33939754173286174   -0.03442086672941994   -0.005570314381213951
-0.03471819136056687   0.028914707137102227   0.010252411843165454
-0.03471819136056687   0.028914707137102227   0.010252411843165454
-0.03471819136056687   0.028914707137102227   0.010252411843165454
-0.03471819136056687   0.028914707137102227   0.010252411843165454
-0.179758817460963   0.0032502147693218575   -0.000950512899296329
-0.179758817460963   0.0032502147693218575   -0.000950512899296329
-0.179758817460963   0.0032502147693218575   -0.000950512899296329
-0.179758817460963   0.0032502147693218575   -0.000950512899296329
-0.034175380543151175   0.030094885831861838   0.011786287235484328
-0.034175380543151175   0.030094885831861838   0.011786287235484328
-0.034175380543151175   0.030094885831861838   0.011786287235484328
-0.034175380543151175   0.030094885831861838   0.011786287235484328
-0.3398682866934288   -0.0355289795673308   -0.006815926346137825
-0.3398682866934288   -0.0355289795673308   -0.006815926346137825
-0.3398682866934288   -0.0355289795673308   -0.006815926346137825
-0.3398682866934288   -0.0355289795673308   -0.006815926346137825
-0.3530825187312791   -0.04302470360440509   -0.0030741352495774824
-0.3530825187312791   -0.04302470360440509   -0.0030741352495774824
-0.3530825187312791   -0.04302470360440509   -0.0030741352495774824
-0.3530825187312791   -0.04302470360440509   -0.0030741352495774824
-0.04888438599775994   0.018521436234256346   0.011970409254825828
-0.04888438599775994   0.018521436234256346   0.011970409254825828
-0.04888438599775994   0.018521436234256346   0.011970409254825828
-0.04888438599775994   0.018521436234256346   0.011970409254825828
-0.19440220014010573   -0.006142151942604306   -0.005627944235182267
-0.19440220014010573   -0.006142151942604306   -0.005627944235182267
-0.19440220014010573   -0.006142151942604306   -0.005627944235182267
-0.19440220014010573   -0.006142151942604306   -0.005627944235182267
-0.2925655147470866   0.05618009561038953   0.01474285678707251
-0.2925655147470866   0.05618009561038953   0.01474285678707251
-0.2925655147470866   0.05618009561038953   0.01474285678707251
-0.2925655147470866   0.05618009561038953   0.01474285678707251
-0.5977420154129147   -0.023463055851030062   -0.018565882007761138
-0.5977420154129147   -0.023463055851030062   -0.018565882007761138
-0.5977420154129147   -0.023463055851030062   -0.018565882007761138
-0.5977420154129147   -0.023463055851030062   -0.018565882007761138
-0.6053650319999699   -0.016039939624061195   0.0014464672771613146
-0.6053650319999699   -0.016039939624061195   0.0014464672771613146
-0.6053650319999699   -0.016039939624061195   0.0014464672771613146
-0.6053650319999699   -0.016039939624061195   0.0014464672771613146
-0.3136792969946392   0.028524804428328485   -0.002293357115776485
-0.3136792969946392   0.028524804428328485   -0.002293357115776485
-0.3136792969946392   0.028524804428328485   -0.002293357115776485
-0.3136792969946392   0.028524804428328485   -0.002293357115776485
-0.44938471397286517   0.011856338283864606   0.005495596883439521
-0.44938471397286517   0.011856338283864606   0.005495596883439521
-0.44938471397286517   0.011856338283864606   0.005495596883439521
-0.44938471397286517   0.011856338283864606   0.005495596883439521
-0.3060458903324612   0.04701190948224179   0.01738657114119832
-0.3060458903324612   0.04701190948224179   0.01738657114119832
-0.3060458903324612   0.04701190948224179   0.01738657114119832
-0.3060458903324612   0.04701190948224179   0.01738657114119832
-0.6129352246030363   -0.034463830618868416   -0.01798060474336383
-0.6129352246030363   -0.034463830618868416   -0.01798060474336383
-0.6129352246030363   -0.034463830618868416   -0.01798060474336383
-0.6129352246030363   -0.034463830618868416   -0.01798060474336383
-0.6215026840831462   -0.025567992164667777   0.002375108383181928
-0.6215026840831462   -0.025567992164667777   0.002375108383181928
-0.6215026840831462   -0.025567992164667777   0.002375108383181928
-0.6215026840831462   -0.025567992164667777   0.002375108383181928
-0.3277319284525758   0.018569944334809158   -0.00023305904400917551
-0.3277319284525758   0.018569944334809158   -0.00023305904400917551
-0.3277319284525758   0.018569944334809158   -0.00023305904400917551
-0.3277319284525758   0.018569944334809158   -0.00023305904400917551
-0.4611708636333044   0.0035741221107675747   0.0015957090231353485
-0.4611708636333044   0.0035741221107675747   0.0015957090231353485
-0.4611708636333044   0.0035741221107675747   0.0015957090231353485
-0.4611708636333044   0.0035741221107675747   0.0015957090231353485
-0.31977566384723977   0.03827169322447217   0.019846515093005834
-0.31977566384723977   0.03827169322447217   0.019846515093005834
-0.31977566384723977   0.03827169322447217   0.019846515093005834
-0.31977566384723977   0.03827169322447217   0.019846515093005834
-0.629052547662175   -0.0448633400280289   -0.016078861648600267
-0.629052547662175   -0.0448633400280289   -0.016078861648600267
-0.629052547662175   -0.0448633400280289   -0.016078861648600267
-0.629052547662175   -0.0448633400280289   -0.016078861648600267
-0.6361256258145884   -0.035844762790286214   0.005366625138713447
-0.6361256258145884   -0.035844762790286214   0.005366625138713447
-0.6361256258145884   -0.035844762790286214   0.005366625138713447
-0.6361256258145884   -0.035844762790286214   0.005366625138713447
-0.3421806345279062   0.007152651802042623   0.0012579303608415589
-0.3421806345279062   0.007152651802042623   0.0012579303608415589
-0.3421806345279062   0.007152651802042623   0.0012579303608415589
-0.3421806345279062   0.007152651802042623   0.0012579303608415589
-0.479257136813933   -0.0068733410194531525   -0.0033795163916790286
-0.479257136813933   -0.0068733410194531525   -0.0033795163916790286
-0.479257136813933   -0.0068733410194531525   -0.0033795163916790286
-0.479257136813933   -0.0068733410194531525   -0.0033795163916790286
-0.5751016124146568   0.05038828167788534   0.02078479545461323
-0.5751016124146568   0.05038828167788534   0.02078479545461323
-0.5751016124146568   0.05038828167788534   0.02078479545461323
-0.5751016124146568   0.05038828167788534   0.02078479545461323
-0.8704811910256666   -0.040241934842613986   -0.020292192025985957
-0.8704811910256666   -0.040241934842613986   -0.020292192025985957
-0.8704811910256666   -0.040241934842613986   -0.020292192025985957
-0.8704811910256666   -0.040241934842613986   -0.020292192025985957
-0.8799637265225635   -0.009089310243352605   0.019118809060595716
-0.8799637265225635   -0.009089310243352605   0.019118809060595716
-0.8799637265225635   -0.009089310243352605   0.019118809060595716
-0.8799637265225635   -0.009089310243352605   0.019118809060595716
-0.6018825313384677   0.014600337486063375   -0.011781306525452874
-0.6018825313384677   0.014600337486063375   -0.011781306525452874
-0.6018825313384677   0.014600337486063375   -0.011781306525452874
-0.6018825313384677   0.014600337486063375   -0.011781306525452874
-0.6994416493353479   0.011210300067140078   0.017216208224444522
-0.6994416493353479   0.011210300067140078   0.017216208224444522
-0.6994416493353479   0.011210300067140078   0.017216208224444522
-0.6994416493353479   0.011210300067140078   0.017216208224444522
-0.5874767870112679   0.05046155530509558   0.02438619729151028
-0.5874767870112679   0.05046155530509558   0.02438619729151028
-0.5874767870112679   0.05046155530509558   0.02438619729151028
-0.5874767870112679   0.05046155530509558   0.02438619729151028
-0.8941338317993917   -0.04471488901200679   -0.016106138554879752
-0.8941338317993917   -0.04471488901200679   -0.016106138554879752
-0.8941338317993917   -0.04471488901200679   -0.016106138554879752
-0.8941338317993917   -0.04471488901200679   -0.016106138554879752
-0.9011075183396845   -0.01412263416092538   0.023905444510440195
-0.9011075183396845   -0.01412263416092538   0.023905444510440195
-0.9011075183396845   -0.01412263416092538   0.023905444510440195
-0.9011075183396845   -0.01412263416092538   0.023905444510440195
-0.6170517086782049   0.009144273898204103   -0.010082280654983046
-0.6170517086782049   0.009144273898204103   -0.010082280654983046
-0.6170517086782049   0.009144273898204103   -0.010082280654983046
-0.6170517086782049   0.009144273898204103   -0.010082280654983046
-0.7291668375328633   0.005607688638265745   0.010574798589835468
-0.7291668375328633   0.005607688638265745   0.010574798589835468
-0.7291668375328633   0.005607688638265745   0.010574798589835468
-0.7291668375328633   0.005607688638265745   0.010574798589835468
-0.6017716516229957   0.04671325498681478   0.028749023532452185
-0.6017716516229957   0.04671325498681478   0.028749023532452185
-0.6017716516229957   0.04671325498681478   0.028749023532452185
-0.6017716516229957   0.04671325498681478   0.028749023532452185
-0.9159904760095233   -0.05129451586416428   -0.013337462135506649
-0.9159904760095233   -0.05129451586416428   -0.013337462135506649
-0.9159904760095233   -0.05129451586416428   -0.013337462135506649
-0.9159904760095233   -0.05129451586416428   -0.013337462135506649
-0.9290185418374537   -0.032155949330541694   0.0234250871114038
-0.9290185418374537   -0.032155949330541694   0.0234250871114038
-0.9290185418374537   -0.032155949330541694   0.0234250871114038
-0.9290185418374537   -0.032155949330541694   0.0234250871114038
-0.633087844296181   -0.006146647574783115   -0.009142582484752311
-0.633087844296181   -0.006146647574783115   -0.009142582484752311
-0.633087844296181   -0.006146647574783115   -0.009142582484752311
-0.633087844296181   -0.006146647574783115   -0.009142582484752311
-0.7365828544724975   -0.0014083274954053704   0.008403170868844151
-0.7365828544724975   -0.0014083274954053704   0.008403170868844151
-0.7365828544724975   -0.0014083274954053704   0.008403170868844151
-0.7365828544724975   -0.0014083274954053704   0.008403170868844151
0.4073344209718665   0.023214120895079217   -0.027085081153482286
0.4073344209718665   0.023214120895079217   -0.027085081153482286
0.4073344209718665   0.023214120895079217   -0.027085081153482286
0.4073344209718665   0.023214120895079217   -0.027085081153482286
0.17396798060793783   0.010742986184757393   0.011547706383748177
0.17396798060793783   0.010742986184757393   0.011547706383748177
0.17396798060793783   0.010742986184757393   0.011547706383748177
0.17396798060793783   0.010742986184757393   0.011547706383748177
0.14610943579220018   -0.03983524250685208   -0.025285112816546173
0.14610943579220018   -0.03983524250685208   -0.025285112816546173
0.14610943579220018   -0.03983524250685208   -0.025285112816546173
0.14610943579220018   -0.03983524250685208   -0.025285112816546173
0.39798890225632827   0.046017415981853695   0.014039435832047373
0.39798890225632827   0.046017415981853695   0.014039435832047373
0.39798890225632827   0.046017415981853695   0.014039435832047373
0.39798890225632827   0.046017415981853695   0.014039435832047373
0.2664588332564172   0.005887654768824725   -0.007273119937509476
0.2664588332564172   0.005887654768824725   -0.007273119937509476
0.2664588332564172   0.005887654768824725   -0.007273119937509476
0.2664588332564172   0.005887654768824725   -0.007273119937509476
0.38240175616438843   0.0074203903347787314   -0.02529926898058035
0.38240175616438843   0.0074203903347787314   -0.02529926898058035
0.38240175616438843   0.0074203903347787314   -0.02529926898058035
0.38240175616438843   0.0074203903347787314   -0.02529926898058035
0.16140310606246383   -0.0015316926814534504   0.012879688709376043
0.16140310606246383   -0.0015316926814534504   0.012879688709376043
0.16140310606246383   -0.0015316926814534504   0.012879688709376043
0.16140310606246383   -0.0015316926814534504   0.012879688709376043
0.1342641225384517   -0.0444204414902263   -0.02154845289485234
0.1342641225384517   -0.0444204414902263   -0.02154845289485234
0.1342641225384517   -0.0444204414902263   -0.02154845289485234
0.1342641225384517   -0.0444204414902263   -0.02154845289485234
0.37848661179271803   0.03950697529139555   0.018138622057731854
0.37848661179271803   0.03950697529139555   0.018138622057731854
0.37848661179271803   0.03950697529139555   0.018138622057731854
0.37848661179271803   0.03950697529139555   0.018138622057731854
0.2543074705660751   -0.0016993014977366439   -0.011749040207907693
0.2543074705660751   -0.0016993014977366439   -0.011749040207907693
0.2543074705660751   -0.0016993014977366439   -0.011749040207907693
0.2543074705660751   -0.0016993014977366439   -0.011749040207907693
0.36314423129004375   0.0015433415051775562   -0.020609646669425066
0.36314423129004375   0.0015433415051775562   -0.020609646669425066
0.36314423129004375   0.0015433415051775562   -0.020609646669425066
0.36314423129004375   0.0015433415051775562   -0.020609646669425066
0.14916875512503064   -0.006894555620104034   0.01544882416792129
0.14916875512503064   -0.006894555620104034   0.01544882416792129
0.14916875512503064   -0.006894555620104034   0.01544882416792129
0.14916875512503064   -0.006894555620104034   0.01544882416792129
0.12368923733538853   -0.04850030205472453   -0.017967760590663434
0.12368923733538853   -0.04850030205472453   -0.017967760590663434
0.12368923733538853   -0.04850030205472453   -0.017967760590663434
0.12368923733538853   -0.04850030205472453   -0.017967760590663434
0.3556962964433846   0.031006675958268302   0.020738196150900938
0.3556962964433846   0.031006675958268302   0.020738196150900938
0.3556962964433846   0.031006675958268302   0.020738196150900938
0.3556962964433846   0.031006675958268302   0.020738196150900938
0.23347207350418095   -0.007891007629100562   -0.017942407095531743
0.23347207350418095   -0.007891007629100562   -0.017942407095531743
0.23347207350418095   -0.007891007629100562   -0.017942407095531743
0.23347207350418095   -0.007891007629100562   -0.017942407095531743
0.17528993315628427   0.0336520167938282   -0.0047515614835933005
0.17528993315628427   0.0336520167938282   -0.0047515614835933005
0.17528993315628427   0.0336520167938282   -0.0047515614835933005
0.17528993315628427   0.0336520167938282   -0.0047515614835933005
-0.05335721351246033   0.002672749913784401   0.0014868708542607745
-0.05335721351246033   0.002672749913784401   0.0014868708542607745
-0.05335721351246033   0.002672749913784401   0.0014868708542607745
-0.05335721351246033   0.002672749913784401   0.0014868708542607745
-0.07240407468661143   -0.027737729684386488   -0.015618029942383146
-0.07240407468661143   -0.027737729684386488   -0.015618029942383146
-0.07240407468661143   -0.027737729684386488   -0.015618029942383146
-0.07240407468661143   -0.027737729684386488   -0.015618029942383146
0.1705760757182842   0.040410096781798736   0.01680274752522572
0.1705760757182842   0.040410096781798736   0.01680274752522572
0.1705760757182842   0.040410096781798736   0.01680274752522572
0.1705760757182842   0.040410096781798736   0.01680274752522572
0.05382349014938107   0.011649855042863142   0.002075892269852842
0.05382349014938107   0.011649855042863142   0.002075892269852842
0.05382349014938107   0.011649855042863142   0.002075892269852842
0.05382349014938107   0.011649855042863142   0.002075892269852842
0.16302320265678716   0.021967522977231063   -0.002519043977693977
0.16302320265678716   0.021967522977231063   -0.002519043977693977
0.16302320265678716   0.021967522977231063   -0.002519043977693977
0.16302320265678716   0.021967522977231063   -0.002519043977693977
-0.06496692743977728   -0.009410881694481758   0.003240858301884746
-0.06496692743977728   -0.009410881694481758   0.003240858301884746
-0.06496692743977728   -0.009410881694481758   0.003240858301884746
-0.06496692743977728   -0.009410881694481758   0.003240858301884746
-0.0834164200501108   -0.03694508067885832   -0.012659191457935443
-0.0834164200501108   -0.03694508067885832   -0.012659191457935443
-0.0834164200501108   -0.03694508067885832   -0.012659191457935443
-0.0834164200501108   -0.03694508067885832   -0.012659191457935443
0.15706289605586027   0.029755823298016085   0.018269149903949233
0.15706289605586027   0.029755823298016085   0.018269149903949233
0.15706289605586027   0.029755823298016085   0.018269149903949233
0.15706289605586027   0.029755823298016085   0.018269149903949233
0.04021434042854479   0.0011968788412498599   -0.00294483938103039
0.04021434042854479   0.0011968788412498599   -0.00294483938103039
0.04021434042854479   0.0011968788412498599   -0.00294483938103039
0.04021434042854479   0.0011968788412498599   -0.00294483938103039
0.1497489165660627   0.012092366738798717   -0.0006372909858237547
0.1497489165660627   0.012092366738798717   -0.0006372909858237547
0.1497489165660627   0.012092366738798717   -0.0006372909858237547
0.1497489165660627   0.012092366738798717   -0.0006372909858237547
-0.07639047862919307   -0.01956966218851833   0.005095097156315133
-0.07639047862919307   -0.01956966218851833   0.005095097156315133
-0.07639047862919307   -0.01956966218851833   0.005095097156315133
-0.07639047862919307   -0.01956966218851833   0.005095097156315133
-0.0942785075734436   -0.04556715817146263   -0.009926133941454699
-0.0942785075734436   -0.04556715817146263   -0.009926133941454699
-0.0942785075734436   -0.04556715817146263   -0.009926133941454699
-0.0942785075734436   -0.04556715817146263   -0.009926133941454699
0.14486878109081486   0.019551596372206742   0.019878059759540285
0.14486878109081486   0.019551596372206742   0.019878059759540285
0.14486878109081486   0.019551596372206742   0.019878059759540285
0.14486878109081486   0.019551596372206742   0.019878059759540285
0.029331937770737306   -0.0074363717125272635   -0.0073664385473327515
0.029331937770737306   -0.0074363717125272635   -0.0073664385473327515
0.029331937770737306   -0.0074363717125272635   -0.0073664385473327515
0.029331937770737306   -0.0074363717125272635   -0.0073664385473327515
-0.04492730345371926   0.04240358401723006   0.0039055870445185974
-0.04492730345371926   0.04240358401723006   0.0039055870445185974
-0.04492730345371926   0.04240358401723006   0.0039055870445185974
-0.04492730345371926   0.04240358401723006   0.0039055870445185974
-0.2772673815360907   -0.007240661588572533   -0.008456483379143374
-0.2772673815360907   -0.007240661588572533   -0.008456483379143374
-0.2772673815360907   -0.007240661588572533   -0.008456483379143374
-0.2772673815360907   -0.007240661588572533   -0.008456483379143374
-0.28814979953534153   -0.0167381013860379   -0.0062400387867902335
-0.28814979953534153   -0.0167381013860379   -0.0062400387867902335
-0.28814979953534153   -0.0167381013860379   -0.0062400387867902335
-0.28814979953534153   -0.0167381013860379   -0.0062400387867902335
-0.05626660877093983   0.030800940109816984   0.0065306298417713935
-0.05626660877093983   0.030800940109816984   0.0065306298417713935
-0.05626660877093983   0.030800940109816984   0.0065306298417713935
-0.05626660877093983   0.030800940109816984   0.0065306298417713935
-0.16624318277777977   0.012104178452602123   0.003307798475998264
-0.16624318277777977   0.012104178452602123   0.003307798475998264
-0.16624318277777977   0.012104178452602123   0.003307798475998264
-0.16624318277777977   0.012104178452602123   0.003307798475998264
-0.05593853224410643   0.03228879195559853   0.006683160630156802
-0.05593853224410643   0.03228879195559853   0.006683160630156802
-0.05593853224410643   0.03228879195559853   0.006683160630156802
-0.05593853224410643   0.03228879195559853   0.006683160630156802
-0.2885138474825619   -0.018261924652209015   -0.0065364552567211045
-0.2885138474825619   -0.018261924652209015   -0.0065364552567211045
-0.2885138474825619   -0.018261924652209015   -0.0065364552567211045
-0.2885138474825619   -0.018261924652209015   -0.0065364552567211045
-0.2992789718416584   -0.026770023589069457   -0.0036104613066014184
-0.2992789718416584   -0.026770023589069457   -0.0036104613066014184
-0.2992789718416584   -0.026770023589069457   -0.0036104613066014184
-0.2992789718416584   -0.026770023589069457   -0.0036104613066014184
-0.06782433457540377   0.019837168352571356   0.008518986884170073
-0.06782433457540377   0.019837168352571356   0.008518986884170073
-0.06782433457540377   0.019837168352571356   0.008518986884170073
-0.06782433457540377   0.019837168352571356   0.008518986884170073
-0.17768375798253674   0.002322825082795632   -0.0010013357956095096
-0.17768375798253674   0.002322825082795632   -0.0010013357956095096
-0.17768375798253674   0.002322825082795632   -0.0010013357956095096
-0.17768375798253674   0.002322825082795632   -0.0010013357956095096
-0.06725872228969464   0.02216080159641782   0.009023415068871185
-0.06725872228969464   0.02216080159641782   0.009023415068871185
-0.06725872228969464   0.02216080159641782   0.009023415068871185
-0.06725872228969464   0.02216080159641782   0.009023415068871185
-0.30002939027476483   -0.029278462980315445   -0.0048541140808875255
-0.30002939027476483   -0.029278462980315445   -0.0048541140808875255
-0.30002939027476483   -0.029278462980315445   -0.0048541140808875255
-0.30002939027476483   -0.029278462980315445   -0.0048541140808875255
-0.31021455348497073   -0.03634849570036136   -0.0010490829310519567
-0.31021455348497073   -0.03634849570036136   -0.0010490829310519567
-0.31021455348497073   -0.03634849570036136   -0.0010490829310519567
-0.31021455348497073   -0.03634849570036136   -0.0010490829310519567
-0.0792894100489161   0.009185793499703446   0.010266402010014886
-0.0792894100489161   0.009185793499703446   0.010266402010014886
-0.0792894100489161   0.009185793499703446   0.010266402010014886
-0.0792894100489161   0.009185793499703446   0.010266402010014886
-0.18960098445871726   -0.00746721971692306   -0.0056754411161022665
-0.18960098445871726   -0.00746721971692306   -0.0056754411161022665
-0.18960098445871726   -0.00746721971692306   -0.0056754411161022665
-0.18960098445871726   -0.00746721971692306   -0.0056754411161022665
-0.26165992920544423   0.049945467607599575   0.012394649077916535
-0.26165992920544423   0.049945467607599575   0.012394649077916535
-0.26165992920544423   0.049945467607599575   0.012394649077916535
-0.26165992920544423   0.049945467607599575   0.012394649077916535
-0.4974434062601961   -0.01713065875617442   -0.017138490771923504
-0.4974434062601961   -0.01713065875617442   -0.017138490771923504
-0.4974434062601961   -0.01713065875617442   -0.017138490771923504
-0.4974434062601961   -0.01713065875617442   -0.017138490771923504
-0.5015162786185796   -0.007822442884418648   0.003807387944428347
-0.5015162786185796   -0.007822442884418648   0.003807387944428347
-0.5015162786185796   -0.007822442884418648   0.003807387944428347
-0.5015162786185796   -0.007822442884418648   0.003807387944428347
-0.2802519967156603   0.020096790019095867   -0.003585916093523628
-0.2802519967156603   0.020096790019095867   -0.003585916093523628
-0.2802519967156603   0.020096790019095867   -0.003585916093523628
-0.2802519967156603   0.020096790019095867   -0.003585916093523628
-0.38291210894782585   0.011375823158246465   0.0047876518213130805
-0.38291210894782585   0.011375823158246465   0.0047876518213130805
-0.38291210894782585   0.011375823158246465   0.0047876518213130805
-0.38291210894782585   0.011375823158246465   0.0047876518213130805
-0.2724716702703189   0.040256252022337416   0.015156254129947862
-0.2724716702703189   0.040256252022337416   0.015156254129947862
-0.2724716702703189   0.040256252022337416   0.015156254129947862
-0.2724716702703189   0.040256252022337416   0.015156254129947862
-0.5096442467063607   -0.028329546530098823   -0.016325348848796703
-0.5096442467063607   -0.028329546530098823   -0.016325348848796703
-0.5096442467063607   -0.028329546530098823   -0.016325348848796703
-0.5096442467063607   -0.028329546530098823   -0.016325348848796703
-0.5146442357549245   -0.017762326548804483   0.005017893840271324
-0.5146442357549245   -0.017762326548804483   0.005017893840271324
-0.5146442357549245   -0.017762326548804483   0.005017893840271324
-0.5146442357549245   -0.017762326548804483   0.005017893840271324
-0.2915021449105554   0.009987816309763684   -0.001484166549925458
-0.2915021449105554   0.009987816309763684   -0.001484166549925458
-0.2915021449105554   0.009987816309763684   -0.001484166549925458
-0.2915021449105554   0.009987816309763684   -0.001484166549925458
-0.3925066304073315   0.0025273862533895936   0.00047330519205160057
-0.3925066304073315   0.0025273862533895936   0.00047330519205160057
-0.3925066304073315   0.0025273862533895936   0.00047330519205160057
-0.3925066304073315   0.0025273862533895936   0.00047330519205160057
-0.28344028630832085   0.031031227605554185   0.017781715165460944
-0.28344028630832085   0.031031227605554185   0.017781715165460944
-0.28344028630832085   0.031031227605554185   0.017781715165460944
-0.28344028630832085   0.031031227605554185   0.017781715165460944
-0.522740527086463   -0.03884017057389827   -0.014385718792327595
-0.522740527086463   -0.03884017057389827   -0.014385718792327595
-0.522740527086463   -0.03884017057389827   -0.014385718792327595
-0.522740527086463   -0.03884017057389827   -0.014385718792327595
-0.5263183208453562   -0.028373272072439434   0.007765997305881376
-0.5263183208453562   -0.028373272072439434   0.007765997305881376
-0.5263183208453562   -0.028373272072439434   0.007765997305881376
-0.5263183208453562   -0.028373272072439434   0.007765997305881376
-0.30295190431710495   -0.00125117374899808   0.00016684095690772116
-0.30295190431710495   -0.00125117374899808   0.00016684095690772116
-0.30295190431710495   -0.00125117374899808   0.00016684095690772116
-0.30295190431710495   -0.00125117374899808   0.00016684095690772116
-0.4070121194753912   -0.007791929804456185   -0.004553634745875029
-0.4070121194753912   -0.007791929804456185   -0.004553634745875029
-0.4070121194753912   -0.007791929804456185   -0.004553634745875029
-0.4070121194753912   -0.007791929804456185   -0.004553634745875029
-0.47743623094598947   0.046315700822588166   0.019451026220347563
-0.47743623094598947   0.046315700822588166   0.019451026220347563
-0.47743623094598947   0.046315700822588166   0.019451026220347563
-0.47743623094598947   0.046315700822588166   0.019451026220347563
-0.705132522670624   -0.03256357095733983   -0.022090821920351986
-0.705132522670624   -0.03256357095733983   -0.022090821920351986
-0.705132522670624   -0.03256357095733983   -0.022090821920351986
-0.705132522670624   -0.03256357095733983   -0.022090821920351986
-0.7117990537116049   -0.0011751887525038585   0.01925758465484819
-0.7117990537116049   -0.0011751887525038585   0.01925758465484819
-0.7117990537116049   -0.0011751887525038585   0.01925758465484819
-0.7117990537116049   -0.0011751887525038585   0.01925758465484819
-0.5019432495305468   0.007052015145771154   -0.013201924645604716
-0.5019432495305468   0.007052015145771154   -0.013201924645604716
-0.5019432495305468   0.007052015145771154   -0.013201924645604716
-0.5019432495305468   0.007052015145771154   -0.013201924645604716
-0.5726787923601172   0.010624738084298868   0.014577070243731935
-0.5726787923601172   0.010624738084298868   0.014577070243731935
-0.5726787923601172   0.010624738084298868   0.014577070243731935
-0.5726787923601172   0.010624738084298868   0.014577070243731935
-0.48722798865623934   0.04447732191828488   0.02294907295342622
-0.48722798865623934   0.04447732191828488   0.02294907295342622
-0.48722798865623934   0.04447732191828488   0.02294907295342622
-0.48722798865623934   0.04447732191828488   0.02294907295342622
-0.7268136256995346   -0.03889980663863722   -0.01809065739865884
-0.7268136256995346   -0.03889980663863722   -0.01809065739865884
-0.7268136256995346   -0.03889980663863722   -0.01809065739865884
-0.7268136256995346   -0.03889980663863722   -0.01809065739865884
-0.7303717367448191   -0.006651483262953062   0.02425896160584532
-0.7303717367448191   -0.006651483262953062   0.02425896160584532
-0.7303717367448191   -0.006651483262953062   0.02425896160584532
-0.7303717367448191   -0.006651483262953062   0.02425896160584532
-0.5140406191081734   0.0015103037902980676   -0.011236653265080068
-0.5140406191081734   0.0015103037902980676   -0.011236653265080068
-0.5140406191081734   0.0015103037902980676   -0.011236653265080068
-0.5140406191081734   0.0015103037902980676   -0.011236653265080068
-0.5978722016474926   0.004344084973221196   0.007743497759527165
-0.5978722016474926   0.004344084973221196   0.007743497759527165
-0.5978722016474926   0.004344084973221196   0.007743497759527165
-0.5978722016474926   0.004344084973221196   0.007743497759527165
-0.4986405581107192   0.04024812603766373   0.027025829474829406
-0.4986405581107192   0.04024812603766373   0.027025829474829406
-0.4986405581107192   0.04024812603766373   0.027025829474829406
-0.4986405581107192   0.04024812603766373   0.027025829474829406
-0.7459868519359913   -0.04560435970403609   -0.014863737908932959
-0.7459868519359913   -0.04560435970403609   -0.014863737908932959
-0.7459868519359913   -0.04560435970403609   -0.014863737908932959
-0.7459868519359913   -0.04560435970403609   -0.014863737908932959
-0.7552172236336223   -0.023884154836270488   0.024299260545252103
-0.7552172236336223   -0.023884154836270488   0.024299260545252103
-0.7552172236336223   -0.023884154836270488   0.024299260545252103
-0.7552172236336223   -0.023884154836270488   0.024299260545252103
-0.52671111581671   -0.012632872666451203   -0.009938376956887589
-0.52671111581671   -0.012632872666451203   -0.009938376956887589
-0.52671111581671   -0.012632872666451203   -0.009938376956887589
-0.52671111581671   -0.012632872666451203   -0.009938376956887589
-0.6047983792735853   -0.002859450071694275   0.004530457676634285
-0.6047983792735853   -0.002859450071694275   0.004530457676634285
-0.6047983792735853   -0.002859450071694275   0.004530457676634285
-0.6047983792735853   -0.002859450071694275   0.004530457676634285
0.2269279688394261   0.013698120567463175   -0.026636609934211165
0.2269279688394261   0.013698120567463175   -0.026636609934211165
0.2269279688394261   0.013698120567463175   -0.026636609934211165
0.2269279688394261   0.013698120567463175   -0.026636609934211165
0.0668385872208741   0.01587104437597832   0.01267103267737669
0.0668385872208741   0.01587104437597832   0.01267103267737669
0.0668385872208741   0.01587104437597832   0.01267103267737669
0.0668385872208741   0.01587104437597832   0.01267103267737669
0.042085750304195646   -0.03267350933101317   -0.02351203878015437
0.042085750304195646   -0.03267350933101317   -0.02351203878015437
0.042085750304195646   -0.03267350933101317   -0.02351203878015437
0.042085750304195646   -0.03267350933101317   -0.02351203878015437
0.22086860196055208   0.03817769984784042   0.015242411036263552
0.22086860196055208   0.03817769984784042   0.015242411036263552
0.22086860196055208   0.03817769984784042   0.015242411036263552
0.22086860196055208   0.03817769984784042   0.015242411036263552
0.13108743847378057   0.006385187402770307   -0.0030055081131870123
0.13108743847378057   0.006385187402770307   -0.0030055081131870123
0.13108743847378057   0.006385187402770307   -0.0030055081131870123
0.13108743847378057   0.006385187402770307   -0.0030055081131870123
0.2052472144833373   -0.00023014503295693683   -0.024456681469014883
0.2052472144833373   -0.00023014503295693683   -0.024456681469014883
0.2052472144833373   -0.00023014503295693683   -0.024456681469014883
0.2052472144833373   -0.00023014503295693683   -0.024456681469014883
0.057220121509226014   0.005247319277599586   0.014238988636385445
0.057220121509226014   0.005247319277599586   0.014238988636385445
0.057220121509226014   0.005247319277599586   0.014238988636385445
0.057220121509226014   0.005247319277599586   0.014238988636385445
0.03275125179453331   -0.03726738525142881   -0.01999782065820523
0.03275125179453331   -0.03726738525142881   -0.01999782065820523
0.03275125179453331   -0.03726738525142881   -0.01999782065820523
0.03275125179453331   -0.03726738525142881   -0.01999782065820523
0.20408719119972066   0.031842505922668775   0.019621394114497072
0.20408719119972066   0.031842505922668775   0.019621394114497072
0.20408719119972066   0.031842505922668775   0.019621394114497072
0.20408719119972066   0.031842505922668775   0.019621394114497072
0.1194552356350872   -0.0008071540501825708   -0.007647046261448458
0.1194552356350872   -0.0008071540501825708   -0.007647046261448458
0.1194552356350872   -0.0008071540501825708   -0.007647046261448458
0.1194552356350872   -0.0008071540501825708   -0.007647046261448458
0.18854365971139647   -0.006133409181088768   -0.020120348223368195
0.18854365971139647   -0.006133409181088768   -0.020120348223368195
0.18854365971139647   -0.006133409181088768   -0.020120348223368195
0.18854365971139647   -0.006133409181088768   -0.020120348223368195
0.04763924335431173   5.298992378277058e-05   0.017121761965475983
0.04763924335431173   5.298992378277058e-05   0.017121761965475983
0.04763924335431173   5.298992378277058e-05   0.017121761965475983
0.04763924335431173   5.298992378277058e-05   0.017121761965475983
0.024413304001104925   -0.042731492444725454   -0.01666965342178814
0.024413304001104925   -0.042731492444725454   -0.01666965342178814
0.024413304001104925   -0.042731492444725454   -0.01666965342178814
0.024413304001104925   -0.042731492444725454   -0.01666965342178814
0.1832844543022058   0.02176013859981363   0.021817692533408123
0.1832844543022058   0.02176013859981363   0.021817692533408123
0.1832844543022058   0.02176013859981363   0.021817692533408123
0.1832844543022058   0.02176013859981363   0.021817692533408123
0.10317262934778657   -0.007179441042117891   -0.01335799678867819
0.10317262934778657   -0.007179441042117891   -0.01335799678867819
0.10317262934778657   -0.007179441042117891   -0.01335799678867819
0.10317262934778657   -0.007179441042117891   -0.01335799678867819
0.06449250519762313   0.024423044060304835   -0.007611377123205178
0.06449250519762313   0.024423044060304835   -0.007611377123205178
0.06449250519762313   0.024423044060304835   -0.007611377123205178
0.06449250519762313   0.024423044060304835   -0.007611377123205178
-0.0899552391556083   0.007646285449078402   0.0030194424029226126
-0.0899552391556083   0.007646285449078402   0.0030194424029226126
-0.0899552391556083   0.007646285449078402   0.0030194424029226126
-0.0899552391556083   0.007646285449078402   0.0030194424029226126
-0.10590906677451695   -0.020999053310404338   -0.01375786044298849
-0.10590906677451695   -0.020999053310404338   -0.01375786044298849
-0.10590906677451695   -0.020999053310404338   -0.01375786044298849
-0.10590906677451695   -0.020999053310404338   -0.01375786044298849
0.06230850148278384   0.030281167606008914   0.014647040175765236
0.06230850148278384   0.030281167606008914   0.014647040175765236
0.06230850148278384   0.030281167606008914   0.014647040175765236
0.06230850148278384   0.030281167606008914   0.014647040175765236
-0.017814946286404815   0.00989705856829804   0.002566210076603047
-0.017814946286404815   0.00989705856829804   0.002566210076603047
-0.017814946286404815   0.00989705856829804   0.002566210076603047
-0.017814946286404815   0.00989705856829804   0.002566210076603047
0.05475866051999635   0.012768220692219426   -0.005589217724382976
0.05475866051999635   0.012768220692219426   -0.005589217724382976
0.05475866051999635   0.012768220692219426   -0.005589217724382976
0.05475866051999635   0.012768220692219426   -0.005589217724382976
-0.09877820223175349   -0.0039050828166389134   0.004802491777063427
-0.09877820223175349   -0.0039050828166389134   0.004802491777063427
-0.09877820223175349   -0.0039050828166389134   0.004802491777063427
-0.09877820223175349   -0.0039050828166389134   0.004802491777063427
-0.11425626354845485   -0.030321671999820485   -0.010799166980918512
-0.11425626354845485   -0.030321671999820485   -0.010799166980918512
-0.11425626354845485   -0.030321671999820485   -0.010799166980918512
-0.11425626354845485   -0.030321671999820485   -0.010799166980918512
0.05135762086511717   0.019791345659368183   0.01597529378391778
0.05135762086511717   0.019791345659368183   0.01597529378391778
0.05135762086511717   0.019791345659368183   0.01597529378391778
0.05135762086511717   0.019791345659368183   0.01597529378391778
-0.028145840591239143   -0.00019149282034470767   -0.002271836618135802
-0.028145840591239143   -0.00019149282034470767   -0.002271836618135802
-0.028145840591239143   -0.00019149282034470767   -0.002271836618135802
-0.028145840591239143   -0.00019149282034470767   -0.002271836618135802
0.04402793618856404   0.0027655371298924303   -0.0036473210693728337
0.04402793618856404   0.0027655371298924303   -0.0036473210693728337
0.04402793618856404   0.0027655371298924303   -0.0036473210693728337
0.04402793618856404   0.0027655371298924303   -0.0036473210693728337
-0.10746941283126606   -0.013838697429709172   0.006652112034914204
-0.10746941283126606   -0.013838697429709172   0.006652112034914204
-0.10746941283126606   -0.013838697429709172   0.006652112034914204
-0.10746941283126606   -0.013838697429709172   0.006652112034914204
-0.12253754189442372   -0.0395305799880776   -0.008126499056642847
-0.12253754189442372   -0.0395305799880776   -0.008126499056642847
-0.12253754189442372   -0.0395305799880776   -0.008126499056642847
-0.12253754189442372   -0.0395305799880776   -0.008126499056642847
0.04176870105534382   0.009532319903129197   0.017843519501552163
0.04176870105534382   0.009532319903129197   0.017843519501552163
0.04176870105534382   0.009532319903129197   0.017843519501552163
0.04176870105534382   0.009532319903129197   0.017843519501552163
-0.03705353117443215   -0.0091793202594269   -0.006828041349446958
-0.03705353117443215   -0.0091793202594269   -0.006828041349446958
-0.03705353117443215   -0.0091793202594269   -0.006828041349446958
-0.03705353117443215   -0.0091793202594269   -0.006828041349446958
-0.08522935109321217   0.03309772900719016   0.0011974391567915587
-0.08522935109321217   0.03309772900719016   0.0011974391567915587
-0.08522935109321217   0.03309772900719016   0.0011974391567915587
-0.08522935109321217   0.03309772900719016   0.0011974391567915587
-0.24456840913783778   -0.003125834591290212   -0.006773532049787713
-0.24456840913783778   -0.003125834591290212   -0.006773532049787713
-0.24456840913783778   -0.003125834591290212   -0.006773532049787713
-0.24456840913783778   -0.003125834591290212   -0.006773532049787713
-0.2521009241744079   -0.010486521726093045   -0.0040723639343107215
-0.2521009241744079   -0.010486521726093045   -0.0040723639343107215
-0.2521009241744079   -0.010486521726093045   -0.0040723639343107215
-0.2521009241744079   -0.010486521726093045   -0.0040723639343107215
-0.09403515722598445   0.01994869357519681   0.004663940414070969
-0.09403515722598445   0.01994869357519681   0.004663940414070969
-0.09403515722598445   0.01994869357519681   0.004663940414070969
-0.09403515722598445   0.01994869357519681   0.004663940414070969
-0.1685769462827375   0.00964001030534093   0.0026447902597964857
-0.1685769462827375   0.00964001030534093   0.0026447902597964857
-0.1685769462827375   0.00964001030534093   0.0026447902597964857
-0.1685769462827375   0.00964001030534093   0.0026447902597964857
-0.09360171668637948   0.02281979991319473   0.003960036774099795
-0.09360171668637948   0.02281979991319473   0.003960036774099795
-0.09360171668637948   0.02281979991319473   0.003960036774099795
-0.09360171668637948   0.02281979991319473   0.003960036774099795
-0.25290269793756315   -0.0137259612876387   -0.004841793188543213
-0.25290269793756315   -0.0137259612876387   -0.004841793188543213
-0.25290269793756315   -0.0137259612876387   -0.004841793188543213
-0.25290269793756315   -0.0137259612876387   -0.004841793188543213
-0.2604147054932008   -0.020664116243232784   -0.0013970651770536247
-0.2604147054932008   -0.020664116243232784   -0.0013970651770536247
-0.2604147054932008   -0.020664116243232784   -0.0013970651770536247
-0.2604147054932008   -0.020664116243232784   -0.0013970651770536247
-0.10284368209919309   0.009309713248887186   0.006632355016680726
-0.10284368209919309   0.009309713248887186   0.006632355016680726
-0.10284368209919309   0.009309713248887186   0.006632355016680726
-0.10284368209919309   0.009309713248887186   0.006632355016680726
-0.17724764297612414   -3.462038731170264e-05   -0.0016872750198033987
-0.17724764297612414   -3.462038731170264e-05   -0.0016872750198033987
-0.17724764297612414   -3.462038731170264e-05   -0.0016872750198033987
-0.17724764297612414   -3.462038731170264e-05   -0.0016872750198033987
-0.10226194994404236   0.01251332809189526   0.006337400949428185
-0.10226194994404236   0.01251332809189526   0.006337400949428185
-0.10226194994404236   0.01251332809189526   0.006337400949428185
-0.10226194994404236   0.01251332809189526   0.006337400949428185
-0.26151946952528365   -0.024390762963170422   -0.0031942386175320883
-0.26151946952528365   -0.024390762963170422   -0.0031942386175320883
-0.26151946952528365   -0.024390762963170422   -0.0031942386175320883
-0.26151946952528365   -0.024390762963170422   -0.0031942386175320883
-0.26856376759494355   -0.03048272687633026   0.001198157675873772
-0.26856376759494355   -0.03048272687633026   0.001198157675873772
-0.26856376759494355   -0.03048272687633026   0.001198157675873772
-0.26856376759494355   -0.03048272687633026   0.001198157675873772
-0.11150769399666438   -0.0009333623697516322   0.008425522813825859
-0.11150769399666438   -0.0009333623697516322   0.008425522813825859
-0.11150769399666438   -0.0009333623697516322   0.008425522813825859
-0.11150769399666438   -0.0009333623697516322   0.008425522813825859
-0.18637510728424372   -0.009729508369812553   -0.006393202856406821
-0.18637510728424372   -0.009729508369812553   -0.006393202856406821
-0.18637510728424372   -0.009729508369812553   -0.006393202856406821
-0.18637510728424372   -0.009729508369812553   -0.006393202856406821
-0.23225647148401396   0.041388742232545864   0.010271579395495653
-0.23225647148401396   0.041388742232545864   0.010271579395495653
-0.23225647148401396   0.041388742232545864   0.010271579395495653
-0.23225647148401396   0.041388742232545864   0.010271579395495653
-0.39600343577511493   -0.012029902535888606   -0.015374566017744878
-0.39600343577511493   -0.012029902535888606   -0.015374566017744878
-0.39600343577511493   -0.012029902535888606   -0.015374566017744878
-0.39600343577511493   -0.012029902535888606   -0.015374566017744878
-0.39674158111852026   -0.0012482733762937959   0.006178351332387991
-0.39674158111852026   -0.0012482733762937959   0.006178351332387991
-0.39674158111852026   -0.0012482733762937959   0.006178351332387991
-0.39674158111852026   -0.0012482733762937959   0.006178351332387991
-0.24809161046270553   0.010283906912172652   -0.004796224014068689
-0.24809161046270553   0.010283906912172652   -0.004796224014068689
-0.24809161046270553   0.010283906912172652   -0.004796224014068689
-0.24809161046270553   0.010283906912172652   -0.004796224014068689
-0.31662626188178405   0.009570146654564363   0.003453525315223884
-0.31662626188178405   0.009570146654564363   0.003453525315223884
-0.31662626188178405   0.009570146654564363   0.003453525315223884
-0.31662626188178405   0.009570146654564363   0.003453525315223884
-0.24029819900503963   0.03141306734767684   0.01304167283876053
-0.24029819900503963   0.03141306734767684   0.01304167283876053
-0.24029819900503963   0.03141306734767684   0.01304167283876053
-0.24029819900503963   0.03141306734767684   0.01304167283876053
-0.4052395785097834   -0.023082019745395796   -0.014477889254833131
-0.4052395785097834   -0.023082019745395796   -0.014477889254833131
-0.4052395785097834   -0.023082019745395796   -0.014477889254833131
-0.4052395785097834   -0.023082019745395796   -0.014477889254833131
-0.4069824287196106   -0.011288356594945467   0.007615252735583989
-0.4069824287196106   -0.011288356594945467   0.007615252735583989
-0.4069824287196106   -0.011288356594945467   0.007615252735583989
-0.4069824287196106   -0.011288356594945467   0.007615252735583989
-0.256449079771893   0.0004773537367752101   -0.002710406550526505
-0.256449079771893   0.0004773537367752101   -0.002710406550526505
-0.256449079771893   0.0004773537367752101   -0.002710406550526505
-0.256449079771893   0.0004773537367752101   -0.002710406550526505
-0.32397044958628696   0.0005676858584394012   -0.0010840590653781804
-0.32397044958628696   0.0005676858584394012   -0.0010840590653781804
-0.32397044958628696   0.0005676858584394012   -0.0010840590653781804
-0.32397044958628696   0.0005676858584394012   -0.0010840590653781804
-0.248449261573496   0.02204036160234013   0.015725676575897355
-0.248449261573496   0.02204036160234013   0.015725676575897355
-0.248449261573496   0.02204036160234013   0.015725676575897355
-0.248449261573496   0.02204036160234013   0.015725676575897355
-0.4154223314977292   -0.03329144904023265   -0.012581168709729591
-0.4154223314977292   -0.03329144904023265   -0.012581168709729591
-0.4154223314977292   -0.03329144904023265   -0.012581168709729591
-0.4154223314977292   -0.03329144904023265   -0.012581168709729591
-0.41581582039641296   -0.021774868566821606   0.010412282947098131
-0.41581582039641296   -0.021774868566821606   0.010412282947098131
-0.41581582039641296   -0.021774868566821606   0.010412282947098131
-0.41581582039641296   -0.021774868566821606   0.010412282947098131
-0.2649142606759385   -0.010034991958671899   -0.0010020426467633493
-0.2649142606759385   -0.010034991958671899   -0.0010020426467633493
-0.2649142606759385   -0.010034991958671899   -0.0010020426467633493
-0.2649142606759385   -0.010034991958671899   -0.0010020426467633493
-0.3349663376161883   -0.009282721161255267   -0.0060454703187979054
-0.3349663376161883   -0.009282721161255267   -0.0060454703187979054
-0.3349663376161883   -0.009282721161255267   -0.0060454703187979054
-0.3349663376161883   -0.009282721161255267   -0.0060454703187979054
-0.3787313189070417   0.04077171444733185   0.018184401339408837
-0.3787313189070417   0.04077171444733185   0.018184401339408837
-0.3787313189070417   0.04077171444733185   0.018184401339408837
-0.3787313189070417   0.04077171444733185   0.018184401339408837
-0.5341613980077387   -0.02470650004962467   -0.0231621431724644
-0.5341613980077387   -0.02470650004962467   -0.0231621431724644
-0.5341613980077387   -0.02470650004962467   -0.0231621431724644
-0.5341613980077387   -0.02470650004962467   -0.0231621431724644
-0.5380048111362306   0.006301640280577378   0.01910776263411015
-0.5380048111362306   0.006301640280577378   0.01910776263411015
-0.5380048111362306   0.006301640280577378   0.01910776263411015
-0.5380048111362306   0.006301640280577378   0.01910776263411015
-0.4007491937871927   -0.0009918735619106889   -0.014116111825364843
-0.4007491937871927   -0.0009918735619106889   -0.014116111825364843
-0.4007491937871927   -0.0009918735619106889   -0.014116111825364843
-0.4007491937871927   -0.0009918735619106889   -0.014116111825364843
-0.4429714753509036   0.009651121800319268   0.010823076718502099
-0.4429714753509036   0.009651121800319268   0.010823076718502099
-0.4429714753509036   0.009651121800319268   0.010823076718502099
-0.4429714753509036   0.009651121800319268   0.010823076718502099
-0.38598886862762777   0.03718500361465284   0.021508636795900028
-0.38598886862762777   0.03718500361465284   0.021508636795900028
-0.38598886862762777   0.03718500361465284   0.021508636795900028
-0.38598886862762777   0.03718500361465284   0.021508636795900028
-0.5535172080147367   -0.03262730861492533   -0.019525272862909428
-0.5535172080147367   -0.03262730861492533   -0.019525272862909428
-0.5535172080147367   -0.03262730861492533   -0.019525272862909428
-0.5535172080147367   -0.03262730861492533   -0.019525272862909428
-0.5539785806603903   0.0006471924169272336   0.024385751420282695
-0.5539785806603903   0.0006471924169272336   0.024385751420282695
-0.5539785806603903   0.0006471924169272336   0.024385751420282695
-0.5539785806603903   0.0006471924169272336   0.024385751420282695
-0.40996013524123265   -0.006463366512862806   -0.012098269954616579
-0.40996013524123265   -0.006463366512862806   -0.012098269954616579
-0.40996013524123265   -0.006463366512862806   -0.012098269954616579
-0.40996013524123265   -0.006463366512862806   -0.012098269954616579
-0.4634886746856843   0.0029785368542427915   0.004031390768240942
-0.4634886746856843   0.0029785368542427915   0.004031390768240942
-0.4634886746856843   0.0029785368542427915   0.004031390768240942
-0.4634886746856843   0.0029785368542427915   0.004031390768240942
-0.3945819591072926   0.032762679403281855   0.02556656479894271
-0.3945819591072926   0.032762679403281855   0.02556656479894271
-0.3945819591072926   0.032762679403281855   0.02556656479894271
-0.3945819591072926   0.032762679403281855   0.02556656479894271
-0.5700642442329854   -0.03928634093786791   -0.016109033087889513
-0.5700642442329854   -0.03928634093786791   -0.016109033087889513
-0.5700642442329854   -0.03928634093786791   -0.016109033087889513
-0.5700642442329854   -0.03928634093786791   -0.016109033087889513
-0.5760478918920112   -0.015482882585416524   0.025148349523586973
-0.5760478918920112   -0.015482882585416524   0.025148349523586973
-0.5760478918920112   -0.015482882585416524   0.025148349523586973
-0.5760478918920112   -0.015482882585416524   0.025148349523586973
-0.4194722190356456   -0.01909310200551996   -0.010551476810370327
-0.4194722190356456   -0.01909310200551996   -0.010551476810370327
-0.4194722190356456   -0.01909310200551996   -0.010551476810370327
-0.4194722190356456   -0.01909310200551996   -0.010551476810370327
-0.47002693858314354   -0.004149670721935034   2.4619083937412606e-05
-0.47002693858314354   -0.004149670721935034   2.4619083937412606e-05
-0.47002693858314354   -0.004149670721935034   2.4619083937412606e-05
-0.47002693858314354   -0.004149670721935034   2.4619083937412606e-05
0.04553296858252047   0.0037329822823438273   -0.026713659152442136
0.04553296858252047   0.0037329822823438273   -0.026713659152442136
0.04553296858252047   0.0037329822823438273   -0.026713659152442136
0.04553296858252047   0.0037329822823438273   -0.026713659152442136
-0.04076043064098696   0.019917629857363048   0.013593697332267642
-0.04076043064098696   0.019917629857363048   0.013593697332267642
-0.04076043064098696   0.019917629857363048   0.013593697332267642
-0.04076043064098696   0.019917629857363048   0.013593697332267642
-0.06253792919010595   -0.025862275505777934   -0.02155093458117019
-0.06253792919010595   -0.025862275505777934   -0.02155093458117019
-0.06253792919010595   -0.025862275505777934   -0.02155093458117019
-0.06253792919010595   -0.025862275505777934   -0.02155093458117019
0.04223421142997283   0.02871552789778612   0.016652956970170954
0.04223421142997283   0.02871552789778612   0.016652956970170954
0.04223421142997283   0.02871552789778612   0.016652956970170954
0.04223421142997283   0.02871552789778612   0.016652956970170954
-0.0049883637720666   0.00630894168876143   0.0022940633968635228
-0.0049883637720666   0.00630894168876143   0.0022940633968635228
-0.0049883637720666   0.00630894168876143   0.0022940633968635228
-0.0049883637720666   0.00630894168876143   0.0022940633968635228
0.0266758360455617   -0.00849501162769173   -0.023928380426406826
0.0266758360455617   -0.00849501162769173   -0.023928380426406826
0.0266758360455617   -0.00849501162769173   -0.023928380426406826
0.0266758360455617   -0.00849501162769173   -0.023928380426406826
-0.04788932751258687   0.01043849031280787   0.015391307987839418
-0.04788932751258687   0.01043849031280787   0.015391307987839418
-0.04788932751258687   0.01043849031280787   0.015391307987839418
-0.04788932751258687   0.01043849031280787   0.015391307987839418
-0.069736619140483   -0.030507187123009996   -0.018303260773677797
-0.069736619140483   -0.030507187123009996   -0.018303260773677797
-0.069736619140483   -0.030507187123009996   -0.018303260773677797
-0.069736619140483   -0.030507187123009996   -0.018303260773677797
0.02746956297908094   0.022422445825653014   0.022883409252909652
0.02746956297908094   0.022422445825653014   0.022883409252909652
0.02746956297908094   0.022422445825653014   0.022883409252909652
0.02746956297908094   0.022422445825653014   0.022883409252909652
-0.016560961428282377   -0.0006559441043658626   -0.0030510259654107693
-0.016560961428282377   -0.0006559441043658626   -0.0030510259654107693
-0.016560961428282377   -0.0006559441043658626   -0.0030510259654107693
-0.016560961428282377   -0.0006559441043658626   -0.0030510259654107693
0.011539758518417513   -0.014549910734535137   -0.01979325649021934
0.011539758518417513   -0.014549910734535137   -0.01979325649021934
0.011539758518417513   -0.014549910734535137   -0.01979325649021934
0.011539758518417513   -0.014549910734535137   -0.01979325649021934
-0.05507384179420673   0.005198142322793468   0.019305296511899588
-0.05507384179420673   0.005198142322793468   0.019305296511899588
-0.05507384179420673   0.005198142322793468   0.019305296511899588
-0.05507384179420673   0.005198142322793468   0.019305296511899588
-0.07632726734499876   -0.037564762362646255   -0.015195090631671439
-0.07632726734499876   -0.037564762362646255   -0.015195090631671439
-0.07632726734499876   -0.037564762362646255   -0.015195090631671439
-0.07632726734499876   -0.037564762362646255   -0.015195090631671439
0.006962250725603464   0.009286345715560352   0.02612978537469515
0.006962250725603464   0.009286345715560352   0.02612978537469515
0.006962250725603464   0.009286345715560352   0.02612978537469515
0.006962250725603464   0.009286345715560352   0.02612978537469515
-0.02916633319188997   -0.00763372969920774   -0.009248306242999303
-0.02916633319188997   -0.00763372969920774   -0.009248306242999303
-0.02916633319188997   -0.00763372969920774   -0.009248306242999303
-0.02916633319188997   -0.00763372969920774   -0.009248306242999303
-0.04685784254389729   0.013555608188209906   -0.010531340513130885
-0.04685784254389729   0.013555608188209906   -0.010531340513130885
-0.04685784254389729   0.013555608188209906   -0.010531340513130885
-0.04685784254389729   0.013555608188209906   -0.010531340513130885
-0.12728354457633168   0.005371681952154244   0.003509227384662302
-0.12728354457633168   0.005371681952154244   0.003509227384662302
-0.12728354457633168   0.005371681952154244   0.003509227384662302
-0.12728354457633168   0.005371681952154244   0.003509227384662302
-0.138563152824764   -0.015071719557081812   -0.011245741332140569
-0.138563152824764   -0.015071719557081812   -0.011245741332140569
-0.138563152824764   -0.015071719557081812   -0.011245741332140569
-0.138563152824764   -0.015071719557081812   -0.011245741332140569
-0.04825089885927668   0.013258219875050974   0.010763721692147283
-0.04825089885927668   0.013258219875050974   0.010763721692147283
-0.04825089885927668   0.013258219875050974   0.010763721692147283
-0.04825089885927668   0.013258219875050974   0.010763721692147283
-0.09007123885775489   0.004008036902714278   0.002165848701068591
-0.09007123885775489   0.004008036902714278   0.002165848701068591
-0.09007123885775489   0.004008036902714278   0.002165848701068591
-0.09007123885775489   0.004008036902714278   0.002165848701068591
-0.05432933026042934   0.002291791778750227   -0.00866200721731502
-0.05432933026042934   0.002291791778750227   -0.00866200721731502
-0.05432933026042934   0.002291791778750227   -0.00866200721731502
-0.05432933026042934   0.002291791778750227   -0.00866200721731502
-0.133238532208467   -0.004859102245637001   0.005164744437897722
-0.133238532208467   -0.004859102245637001   0.005164744437897722
-0.133238532208467   -0.004859102245637001   0.005164744437897722
-0.133238532208467   -0.004859102245637001   0.005164744437897722
-0.14417791831974   -0.024177195739404213   -0.008331874025087031
-0.14417791831974   -0.024177195739404213   -0.008331874025087031
-0.14417791831974   -0.024177195739404213   -0.008331874025087031
-0.14417791831974   -0.024177195739404213   -0.008331874025087031
-0.05690863721218021   0.0031914281328887066   0.012138033611936917
-0.05690863721218021   0.0031914281328887066   0.012138033611936917
-0.05690863721218021   0.0031914281328887066   0.012138033611936917
-0.05690863721218021   0.0031914281328887066   0.012138033611936917
-0.09716173728333269   -0.005155911575973438   -0.0024419000925253575
-0.09716173728333269   -0.005155911575973438   -0.0024419000925253575
-0.09716173728333269   -0.005155911575973438   -0.0024419000925253575
-0.09716173728333269   -0.005155911575973438   -0.0024419000925253575
-0.06277501116810084   -0.007525600925845304   -0.006476807108931664
-0.06277501116810084   -0.007525600925845304   -0.006476807108931664
-0.06277501116810084   -0.007525600925845304   -0.006476807108931664
-0.06277501116810084   -0.007525600925845304   -0.006476807108931664
-0.13912222902206658   -0.014270851338917317   0.0070402280627931794
-0.13912222902206658   -0.014270851338917317   0.0070402280627931794
-0.13912222902206658   -0.014270851338917317   0.0070402280627931794
-0.13912222902206658   -0.014270851338917317   0.0070402280627931794
-0.14982963715793013   -0.03350676073825866   -0.0057535454921285095
-0.14982963715793013   -0.03350676073825866   -0.0057535454921285095
-0.14982963715793013   -0.03350676073825866   -0.0057535454921285095
-0.14982963715793013   -0.03350676073825866   -0.0057535454921285095
-0.06415574012805936   -0.00695958774182614   0.015057370832205139
-0.06415574012805936   -0.00695958774182614   0.015057370832205139
-0.06415574012805936   -0.00695958774182614   0.015057370832205139
-0.06415574012805936   -0.00695958774182614   0.015057370832205139
-0.10421585600030171   -0.014170295495754154   -0.007114833004720008
-0.10421585600030171   -0.014170295495754154   -0.007114833004720008
-0.10421585600030171   -0.014170295495754154   -0.007114833004720008
-0.10421585600030171   -0.014170295495754154   -0.007114833004720008
-0.12489308860675459   0.021942144801520312   -0.0011089556168183568
-0.12489308860675459   0.021942144801520312   -0.0011089556168183568
-0.12489308860675459   0.021942144801520312   -0.0011089556168183568
-0.12489308860675459   0.021942144801520312   -0.0011089556168183568
-0.2128464909321394   -0.007391590443707706   -0.006075137479618268
-0.2128464909321394   -0.007391590443707706   -0.006075137479618268
-0.2128464909321394   -0.007391590443707706   -0.006075137479618268
-0.2128464909321394   -0.007391590443707706   -0.006075137479618268
-0.21512136460964457   -0.005472007530754733   -0.0013533577320419682
-0.21512136460964457   -0.005472007530754733   -0.0013533577320419682
-0.21512136460964457   -0.005472007530754733   -0.0013533577320419682
-0.21512136460964457   -0.005472007530754733   -0.0013533577320419682
-0.13265736336202308   0.001542799322822662   0.0016686871016577043
-0.13265736336202308   0.001542799322822662   0.0016686871016577043
-0.13265736336202308   0.001542799322822662   0.0016686871016577043
-0.13265736336202308   0.001542799322822662   0.0016686871016577043
-0.17101476989621436   0.002477865263496158   0.0007923126525558859
-0.17101476989621436   0.002477865263496158   0.0007923126525558859
-0.17101476989621436   0.002477865263496158   0.0007923126525558859
-0.17101476989621436   0.002477865263496158   0.0007923126525558859
-0.13056571023982003   0.012036454413931405   0.0016332976215641844
-0.13056571023982003   0.012036454413931405   0.0016332976215641844
-0.13056571023982003   0.012036454413931405   0.0016332976215641844
-0.13056571023982003   0.012036454413931405   0.0016332976215641844
-0.21794058291624033   -0.016693227806256195   -0.0042282289895193255
-0.21794058291624033   -0.016693227806256195   -0.0042282289895193255
-0.21794058291624033   -0.016693227806256195   -0.0042282289895193255
-0.21794058291624033   -0.016693227806256195   -0.0042282289895193255
-0.22039181211609776   -0.015255488032470087   0.0013544786267836815
-0.22039181211609776   -0.015255488032470087   0.0013544786267836815
-0.22039181211609776   -0.015255488032470087   0.0013544786267836815
-0.22039181211609776   -0.015255488032470087   0.0013544786267836815
-0.1386027605761765   -0.008080833550130798   0.0034475525034570603
-0.1386027605761765   -0.008080833550130798   0.0034475525034570603
-0.1386027605761765   -0.008080833550130798   0.0034475525034570603
-0.1386027605761765   -0.008080833550130798   0.0034475525034570603
-0.17671996003470136   -0.00642041226844927   -0.0034379982134375674
-0.17671996003470136   -0.00642041226844927   -0.0034379982134375674
-0.17671996003470136   -0.00642041226844927   -0.0034379982134375674
-0.17671996003470136   -0.00642041226844927   -0.0034379982134375674
-0.13645519575413007   0.002068206772729453   0.0040363362908290325
-0.13645519575413007   0.002068206772729453   0.0040363362908290325
-0.13645519575413007   0.002068206772729453   0.0040363362908290325
-0.13645519575413007   0.002068206772729453   0.0040363362908290325
-0.2234173511650916   -0.026282502582280966   -0.002746202068378674
-0.2234173511650916   -0.026282502582280966   -0.002746202068378674
-0.2234173511650916   -0.026282502582280966   -0.002746202068378674
-0.2234173511650916   -0.026282502582280966   -0.002746202068378674
-0.22552217479569212   -0.024629883862626403   0.003957396148495115
-0.22552217479569212   -0.024629883862626403   0.003957396148495115
-0.22552217479569212   -0.024629883862626403   0.003957396148495115
-0.22552217479569212   -0.024629883862626403   0.003957396148495115
-0.14432184002925177   -0.017146497263445828   0.00542517667645044
-0.14432184002925177   -0.017146497263445828   0.00542517667645044
-0.14432184002925177   -0.017146497263445828   0.00542517667645044
-0.14432184002925177   -0.017146497263445828   0.00542517667645044
-0.18285899254120094   -0.015368413190616905   -0.008035758507676346
-0.18285899254120094   -0.015368413190616905   -0.008035758507676346
-0.18285899254120094   -0.015368413190616905   -0.008035758507676346
-0.18285899254120094   -0.015368413190616905   -0.008035758507676346
-0.2021115463531043   0.03155415628869687   0.008653838683156504
-0.2021115463531043   0.03155415628869687   0.008653838683156504
-0.2021115463531043   0.03155415628869687   0.008653838683156504
-0.2021115463531043   0.03155415628869687   0.008653838683156504
-0.2952131239101703   -0.01238916271911758   -0.013589214891493753
-0.2952131239101703   -0.01238916271911758   -0.013589214891493753
-0.2952131239101703   -0.01238916271911758   -0.013589214891493753
-0.2952131239101703   -0.01238916271911758   -0.013589214891493753
-0.29134236557128584   0.004360131665944844   0.008835654863387832
-0.29134236557128584   0.004360131665944844   0.008835654863387832
-0.29134236557128584   0.004360131665944844   0.008835654863387832
-0.29134236557128584   0.004360131665944844   0.008835654863387832
-0.21577232224084592   -0.004081806471821131   -0.00599834694698235
-0.21577232224084592   -0.004081806471821131   -0.00599834694698235
-0.21577232224084592   -0.004081806471821131   -0.00599834694698235
-0.21577232224084592   -0.004081806471821131   -0.00599834694698235
-0.25021177563881297   0.0048849069053761365   0.001268644074042995
-0.25021177563881297   0.0048849069053761365   0.001268644074042995
-0.25021177563881297   0.0048849069053761365   0.001268644074042995
-0.25021177563881297   0.0048849069053761365   0.001268644074042995
-0.20713326493453227   0.02171487286931168   0.011400260243453132
-0.20713326493453227   0.02171487286931168   0.011400260243453132
-0.20713326493453227   0.02171487286931168   0.011400260243453132
-0.20713326493453227   0.02171487286931168   0.011400260243453132
-0.3010447325354481   -0.022499857333035313   -0.012816190958451061
-0.3010447325354481   -0.022499857333035313   -0.012816190958451061
-0.3010447325354481   -0.022499857333035313   -0.012816190958451061
-0.3010447325354481   -0.022499857333035313   -0.012816190958451061
-0.2983950308566906   -0.0052794482553188415   0.010451534573800818
-0.2983950308566906   -0.0052794482553188415   0.010451534573800818
-0.2983950308566906   -0.0052794482553188415   0.010451534573800818
-0.2983950308566906   -0.0052794482553188415   0.010451534573800818
-0.22099614452859853   -0.012851646431208785   -0.004071025036981585
-0.22099614452859853   -0.012851646431208785   -0.004071025036981585
-0.22099614452859853   -0.012851646431208785   -0.004071025036981585
-0.22099614452859853   -0.012851646431208785   -0.004071025036981585
-0.2549953981817856   -0.00368576049016376   -0.003316171297791477
-0.2549953981817856   -0.00368576049016376   -0.003316171297791477
-0.2549953981817856   -0.00368576049016376   -0.003316171297791477
-0.2549953981817856   -0.00368576049016376   -0.003316171297791477
-0.21226371723845022   0.012670333791735308   0.014069131190815834
-0.21226371723845022   0.012670333791735308   0.014069131190815834
-0.21226371723845022   0.012670333791735308   0.014069131190815834
-0.21226371723845022   0.012670333791735308   0.014069131190815834
-0.30796714906655653   -0.03164111939797674   -0.011047385332878643
-0.30796714906655653   -0.03164111939797674   -0.011047385332878643
-0.30796714906655653   -0.03164111939797674   -0.011047385332878643
-0.30796714906655653   -0.03164111939797674   -0.011047385332878643
-0.30412488888126   -0.015009778277147237   0.013334653966181446
-0.30412488888126   -0.015009778277147237   0.013334653966181446
-0.30412488888126   -0.015009778277147237   0.013334653966181446
-0.30412488888126   -0.015009778277147237   0.013334653966181446
-0.22624285047665763   -0.021850887253935976   -0.002424978865022881
-0.22624285047665763   -0.021850887253935976   -0.002424978865022881
-0.22624285047665763   -0.021850887253935976   -0.002424978865022881
-0.22624285047665763   -0.021850887253935976   -0.002424978865022881
-0.26222165103919703   -0.012460011491469289   -0.008027715725032707
-0.26222165103919703   -0.012460011491469289   -0.008027715725032707
-0.26222165103919703   -0.012460011491469289   -0.008027715725032707
-0.26222165103919703   -0.012460011491469289   -0.008027715725032707
-0.27974430103370007   0.03423541277835321   0.01713032399338646
-0.27974430103370007   0.03423541277835321   0.01713032399338646
-0.27974430103370007   0.03423541277835321   0.01713032399338646
-0.27974430103370007   0.03423541277835321   0.01713032399338646
-0.361654684653163   -0.018215877998084606   -0.022569927616948503
-0.361654684653163   -0.018215877998084606   -0.022569927616948503
-0.361654684653163   -0.018215877998084606   -0.022569927616948503
-0.361654684653163   -0.018215877998084606   -0.022569927616948503
-0.36198973960036435   0.01336035140032811   0.01888555879900081
-0.36198973960036435   0.01336035140032811   0.01888555879900081
-0.36198973960036435   0.01336035140032811   0.01888555879900081
-0.36198973960036435   0.01336035140032811   0.01888555879900081
-0.2987266748560082   -0.009926389464537201   -0.013799370429745344
-0.2987266748560082   -0.009926389464537201   -0.013799370429745344
-0.2987266748560082   -0.009926389464537201   -0.013799370429745344
-0.2987266748560082   -0.009926389464537201   -0.013799370429745344
-0.31230485307692835   0.007997250852864596   0.0061628189238840045
-0.31230485307692835   0.007997250852864596   0.0061628189238840045
-0.31230485307692835   0.007997250852864596   0.0061628189238840045
-0.31230485307692835   0.007997250852864596   0.0061628189238840045
-0.2840995759866111   0.029202682711515285   0.020207051741183455
-0.2840995759866111   0.029202682711515285   0.020207051741183455
-0.2840995759866111   0.029202682711515285   0.020207051741183455
-0.2840995759866111   0.029202682711515285   0.020207051741183455
-0.3777260598726024   -0.026877942178564103   -0.019557748983285647
-0.3777260598726024   -0.026877942178564103   -0.019557748983285647
-0.3777260598726024   -0.026877942178564103   -0.019557748983285647
-0.3777260598726024   -0.026877942178564103   -0.019557748983285647
-0.37481213082707027   0.007848051271265352   0.02431081455186179
-0.37481213082707027   0.007848051271265352   0.02431081455186179
-0.37481213082707027   0.007848051271265352   0.02431081455186179
-0.37481213082707027   0.007848051271265352   0.02431081455186179
-0.30483763057653496   -0.014971760983901863   -0.012069151296841739
-0.30483763057653496   -0.014971760983901863   -0.012069151296841739
-0.30483763057653496   -0.014971760983901863   -0.012069151296841739
-0.30483763057653496   -0.014971760983901863   -0.012069151296841739
-0.32762099963974567   0.0013100666178283288   -0.00023444576079752547
-0.32762099963974567   0.0013100666178283288   -0.00023444576079752547
-0.32762099963974567   0.0013100666178283288   -0.00023444576079752547
-0.32762099963974567   0.0013100666178283288   -0.00023444576079752547
-0.2896133029326042   0.02486816593964021   0.02421255999926999
-0.2896133029326042   0.02486816593964021   0.02421255999926999
-0.2896133029326042   0.02486816593964021   0.02421255999926999
-0.2896133029326042   0.02486816593964021   0.02421255999926999
-0.39116067724234416   -0.033116094423620505   -0.01646777182961038
-0.39116067724234416   -0.033116094423620505   -0.01646777182961038
-0.39116067724234416   -0.033116094423620505   -0.01646777182961038
-0.39116067724234416   -0.033116094423620505   -0.01646777182961038
-0.39370032306959024   -0.006691899566419038   0.025682639419078977
-0.39370032306959024   -0.006691899566419038   0.025682639419078977
-0.39370032306959024   -0.006691899566419038   0.025682639419078977
-0.39370032306959024   -0.006691899566419038   0.025682639419078977
-0.31097745543933114   -0.025513945311239343   -0.010424011790086082
-0.31097745543933114   -0.025513945311239343   -0.010424011790086082
-0.31097745543933114   -0.025513945311239343   -0.010424011790086082
-0.31097745543933114   -0.025513945311239343   -0.010424011790086082
-0.3334195260526275   -0.005341345566284225   -0.004748027268607877
-0.3334195260526275   -0.005341345566284225   -0.004748027268607877
-0.3334195260526275   -0.005341345566284225   -0.004748027268607877
-0.3334195260526275   -0.005341345566284225   -0.004748027268607877
-0.14535262455464415   -0.00941776203446235   -0.02849106821320213
-0.14535262455464415   -0.00941776203446235   -0.02849106821320213
-0.14535262455464415   -0.00941776203446235   -0.02849106821320213
-0.14535262455464415   -0.00941776203446235   -0.02849106821320213
-0.14681657655605512   0.021624523105204185   0.012769133828607193
-0.14681657655605512   0.021624523105204185   0.012769133828607193
-0.14681657655605512   0.021624523105204185   0.012769133828607193
-0.14681657655605512   0.021624523105204185   0.012769133828607193
-0.16569487139623162   -0.020079399395353893   -0.019392596669324677
-0.16569487139623162   -0.020079399395353893   -0.019392596669324677
-0.16569487139623162   -0.020079399395353893   -0.019392596669324677
-0.16569487139623162   -0.020079399395353893   -0.019392596669324677
-0.14857037331309986   0.011827248424628477   0.01905704910287127
-0.14857037331309986   0.011827248424628477   0.01905704910287127
-0.14857037331309986   0.011827248424628477   0.01905704910287127
-0.14857037331309986   0.011827248424628477   0.01905704910287127
-0.1439837228697703   0.0037686471045654396   0.01303043515722977
-0.1439837228697703   0.0037686471045654396   0.01303043515722977
-0.1439837228697703   0.0037686471045654396   0.01303043515722977
-0.1439837228697703   0.0037686471045654396   0.01303043515722977
-0.16365161932352235   -0.020580513459891064   -0.023941419064719794
-0.16365161932352235   -0.020580513459891064   -0.023941419064719794
-0.16365161932352235   -0.020580513459891064   -0.023941419064719794
-0.16365161932352235   -0.020580513459891064   -0.023941419064719794
-0.1524550491219982   0.01048693875297689   0.016240176553511686
-0.1524550491219982   0.01048693875297689   0.016240176553511686
-0.1524550491219982   0.01048693875297689   0.016240176553511686
-0.1524550491219982   0.01048693875297689   0.016240176553511686
-0.17146042136141548   -0.025231619439509217   -0.016456932732389726
-0.17146042136141548   -0.025231619439509217   -0.016456932732389726
-0.17146042136141548   -0.025231619439509217   -0.016456932732389726
-0.17146042136141548   -0.025231619439509217   -0.016456932732389726
-0.16321016889104065   0.0048458093421482155   0.03557096704078937
-0.16321016889104065   0.0048458093421482155   0.03557096704078937
-0.16321016889104065   0.0048458093421482155   0.03557096704078937
-0.16321016889104065   0.0048458093421482155   0.03557096704078937
-0.15739169930254132   -0.005069654854144668   0.0052666167537940385
-0.15739169930254132   -0.005069654854144668   0.0052666167537940385
-0.15739169930254132   -0.005069654854144668   0.0052666167537940385
-0.15739169930254132   -0.005069654854144668   0.0052666167537940385
-0.18053949422355553   -0.02750168126782189   -0.018728169011813057
-0.18053949422355553   -0.02750168126782189   -0.018728169011813057
-0.18053949422355553   -0.02750168126782189   -0.018728169011813057
-0.18053949422355553   -0.02750168126782189   -0.018728169011813057
-0.1585356051330675   0.002711362066294312   0.020224166903546704
-0.1585356051330675   0.002711362066294312   0.020224166903546704
-0.1585356051330675   0.002711362066294312   0.020224166903546704
-0.1585356051330675   0.002711362066294312   0.020224166903546704
-0.17619814146316673   -0.035170341848357226   -0.012993260256122552
-0.17619814146316673   -0.035170341848357226   -0.012993260256122552
-0.17619814146316673   -0.035170341848357226   -0.012993260256122552
-0.17619814146316673   -0.035170341848357226   -0.012993260256122552
-0.18592565262053096   -0.01822789603056001   0.03326472730300679
-0.18592565262053096   -0.01822789603056001   0.03326472730300679
-0.18592565262053096   -0.01822789603056001   0.03326472730300679
-0.18592565262053096   -0.01822789603056001   0.03326472730300679
-0.16919336000212387   -0.01550055733318225   -0.007108012269429755
-0.16919336000212387   -0.01550055733318225   -0.007108012269429755
-0.16919336000212387   -0.01550055733318225   -0.007108012269429755
-0.16919336000212387   -0.01550055733318225   -0.007108012269429755
-0.15747011913660694   -0.0042852413588499935   -0.014588814610098961
-0.15747011913660694   -0.0042852413588499935   -0.014588814610098961
-0.15747011913660694   -0.0042852413588499935   -0.014588814610098961
-0.15747011913660694   -0.0042852413588499935   -0.014588814610098961
-0.16181203185143803   -0.019970232514737226   -0.0008628682155562865
-0.16181203185143803   -0.019970232514737226   -0.0008628682155562865
-0.16181203185143803   -0.019970232514737226   -0.0008628682155562865
-0.16181203185143803   -0.019970232514737226   -0.0008628682155562865
-0.16314940035439124   -0.013356125827789035   -0.007409505326938225
-0.16314940035439124   -0.013356125827789035   -0.007409505326938225
-0.16314940035439124   -0.013356125827789035   -0.007409505326938225
-0.16314940035439124   -0.013356125827789035   -0.007409505326938225
-0.16318228399700055   -0.02673345565658376   -0.0001756034119394813
-0.16318228399700055   -0.02673345565658376   -0.0001756034119394813
-0.16318228399700055   -0.02673345565658376   -0.0001756034119394813
-0.16318228399700055   -0.02673345565658376   -0.0001756034119394813
-0.16003921990419154   -0.016789315300749084   -0.00043528320302086386
-0.16003921990419154   -0.016789315300749084   -0.00043528320302086386
-0.16003921990419154   -0.016789315300749084   -0.00043528320302086386
-0.16003921990419154   -0.016789315300749084   -0.00043528320302086386
-0.16321243277691969   -0.01441565986710918   -0.012644143101010504
-0.16321243277691969   -0.01441565986710918   -0.012644143101010504
-0.16321243277691969   -0.01441565986710918   -0.012644143101010504
-0.16321243277691969   -0.01441565986710918   -0.012644143101010504
-0.16415879958461735   -0.026713469627408972   0.0009008423215512266
-0.16415879958461735   -0.026713469627408972   0.0009008423215512266
-0.16415879958461735   -0.026713469627408972   0.0009008423215512266
-0.16415879958461735   -0.026713469627408972   0.0009008423215512266
-0.1660240320548219   -0.022024338098415898   -0.004825402701929044
-0.1660240320548219   -0.022024338098415898   -0.004825402701929044
-0.1660240320548219   -0.022024338098415898   -0.004825402701929044
-0.1660240320548219   -0.022024338098415898   -0.004825402701929044
-0.16931239225506586   -0.03476643901371121   0.0038180323735605313
-0.16931239225506586   -0.03476643901371121   0.0038180323735605313
-0.16931239225506586   -0.03476643901371121   0.0038180323735605313
-0.16931239225506586   -0.03476643901371121   0.0038180323735605313
-0.16389213073628392   -0.023816396275620582   -0.004482467982675444
-0.16389213073628392   -0.023816396275620582   -0.004482467982675444
-0.16389213073628392   -0.023816396275620582   -0.004482467982675444
-0.16389213073628392   -0.023816396275620582   -0.004482467982675444
-0.16974023845806285   -0.02368335530808785   -0.009404282347047878
-0.16974023845806285   -0.02368335530808785   -0.009404282347047878
-0.16974023845806285   -0.02368335530808785   -0.009404282347047878
-0.16974023845806285   -0.02368335530808785   -0.009404282347047878
-0.16692358493723017   -0.03443482088944644   0.0030873156770563695
-0.16692358493723017   -0.03443482088944644   0.0030873156770563695
-0.16692358493723017   -0.03443482088944644   0.0030873156770563695
-0.16692358493723017   -0.03443482088944644   0.0030873156770563695
-0.16862427263114027   -0.03131871925742489   -0.002269754242723023
-0.16862427263114027   -0.03131871925742489   -0.002269754242723023
-0.16862427263114027   -0.03131871925742489   -0.002269754242723023
-0.16862427263114027   -0.03131871925742489   -0.002269754242723023
-0.1740240387598751   -0.0448977469607907   0.007604658372768187
-0.1740240387598751   -0.0448977469607907   0.007604658372768187
-0.1740240387598751   -0.0448977469607907   0.007604658372768187
-0.1740240387598751   -0.0448977469607907   0.007604658372768187
-0.16911567100642486   -0.032238557527380717   -0.009600926640785785
-0.16911567100642486   -0.032238557527380717   -0.009600926640785785
-0.16911567100642486   -0.032238557527380717   -0.009600926640785785
-0.16911567100642486   -0.032238557527380717   -0.009600926640785785
-0.1573048087981603   0.0043936469885259635   -0.00269063245242899
-0.1573048087981603   0.0043936469885259635   -0.00269063245242899
-0.1573048087981603   0.0043936469885259635   -0.00269063245242899
-0.1573048087981603   0.0043936469885259635   -0.00269063245242899
-0.17983365947172375   -0.03416464463011228   -0.008668769970593578
-0.17983365947172375   -0.03416464463011228   -0.008668769970593578
-0.17983365947172375   -0.03416464463011228   -0.008668769970593578
-0.17983365947172375   -0.03416464463011228   -0.008668769970593578
-0.17263667918474232   -0.006351846531596029   0.0021747736522834847
-0.17263667918474232   -0.006351846531596029   0.0021747736522834847
-0.17263667918474232   -0.006351846531596029   0.0021747736522834847
-0.17263667918474232   -0.006351846531596029   0.0021747736522834847
-0.16736241824652048   -0.036543184686456835   -0.005287535928916675
-0.16736241824652048   -0.036543184686456835   -0.005287535928916675
-0.16736241824652048   -0.036543184686456835   -0.005287535928916675
-0.16736241824652048   -0.036543184686456835   -0.005287535928916675
-0.16916482257566637   -0.018747409867234003   -0.003747999814310462
-0.16916482257566637   -0.018747409867234003   -0.003747999814310462
-0.16916482257566637   -0.018747409867234003   -0.003747999814310462
-0.16916482257566637   -0.018747409867234003   -0.003747999814310462
-0.15985008071949136   -0.004236073470873427   -3.295950935443704e-05
-0.15985008071949136   -0.004236073470873427   -3.295950935443704e-05
-0.15985008071949136   -0.004236073470873427   -3.295950935443704e-05
-0.15985008071949136   -0.004236073470873427   -3.295950935443704e-05
-0.18109590854340812   -0.039605849578816126   -0.006867370093825507
-0.18109590854340812   -0.039605849578816126   -0.006867370093825507
-0.18109590854340812   -0.039605849578816126   -0.006867370093825507
-0.18109590854340812   -0.039605849578816126   -0.006867370093825507
-0.17474176024816404   -0.01505011225432001   0.0047401586544831694
-0.17474176024816404   -0.01505011225432001   0.0047401586544831694
-0.17474176024816404   -0.01505011225432001   0.0047401586544831694
-0.17474176024816404   -0.01505011225432001   0.0047401586544831694
-0.1700542681707979   -0.04338780325835315   -0.003613118121873768
-0.1700542681707979   -0.04338780325835315   -0.003613118121873768
-0.1700542681707979   -0.04338780325835315   -0.003613118121873768
-0.1700542681707979   -0.04338780325835315   -0.003613118121873768
-0.1713862703929899   -0.02536135854397202   -0.0072194844100687845
-0.1713862703929899   -0.02536135854397202   -0.0072194844100687845
-0.1713862703929899   -0.02536135854397202   -0.0072194844100687845
-0.1713862703929899   -0.02536135854397202   -0.0072194844100687845
-0.16276313427211347   -0.013092890972808476   0.0025476390860056652
-0.16276313427211347   -0.013092890972808476   0.0025476390860056652
-0.16276313427211347   -0.013092890972808476   0.0025476390860056652
-0.16276313427211347   -0.013092890972808476   0.0025476390860056652
-0.18309082356659723   -0.04640295395961439   -0.005652316232388354
-0.18309082356659723   -0.04640295395961439   -0.005652316232388354
-0.18309082356659723   -0.04640295395961439   -0.005652316232388354
-0.18309082356659723   -0.04640295395961439   -0.005652316232388354
-0.17647957454373714   -0.023211988278295074   0.0072554561166895465
-0.17647957454373714   -0.023211988278295074   0.0072554561166895465
-0.17647957454373714   -0.023211988278295074   0.0072554561166895465
-0.17647957454373714   -0.023211988278295074   0.0072554561166895465
-0.17209998238485288   -0.0499216855284434   -0.0010453367402675374
-0.17209998238485288   -0.0499216855284434   -0.0010453367402675374
-0.17209998238485288   -0.0499216855284434   -0.0010453367402675374
-0.17209998238485288   -0.0499216855284434   -0.0010453367402675374
-0.1740155279056966   -0.03227216392751915   -0.01103176994486575
-0.1740155279056966   -0.03227216392751915   -0.01103176994486575
-0.1740155279056966   -0.03227216392751915   -0.01103176994486575
-0.1740155279056966   -0.03227216392751915   -0.01103176994486575
-0.16603447843599   0.01783075622467483   0.008331734353288028
-0.16603447843599   0.01783075622467483   0.008331734353288028
-0.16603447843599   0.01783075622467483   0.008331734353288028
-0.16603447843599   0.01783075622467483   0.008331734353288028
-0.19786422862456338   -0.025707682443912052   -0.012152718736929583
-0.19786422862456338   -0.025707682443912052   -0.012152718736929583
-0.19786422862456338   -0.025707682443912052   -0.012152718736929583
-0.19786422862456338   -0.025707682443912052   -0.012152718736929583
-0.1874161142378993   0.005081987953668175   0.011464417177517594
-0.1874161142378993   0.005081987953668175   0.011464417177517594
-0.1874161142378993   0.005081987953668175   0.011464417177517594
-0.1874161142378993   0.005081987953668175   0.011464417177517594
-0.178918261985066   -0.02827685444474266   -0.007308132436188194
-0.178918261985066   -0.02827685444474266   -0.007308132436188194
-0.178918261985066   -0.02827685444474266   -0.007308132436188194
-0.178918261985066   -0.02827685444474266   -0.007308132436188194
-0.18251579884147695   -0.007583604504402548   -0.002236380853033808
-0.18251579884147695   -0.007583604504402548   -0.002236380853033808
-0.18251579884147695   -0.007583604504402548   -0.002236380853033808
-0.18251579884147695   -0.007583604504402548   -0.002236380853033808
-0.16784283275410966   0.008885160558077268   0.010906998715773398
-0.16784283275410966   0.008885160558077268   0.010906998715773398
-0.16784283275410966   0.008885160558077268   0.010906998715773398
-0.16784283275410966   0.008885160558077268   0.010906998715773398
-0.1997529544828029   -0.033341438063098985   -0.011796358030232972
-0.1997529544828029   -0.033341438063098985   -0.011796358030232972
-0.1997529544828029   -0.033341438063098985   -0.011796358030232972
-0.1997529544828029   -0.033341438063098985   -0.011796358030232972
-0.19097535235951604   -0.0034309913347161172   0.013011458276399287
-0.19097535235951604   -0.0034309913347161172   0.013011458276399287
-0.19097535235951604   -0.0034309913347161172   0.013011458276399287
-0.19097535235951604   -0.0034309913347161172   0.013011458276399287
-0.180766966994496   -0.03462964621934727   -0.005806341112149305
-0.180766966994496   -0.03462964621934727   -0.005806341112149305
-0.180766966994496   -0.03462964621934727   -0.005806341112149305
-0.180766966994496   -0.03462964621934727   -0.005806341112149305
-0.18436007919472203   -0.014764448244317545   -0.006311945496770839
-0.18436007919472203   -0.014764448244317545   -0.006311945496770839
-0.18436007919472203   -0.014764448244317545   -0.006311945496770839
-0.18436007919472203   -0.014764448244317545   -0.006311945496770839
-0.16982320054160568   0.0008780969668135824   0.01340474796613742
-0.16982320054160568   0.0008780969668135824   0.01340474796613742
-0.16982320054160568   0.0008780969668135824   0.01340474796613742
-0.16982320054160568   0.0008780969668135824   0.01340474796613742
-0.20301134829259193   -0.040030964001063214   -0.010568548722633063
-0.20301134829259193   -0.040030964001063214   -0.010568548722633063
-0.20301134829259193   -0.040030964001063214   -0.010568548722633063
-0.20301134829259193   -0.040030964001063214   -0.010568548722633063
-0.19336281801478875   -0.011614108372024527   0.01587888308266546
-0.19336281801478875   -0.011614108372024527   0.01587888308266546
-0.19336281801478875   -0.011614108372024527   0.01587888308266546
-0.19336281801478875   -0.011614108372024527   0.01587888308266546
-0.18237825637850788   -0.04101727444384633   -0.004432666891616874
-0.18237825637850788   -0.04101727444384633   -0.004432666891616874
-0.18237825637850788   -0.04101727444384633   -0.004432666891616874
-0.18237825637850788   -0.04101727444384633   -0.004432666891616874
-0.18752914441544946   -0.021558557801436586   -0.010270593516675641
-0.18752914441544946   -0.021558557801436586   -0.010270593516675641
-0.18752914441544946   -0.021558557801436586   -0.010270593516675641
-0.18752914441544946   -0.021558557801436586   -0.010270593516675641
-0.18183564073979963   0.02559868663047766   0.016683851612499426
-0.18183564073979963   0.02559868663047766   0.016683851612499426
-0.18183564073979963   0.02559868663047766   0.016683851612499426
-0.18183564073979963   0.02559868663047766   0.016683851612499426
-0.19629804002962967   -0.015707943890945934   -0.017547864646327026
-0.19629804002962967   -0.015707943890945934   -0.017547864646327026
-0.19629804002962967   -0.015707943890945934   -0.017547864646327026
-0.19629804002962967   -0.015707943890945934   -0.017547864646327026
-0.19212403204257184   0.017864467588597284   0.018552272022506117
-0.19212403204257184   0.017864467588597284   0.018552272022506117
-0.19212403204257184   0.017864467588597284   0.018552272022506117
-0.19212403204257184   0.017864467588597284   0.018552272022506117
-0.19680274621956242   -0.019656557508318934   -0.010730197268810861
-0.19680274621956242   -0.019656557508318934   -0.010730197268810861
-0.19680274621956242   -0.019656557508318934   -0.010730197268810861
-0.19680274621956242   -0.019656557508318934   -0.010730197268810861
-0.18518024319167503   0.004460973529408149   0.0008733505383079938
-0.18518024319167503   0.004460973529408149   0.0008733505383079938
-0.18518024319167503   0.004460973529408149   0.0008733505383079938
-0.18518024319167503   0.004460973529408149   0.0008733505383079938
-0.1828972317913019   0.01985628058931989   0.019284536774849224
-0.1828972317913019   0.01985628058931989   0.019284536774849224
-0.1828972317913019   0.01985628058931989   0.019284536774849224
-0.1828972317913019   0.01985628058931989   0.019284536774849224
-0.20706671954112138   -0.02268554357933246   -0.015611154302319541
-0.20706671954112138   -0.02268554357933246   -0.015611154302319541
-0.20706671954112138   -0.02268554357933246   -0.015611154302319541
-0.20706671954112138   -0.02268554357933246   -0.015611154302319541
-0.20057976359802815   0.013065690013159548   0.02386023670997383
-0.20057976359802815   0.013065690013159548   0.02386023670997383
-0.20057976359802815   0.013065690013159548   0.02386023670997383
-0.20057976359802815   0.013065690013159548   0.02386023670997383
-0.19952617917743568   -0.0234091264928158   -0.009764540655102946
-0.19952617917743568   -0.0234091264928158   -0.009764540655102946
-0.19952617917743568   -0.0234091264928158   -0.009764540655102946
-0.19952617917743568   -0.0234091264928158   -0.009764540655102946
-0.19431093942397012   -0.0013393725067486761   -0.003979769441907232
-0.19431093942397012   -0.0013393725067486761   -0.003979769441907232
-0.19431093942397012   -0.0013393725067486761   -0.003979769441907232
-0.19431093942397012   -0.0013393725067486761   -0.003979769441907232
-0.18507831090016924   0.016005890048685897   0.02305978418973135
-0.18507831090016924   0.016005890048685897   0.02305978418973135
-0.18507831090016924   0.016005890048685897   0.02305978418973135
-0.18507831090016924   0.016005890048685897   0.02305978418973135
-0.216367582650666   -0.027689277303710385   -0.014323891236345546
-0.216367582650666   -0.027689277303710385   -0.014323891236345546
-0.216367582650666   -0.027689277303710385   -0.014323891236345546
-0.216367582650666   -0.027689277303710385   -0.014323891236345546
-0.21533124996054884   0.000796213171696758   0.025480575145812055
-0.21533124996054884   0.000796213171696758   0.025480575145812055
-0.21533124996054884   0.000796213171696758   0.025480575145812055
-0.21533124996054884   0.000796213171696758   0.025480575145812055
-0.20202487258141438   -0.03056703111858529   -0.008478467003901967
-0.20202487258141438   -0.03056703111858529   -0.008478467003901967
-0.20202487258141438   -0.03056703111858529   -0.008478467003901967
-0.20202487258141438   -0.03056703111858529   -0.008478467003901967
-0.19862989895691152   -0.006702438092211181   -0.00832808586125661
-0.19862989895691152   -0.006702438092211181   -0.00832808586125661
-0.19862989895691152   -0.006702438092211181   -0.00832808586125661
-0.19862989895691152   -0.006702438092211181   -0.00832808586125661
-0.3797626294469233   -0.034820713125473655   -0.03651099443391389
-0.3797626294469233   -0.034820713125473655   -0.03651099443391389
-0.3797626294469233   -0.034820713125473655   -0.03651099443391389
-0.3797626294469233   -0.034820713125473655   -0.03651099443391389
-0.24237822093432385   0.02013480519474791   0.008560940795198018
-0.24237822093432385   0.02013480519474791   0.008560940795198018
-0.24237822093432385   0.02013480519474791   0.008560940795198018
-0.24237822093432385   0.02013480519474791   0.008560940795198018
-0.25467655772332015   -0.016490574669965806   -0.016425881959879814
-0.25467655772332015   -0.016490574669965806   -0.016425881959879814
-0.25467655772332015   -0.016490574669965806   -0.016425881959879814
-0.25467655772332015   -0.016490574669965806   -0.016425881959879814
-0.40450957487022776   -0.046355285284122805   0.04058566198342831
-0.40450957487022776   -0.046355285284122805   0.04058566198342831
-0.40450957487022776   -0.046355285284122805   0.04058566198342831
-0.40450957487022776   -0.046355285284122805   0.04058566198342831
-0.29430424358724777   -0.011467554783107126   0.039531567384966264
-0.29430424358724777   -0.011467554783107126   0.039531567384966264
-0.29430424358724777   -0.011467554783107126   0.039531567384966264
-0.29430424358724777   -0.011467554783107126   0.039531567384966264
-0.4190135690619764   -0.05144226616467189   -0.026847328094761695
-0.4190135690619764   -0.05144226616467189   -0.026847328094761695
-0.4190135690619764   -0.05144226616467189   -0.026847328094761695
-0.4190135690619764   -0.05144226616467189   -0.026847328094761695
-0.250394446824019   -0.02162547708186224   0.010119574948522368
-0.250394446824019   -0.02162547708186224   0.010119574948522368
-0.250394446824019   -0.02162547708186224   0.010119574948522368
-0.250394446824019   -0.02162547708186224   0.010119574948522368
-0.25885060241122243   -0.02377472410524136   -0.01189126667597674
-0.25885060241122243   -0.02377472410524136   -0.01189126667597674
-0.25885060241122243   -0.02377472410524136   -0.01189126667597674
-0.25885060241122243   -0.02377472410524136   -0.01189126667597674
-0.4177674308904828   -0.0646677413716241   0.0007941368418087191
-0.4177674308904828   -0.0646677413716241   0.0007941368418087191
-0.4177674308904828   -0.0646677413716241   0.0007941368418087191
-0.4177674308904828   -0.0646677413716241   0.0007941368418087191
-0.3263816002445645   -0.03901259550735555   0.0092076979822485
-0.3263816002445645   -0.03901259550735555   0.0092076979822485
-0.3263816002445645   -0.03901259550735555   0.0092076979822485
-0.3263816002445645   -0.03901259550735555   0.0092076979822485
-0.42097270922018276   -0.05816740947291708   -0.021732586705394977
-0.42097270922018276   -0.05816740947291708   -0.021732586705394977
-0.42097270922018276   -0.05816740947291708   -0.021732586705394977
-0.42097270922018276   -0.05816740947291708   -0.021732586705394977
-0.2587155069682122   -0.033345238890637924   -0.001645274675530899
-0.2587155069682122   -0.033345238890637924   -0.001645274675530899
-0.2587155069682122   -0.033345238890637924   -0.001645274675530899
-0.2587155069682122   -0.033345238890637924   -0.001645274675530899
-0.25927037038264705   -0.04129457995365644   -0.00872397455035926
-0.25927037038264705   -0.04129457995365644   -0.00872397455035926
-0.25927037038264705   -0.04129457995365644   -0.00872397455035926
-0.25927037038264705   -0.04129457995365644   -0.00872397455035926
-0.4282340429589905   -0.09858338868917291   0.006167673303408261
-0.4282340429589905   -0.09858338868917291   0.006167673303408261
-0.4282340429589905   -0.09858338868917291   0.006167673303408261
-0.4282340429589905   -0.09858338868917291   0.006167673303408261
-0.32633024666799865   -0.053565051978505765   0.0007811482072905785
-0.32633024666799865   -0.053565051978505765   0.0007811482072905785
-0.32633024666799865   -0.053565051978505765   0.0007811482072905785
-0.32633024666799865   -0.053565051978505765   0.0007811482072905785
-0.2616936634755041   -0.04445856544969151   -0.023422901266261665
-0.2616936634755041   -0.04445856544969151   -0.023422901266261665
-0.2616936634755041   -0.04445856544969151   -0.023422901266261665
-0.2616936634755041   -0.04445856544969151   -0.023422901266261665
-0.1809869829699667   -0.11832309521042862   -0.02211873535000589
-0.1809869829699667   -0.11832309521042862   -0.02211873535000589
-0.1809869829699667   -0.11832309521042862   -0.02211873535000589
-0.1809869829699667   -0.11832309521042862   -0.02211873535000589
-0.1588941227701168   -0.026143490320925025   -0.0015139379605295749
-0.1588941227701168   -0.026143490320925025   -0.0015139379605295749
-0.1588941227701168   -0.026143490320925025   -0.0015139379605295749
-0.1588941227701168   -0.026143490320925025   -0.0015139379605295749
-0.2786703597519369   -0.12513418230471235   -0.027751284468216637
-0.2786703597519369   -0.12513418230471235   -0.027751284468216637
-0.2786703597519369   -0.12513418230471235   -0.027751284468216637
-0.2786703597519369   -0.12513418230471235   -0.027751284468216637
-0.21753720682056005   -0.08325245505899069   -0.006376769632963368
-0.21753720682056005   -0.08325245505899069   -0.006376769632963368
-0.21753720682056005   -0.08325245505899069   -0.006376769632963368
-0.21753720682056005   -0.08325245505899069   -0.006376769632963368
-0.2616114292046901   -0.04991860568589394   -0.017672208350800796
-0.2616114292046901   -0.04991860568589394   -0.017672208350800796
-0.2616114292046901   -0.04991860568589394   -0.017672208350800796
-0.2616114292046901   -0.04991860568589394   -0.017672208350800796
-0.17700725863963607   -0.10241327226201621   -0.01580983536703669
-0.17700725863963607   -0.10241327226201621   -0.01580983536703669
-0.17700725863963607   -0.10241327226201621   -0.01580983536703669
-0.17700725863963607   -0.10241327226201621   -0.01580983536703669
-0.16092574278892455   -0.03382779799370911   0.0001245880074297143
-0.16092574278892455   -0.03382779799370911   0.0001245880074297143
-0.16092574278892455   -0.03382779799370911   0.0001245880074297143
-0.16092574278892455   -0.03382779799370911   0.0001245880074297143
-0.279880065138917   -0.12446737593467337   -0.01634592848501946
-0.279880065138917   -0.12446737593467337   -0.01634592848501946
-0.279880065138917   -0.12446737593467337   -0.01634592848501946
-0.279880065138917   -0.12446737593467337   -0.01634592848501946
-0.2152738941396313   -0.07803170021967978   -0.006777525709006568
-0.2152738941396313   -0.07803170021967978   -0.006777525709006568
-0.2152738941396313   -0.07803170021967978   -0.006777525709006568
-0.2152738941396313   -0.07803170021967978   -0.006777525709006568
-0.26587449126122886   -0.057499626913254984   -0.013285808117995328
-0.26587449126122886   -0.057499626913254984   -0.013285808117995328
-0.26587449126122886   -0.057499626913254984   -0.013285808117995328
-0.26587449126122886   -0.057499626913254984   -0.013285808117995328
-0.17713600323314202   -0.10300023358165687   -0.011754278625711944
-0.17713600323314202   -0.10300023358165687   -0.011754278625711944
-0.17713600323314202   -0.10300023358165687   -0.011754278625711944
-0.17713600323314202   -0.10300023358165687   -0.011754278625711944
-0.16111976396858307   -0.043344598820157204   0.0024661242846436655
-0.16111976396858307   -0.043344598820157204   0.0024661242846436655
-0.16111976396858307   -0.043344598820157204   0.0024661242846436655
-0.16111976396858307   -0.043344598820157204   0.0024661242846436655
-0.27941736666565903   -0.1263641142351549   -0.024389421683923655
-0.27941736666565903   -0.1263641142351549   -0.024389421683923655
-0.27941736666565903   -0.1263641142351549   -0.024389421683923655
-0.27941736666565903   -0.1263641142351549   -0.024389421683923655
-0.21876829817504254   -0.08388266397563347   -0.012615035087032465
-0.21876829817504254   -0.08388266397563347   -0.012615035087032465
-0.21876829817504254   -0.08388266397563347   -0.012615035087032465
-0.21876829817504254   -0.08388266397563347   -0.012615035087032465
-0.1590458448654141   -0.02868379643522288   -0.0020523436024485362
-0.1590458448654141   -0.02868379643522288   -0.0020523436024485362
-0.1590458448654141   -0.02868379643522288   -0.0020523436024485362
-0.1590458448654141   -0.02868379643522288   -0.0020523436024485362
-0.1345932294825078   -0.09077734374081711   -0.01566762268969895
-0.1345932294825078   -0.09077734374081711   -0.01566762268969895
-0.1345932294825078   -0.09077734374081711   -0.01566762268969895
-0.1345932294825078   -0.09077734374081711   -0.01566762268969895
-0.11604608897321118   -0.023997996911443092   0.006122073672842729
-0.11604608897321118   -0.023997996911443092   0.006122073672842729
-0.11604608897321118   -0.023997996911443092   0.006122073672842729
-0.11604608897321118   -0.023997996911443092   0.006122073672842729
-0.17648542281931695   -0.09838343687472262   -0.017230491652734846
-0.17648542281931695   -0.09838343687472262   -0.017230491652734846
-0.17648542281931695   -0.09838343687472262   -0.017230491652734846
-0.17648542281931695   -0.09838343687472262   -0.017230491652734846
-0.1459130507532638   -0.061263946899199846   -0.007206927399475432
-0.1459130507532638   -0.061263946899199846   -0.007206927399475432
-0.1459130507532638   -0.061263946899199846   -0.007206927399475432
-0.1459130507532638   -0.061263946899199846   -0.007206927399475432
-0.16010790170630967   -0.03398336565426295   0.00025704269184191717
-0.16010790170630967   -0.03398336565426295   0.00025704269184191717
-0.16010790170630967   -0.03398336565426295   0.00025704269184191717
-0.16010790170630967   -0.03398336565426295   0.00025704269184191717
-0.13336674911677068   -0.08934120716245497   -0.015138016793942891
-0.13336674911677068   -0.08934120716245497   -0.015138016793942891
-0.13336674911677068   -0.08934120716245497   -0.015138016793942891
-0.13336674911677068   -0.08934120716245497   -0.015138016793942891
-0.11629083902523844   -0.03032242818724183   0.007950328088123343
-0.11629083902523844   -0.03032242818724183   0.007950328088123343
-0.11629083902523844   -0.03032242818724183   0.007950328088123343
-0.11629083902523844   -0.03032242818724183   0.007950328088123343
-0.17724548493237088   -0.09993924544194384   -0.01536267526156921
-0.17724548493237088   -0.09993924544194384   -0.01536267526156921
-0.17724548493237088   -0.09993924544194384   -0.01536267526156921
-0.17724548493237088   -0.09993924544194384   -0.01536267526156921
-0.14582641949780223   -0.06361488117962047   -0.00935743825946127
-0.14582641949780223   -0.06361488117962047   -0.00935743825946127
-0.14582641949780223   -0.06361488117962047   -0.00935743825946127
-0.14582641949780223   -0.06361488117962047   -0.00935743825946127
-0.16167659231224962   -0.04040094665237379   0.0029434890494670646
-0.16167659231224962   -0.04040094665237379   0.0029434890494670646
-0.16167659231224962   -0.04040094665237379   0.0029434890494670646
-0.16167659231224962   -0.04040094665237379   0.0029434890494670646
-0.13238151796414216   -0.09038251329559241   -0.012442981498040816
-0.13238151796414216   -0.09038251329559241   -0.012442981498040816
-0.13238151796414216   -0.09038251329559241   -0.012442981498040816
-0.13238151796414216   -0.09038251329559241   -0.012442981498040816
-0.11515204574529632   -0.036333150862206356   0.009949399951353431
-0.11515204574529632   -0.036333150862206356   0.009949399951353431
-0.11515204574529632   -0.036333150862206356   0.009949399951353431
-0.11515204574529632   -0.036333150862206356   0.009949399951353431
-0.175379818952151   -0.10114646200014402   -0.011032287453211196
-0.175379818952151   -0.10114646200014402   -0.011032287453211196
-0.175379818952151   -0.10114646200014402   -0.011032287453211196
-0.175379818952151   -0.10114646200014402   -0.011032287453211196
-0.14561739234713073   -0.0667468848946895   -0.010881248946148444
-0.14561739234713073   -0.0667468848946895   -0.010881248946148444
-0.14561739234713073   -0.0667468848946895   -0.010881248946148444
-0.14561739234713073   -0.0667468848946895   -0.010881248946148444
-0.11188620747429266   -0.00388625478696928   0.010976398397521238
-0.11188620747429266   -0.00388625478696928   0.010976398397521238
-0.11188620747429266   -0.00388625478696928   0.010976398397521238
-0.11188620747429266   -0.00388625478696928   0.010976398397521238
-0.10698473767099417   -0.04829473944209146   -0.009488559105731379
-0.10698473767099417   -0.04829473944209146   -0.009488559105731379
-0.10698473767099417   -0.04829473944209146   -0.009488559105731379
-0.10698473767099417   -0.04829473944209146   -0.009488559105731379
-0.09244660437438909   -0.006985862411450116   0.012675170119597613
-0.09244660437438909   -0.006985862411450116   0.012675170119597613
-0.09244660437438909   -0.006985862411450116   0.012675170119597613
-0.09244660437438909   -0.006985862411450116   0.012675170119597613
-0.1249069137951522   -0.055504297120200774   -0.006675750228104656
-0.1249069137951522   -0.055504297120200774   -0.006675750228104656
-0.1249069137951522   -0.055504297120200774   -0.006675750228104656
-0.1249069137951522   -0.055504297120200774   -0.006675750228104656
-0.10941053212080885   -0.028383323792307957   -0.003922105173920937
-0.10941053212080885   -0.028383323792307957   -0.003922105173920937
-0.10941053212080885   -0.028383323792307957   -0.003922105173920937
-0.10941053212080885   -0.028383323792307957   -0.003922105173920937
-0.1121228364810658   -0.010923395843566403   0.012663735065692905
-0.1121228364810658   -0.010923395843566403   0.012663735065692905
-0.1121228364810658   -0.010923395843566403   0.012663735065692905
-0.1121228364810658   -0.010923395843566403   0.012663735065692905
-0.10624674689575668   -0.052582828895365696   -0.010728576003324749
-0.10624674689575668   -0.052582828895365696   -0.010728576003324749
-0.10624674689575668   -0.052582828895365696   -0.010728576003324749
-0.10624674689575668   -0.052582828895365696   -0.010728576003324749
-0.09277422048014061   -0.01314197230985676   0.013639281920947875
-0.09277422048014061   -0.01314197230985676   0.013639281920947875
-0.09277422048014061   -0.01314197230985676   0.013639281920947875
-0.09277422048014061   -0.01314197230985676   0.013639281920947875
-0.12507511203294192   -0.05890168099412476   -0.007391784143511148
-0.12507511203294192   -0.05890168099412476   -0.007391784143511148
-0.12507511203294192   -0.05890168099412476   -0.007391784143511148
-0.12507511203294192   -0.05890168099412476   -0.007391784143511148
-0.10911140425533976   -0.03330827665825944   -0.006676187547123643
-0.10911140425533976   -0.03330827665825944   -0.006676187547123643
-0.10911140425533976   -0.03330827665825944   -0.006676187547123643
-0.10911140425533976   -0.03330827665825944   -0.006676187547123643
-0.11231506148522867   -0.016897199479064894   0.014403987079995255
-0.11231506148522867   -0.016897199479064894   0.014403987079995255
-0.11231506148522867   -0.016897199479064894   0.014403987079995255
-0.11231506148522867   -0.016897199479064894   0.014403987079995255
-0.1061505209768408   -0.05576270377390292   -0.01062148909850306
-0.1061505209768408   -0.05576270377390292   -0.01062148909850306
-0.1061505209768408   -0.05576270377390292   -0.01062148909850306
-0.1061505209768408   -0.05576270377390292   -0.01062148909850306
-0.0921917534343864   -0.018930341527975056   0.015815494743625674
-0.0921917534343864   -0.018930341527975056   0.015815494743625674
-0.0921917534343864   -0.018930341527975056   0.015815494743625674
-0.0921917534343864   -0.018930341527975056   0.015815494743625674
-0.12333446261278677   -0.06228230623304486   -0.005013529015260348
-0.12333446261278677   -0.06228230623304486   -0.005013529015260348
-0.12333446261278677   -0.06228230623304486   -0.005013529015260348
-0.12333446261278677   -0.06228230623304486   -0.005013529015260348
-0.10900600601741363   -0.037580861493926136   -0.00861887477484674
-0.10900600601741363   -0.037580861493926136   -0.00861887477484674
-0.10900600601741363   -0.037580861493926136   -0.00861887477484674
-0.10900600601741363   -0.037580861493926136   -0.00861887477484674
-0.08946928092352988   0.01260514824786597   0.017188836941632674
-0.08946928092352988   0.01260514824786597   0.017188836941632674
-0.08946928092352988   0.01260514824786597   0.017188836941632674
-0.08946928092352988   0.01260514824786597   0.017188836941632674
-0.061072924474945174   -0.016062032542725077   -0.005915852030256019
-0.061072924474945174   -0.016062032542725077   -0.005915852030256019
-0.061072924474945174   -0.016062032542725077   -0.005915852030256019
-0.061072924474945174   -0.016062032542725077   -0.005915852030256019
-0.05375837475766357   0.014498632994868841   0.017001383785229154
-0.05375837475766357   0.014498632994868841   0.017001383785229154
-0.05375837475766357   0.014498632994868841   0.017001383785229154
-0.05375837475766357   0.014498632994868841   0.017001383785229154
-0.09903916480446337   -0.0241941648318474   -0.0030793296103764564
-0.09903916480446337   -0.0241941648318474   -0.0030793296103764564
-0.09903916480446337   -0.0241941648318474   -0.0030793296103764564
-0.09903916480446337   -0.0241941648318474   -0.0030793296103764564
-0.07472720480223816   -0.0016033578959384238   -0.0030116698671581767
-0.07472720480223816   -0.0016033578959384238   -0.0030116698671581767
-0.07472720480223816   -0.0016033578959384238   -0.0030116698671581767
-0.07472720480223816   -0.0016033578959384238   -0.0030116698671581767
-0.08824036444326981   0.007955049811208793   0.01876545755253515
-0.08824036444326981   0.007955049811208793   0.01876545755253515
-0.08824036444326981   0.007955049811208793   0.01876545755253515
-0.08824036444326981   0.007955049811208793   0.01876545755253515
-0.0646759726227264   -0.017769379152054718   -0.005318593393153848
-0.0646759726227264   -0.017769379152054718   -0.005318593393153848
-0.0646759726227264   -0.017769379152054718   -0.005318593393153848
-0.0646759726227264   -0.017769379152054718   -0.005318593393153848
-0.05629224713704252   0.01146535190120413   0.02137391927460355
-0.05629224713704252   0.01146535190120413   0.02137391927460355
-0.05629224713704252   0.01146535190120413   0.02137391927460355
-0.05629224713704252   0.01146535190120413   0.02137391927460355
-0.09880744697096511   -0.02578722716978169   -0.003881595673249681
-0.09880744697096511   -0.02578722716978169   -0.003881595673249681
-0.09880744697096511   -0.02578722716978169   -0.003881595673249681
-0.09880744697096511   -0.02578722716978169   -0.003881595673249681
-0.07717733269149198   -0.004909912478780327   -0.00437684186853931
-0.07717733269149198   -0.004909912478780327   -0.00437684186853931
-0.07717733269149198   -0.004909912478780327   -0.00437684186853931
-0.07717733269149198   -0.004909912478780327   -0.00437684186853931
-0.08750161066656818   0.005267305896807453   0.021593052782145822
-0.08750161066656818   0.005267305896807453   0.021593052782145822
-0.08750161066656818   0.005267305896807453   0.021593052782145822
-0.08750161066656818   0.005267305896807453   0.021593052782145822
-0.06837236639697862   -0.020363464120924192   -0.00719786100294866
-0.06837236639697862   -0.020363464120924192   -0.00719786100294866
-0.06837236639697862   -0.020363464120924192   -0.00719786100294866
-0.06837236639697862   -0.020363464120924192   -0.00719786100294866
-0.06432880855897874   0.003116894682530239   0.022245097979240028
-0.06432880855897874   0.003116894682530239   0.022245097979240028
-0.06432880855897874   0.003116894682530239   0.022245097979240028
-0.06432880855897874   0.003116894682530239   0.022245097979240028
-0.09767249336634341   -0.027287669685426046   -0.003230876758708305
-0.09767249336634341   -0.027287669685426046   -0.003230876758708305
-0.09767249336634341   -0.027287669685426046   -0.003230876758708305
-0.09767249336634341   -0.027287669685426046   -0.003230876758708305
-0.07844160907279876   -0.00734352631548941   -0.006510129232113072
-0.07844160907279876   -0.00734352631548941   -0.006510129232113072
-0.07844160907279876   -0.00734352631548941   -0.006510129232113072
-0.07844160907279876   -0.00734352631548941   -0.006510129232113072
-0.9048104672954463   -0.12927554596403568   -0.07605856863759752
-0.9048104672954463   -0.12927554596403568   -0.07605856863759752
-0.9048104672954463   -0.12927554596403568   -0.07605856863759752
-0.9048104672954463   -0.12927554596403568   -0.07605856863759752
-0.31546606493294915   -0.507796172119034   -0.05931011747680633
-0.31546606493294915   -0.507796172119034   -0.05931011747680633
-0.31546606493294915   -0.507796172119034   -0.05931011747680633
-0.31546606493294915   -0.507796172119034   -0.05931011747680633
-0.24220184948132492   -0.021976064368394003   0.000174041173169469
-0.24220184948132492   -0.021976064368394003   0.000174041173169469
-0.24220184948132492   -0.021976064368394003   0.000174041173169469
-0.24220184948132492   -0.021976064368394003   0.000174041173169469
-0.9691992119676093   -0.5944373356148029   -0.3127273095164824
-0.9691992119676093   -0.5944373356148029   -0.3127273095164824
-0.9691992119676093   -0.5944373356148029   -0.3127273095164824
-0.9691992119676093   -0.5944373356148029   -0.3127273095164824
-0.5926654713065564   -0.29537694743835613   -0.04308500636884077
-0.5926654713065564   -0.29537694743835613   -0.04308500636884077
-0.5926654713065564   -0.29537694743835613   -0.04308500636884077
-0.5926654713065564   -0.29537694743835613   -0.04308500636884077
-0.8409317953272045   -0.16243531179838117   -0.10339225013088685
-0.8409317953272045   -0.16243531179838117   -0.10339225013088685
-0.8409317953272045   -0.16243531179838117   -0.10339225013088685
-0.8409317953272045   -0.16243531179838117   -0.10339225013088685
-0.34114158556876684   -0.4246504076318536   -0.09185029600057804
-0.34114158556876684   -0.4246504076318536   -0.09185029600057804
-0.34114158556876684   -0.4246504076318536   -0.09185029600057804
-0.34114158556876684   -0.4246504076318536   -0.09185029600057804
-0.2475033357956254   -0.028926220007187135   0.009237648569136168
-0.2475033357956254   -0.028926220007187135   0.009237648569136168
-0.2475033357956254   -0.028926220007187135   0.009237648569136168
-0.2475033357956254   -0.028926220007187135   0.009237648569136168
-0.9072269139125357   -0.5315926559867832   -0.2877639139798638
-0.9072269139125357   -0.5315926559867832   -0.2877639139798638
-0.9072269139125357   -0.5315926559867832   -0.2877639139798638
-0.9072269139125357   -0.5315926559867832   -0.2877639139798638
-0.5584475494653225   -0.2667863466188086   0.02226652315864705
-0.5584475494653225   -0.2667863466188086   0.02226652315864705
-0.5584475494653225   -0.2667863466188086   0.02226652315864705
-0.5584475494653225   -0.2667863466188086   0.02226652315864705
-0.7897678673904633   -0.15469910292603362   -0.07736223443025832
-0.7897678673904633   -0.15469910292603362   -0.07736223443025832
-0.7897678673904633   -0.15469910292603362   -0.07736223443025832
-0.7897678673904633   -0.15469910292603362   -0.07736223443025832
-0.33233052339213276   -0.3731879141423725   -0.07063659527821353
-0.33233052339213276   -0.3731879141423725   -0.07063659527821353
-0.33233052339213276   -0.3731879141423725   -0.07063659527821353
-0.33233052339213276   -0.3731879141423725   -0.07063659527821353
-0.28539570129870506   -0.07428302934426775   -0.01516887163235538
-0.28539570129870506   -0.07428302934426775   -0.01516887163235538
-0.28539570129870506   -0.07428302934426775   -0.01516887163235538
-0.28539570129870506   -0.07428302934426775   -0.01516887163235538
-0.8270382463555132   -0.44851790490710286   -0.2551112302525232
-0.8270382463555132   -0.44851790490710286   -0.2551112302525232
-0.8270382463555132   -0.44851790490710286   -0.2551112302525232
-0.8270382463555132   -0.44851790490710286   -0.2551112302525232
-0.5175512122866427   -0.2316229963618123   0.09621580671179722
-0.5175512122866427   -0.2316229963618123   0.09621580671179722
-0.5175512122866427   -0.2316229963618123   0.09621580671179722
-0.5175512122866427   -0.2316229963618123   0.09621580671179722
-0.23135320990512334   -0.12773416368233442   -0.018807850774378302
-0.23135320990512334   -0.12773416368233442   -0.018807850774378302
-0.23135320990512334   -0.12773416368233442   -0.018807850774378302
-0.23135320990512334   -0.12773416368233442   -0.018807850774378302
-0.10828291315208816   -0.16417499613563058   -0.02681719885129646
-0.10828291315208816   -0.16417499613563058   -0.02681719885129646
-0.10828291315208816   -0.16417499613563058   -0.02681719885129646
-0.10828291315208816   -0.16417499613563058   -0.02681719885129646
-0.09469475492045833   -0.08232076935872608   0.0023401754302362215
-0.09469475492045833   -0.08232076935872608   0.0023401754302362215
-0.09469475492045833   -0.08232076935872608   0.0023401754302362215
-0.09469475492045833   -0.08232076935872608   0.0023401754302362215
-0.2851733515052301   -0.23747266078941026   0.0008131274746622022
-0.2851733515052301   -0.23747266078941026   0.0008131274746622022
-0.2851733515052301   -0.23747266078941026   0.0008131274746622022
-0.2851733515052301   -0.23747266078941026   0.0008131274746622022
-0.15258010057917623   -0.11481782946867204   0.0493530357169118
-0.15258010057917623   -0.11481782946867204   0.0493530357169118
-0.15258010057917623   -0.11481782946867204   0.0493530357169118
-0.15258010057917623   -0.11481782946867204   0.0493530357169118
-0.2640811314166951   -0.1190881385986966   -0.012110294273379663
-0.2640811314166951   -0.1190881385986966   -0.012110294273379663
-0.2640811314166951   -0.1190881385986966   -0.012110294273379663
-0.2640811314166951   -0.1190881385986966   -0.012110294273379663
-0.1239810277475622   -0.20889934428800913   -0.01751261377600006
-0.1239810277475622   -0.20889934428800913   -0.01751261377600006
-0.1239810277475622   -0.20889934428800913   -0.01751261377600006
-0.1239810277475622   -0.20889934428800913   -0.01751261377600006
-0.10266340551062528   -0.08525681288518479   0.002490227134131745
-0.10266340551062528   -0.08525681288518479   0.002490227134131745
-0.10266340551062528   -0.08525681288518479   0.002490227134131745
-0.10266340551062528   -0.08525681288518479   0.002490227134131745
-0.29967110372619193   -0.23491774415432487   -0.04560966693655724
-0.29967110372619193   -0.23491774415432487   -0.04560966693655724
-0.29967110372619193   -0.23491774415432487   -0.04560966693655724
-0.29967110372619193   -0.23491774415432487   -0.04560966693655724
-0.18268087745696235   -0.14684380353023443   0.02217839059961698
-0.18268087745696235   -0.14684380353023443   0.02217839059961698
-0.18268087745696235   -0.14684380353023443   0.02217839059961698
-0.18268087745696235   -0.14684380353023443   0.02217839059961698
-0.2729771635404743   -0.12435762662536676   -0.022700083536929035
-0.2729771635404743   -0.12435762662536676   -0.022700083536929035
-0.2729771635404743   -0.12435762662536676   -0.022700083536929035
-0.2729771635404743   -0.12435762662536676   -0.022700083536929035
-0.12861285720939547   -0.19507244192719578   -0.017441402317708233
-0.12861285720939547   -0.19507244192719578   -0.017441402317708233
-0.12861285720939547   -0.19507244192719578   -0.017441402317708233
-0.12861285720939547   -0.19507244192719578   -0.017441402317708233
-0.11507403299295636   -0.08788117785010319   0.0036819265686360153
-0.11507403299295636   -0.08788117785010319   0.0036819265686360153
-0.11507403299295636   -0.08788117785010319   0.0036819265686360153
-0.11507403299295636   -0.08788117785010319   0.0036819265686360153
-0.3211239573255123   -0.22861290156186978   -0.03948027954878877
-0.3211239573255123   -0.22861290156186978   -0.03948027954878877
-0.3211239573255123   -0.22861290156186978   -0.03948027954878877
-0.3211239573255123   -0.22861290156186978   -0.03948027954878877
-0.19166067880025528   -0.13848396881193883   0.023394476551122253
-0.19166067880025528   -0.13848396881193883   0.023394476551122253
-0.19166067880025528   -0.13848396881193883   0.023394476551122253
-0.19166067880025528   -0.13848396881193883   0.023394476551122253
-0.08425549712197579   -0.07645607974836933   0.005600964912004156
-0.08425549712197579   -0.07645607974836933   0.005600964912004156
-0.08425549712197579   -0.07645607974836933   0.005600964912004156
-0.08425549712197579   -0.07645607974836933   0.005600964912004156
-0.05255296247552484   -0.05314962167035529   -0.013189829920474797
-0.05255296247552484   -0.05314962167035529   -0.013189829920474797
-0.05255296247552484   -0.05314962167035529   -0.013189829920474797
-0.05255296247552484   -0.05314962167035529   -0.013189829920474797
-0.05059018609214096   -0.0686464585952426   0.005559163017489273
-0.05059018609214096   -0.0686464585952426   0.005559163017489273
-0.05059018609214096   -0.0686464585952426   0.005559163017489273
-0.05059018609214096   -0.0686464585952426   0.005559163017489273
-0.09414649151211121   -0.07173696799214949   -0.005502308894604801
-0.09414649151211121   -0.07173696799214949   -0.005502308894604801
-0.09414649151211121   -0.07173696799214949   -0.005502308894604801
-0.09414649151211121   -0.07173696799214949   -0.005502308894604801
-0.059313571768922435   -0.05683203318803206   0.024834373363723822
-0.059313571768922435   -0.05683203318803206   0.024834373363723822
-0.059313571768922435   -0.05683203318803206   0.024834373363723822
-0.059313571768922435   -0.05683203318803206   0.024834373363723822
-0.09287792436279442   -0.07699593923408768   0.0060994980939173445
-0.09287792436279442   -0.07699593923408768   0.0060994980939173445
-0.09287792436279442   -0.07699593923408768   0.0060994980939173445
-0.09287792436279442   -0.07699593923408768   0.0060994980939173445
-0.0527523244842302   -0.0642810585960775   -0.00961692894212587
-0.0527523244842302   -0.0642810585960775   -0.00961692894212587
-0.0527523244842302   -0.0642810585960775   -0.00961692894212587
-0.0527523244842302   -0.0642810585960775   -0.00961692894212587
-0.051403220470852884   -0.07070174106643677   0.004982582154444328
-0.051403220470852884   -0.07070174106643677   0.004982582154444328
-0.051403220470852884   -0.07070174106643677   0.004982582154444328
-0.051403220470852884   -0.07070174106643677   0.004982582154444328
-0.10034531419349722   -0.083475439131523   0.012299309966110235
-0.10034531419349722   -0.083475439131523   0.012299309966110235
-0.10034531419349722   -0.083475439131523   0.012299309966110235
-0.10034531419349722   -0.083475439131523   0.012299309966110235
-0.06490609761924546   -0.0634079228128618   0.020792262031701373
-0.06490609761924546   -0.0634079228128618   0.020792262031701373
-0.06490609761924546   -0.0634079228128618   0.020792262031701373
-0.06490609761924546   -0.0634079228128618   0.020792262031701373
-0.10044027725210122   -0.07986321478771853   0.008212270329283886
-0.10044027725210122   -0.07986321478771853   0.008212270329283886
-0.10044027725210122   -0.07986321478771853   0.008212270329283886
-0.10044027725210122   -0.07986321478771853   0.008212270329283886
-0.05573781528588759   -0.07874352328388028   -0.008648609703285744
-0.05573781528588759   -0.07874352328388028   -0.008648609703285744
-0.05573781528588759   -0.07874352328388028   -0.008648609703285744
-0.05573781528588759   -0.07874352328388028   -0.008648609703285744
-0.05242393754791955   -0.07294147997894901   0.007036741248532357
-0.05242393754791955   -0.07294147997894901   0.007036741248532357
-0.05242393754791955   -0.07294147997894901   0.007036741248532357
-0.05242393754791955   -0.07294147997894901   0.007036741248532357
-0.11800972501546841   -0.10214285325045157   0.00326514185642612
-0.11800972501546841   -0.10214285325045157   0.00326514185642612
-0.11800972501546841   -0.10214285325045157   0.00326514185642612
-0.11800972501546841   -0.10214285325045157   0.00326514185642612
-0.07290964184458248   -0.07208986638863599   0.009481960298928786
-0.07290964184458248   -0.07208986638863599   0.009481960298928786
-0.07290964184458248   -0.07208986638863599   0.009481960298928786
-0.07290964184458248   -0.07208986638863599   0.009481960298928786
-0.04242607687811545   -0.030521916819271723   0.014816893215488573
-0.04242607687811545   -0.030521916819271723   0.014816893215488573
-0.04242607687811545   -0.030521916819271723   0.014816893215488573
-0.04242607687811545   -0.030521916819271723   0.014816893215488573
-0.030547651862963095   -0.0017499687534626917   -0.0030125205525907022
-0.030547651862963095   -0.0017499687534626917   -0.0030125205525907022
-0.030547651862963095   -0.0017499687534626917   -0.0030125205525907022
-0.030547651862963095   -0.0017499687534626917   -0.0030125205525907022
-0.028933114506345968   -0.033144004722600054   0.009151912471096544
-0.028933114506345968   -0.033144004722600054   0.009151912471096544
-0.028933114506345968   -0.033144004722600054   0.009151912471096544
-0.028933114506345968   -0.033144004722600054   0.009151912471096544
-0.039822217973577795   -0.007694748582439202   -0.0015527064025021601
-0.039822217973577795   -0.007694748582439202   -0.0015527064025021601
-0.039822217973577795   -0.007694748582439202   -0.0015527064025021601
-0.039822217973577795   -0.007694748582439202   -0.0015527064025021601
-0.032720891357848184   -0.017400572630713672   0.007345312295496578
-0.032720891357848184   -0.017400572630713672   0.007345312295496578
-0.032720891357848184   -0.017400572630713672   0.007345312295496578
-0.032720891357848184   -0.017400572630713672   0.007345312295496578
-0.04213197160000168   -0.03481116938246888   0.014014946265408128
-0.04213197160000168   -0.03481116938246888   0.014014946265408128
-0.04213197160000168   -0.03481116938246888   0.014014946265408128
-0.04213197160000168   -0.03481116938246888   0.014014946265408128
-0.025922287407245583   -0.0053265104498938735   -0.003611446306107728
-0.025922287407245583   -0.0053265104498938735   -0.003611446306107728
-0.025922287407245583   -0.0053265104498938735   -0.003611446306107728
-0.025922287407245583   -0.0053265104498938735   -0.003611446306107728
-0.02673556999510771   -0.03605976117362586   0.008478272921152965
-0.02673556999510771   -0.03605976117362586   0.008478272921152965
-0.02673556999510771   -0.03605976117362586   0.008478272921152965
-0.02673556999510771   -0.03605976117362586   0.008478272921152965
-0.04039878406670382   -0.013672473126535066   0.0029754962352879005
-0.04039878406670382   -0.013672473126535066   0.0029754962352879005
-0.04039878406670382   -0.013672473126535066   0.0029754962352879005
-0.04039878406670382   -0.013672473126535066   0.0029754962352879005
-0.03029702002467746   -0.020005741993114654   0.008570984940468266
-0.03029702002467746   -0.020005741993114654   0.008570984940468266
-0.03029702002467746   -0.020005741993114654   0.008570984940468266
-0.03029702002467746   -0.020005741993114654   0.008570984940468266
-0.04259334215520734   -0.03771743638052445   0.01604766904675967
-0.04259334215520734   -0.03771743638052445   0.01604766904675967
-0.04259334215520734   -0.03771743638052445   0.01604766904675967
-0.04259334215520734   -0.03771743638052445   0.01604766904675967
-0.024828901296583807   -0.012302687309616098   -0.005745457450237277
-0.024828901296583807   -0.012302687309616098   -0.005745457450237277
-0.024828901296583807   -0.012302687309616098   -0.005745457450237277
-0.024828901296583807   -0.012302687309616098   -0.005745457450237277
-0.02274657253611986   -0.03929130640184903   0.009353580064051858
-0.02274657253611986   -0.03929130640184903   0.009353580064051858
-0.02274657253611986   -0.03929130640184903   0.009353580064051858
-0.02274657253611986   -0.03929130640184903   0.009353580064051858
-0.044052672231985716   -0.027904613095848515   0.0038562009451009955
-0.044052672231985716   -0.027904613095848515   0.0038562009451009955
-0.044052672231985716   -0.027904613095848515   0.0038562009451009955
-0.044052672231985716   -0.027904613095848515   0.0038562009451009955
-0.02949049318645299   -0.025136512449932327   0.007187935314786336
-0.02949049318645299   -0.025136512449932327   0.007187935314786336
-0.02949049318645299   -0.025136512449932327   0.007187935314786336
-0.02949049318645299   -0.025136512449932327   0.007187935314786336
-0.027632654703280215   -0.005190257403223898   0.015002753895584923
-0.027632654703280215   -0.005190257403223898   0.015002753895584923
-0.027632654703280215   -0.005190257403223898   0.015002753895584923
-0.027632654703280215   -0.005190257403223898   0.015002753895584923
-0.005429543165401906   0.0029116460844219264   -0.00030347752642464294
-0.005429543165401906   0.0029116460844219264   -0.00030347752642464294
-0.005429543165401906   0.0029116460844219264   -0.00030347752642464294
-0.005429543165401906   0.0029116460844219264   -0.00030347752642464294
0.000921773442616444   -0.0017156379666623785   0.009352366468468843
0.000921773442616444   -0.0017156379666623785   0.009352366468468843
0.000921773442616444   -0.0017156379666623785   0.009352366468468843
0.000921773442616444   -0.0017156379666623785   0.009352366468468843
-0.02392826799116191   0.0019756586266289136   -0.0009435183022121433
-0.02392826799116191   0.0019756586266289136   -0.0009435183022121433
-0.02392826799116191   0.0019756586266289136   -0.0009435183022121433
-0.02392826799116191   0.0019756586266289136   -0.0009435183022121433
-0.014220236822083414   -0.0011336389573332398   -0.0010992669471653672
-0.014220236822083414   -0.0011336389573332398   -0.0010992669471653672
-0.014220236822083414   -0.0011336389573332398   -0.0010992669471653672
-0.014220236822083414   -0.0011336389573332398   -0.0010992669471653672
-0.022019975282822433   -0.005049783526850911   0.015623387392965059
-0.022019975282822433   -0.005049783526850911   0.015623387392965059
-0.022019975282822433   -0.005049783526850911   0.015623387392965059
-0.022019975282822433   -0.005049783526850911   0.015623387392965059
-0.00017539801231012536   0.006120925440229073   -0.0039700542130631285
-0.00017539801231012536   0.006120925440229073   -0.0039700542130631285
-0.00017539801231012536   0.006120925440229073   -0.0039700542130631285
-0.00017539801231012536   0.006120925440229073   -0.0039700542130631285
0.003988991337716727   -0.0021437138828398383   0.011539532452777754
0.003988991337716727   -0.0021437138828398383   0.011539532452777754
0.003988991337716727   -0.0021437138828398383   0.011539532452777754
0.003988991337716727   -0.0021437138828398383   0.011539532452777754
-0.021246208758166962   0.0012302053487867112   -0.0013648874165558874
-0.021246208758166962   0.0012302053487867112   -0.0013648874165558874
-0.021246208758166962   0.0012302053487867112   -0.0013648874165558874
-0.021246208758166962   0.0012302053487867112   -0.0013648874165558874
-0.009663760994894093   -0.0004047086162717107   0.0014178325426249174
-0.009663760994894093   -0.0004047086162717107   0.0014178325426249174
-0.009663760994894093   -0.0004047086162717107   0.0014178325426249174
-0.009663760994894093   -0.0004047086162717107   0.0014178325426249174
-0.018990375602151548   -0.005682164182422885   0.016826647894730797
-0.018990375602151548   -0.005682164182422885   0.016826647894730797
-0.018990375602151548   -0.005682164182422885   0.016826647894730797
-0.018990375602151548   -0.005682164182422885   0.016826647894730797
0.002437534059759108   0.005473031526427556   -0.003834499346277736
0.002437534059759108   0.005473031526427556   -0.003834499346277736
0.002437534059759108   0.005473031526427556   -0.003834499346277736
0.002437534059759108   0.005473031526427556   -0.003834499346277736
0.0069927939352499285   -0.0034571500998222407   0.011256433867717392
0.0069927939352499285   -0.0034571500998222407   0.011256433867717392
0.0069927939352499285   -0.0034571500998222407   0.011256433867717392
0.0069927939352499285   -0.0034571500998222407   0.011256433867717392
-0.016889348488103827   0.0008711694407508731   -0.001522775538467863
-0.016889348488103827   0.0008711694407508731   -0.001522775538467863
-0.016889348488103827   0.0008711694407508731   -0.001522775538467863
-0.016889348488103827   0.0008711694407508731   -0.001522775538467863
-0.005645183214828742   -4.0223647582056377e-05   0.003562321672879931
-0.005645183214828742   -4.0223647582056377e-05   0.003562321672879931
-0.005645183214828742   -4.0223647582056377e-05   0.003562321672879931
-0.005645183214828742   -4.0223647582056377e-05   0.003562321672879931
              </DataArray>   
             <DataArray type="Float64" NumberOfComponents="3" Name="Displacements" format="ascii">   
0.0   0.0   0.0
-0.0025281569146136376   -0.0016653255186624039   -0.0008473179693583723
0.0   0.0   0.0
0.0   0.0   0.0
-0.0025281569146136376   -0.0016653255186624039   -0.0008473179693583723
-0.0016081126455709787   -0.001497767715771079   -0.0006226061546235952
0.0   0.0   0.0
-0.0015758971088988601   -0.001572541047057335   -0.0005217457529463567
0.0   0.0   0.0
0.0   0.0   0.0
-0.0015758971088988601   -0.001572541047057335   -0.0005217457529463567
0.0   0.0   0.0
0.0   0.0   0.0
-0.0015758971088988601   -0.001572541047057335   -0.0005217457529463567
-0.0026453260416187388   -0.0017738503369522903   -0.0006804811528009063
-0.0025281569146136376   -0.0016653255186624039   -0.0008473179693583723
0.0   0.0   0.0
-0.0015758971088988601   -0.001572541047057335   -0.0005217457529463567
-0.0025281569146136376   -0.0016653255186624039   -0.0008473179693583723
0.0   0.0   0.0
0.0   0.0   0.0
-0.0026453260416187388   -0.0017738503369522903   -0.0006804811528009063
0.0   0.0   0.0
0.0   0.0   0.0
-0.0026453260416187388   -0.0017738503369522903   -0.0006804811528009063
-0.0015758971088988601   -0.001572541047057335   -0.0005217457529463567
0.0   0.0   0.0
-0.0015798956155889817   -0.0016109113337669267   -0.00042108146500686517
0.0   0.0   0.0
0.0   0.0   0.0
-0.0015798956155889817   -0.0016109113337669267   -0.00042108146500686517
0.0   0.0   0.0
0.0   0.0   0.0
-0.0015798956155889817   -0.0016109113337669267   -0.00042108146500686517
-0.002727408112609507   -0.0018266469161085973   -0.0005207220105191766
-0.0026453260416187388   -0.0017738503369522903   -0.0006804811528009063
0.0   0.0   0.0
-0.0015798956155889817   -0.0016109113337669267   -0.00042108146500686517
-0.0026453260416187388   -0.0017738503369522903   -0.0006804811528009063
0.0   0.0   0.0
0.0   0.0   0.0
-0.002727408112609507   -0.0018266469161085973   -0.0005207220105191766
0.0   0.0   0.0
0.0   0.0   0.0
-0.002727408112609507   -0.0018266469161085973   -0.0005207220105191766
-0.0015798956155889817   -0.0016109113337669267   -0.00042108146500686517
0.0   0.0   0.0
-0.001578562644170963   -0.001620841265444839   -0.0003170566368041677
0.0   0.0   0.0
0.0   0.0   0.0
-0.001578562644170963   -0.001620841265444839   -0.0003170566368041677
0.0   0.0   0.0
0.0   0.0   0.0
-0.001578562644170963   -0.001620841265444839   -0.0003170566368041677
-0.002904677916334164   -0.001866805099263059   -0.00033544144285334304
-0.002727408112609507   -0.0018266469161085973   -0.0005207220105191766
0.0   0.0   0.0
-0.001578562644170963   -0.001620841265444839   -0.0003170566368041677
-0.002727408112609507   -0.0018266469161085973   -0.0005207220105191766
0.0   0.0   0.0
0.0   0.0   0.0
-0.0016081126455709787   -0.001497767715771079   -0.0006226061546235952
0.0   0.0   0.0
0.0   0.0   0.0
-0.0016081126455709787   -0.001497767715771079   -0.0006226061546235952
-0.0007328587323345791   -0.0014364076758936726   -0.00047375828942556984
0.0   0.0   0.0
-0.0007044186650819677   -0.0014850235922017467   -0.00042608939499020563
0.0   0.0   0.0
0.0   0.0   0.0
-0.0007044186650819677   -0.0014850235922017467   -0.00042608939499020563
0.0   0.0   0.0
0.0   0.0   0.0
-0.0007044186650819677   -0.0014850235922017467   -0.00042608939499020563
-0.0015758971088988601   -0.001572541047057335   -0.0005217457529463567
-0.0016081126455709787   -0.001497767715771079   -0.0006226061546235952
0.0   0.0   0.0
-0.0007044186650819677   -0.0014850235922017467   -0.00042608939499020563
-0.0016081126455709787   -0.001497767715771079   -0.0006226061546235952
0.0   0.0   0.0
0.0   0.0   0.0
-0.0015758971088988601   -0.001572541047057335   -0.0005217457529463567
0.0   0.0   0.0
0.0   0.0   0.0
-0.0015758971088988601   -0.001572541047057335   -0.0005217457529463567
-0.0007044186650819677   -0.0014850235922017467   -0.00042608939499020563
0.0   0.0   0.0
-0.0006882636149995106   -0.0015035724521109623   -0.00037971541712222243
0.0   0.0   0.0
0.0   0.0   0.0
-0.0006882636149995106   -0.0015035724521109623   -0.00037971541712222243
0.0   0.0   0.0
0.0   0.0   0.0
-0.0006882636149995106   -0.0015035724521109623   -0.00037971541712222243
-0.0015798956155889817   -0.0016109113337669267   -0.00042108146500686517
-0.0015758971088988601   -0.001572541047057335   -0.0005217457529463567
0.0   0.0   0.0
-0.0006882636149995106   -0.0015035724521109623   -0.00037971541712222243
-0.0015758971088988601   -0.001572541047057335   -0.0005217457529463567
0.0   0.0   0.0
0.0   0.0   0.0
-0.0015798956155889817   -0.0016109113337669267   -0.00042108146500686517
0.0   0.0   0.0
0.0   0.0   0.0
-0.0015798956155889817   -0.0016109113337669267   -0.00042108146500686517
-0.0006882636149995106   -0.0015035724521109623   -0.00037971541712222243
0.0   0.0   0.0
-0.0006734795325167042   -0.0014958765028532924   -0.00033182536058265396
0.0   0.0   0.0
0.0   0.0   0.0
-0.0006734795325167042   -0.0014958765028532924   -0.00033182536058265396
0.0   0.0   0.0
0.0   0.0   0.0
-0.0006734795325167042   -0.0014958765028532924   -0.00033182536058265396
-0.001578562644170963   -0.001620841265444839   -0.0003170566368041677
-0.0015798956155889817   -0.0016109113337669267   -0.00042108146500686517
0.0   0.0   0.0
-0.0006734795325167042   -0.0014958765028532924   -0.00033182536058265396
-0.0015798956155889817   -0.0016109113337669267   -0.00042108146500686517
0.0   0.0   0.0
0.0   0.0   0.0
-0.0007328587323345791   -0.0014364076758936726   -0.00047375828942556984
0.0   0.0   0.0
0.0   0.0   0.0
-0.0007328587323345791   -0.0014364076758936726   -0.00047375828942556984
9.371079704779077e-05   -0.0014443392267627648   -0.0003790421889015692
0.0   0.0   0.0
0.00011207069924295521   -0.0014694770814254437   -0.00038550949814308567
0.0   0.0   0.0
0.0   0.0   0.0
0.00011207069924295521   -0.0014694770814254437   -0.00038550949814308567
0.0   0.0   0.0
0.0   0.0   0.0
0.00011207069924295521   -0.0014694770814254437   -0.00038550949814308567
-0.0007044186650819677   -0.0014850235922017467   -0.00042608939499020563
-0.0007328587323345791   -0.0014364076758936726   -0.00047375828942556984
0.0   0.0   0.0
0.00011207069924295521   -0.0014694770814254437   -0.00038550949814308567
-0.0007328587323345791   -0.0014364076758936726   -0.00047375828942556984
0.0   0.0   0.0
0.0   0.0   0.0
-0.0007044186650819677   -0.0014850235922017467   -0.00042608939499020563
0.0   0.0   0.0
0.0   0.0   0.0
-0.0007044186650819677   -0.0014850235922017467   -0.00042608939499020563
0.00011207069924295521   -0.0014694770814254437   -0.00038550949814308567
0.0   0.0   0.0
0.00012662042144776607   -0.001467340538205097   -0.0003913945485751684
0.0   0.0   0.0
0.0   0.0   0.0
0.00012662042144776607   -0.001467340538205097   -0.0003913945485751684
0.0   0.0   0.0
0.0   0.0   0.0
0.00012662042144776607   -0.001467340538205097   -0.0003913945485751684
-0.0006882636149995106   -0.0015035724521109623   -0.00037971541712222243
-0.0007044186650819677   -0.0014850235922017467   -0.00042608939499020563
0.0   0.0   0.0
0.00012662042144776607   -0.001467340538205097   -0.0003913945485751684
-0.0007044186650819677   -0.0014850235922017467   -0.00042608939499020563
0.0   0.0   0.0
0.0   0.0   0.0
-0.0006882636149995106   -0.0015035724521109623   -0.00037971541712222243
0.0   0.0   0.0
0.0   0.0   0.0
-0.0006882636149995106   -0.0015035724521109623   -0.00037971541712222243
0.00012662042144776607   -0.001467340538205097   -0.0003913945485751684
0.0   0.0   0.0
0.0001460491554868049   -0.0014357015237021964   -0.0003974952564106713
0.0   0.0   0.0
0.0   0.0   0.0
0.0001460491554868049   -0.0014357015237021964   -0.0003974952564106713
0.0   0.0   0.0
0.0   0.0   0.0
0.0001460491554868049   -0.0014357015237021964   -0.0003974952564106713
-0.0006734795325167042   -0.0014958765028532924   -0.00033182536058265396
-0.0006882636149995106   -0.0015035724521109623   -0.00037971541712222243
0.0   0.0   0.0
0.0001460491554868049   -0.0014357015237021964   -0.0003974952564106713
-0.0006882636149995106   -0.0015035724521109623   -0.00037971541712222243
0.0   0.0   0.0
0.0   0.0   0.0
9.371079704779077e-05   -0.0014443392267627648   -0.0003790421889015692
0.0   0.0   0.0
0.0   0.0   0.0
9.371079704779077e-05   -0.0014443392267627648   -0.0003790421889015692
0.0009913187918663626   -0.0015141035774446266   -0.0003323780749544428
0.0   0.0   0.0
0.0009936263860794224   -0.0015219947745748054   -0.00039581285129523287
0.0   0.0   0.0
0.0   0.0   0.0
0.0009936263860794224   -0.0015219947745748054   -0.00039581285129523287
0.0   0.0   0.0
0.0   0.0   0.0
0.0009936263860794224   -0.0015219947745748054   -0.00039581285129523287
0.00011207069924295521   -0.0014694770814254437   -0.00038550949814308567
9.371079704779077e-05   -0.0014443392267627648   -0.0003790421889015692
0.0   0.0   0.0
0.0009936263860794224   -0.0015219947745748054   -0.00039581285129523287
9.371079704779077e-05   -0.0014443392267627648   -0.0003790421889015692
0.0   0.0   0.0
0.0   0.0   0.0
0.00011207069924295521   -0.0014694770814254437   -0.00038550949814308567
0.0   0.0   0.0
0.0   0.0   0.0
0.00011207069924295521   -0.0014694770814254437   -0.00038550949814308567
0.0009936263860794224   -0.0015219947745748054   -0.00039581285129523287
0.0   0.0   0.0
0.0009898403806235254   -0.001500265167319182   -0.0004567313341031912
0.0   0.0   0.0
0.0   0.0   0.0
0.0009898403806235254   -0.001500265167319182   -0.0004567313341031912
0.0   0.0   0.0
0.0   0.0   0.0
0.0009898403806235254   -0.001500265167319182   -0.0004567313341031912
0.00012662042144776607   -0.001467340538205097   -0.0003913945485751684
0.00011207069924295521   -0.0014694770814254437   -0.00038550949814308567
0.0   0.0   0.0
0.0009898403806235254   -0.001500265167319182   -0.0004567313341031912
0.00011207069924295521   -0.0014694770814254437   -0.00038550949814308567
0.0   0.0   0.0
0.0   0.0   0.0
0.00012662042144776607   -0.001467340538205097   -0.0003913945485751684
0.0   0.0   0.0
0.0   0.0   0.0
0.00012662042144776607   -0.001467340538205097   -0.0003913945485751684
0.0009898403806235254   -0.001500265167319182   -0.0004567313341031912
0.0   0.0   0.0
0.0010094617876915562   -0.0014423146177797682   -0.000516540712286124
0.0   0.0   0.0
0.0   0.0   0.0
0.0010094617876915562   -0.0014423146177797682   -0.000516540712286124
0.0   0.0   0.0
0.0   0.0   0.0
0.0010094617876915562   -0.0014423146177797682   -0.000516540712286124
0.0001460491554868049   -0.0014357015237021964   -0.0003974952564106713
0.00012662042144776607   -0.001467340538205097   -0.0003913945485751684
0.0   0.0   0.0
0.0010094617876915562   -0.0014423146177797682   -0.000516540712286124
0.00012662042144776607   -0.001467340538205097   -0.0003913945485751684
0.0   0.0   0.0
0.0   0.0   0.0
0.0009913187918663626   -0.0015141035774446266   -0.0003323780749544428
0.0   0.0   0.0
0.0   0.0   0.0
0.0009913187918663626   -0.0015141035774446266   -0.0003323780749544428
0.002240924630803544   -0.0016911758143843946   -0.00031406662092586823
0.0   0.0   0.0
0.002105297602468099   -0.0016724824019062803   -0.0004580663714582774
0.0   0.0   0.0
0.0   0.0   0.0
0.002105297602468099   -0.0016724824019062803   -0.0004580663714582774
0.0   0.0   0.0
0.0   0.0   0.0
0.002105297602468099   -0.0016724824019062803   -0.0004580663714582774
0.0009936263860794224   -0.0015219947745748054   -0.00039581285129523287
0.0009913187918663626   -0.0015141035774446266   -0.0003323780749544428
0.0   0.0   0.0
0.002105297602468099   -0.0016724824019062803   -0.0004580663714582774
0.0009913187918663626   -0.0015141035774446266   -0.0003323780749544428
0.0   0.0   0.0
0.0   0.0   0.0
0.0009936263860794224   -0.0015219947745748054   -0.00039581285129523287
0.0   0.0   0.0
0.0   0.0   0.0
0.0009936263860794224   -0.0015219947745748054   -0.00039581285129523287
0.002105297602468099   -0.0016724824019062803   -0.0004580663714582774
0.0   0.0   0.0
0.0020429666487256767   -0.001637715724721595   -0.0005798875390154468
0.0   0.0   0.0
0.0   0.0   0.0
0.0020429666487256767   -0.001637715724721595   -0.0005798875390154468
0.0   0.0   0.0
0.0   0.0   0.0
0.0020429666487256767   -0.001637715724721595   -0.0005798875390154468
0.0009898403806235254   -0.001500265167319182   -0.0004567313341031912
0.0009936263860794224   -0.0015219947745748054   -0.00039581285129523287
0.0   0.0   0.0
0.0020429666487256767   -0.001637715724721595   -0.0005798875390154468
0.0009936263860794224   -0.0015219947745748054   -0.00039581285129523287
0.0   0.0   0.0
0.0   0.0   0.0
0.0009898403806235254   -0.001500265167319182   -0.0004567313341031912
0.0   0.0   0.0
0.0   0.0   0.0
0.0009898403806235254   -0.001500265167319182   -0.0004567313341031912
0.0020429666487256767   -0.001637715724721595   -0.0005798875390154468
0.0   0.0   0.0
0.001949845200563171   -0.0015489415480139392   -0.000708913355191416
0.0   0.0   0.0
0.0   0.0   0.0
0.001949845200563171   -0.0015489415480139392   -0.000708913355191416
0.0   0.0   0.0
0.0   0.0   0.0
0.001949845200563171   -0.0015489415480139392   -0.000708913355191416
0.0010094617876915562   -0.0014423146177797682   -0.000516540712286124
0.0009898403806235254   -0.001500265167319182   -0.0004567313341031912
0.0   0.0   0.0
0.001949845200563171   -0.0015489415480139392   -0.000708913355191416
0.0009898403806235254   -0.001500265167319182   -0.0004567313341031912
0.0   0.0   0.0
-0.0025281569146136376   -0.0016653255186624039   -0.0008473179693583723
-0.004717182652574418   -0.004639067517264447   -0.0011417977170616884
-0.0016081126455709787   -0.001497767715771079   -0.0006226061546235952
-0.0026453260416187388   -0.0017738503369522903   -0.0006804811528009063
-0.004717182652574418   -0.004639067517264447   -0.0011417977170616884
-0.0030105712731443753   -0.0044885494813337225   -0.0009403341884781478
-0.0016081126455709787   -0.001497767715771079   -0.0006226061546235952
-0.003013406427058442   -0.004564957055491866   -0.0008471780216451707
-0.0026453260416187388   -0.0017738503369522903   -0.0006804811528009063
-0.0015758971088988601   -0.001572541047057335   -0.0005217457529463567
-0.003013406427058442   -0.004564957055491866   -0.0008471780216451707
-0.0016081126455709787   -0.001497767715771079   -0.0006226061546235952
-0.0026453260416187388   -0.0017738503369522903   -0.0006804811528009063
-0.003013406427058442   -0.004564957055491866   -0.0008471780216451707
-0.004857554458818815   -0.004745761981856525   -0.0009906356425587776
-0.004717182652574418   -0.004639067517264447   -0.0011417977170616884
-0.0026453260416187388   -0.0017738503369522903   -0.0006804811528009063
-0.003013406427058442   -0.004564957055491866   -0.0008471780216451707
-0.004717182652574418   -0.004639067517264447   -0.0011417977170616884
-0.0016081126455709787   -0.001497767715771079   -0.0006226061546235952
-0.0026453260416187388   -0.0017738503369522903   -0.0006804811528009063
-0.004857554458818815   -0.004745761981856525   -0.0009906356425587776
-0.0015758971088988601   -0.001572541047057335   -0.0005217457529463567
-0.002727408112609507   -0.0018266469161085973   -0.0005207220105191766
-0.004857554458818815   -0.004745761981856525   -0.0009906356425587776
-0.003013406427058442   -0.004564957055491866   -0.0008471780216451707
-0.0015758971088988601   -0.001572541047057335   -0.0005217457529463567
-0.0030244989290951203   -0.004611602140774792   -0.0007577058199372257
-0.002727408112609507   -0.0018266469161085973   -0.0005207220105191766
-0.0015798956155889817   -0.0016109113337669267   -0.00042108146500686517
-0.0030244989290951203   -0.004611602140774792   -0.0007577058199372257
-0.0015758971088988601   -0.001572541047057335   -0.0005217457529463567
-0.002727408112609507   -0.0018266469161085973   -0.0005207220105191766
-0.0030244989290951203   -0.004611602140774792   -0.0007577058199372257
-0.0049547792046140795   -0.004806082138469152   -0.0008426871504402422
-0.004857554458818815   -0.004745761981856525   -0.0009906356425587776
-0.002727408112609507   -0.0018266469161085973   -0.0005207220105191766
-0.0030244989290951203   -0.004611602140774792   -0.0007577058199372257
-0.004857554458818815   -0.004745761981856525   -0.0009906356425587776
-0.0015758971088988601   -0.001572541047057335   -0.0005217457529463567
-0.002727408112609507   -0.0018266469161085973   -0.0005207220105191766
-0.0049547792046140795   -0.004806082138469152   -0.0008426871504402422
-0.0015798956155889817   -0.0016109113337669267   -0.00042108146500686517
-0.002904677916334164   -0.001866805099263059   -0.00033544144285334304
-0.0049547792046140795   -0.004806082138469152   -0.0008426871504402422
-0.0030244989290951203   -0.004611602140774792   -0.0007577058199372257
-0.0015798956155889817   -0.0016109113337669267   -0.00042108146500686517
-0.0030146836582181525   -0.004635918184435088   -0.0006740037876733864
-0.002904677916334164   -0.001866805099263059   -0.00033544144285334304
-0.001578562644170963   -0.001620841265444839   -0.0003170566368041677
-0.0030146836582181525   -0.004635918184435088   -0.0006740037876733864
-0.0015798956155889817   -0.0016109113337669267   -0.00042108146500686517
-0.002904677916334164   -0.001866805099263059   -0.00033544144285334304
-0.0030146836582181525   -0.004635918184435088   -0.0006740037876733864
-0.0050696619192251696   -0.004841352201115874   -0.0007081859155368481
-0.0049547792046140795   -0.004806082138469152   -0.0008426871504402422
-0.002904677916334164   -0.001866805099263059   -0.00033544144285334304
-0.0030146836582181525   -0.004635918184435088   -0.0006740037876733864
-0.0049547792046140795   -0.004806082138469152   -0.0008426871504402422
-0.0015798956155889817   -0.0016109113337669267   -0.00042108146500686517
-0.0016081126455709787   -0.001497767715771079   -0.0006226061546235952
-0.0030105712731443753   -0.0044885494813337225   -0.0009403341884781478
-0.0007328587323345791   -0.0014364076758936726   -0.00047375828942556984
-0.0015758971088988601   -0.001572541047057335   -0.0005217457529463567
-0.0030105712731443753   -0.0044885494813337225   -0.0009403341884781478
-0.0013981467999039897   -0.004418505979808796   -0.0008028777407333501
-0.0007328587323345791   -0.0014364076758936726   -0.00047375828942556984
-0.0013853505972087796   -0.0044670662979570145   -0.0007550722642929476
-0.0015758971088988601   -0.001572541047057335   -0.0005217457529463567
-0.0007044186650819677   -0.0014850235922017467   -0.00042608939499020563
-0.0013853505972087796   -0.0044670662979570145   -0.0007550722642929476
-0.0007328587323345791   -0.0014364076758936726   -0.00047375828942556984
-0.0015758971088988601   -0.001572541047057335   -0.0005217457529463567
-0.0013853505972087796   -0.0044670662979570145   -0.0007550722642929476
-0.003013406427058442   -0.004564957055491866   -0.0008471780216451707
-0.0030105712731443753   -0.0044885494813337225   -0.0009403341884781478
-0.0015758971088988601   -0.001572541047057335   -0.0005217457529463567
-0.0013853505972087796   -0.0044670662979570145   -0.0007550722642929476
-0.0030105712731443753   -0.0044885494813337225   -0.0009403341884781478
-0.0007328587323345791   -0.0014364076758936726   -0.00047375828942556984
-0.0015758971088988601   -0.001572541047057335   -0.0005217457529463567
-0.003013406427058442   -0.004564957055491866   -0.0008471780216451707
-0.0007044186650819677   -0.0014850235922017467   -0.00042608939499020563
-0.0015798956155889817   -0.0016109113337669267   -0.00042108146500686517
-0.003013406427058442   -0.004564957055491866   -0.0008471780216451707
-0.0013853505972087796   -0.0044670662979570145   -0.0007550722642929476
-0.0007044186650819677   -0.0014850235922017467   -0.00042608939499020563
-0.001373928427050348   -0.004490643220905186   -0.0007117672044322983
-0.0015798956155889817   -0.0016109113337669267   -0.00042108146500686517
-0.0006882636149995106   -0.0015035724521109623   -0.00037971541712222243
-0.001373928427050348   -0.004490643220905186   -0.0007117672044322983
-0.0007044186650819677   -0.0014850235922017467   -0.00042608939499020563
-0.0015798956155889817   -0.0016109113337669267   -0.00042108146500686517
-0.001373928427050348   -0.004490643220905186   -0.0007117672044322983
-0.0030244989290951203   -0.004611602140774792   -0.0007577058199372257
-0.003013406427058442   -0.004564957055491866   -0.0008471780216451707
-0.0015798956155889817   -0.0016109113337669267   -0.00042108146500686517
-0.001373928427050348   -0.004490643220905186   -0.0007117672044322983
-0.003013406427058442   -0.004564957055491866   -0.0008471780216451707
-0.0007044186650819677   -0.0014850235922017467   -0.00042608939499020563
-0.0015798956155889817   -0.0016109113337669267   -0.00042108146500686517
-0.0030244989290951203   -0.004611602140774792   -0.0007577058199372257
-0.0006882636149995106   -0.0015035724521109623   -0.00037971541712222243
-0.001578562644170963   -0.001620841265444839   -0.0003170566368041677
-0.0030244989290951203   -0.004611602140774792   -0.0007577058199372257
-0.001373928427050348   -0.004490643220905186   -0.0007117672044322983
-0.0006882636149995106   -0.0015035724521109623   -0.00037971541712222243
-0.0013572255202926238   -0.004490123605170987   -0.0006741024311860542
-0.001578562644170963   -0.001620841265444839   -0.0003170566368041677
-0.0006734795325167042   -0.0014958765028532924   -0.00033182536058265396
-0.0013572255202926238   -0.004490123605170987   -0.0006741024311860542
-0.0006882636149995106   -0.0015035724521109623   -0.00037971541712222243
-0.001578562644170963   -0.001620841265444839   -0.0003170566368041677
-0.0013572255202926238   -0.004490123605170987   -0.0006741024311860542
-0.0030146836582181525   -0.004635918184435088   -0.0006740037876733864
-0.0030244989290951203   -0.004611602140774792   -0.0007577058199372257
-0.001578562644170963   -0.001620841265444839   -0.0003170566368041677
-0.0013572255202926238   -0.004490123605170987   -0.0006741024311860542
-0.0030244989290951203   -0.004611602140774792   -0.0007577058199372257
-0.0006882636149995106   -0.0015035724521109623   -0.00037971541712222243
-0.0007328587323345791   -0.0014364076758936726   -0.00047375828942556984
-0.0013981467999039897   -0.004418505979808796   -0.0008028777407333501
9.371079704779077e-05   -0.0014443392267627648   -0.0003790421889015692
-0.0007044186650819677   -0.0014850235922017467   -0.00042608939499020563
-0.0013981467999039897   -0.004418505979808796   -0.0008028777407333501
0.00015625137573061713   -0.004420635470126804   -0.0007161450548673606
9.371079704779077e-05   -0.0014443392267627648   -0.0003790421889015692
0.00017185206793709628   -0.0044435302543725285   -0.0007128438700138952
-0.0007044186650819677   -0.0014850235922017467   -0.00042608939499020563
0.00011207069924295521   -0.0014694770814254437   -0.00038550949814308567
0.00017185206793709628   -0.0044435302543725285   -0.0007128438700138952
9.371079704779077e-05   -0.0014443392267627648   -0.0003790421889015692
-0.0007044186650819677   -0.0014850235922017467   -0.00042608939499020563
0.00017185206793709628   -0.0044435302543725285   -0.0007128438700138952
-0.0013853505972087796   -0.0044670662979570145   -0.0007550722642929476
-0.0013981467999039897   -0.004418505979808796   -0.0008028777407333501
-0.0007044186650819677   -0.0014850235922017467   -0.00042608939499020563
0.00017185206793709628   -0.0044435302543725285   -0.0007128438700138952
-0.0013981467999039897   -0.004418505979808796   -0.0008028777407333501
9.371079704779077e-05   -0.0014443392267627648   -0.0003790421889015692
-0.0007044186650819677   -0.0014850235922017467   -0.00042608939499020563
-0.0013853505972087796   -0.0044670662979570145   -0.0007550722642929476
0.00011207069924295521   -0.0014694770814254437   -0.00038550949814308567
-0.0006882636149995106   -0.0015035724521109623   -0.00037971541712222243
-0.0013853505972087796   -0.0044670662979570145   -0.0007550722642929476
0.00017185206793709628   -0.0044435302543725285   -0.0007128438700138952
0.00011207069924295521   -0.0014694770814254437   -0.00038550949814308567
0.00018258207859943933   -0.00444202474668188   -0.0007146477909748029
-0.0006882636149995106   -0.0015035724521109623   -0.00037971541712222243
0.00012662042144776607   -0.001467340538205097   -0.0003913945485751684
0.00018258207859943933   -0.00444202474668188   -0.0007146477909748029
0.00011207069924295521   -0.0014694770814254437   -0.00038550949814308567
-0.0006882636149995106   -0.0015035724521109623   -0.00037971541712222243
0.00018258207859943933   -0.00444202474668188   -0.0007146477909748029
-0.001373928427050348   -0.004490643220905186   -0.0007117672044322983
-0.0013853505972087796   -0.0044670662979570145   -0.0007550722642929476
-0.0006882636149995106   -0.0015035724521109623   -0.00037971541712222243
0.00018258207859943933   -0.00444202474668188   -0.0007146477909748029
-0.0013853505972087796   -0.0044670662979570145   -0.0007550722642929476
0.00011207069924295521   -0.0014694770814254437   -0.00038550949814308567
-0.0006882636149995106   -0.0015035724521109623   -0.00037971541712222243
-0.001373928427050348   -0.004490643220905186   -0.0007117672044322983
0.00012662042144776607   -0.001467340538205097   -0.0003913945485751684
-0.0006734795325167042   -0.0014958765028532924   -0.00033182536058265396
-0.001373928427050348   -0.004490643220905186   -0.0007117672044322983
0.00018258207859943933   -0.00444202474668188   -0.0007146477909748029
0.00012662042144776607   -0.001467340538205097   -0.0003913945485751684
0.00019403909034945032   -0.0044153779458504586   -0.0007216366157648685
-0.0006734795325167042   -0.0014958765028532924   -0.00033182536058265396
0.0001460491554868049   -0.0014357015237021964   -0.0003974952564106713
0.00019403909034945032   -0.0044153779458504586   -0.0007216366157648685
0.00012662042144776607   -0.001467340538205097   -0.0003913945485751684
-0.0006734795325167042   -0.0014958765028532924   -0.00033182536058265396
0.00019403909034945032   -0.0044153779458504586   -0.0007216366157648685
-0.0013572255202926238   -0.004490123605170987   -0.0006741024311860542
-0.001373928427050348   -0.004490643220905186   -0.0007117672044322983
-0.0006734795325167042   -0.0014958765028532924   -0.00033182536058265396
0.00019403909034945032   -0.0044153779458504586   -0.0007216366157648685
-0.001373928427050348   -0.004490643220905186   -0.0007117672044322983
0.00012662042144776607   -0.001467340538205097   -0.0003913945485751684
9.371079704779077e-05   -0.0014443392267627648   -0.0003790421889015692
0.00015625137573061713   -0.004420635470126804   -0.0007161450548673606
0.0009913187918663626   -0.0015141035774446266   -0.0003323780749544428
0.00011207069924295521   -0.0014694770814254437   -0.00038550949814308567
0.00015625137573061713   -0.004420635470126804   -0.0007161450548673606
0.0018038859216354378   -0.004492347145028287   -0.0006759595581123611
0.0009913187918663626   -0.0015141035774446266   -0.0003323780749544428
0.0018131385408113403   -0.004491891829924533   -0.0007186007566920826
0.00011207069924295521   -0.0014694770814254437   -0.00038550949814308567
0.0009936263860794224   -0.0015219947745748054   -0.00039581285129523287
0.0018131385408113403   -0.004491891829924533   -0.0007186007566920826
0.0009913187918663626   -0.0015141035774446266   -0.0003323780749544428
0.00011207069924295521   -0.0014694770814254437   -0.00038550949814308567
0.0018131385408113403   -0.004491891829924533   -0.0007186007566920826
0.00017185206793709628   -0.0044435302543725285   -0.0007128438700138952
0.00015625137573061713   -0.004420635470126804   -0.0007161450548673606
0.00011207069924295521   -0.0014694770814254437   -0.00038550949814308567
0.0018131385408113403   -0.004491891829924533   -0.0007186007566920826
0.00015625137573061713   -0.004420635470126804   -0.0007161450548673606
0.0009913187918663626   -0.0015141035774446266   -0.0003323780749544428
0.00011207069924295521   -0.0014694770814254437   -0.00038550949814308567
0.00017185206793709628   -0.0044435302543725285   -0.0007128438700138952
0.0009936263860794224   -0.0015219947745748054   -0.00039581285129523287
0.00012662042144776607   -0.001467340538205097   -0.0003913945485751684
0.00017185206793709628   -0.0044435302543725285   -0.0007128438700138952
0.0018131385408113403   -0.004491891829924533   -0.0007186007566920826
0.0009936263860794224   -0.0015219947745748054   -0.00039581285129523287
0.0018056000436344807   -0.004467532767174276   -0.0007670171972749056
0.00012662042144776607   -0.001467340538205097   -0.0003913945485751684
0.0009898403806235254   -0.001500265167319182   -0.0004567313341031912
0.0018056000436344807   -0.004467532767174276   -0.0007670171972749056
0.0009936263860794224   -0.0015219947745748054   -0.00039581285129523287
0.00012662042144776607   -0.001467340538205097   -0.0003913945485751684
0.0018056000436344807   -0.004467532767174276   -0.0007670171972749056
0.00018258207859943933   -0.00444202474668188   -0.0007146477909748029
0.00017185206793709628   -0.0044435302543725285   -0.0007128438700138952
0.00012662042144776607   -0.001467340538205097   -0.0003913945485751684
0.0018056000436344807   -0.004467532767174276   -0.0007670171972749056
0.00017185206793709628   -0.0044435302543725285   -0.0007128438700138952
0.0009936263860794224   -0.0015219947745748054   -0.00039581285129523287
0.00012662042144776607   -0.001467340538205097   -0.0003913945485751684
0.00018258207859943933   -0.00444202474668188   -0.0007146477909748029
0.0009898403806235254   -0.001500265167319182   -0.0004567313341031912
0.0001460491554868049   -0.0014357015237021964   -0.0003974952564106713
0.00018258207859943933   -0.00444202474668188   -0.0007146477909748029
0.0018056000436344807   -0.004467532767174276   -0.0007670171972749056
0.0009898403806235254   -0.001500265167319182   -0.0004567313341031912
0.0018015846934191257   -0.004412642683198642   -0.0008194146765002626
0.0001460491554868049   -0.0014357015237021964   -0.0003974952564106713
0.0010094617876915562   -0.0014423146177797682   -0.000516540712286124
0.0018015846934191257   -0.004412642683198642   -0.0008194146765002626
0.0009898403806235254   -0.001500265167319182   -0.0004567313341031912
0.0001460491554868049   -0.0014357015237021964   -0.0003974952564106713
0.0018015846934191257   -0.004412642683198642   -0.0008194146765002626
0.00019403909034945032   -0.0044153779458504586   -0.0007216366157648685
0.00018258207859943933   -0.00444202474668188   -0.0007146477909748029
0.0001460491554868049   -0.0014357015237021964   -0.0003974952564106713
0.0018015846934191257   -0.004412642683198642   -0.0008194146765002626
0.00018258207859943933   -0.00444202474668188   -0.0007146477909748029
0.0009898403806235254   -0.001500265167319182   -0.0004567313341031912
0.0009913187918663626   -0.0015141035774446266   -0.0003323780749544428
0.0018038859216354378   -0.004492347145028287   -0.0006759595581123611
0.002240924630803544   -0.0016911758143843946   -0.00031406662092586823
0.0009936263860794224   -0.0015219947745748054   -0.00039581285129523287
0.0018038859216354378   -0.004492347145028287   -0.0006759595581123611
0.0037932011643058965   -0.004625492671392799   -0.0006657048282152434
0.002240924630803544   -0.0016911758143843946   -0.00031406662092586823
0.003717276998997709   -0.004612540026510694   -0.0007617501961257356
0.0009936263860794224   -0.0015219947745748054   -0.00039581285129523287
0.002105297602468099   -0.0016724824019062803   -0.0004580663714582774
0.003717276998997709   -0.004612540026510694   -0.0007617501961257356
0.002240924630803544   -0.0016911758143843946   -0.00031406662092586823
0.0009936263860794224   -0.0015219947745748054   -0.00039581285129523287
0.003717276998997709   -0.004612540026510694   -0.0007617501961257356
0.0018131385408113403   -0.004491891829924533   -0.0007186007566920826
0.0018038859216354378   -0.004492347145028287   -0.0006759595581123611
0.0009936263860794224   -0.0015219947745748054   -0.00039581285129523287
0.003717276998997709   -0.004612540026510694   -0.0007617501961257356
0.0018038859216354378   -0.004492347145028287   -0.0006759595581123611
0.002240924630803544   -0.0016911758143843946   -0.00031406662092586823
0.0009936263860794224   -0.0015219947745748054   -0.00039581285129523287
0.0018131385408113403   -0.004491891829924533   -0.0007186007566920826
0.002105297602468099   -0.0016724824019062803   -0.0004580663714582774
0.0009898403806235254   -0.001500265167319182   -0.0004567313341031912
0.0018131385408113403   -0.004491891829924533   -0.0007186007566920826
0.003717276998997709   -0.004612540026510694   -0.0007617501961257356
0.002105297602468099   -0.0016724824019062803   -0.0004580663714582774
0.003649318472791756   -0.004575033199841906   -0.0008699370310038151
0.0009898403806235254   -0.001500265167319182   -0.0004567313341031912
0.0020429666487256767   -0.001637715724721595   -0.0005798875390154468
0.003649318472791756   -0.004575033199841906   -0.0008699370310038151
0.002105297602468099   -0.0016724824019062803   -0.0004580663714582774
0.0009898403806235254   -0.001500265167319182   -0.0004567313341031912
0.003649318472791756   -0.004575033199841906   -0.0008699370310038151
0.0018056000436344807   -0.004467532767174276   -0.0007670171972749056
0.0018131385408113403   -0.004491891829924533   -0.0007186007566920826
0.0009898403806235254   -0.001500265167319182   -0.0004567313341031912
0.003649318472791756   -0.004575033199841906   -0.0008699370310038151
0.0018131385408113403   -0.004491891829924533   -0.0007186007566920826
0.002105297602468099   -0.0016724824019062803   -0.0004580663714582774
0.0009898403806235254   -0.001500265167319182   -0.0004567313341031912
0.0018056000436344807   -0.004467532767174276   -0.0007670171972749056
0.0020429666487256767   -0.001637715724721595   -0.0005798875390154468
0.0010094617876915562   -0.0014423146177797682   -0.000516540712286124
0.0018056000436344807   -0.004467532767174276   -0.0007670171972749056
0.003649318472791756   -0.004575033199841906   -0.0008699370310038151
0.0020429666487256767   -0.001637715724721595   -0.0005798875390154468
0.0035469544856087803   -0.00449186248720005   -0.0009826394206202504
0.0010094617876915562   -0.0014423146177797682   -0.000516540712286124
0.001949845200563171   -0.0015489415480139392   -0.000708913355191416
0.0035469544856087803   -0.00449186248720005   -0.0009826394206202504
0.0020429666487256767   -0.001637715724721595   -0.0005798875390154468
0.0010094617876915562   -0.0014423146177797682   -0.000516540712286124
0.0035469544856087803   -0.00449186248720005   -0.0009826394206202504
0.0018015846934191257   -0.004412642683198642   -0.0008194146765002626
0.0018056000436344807   -0.004467532767174276   -0.0007670171972749056
0.0010094617876915562   -0.0014423146177797682   -0.000516540712286124
0.0035469544856087803   -0.00449186248720005   -0.0009826394206202504
0.0018056000436344807   -0.004467532767174276   -0.0007670171972749056
0.0020429666487256767   -0.001637715724721595   -0.0005798875390154468
-0.004717182652574418   -0.004639067517264447   -0.0011417977170616884
-0.0064572303711501215   -0.008687240428877214   -0.001301224886591921
-0.0030105712731443753   -0.0044885494813337225   -0.0009403341884781478
-0.004857554458818815   -0.004745761981856525   -0.0009906356425587776
-0.0064572303711501215   -0.008687240428877214   -0.001301224886591921
-0.004152227419721955   -0.008572422695231572   -0.0011382040278024592
-0.0030105712731443753   -0.0044885494813337225   -0.0009403341884781478
-0.0041604450058699925   -0.00863823879566926   -0.0010660547901429765
-0.004857554458818815   -0.004745761981856525   -0.0009906356425587776
-0.003013406427058442   -0.004564957055491866   -0.0008471780216451707
-0.0041604450058699925   -0.00863823879566926   -0.0010660547901429765
-0.0030105712731443753   -0.0044885494813337225   -0.0009403341884781478
-0.004857554458818815   -0.004745761981856525   -0.0009906356425587776
-0.0041604450058699925   -0.00863823879566926   -0.0010660547901429765
-0.006570835551676896   -0.008777240001830087   -0.0011887772447210184
-0.0064572303711501215   -0.008687240428877214   -0.001301224886591921
-0.004857554458818815   -0.004745761981856525   -0.0009906356425587776
-0.0041604450058699925   -0.00863823879566926   -0.0010660547901429765
-0.0064572303711501215   -0.008687240428877214   -0.001301224886591921
-0.0030105712731443753   -0.0044885494813337225   -0.0009403341884781478
-0.004857554458818815   -0.004745761981856525   -0.0009906356425587776
-0.006570835551676896   -0.008777240001830087   -0.0011887772447210184
-0.003013406427058442   -0.004564957055491866   -0.0008471780216451707
-0.0049547792046140795   -0.004806082138469152   -0.0008426871504402422
-0.006570835551676896   -0.008777240001830087   -0.0011887772447210184
-0.0041604450058699925   -0.00863823879566926   -0.0010660547901429765
-0.003013406427058442   -0.004564957055491866   -0.0008471780216451707
-0.004170229972973729   -0.008684115503129421   -0.0009991593110461245
-0.0049547792046140795   -0.004806082138469152   -0.0008426871504402422
-0.0030244989290951203   -0.004611602140774792   -0.0007577058199372257
-0.004170229972973729   -0.008684115503129421   -0.0009991593110461245
-0.003013406427058442   -0.004564957055491866   -0.0008471780216451707
-0.0049547792046140795   -0.004806082138469152   -0.0008426871504402422
-0.004170229972973729   -0.008684115503129421   -0.0009991593110461245
-0.006642046919392766   -0.008833760202054083   -0.0010840277243277928
-0.006570835551676896   -0.008777240001830087   -0.0011887772447210184
-0.0049547792046140795   -0.004806082138469152   -0.0008426871504402422
-0.004170229972973729   -0.008684115503129421   -0.0009991593110461245
-0.006570835551676896   -0.008777240001830087   -0.0011887772447210184
-0.003013406427058442   -0.004564957055491866   -0.0008471780216451707
-0.0049547792046140795   -0.004806082138469152   -0.0008426871504402422
-0.006642046919392766   -0.008833760202054083   -0.0010840277243277928
-0.0030244989290951203   -0.004611602140774792   -0.0007577058199372257
-0.0050696619192251696   -0.004841352201115874   -0.0007081859155368481
-0.006642046919392766   -0.008833760202054083   -0.0010840277243277928
-0.004170229972973729   -0.008684115503129421   -0.0009991593110461245
-0.0030244989290951203   -0.004611602140774792   -0.0007577058199372257
-0.004161475005476018   -0.008714412317946167   -0.0009363961068418543
-0.0050696619192251696   -0.004841352201115874   -0.0007081859155368481
-0.0030146836582181525   -0.004635918184435088   -0.0006740037876733864
-0.004161475005476018   -0.008714412317946167   -0.0009363961068418543
-0.0030244989290951203   -0.004611602140774792   -0.0007577058199372257
-0.0050696619192251696   -0.004841352201115874   -0.0007081859155368481
-0.004161475005476018   -0.008714412317946167   -0.0009363961068418543
-0.006723070317088911   -0.008874593575947807   -0.0009876970350967116
-0.006642046919392766   -0.008833760202054083   -0.0010840277243277928
-0.0050696619192251696   -0.004841352201115874   -0.0007081859155368481
-0.004161475005476018   -0.008714412317946167   -0.0009363961068418543
-0.006642046919392766   -0.008833760202054083   -0.0010840277243277928
-0.0030244989290951203   -0.004611602140774792   -0.0007577058199372257
-0.0030105712731443753   -0.0044885494813337225   -0.0009403341884781478
-0.004152227419721955   -0.008572422695231572   -0.0011382040278024592
-0.0013981467999039897   -0.004418505979808796   -0.0008028777407333501
-0.003013406427058442   -0.004564957055491866   -0.0008471780216451707
-0.004152227419721955   -0.008572422695231572   -0.0011382040278024592
-0.00198018254009043   -0.00851509795091055   -0.0010249844080976074
-0.0013981467999039897   -0.004418505979808796   -0.0008028777407333501
-0.001974344156373123   -0.008557114224874051   -0.0009841219667846388
-0.003013406427058442   -0.004564957055491866   -0.0008471780216451707
-0.0013853505972087796   -0.0044670662979570145   -0.0007550722642929476
-0.001974344156373123   -0.008557114224874051   -0.0009841219667846388
-0.0013981467999039897   -0.004418505979808796   -0.0008028777407333501
-0.003013406427058442   -0.004564957055491866   -0.0008471780216451707
-0.001974344156373123   -0.008557114224874051   -0.0009841219667846388
-0.0041604450058699925   -0.00863823879566926   -0.0010660547901429765
-0.004152227419721955   -0.008572422695231572   -0.0011382040278024592
-0.003013406427058442   -0.004564957055491866   -0.0008471780216451707
-0.001974344156373123   -0.008557114224874051   -0.0009841219667846388
-0.004152227419721955   -0.008572422695231572   -0.0011382040278024592
-0.0013981467999039897   -0.004418505979808796   -0.0008028777407333501
-0.003013406427058442   -0.004564957055491866   -0.0008471780216451707
-0.0041604450058699925   -0.00863823879566926   -0.0010660547901429765
-0.0013853505972087796   -0.0044670662979570145   -0.0007550722642929476
-0.0030244989290951203   -0.004611602140774792   -0.0007577058199372257
-0.0041604450058699925   -0.00863823879566926   -0.0010660547901429765
-0.001974344156373123   -0.008557114224874051   -0.0009841219667846388
-0.0013853505972087796   -0.0044670662979570145   -0.0007550722642929476
-0.0019673955609049946   -0.008581823558554911   -0.0009482567866410326
-0.0030244989290951203   -0.004611602140774792   -0.0007577058199372257
-0.001373928427050348   -0.004490643220905186   -0.0007117672044322983
-0.0019673955609049946   -0.008581823558554911   -0.0009482567866410326
-0.0013853505972087796   -0.0044670662979570145   -0.0007550722642929476
-0.0030244989290951203   -0.004611602140774792   -0.0007577058199372257
-0.0019673955609049946   -0.008581823558554911   -0.0009482567866410326
-0.004170229972973729   -0.008684115503129421   -0.0009991593110461245
-0.0041604450058699925   -0.00863823879566926   -0.0010660547901429765
-0.0030244989290951203   -0.004611602140774792   -0.0007577058199372257
-0.0019673955609049946   -0.008581823558554911   -0.0009482567866410326
-0.0041604450058699925   -0.00863823879566926   -0.0010660547901429765
-0.0013853505972087796   -0.0044670662979570145   -0.0007550722642929476
-0.0030244989290951203   -0.004611602140774792   -0.0007577058199372257
-0.004170229972973729   -0.008684115503129421   -0.0009991593110461245
-0.001373928427050348   -0.004490643220905186   -0.0007117672044322983
-0.0030146836582181525   -0.004635918184435088   -0.0006740037876733864
-0.004170229972973729   -0.008684115503129421   -0.0009991593110461245
-0.0019673955609049946   -0.008581823558554911   -0.0009482567866410326
-0.001373928427050348   -0.004490643220905186   -0.0007117672044322983
-0.0019565227500153745   -0.008589579005386599   -0.0009173765573408861
-0.0030146836582181525   -0.004635918184435088   -0.0006740037876733864
-0.0013572255202926238   -0.004490123605170987   -0.0006741024311860542
-0.0019565227500153745   -0.008589579005386599   -0.0009173765573408861
-0.001373928427050348   -0.004490643220905186   -0.0007117672044322983
-0.0030146836582181525   -0.004635918184435088   -0.0006740037876733864
-0.0019565227500153745   -0.008589579005386599   -0.0009173765573408861
-0.004161475005476018   -0.008714412317946167   -0.0009363961068418543
-0.004170229972973729   -0.008684115503129421   -0.0009991593110461245
-0.0030146836582181525   -0.004635918184435088   -0.0006740037876733864
-0.0019565227500153745   -0.008589579005386599   -0.0009173765573408861
-0.004170229972973729   -0.008684115503129421   -0.0009991593110461245
-0.001373928427050348   -0.004490643220905186   -0.0007117672044322983
-0.0013981467999039897   -0.004418505979808796   -0.0008028777407333501
-0.00198018254009043   -0.00851509795091055   -0.0010249844080976074
0.00015625137573061713   -0.004420635470126804   -0.0007161450548673606
-0.0013853505972087796   -0.0044670662979570145   -0.0007550722642929476
-0.00198018254009043   -0.00851509795091055   -0.0010249844080976074
0.00012769512927328664   -0.008512031639411763   -0.0009549705364119949
0.00015625137573061713   -0.004420635470126804   -0.0007161450548673606
0.0001377271809994401   -0.008530599145770378   -0.0009452329781821766
-0.0013853505972087796   -0.0044670662979570145   -0.0007550722642929476
0.00017185206793709628   -0.0044435302543725285   -0.0007128438700138952
0.0001377271809994401   -0.008530599145770378   -0.0009452329781821766
0.00015625137573061713   -0.004420635470126804   -0.0007161450548673606
-0.0013853505972087796   -0.0044670662979570145   -0.0007550722642929476
0.0001377271809994401   -0.008530599145770378   -0.0009452329781821766
-0.001974344156373123   -0.008557114224874051   -0.0009841219667846388
-0.00198018254009043   -0.00851509795091055   -0.0010249844080976074
-0.0013853505972087796   -0.0044670662979570145   -0.0007550722642929476
0.0001377271809994401   -0.008530599145770378   -0.0009452329781821766
-0.00198018254009043   -0.00851509795091055   -0.0010249844080976074
0.00015625137573061713   -0.004420635470126804   -0.0007161450548673606
-0.0013853505972087796   -0.0044670662979570145   -0.0007550722642929476
-0.001974344156373123   -0.008557114224874051   -0.0009841219667846388
0.00017185206793709628   -0.0044435302543725285   -0.0007128438700138952
-0.001373928427050348   -0.004490643220905186   -0.0007117672044322983
-0.001974344156373123   -0.008557114224874051   -0.0009841219667846388
0.0001377271809994401   -0.008530599145770378   -0.0009452329781821766
0.00017185206793709628   -0.0044435302543725285   -0.0007128438700138952
0.00014447215126340155   -0.00853192741039939   -0.0009403651524379742
-0.001373928427050348   -0.004490643220905186   -0.0007117672044322983
0.00018258207859943933   -0.00444202474668188   -0.0007146477909748029
0.00014447215126340155   -0.00853192741039939   -0.0009403651524379742
0.00017185206793709628   -0.0044435302543725285   -0.0007128438700138952
-0.001373928427050348   -0.004490643220905186   -0.0007117672044322983
0.00014447215126340155   -0.00853192741039939   -0.0009403651524379742
-0.0019673955609049946   -0.008581823558554911   -0.0009482567866410326
-0.001974344156373123   -0.008557114224874051   -0.0009841219667846388
-0.001373928427050348   -0.004490643220905186   -0.0007117672044322983
0.00014447215126340155   -0.00853192741039939   -0.0009403651524379742
-0.001974344156373123   -0.008557114224874051   -0.0009841219667846388
0.00017185206793709628   -0.0044435302543725285   -0.0007128438700138952
-0.001373928427050348   -0.004490643220905186   -0.0007117672044322983
-0.0019673955609049946   -0.008581823558554911   -0.0009482567866410326
0.00018258207859943933   -0.00444202474668188   -0.0007146477909748029
-0.0013572255202926238   -0.004490123605170987   -0.0006741024311860542
-0.0019673955609049946   -0.008581823558554911   -0.0009482567866410326
0.00014447215126340155   -0.00853192741039939   -0.0009403651524379742
0.00018258207859943933   -0.00444202474668188   -0.0007146477909748029
0.00014960435258312647   -0.008515760613764748   -0.0009406596303655933
-0.0013572255202926238   -0.004490123605170987   -0.0006741024311860542
0.00019403909034945032   -0.0044153779458504586   -0.0007216366157648685
0.00014960435258312647   -0.008515760613764748   -0.0009406596303655933
0.00018258207859943933   -0.00444202474668188   -0.0007146477909748029
-0.0013572255202926238   -0.004490123605170987   -0.0006741024311860542
0.00014960435258312647   -0.008515760613764748   -0.0009406596303655933
-0.0019565227500153745   -0.008589579005386599   -0.0009173765573408861
-0.0019673955609049946   -0.008581823558554911   -0.0009482567866410326
-0.0013572255202926238   -0.004490123605170987   -0.0006741024311860542
0.00014960435258312647   -0.008515760613764748   -0.0009406596303655933
-0.0019673955609049946   -0.008581823558554911   -0.0009482567866410326
0.00018258207859943933   -0.00444202474668188   -0.0007146477909748029
0.00015625137573061713   -0.004420635470126804   -0.0007161450548673606
0.00012769512927328664   -0.008512031639411763   -0.0009549705364119949
0.0018038859216354378   -0.004492347145028287   -0.0006759595581123611
0.00017185206793709628   -0.0044435302543725285   -0.0007128438700138952
0.00012769512927328664   -0.008512031639411763   -0.0009549705364119949
0.002325788069462589   -0.008559990565602813   -0.0009269921440673504
0.0018038859216354378   -0.004492347145028287   -0.0006759595581123611
0.0023347510523232637   -0.008557033910486626   -0.0009490186580328058
0.00017185206793709628   -0.0044435302543725285   -0.0007128438700138952
0.0018131385408113403   -0.004491891829924533   -0.0007186007566920826
0.0023347510523232637   -0.008557033910486626   -0.0009490186580328058
0.0018038859216354378   -0.004492347145028287   -0.0006759595581123611
0.00017185206793709628   -0.0044435302543725285   -0.0007128438700138952
0.0023347510523232637   -0.008557033910486626   -0.0009490186580328058
0.0001377271809994401   -0.008530599145770378   -0.0009452329781821766
0.00012769512927328664   -0.008512031639411763   -0.0009549705364119949
0.00017185206793709628   -0.0044435302543725285   -0.0007128438700138952
0.0023347510523232637   -0.008557033910486626   -0.0009490186580328058
0.00012769512927328664   -0.008512031639411763   -0.0009549705364119949
0.0018038859216354378   -0.004492347145028287   -0.0006759595581123611
0.00017185206793709628   -0.0044435302543725285   -0.0007128438700138952
0.0001377271809994401   -0.008530599145770378   -0.0009452329781821766
0.0018131385408113403   -0.004491891829924533   -0.0007186007566920826
0.00018258207859943933   -0.00444202474668188   -0.0007146477909748029
0.0001377271809994401   -0.008530599145770378   -0.0009452329781821766
0.0023347510523232637   -0.008557033910486626   -0.0009490186580328058
0.0018131385408113403   -0.004491891829924533   -0.0007186007566920826
0.002329845708438835   -0.008537237931592015   -0.000975557092113279
0.00018258207859943933   -0.00444202474668188   -0.0007146477909748029
0.0018056000436344807   -0.004467532767174276   -0.0007670171972749056
0.002329845708438835   -0.008537237931592015   -0.000975557092113279
0.0018131385408113403   -0.004491891829924533   -0.0007186007566920826
0.00018258207859943933   -0.00444202474668188   -0.0007146477909748029
0.002329845708438835   -0.008537237931592015   -0.000975557092113279
0.00014447215126340155   -0.00853192741039939   -0.0009403651524379742
0.0001377271809994401   -0.008530599145770378   -0.0009452329781821766
0.00018258207859943933   -0.00444202474668188   -0.0007146477909748029
0.002329845708438835   -0.008537237931592015   -0.000975557092113279
0.0001377271809994401   -0.008530599145770378   -0.0009452329781821766
0.0018131385408113403   -0.004491891829924533   -0.0007186007566920826
0.00018258207859943933   -0.00444202474668188   -0.0007146477909748029
0.00014447215126340155   -0.00853192741039939   -0.0009403651524379742
0.0018056000436344807   -0.004467532767174276   -0.0007670171972749056
0.00019403909034945032   -0.0044153779458504586   -0.0007216366157648685
0.00014447215126340155   -0.00853192741039939   -0.0009403651524379742
0.002329845708438835   -0.008537237931592015   -0.000975557092113279
0.0018056000436344807   -0.004467532767174276   -0.0007670171972749056
0.0023219323941823136   -0.008496399351897948   -0.0010071447187572078
0.00019403909034945032   -0.0044153779458504586   -0.0007216366157648685
0.0018015846934191257   -0.004412642683198642   -0.0008194146765002626
0.0023219323941823136   -0.008496399351897948   -0.0010071447187572078
0.0018056000436344807   -0.004467532767174276   -0.0007670171972749056
0.00019403909034945032   -0.0044153779458504586   -0.0007216366157648685
0.0023219323941823136   -0.008496399351897948   -0.0010071447187572078
0.00014960435258312647   -0.008515760613764748   -0.0009406596303655933
0.00014447215126340155   -0.00853192741039939   -0.0009403651524379742
0.00019403909034945032   -0.0044153779458504586   -0.0007216366157648685
0.0023219323941823136   -0.008496399351897948   -0.0010071447187572078
0.00014447215126340155   -0.00853192741039939   -0.0009403651524379742
0.0018056000436344807   -0.004467532767174276   -0.0007670171972749056
0.0018038859216354378   -0.004492347145028287   -0.0006759595581123611
0.002325788069462589   -0.008559990565602813   -0.0009269921440673504
0.0037932011643058965   -0.004625492671392799   -0.0006657048282152434
0.0018131385408113403   -0.004491891829924533   -0.0007186007566920826
0.002325788069462589   -0.008559990565602813   -0.0009269921440673504
0.004829609772668328   -0.008646777769289246   -0.0009282853443087738
0.0037932011643058965   -0.004625492671392799   -0.0006657048282152434
0.004789081636938489   -0.008631369605213818   -0.0009860656764336016
0.0018131385408113403   -0.004491891829924533   -0.0007186007566920826
0.003717276998997709   -0.004612540026510694   -0.0007617501961257356
0.004789081636938489   -0.008631369605213818   -0.0009860656764336016
0.0037932011643058965   -0.004625492671392799   -0.0006657048282152434
0.0018131385408113403   -0.004491891829924533   -0.0007186007566920826
0.004789081636938489   -0.008631369605213818   -0.0009860656764336016
0.0023347510523232637   -0.008557033910486626   -0.0009490186580328058
0.002325788069462589   -0.008559990565602813   -0.0009269921440673504
0.0018131385408113403   -0.004491891829924533   -0.0007186007566920826
0.004789081636938489   -0.008631369605213818   -0.0009860656764336016
0.002325788069462589   -0.008559990565602813   -0.0009269921440673504
0.0037932011643058965   -0.004625492671392799   -0.0006657048282152434
0.0018131385408113403   -0.004491891829924533   -0.0007186007566920826
0.0023347510523232637   -0.008557033910486626   -0.0009490186580328058
0.003717276998997709   -0.004612540026510694   -0.0007617501961257356
0.0018056000436344807   -0.004467532767174276   -0.0007670171972749056
0.0023347510523232637   -0.008557033910486626   -0.0009490186580328058
0.004789081636938489   -0.008631369605213818   -0.0009860656764336016
0.003717276998997709   -0.004612540026510694   -0.0007617501961257356
0.004748417185480467   -0.00860095001391779   -0.0010519829095221756
0.0018056000436344807   -0.004467532767174276   -0.0007670171972749056
0.003649318472791756   -0.004575033199841906   -0.0008699370310038151
0.004748417185480467   -0.00860095001391779   -0.0010519829095221756
0.003717276998997709   -0.004612540026510694   -0.0007617501961257356
0.0018056000436344807   -0.004467532767174276   -0.0007670171972749056
0.004748417185480467   -0.00860095001391779   -0.0010519829095221756
0.002329845708438835   -0.008537237931592015   -0.000975557092113279
0.0023347510523232637   -0.008557033910486626   -0.0009490186580328058
0.0018056000436344807   -0.004467532767174276   -0.0007670171972749056
0.004748417185480467   -0.00860095001391779   -0.0010519829095221756
0.0023347510523232637   -0.008557033910486626   -0.0009490186580328058
0.003717276998997709   -0.004612540026510694   -0.0007617501961257356
0.0018056000436344807   -0.004467532767174276   -0.0007670171972749056
0.002329845708438835   -0.008537237931592015   -0.000975557092113279
0.003649318472791756   -0.004575033199841906   -0.0008699370310038151
0.0018015846934191257   -0.004412642683198642   -0.0008194146765002626
0.002329845708438835   -0.008537237931592015   -0.000975557092113279
0.004748417185480467   -0.00860095001391779   -0.0010519829095221756
0.003649318472791756   -0.004575033199841906   -0.0008699370310038151
0.00467521392195149   -0.008537462522677642   -0.001126046059669497
0.0018015846934191257   -0.004412642683198642   -0.0008194146765002626
0.0035469544856087803   -0.00449186248720005   -0.0009826394206202504
0.00467521392195149   -0.008537462522677642   -0.001126046059669497
0.003649318472791756   -0.004575033199841906   -0.0008699370310038151
0.0018015846934191257   -0.004412642683198642   -0.0008194146765002626
0.00467521392195149   -0.008537462522677642   -0.001126046059669497
0.0023219323941823136   -0.008496399351897948   -0.0010071447187572078
0.002329845708438835   -0.008537237931592015   -0.000975557092113279
0.0018015846934191257   -0.004412642683198642   -0.0008194146765002626
0.00467521392195149   -0.008537462522677642   -0.001126046059669497
0.002329845708438835   -0.008537237931592015   -0.000975557092113279
0.003649318472791756   -0.004575033199841906   -0.0008699370310038151
-0.0064572303711501215   -0.008687240428877214   -0.001301224886591921
-0.007704459026254318   -0.013479873608595164   -0.0013887191533002703
-0.004152227419721955   -0.008572422695231572   -0.0011382040278024592
-0.006570835551676896   -0.008777240001830087   -0.0011887772447210184
-0.007704459026254318   -0.013479873608595164   -0.0013887191533002703
-0.005002711362830098   -0.0134070172655474   -0.0012561431230696835
-0.004152227419721955   -0.008572422695231572   -0.0011382040278024592
-0.0050078085406333505   -0.01346349771360808   -0.001204599687236939
-0.006570835551676896   -0.008777240001830087   -0.0011887772447210184
-0.0041604450058699925   -0.00863823879566926   -0.0010660547901429765
-0.0050078085406333505   -0.01346349771360808   -0.001204599687236939
-0.004152227419721955   -0.008572422695231572   -0.0011382040278024592
-0.006570835551676896   -0.008777240001830087   -0.0011887772447210184
-0.0050078085406333505   -0.01346349771360808   -0.001204599687236939
-0.007780461533518506   -0.013556329938171406   -0.0013142899126268768
-0.007704459026254318   -0.013479873608595164   -0.0013887191533002703
-0.006570835551676896   -0.008777240001830087   -0.0011887772447210184
-0.0050078085406333505   -0.01346349771360808   -0.001204599687236939
-0.007704459026254318   -0.013479873608595164   -0.0013887191533002703
-0.004152227419721955   -0.008572422695231572   -0.0011382040278024592
-0.006570835551676896   -0.008777240001830087   -0.0011887772447210184
-0.007780461533518506   -0.013556329938171406   -0.0013142899126268768
-0.0041604450058699925   -0.00863823879566926   -0.0010660547901429765
-0.006642046919392766   -0.008833760202054083   -0.0010840277243277928
-0.007780461533518506   -0.013556329938171406   -0.0013142899126268768
-0.0050078085406333505   -0.01346349771360808   -0.001204599687236939
-0.0041604450058699925   -0.00863823879566926   -0.0010660547901429765
-0.005011150681362389   -0.013508354400805545   -0.001158208772277973
-0.006642046919392766   -0.008833760202054083   -0.0010840277243277928
-0.004170229972973729   -0.008684115503129421   -0.0009991593110461245
-0.005011150681362389   -0.013508354400805545   -0.001158208772277973
-0.0041604450058699925   -0.00863823879566926   -0.0010660547901429765
-0.006642046919392766   -0.008833760202054083   -0.0010840277243277928
-0.005011150681362389   -0.013508354400805545   -0.001158208772277973
-0.007823616647376214   -0.01361052010729697   -0.0012470420974183074
-0.007780461533518506   -0.013556329938171406   -0.0013142899126268768
-0.006642046919392766   -0.008833760202054083   -0.0010840277243277928
-0.005011150681362389   -0.013508354400805545   -0.001158208772277973
-0.007780461533518506   -0.013556329938171406   -0.0013142899126268768
-0.0041604450058699925   -0.00863823879566926   -0.0010660547901429765
-0.006642046919392766   -0.008833760202054083   -0.0010840277243277928
-0.007823616647376214   -0.01361052010729697   -0.0012470420974183074
-0.004170229972973729   -0.008684115503129421   -0.0009991593110461245
-0.006723070317088911   -0.008874593575947807   -0.0009876970350967116
-0.007823616647376214   -0.01361052010729697   -0.0012470420974183074
-0.005011150681362389   -0.013508354400805545   -0.001158208772277973
-0.004170229972973729   -0.008684115503129421   -0.0009991593110461245
-0.004999851081474008   -0.013545315971497373   -0.0011162796255312307
-0.006723070317088911   -0.008874593575947807   -0.0009876970350967116
-0.004161475005476018   -0.008714412317946167   -0.0009363961068418543
-0.004999851081474008   -0.013545315971497373   -0.0011162796255312307
-0.004170229972973729   -0.008684115503129421   -0.0009991593110461245
-0.006723070317088911   -0.008874593575947807   -0.0009876970350967116
-0.004999851081474008   -0.013545315971497373   -0.0011162796255312307
-0.007867992087709766   -0.013659258639928416   -0.0011878346877082912
-0.007823616647376214   -0.01361052010729697   -0.0012470420974183074
-0.006723070317088911   -0.008874593575947807   -0.0009876970350967116
-0.004999851081474008   -0.013545315971497373   -0.0011162796255312307
-0.007823616647376214   -0.01361052010729697   -0.0012470420974183074
-0.004170229972973729   -0.008684115503129421   -0.0009991593110461245
-0.004152227419721955   -0.008572422695231572   -0.0011382040278024592
-0.005002711362830098   -0.0134070172655474   -0.0012561431230696835
-0.00198018254009043   -0.00851509795091055   -0.0010249844080976074
-0.0041604450058699925   -0.00863823879566926   -0.0010660547901429765
-0.005002711362830098   -0.0134070172655474   -0.0012561431230696835
-0.0024706652182174948   -0.013369226924156445   -0.0011643711120629626
-0.00198018254009043   -0.00851509795091055   -0.0010249844080976074
-0.002465077157359789   -0.01340460027227351   -0.0011302345645156971
-0.0041604450058699925   -0.00863823879566926   -0.0010660547901429765
-0.001974344156373123   -0.008557114224874051   -0.0009841219667846388
-0.002465077157359789   -0.01340460027227351   -0.0011302345645156971
-0.00198018254009043   -0.00851509795091055   -0.0010249844080976074
-0.0041604450058699925   -0.00863823879566926   -0.0010660547901429765
-0.002465077157359789   -0.01340460027227351   -0.0011302345645156971
-0.0050078085406333505   -0.01346349771360808   -0.001204599687236939
-0.005002711362830098   -0.0134070172655474   -0.0012561431230696835
-0.0041604450058699925   -0.00863823879566926   -0.0010660547901429765
-0.002465077157359789   -0.01340460027227351   -0.0011302345645156971
-0.005002711362830098   -0.0134070172655474   -0.0012561431230696835
-0.00198018254009043   -0.00851509795091055   -0.0010249844080976074
-0.0041604450058699925   -0.00863823879566926   -0.0010660547901429765
-0.0050078085406333505   -0.01346349771360808   -0.001204599687236939
-0.001974344156373123   -0.008557114224874051   -0.0009841219667846388
-0.004170229972973729   -0.008684115503129421   -0.0009991593110461245
-0.0050078085406333505   -0.01346349771360808   -0.001204599687236939
-0.002465077157359789   -0.01340460027227351   -0.0011302345645156971
-0.001974344156373123   -0.008557114224874051   -0.0009841219667846388
-0.0024577831368527247   -0.013430224728930195   -0.0011011684285558263
-0.004170229972973729   -0.008684115503129421   -0.0009991593110461245
-0.0019673955609049946   -0.008581823558554911   -0.0009482567866410326
-0.0024577831368527247   -0.013430224728930195   -0.0011011684285558263
-0.001974344156373123   -0.008557114224874051   -0.0009841219667846388
-0.004170229972973729   -0.008684115503129421   -0.0009991593110461245
-0.0024577831368527247   -0.013430224728930195   -0.0011011684285558263
-0.005011150681362389   -0.013508354400805545   -0.001158208772277973
-0.0050078085406333505   -0.01346349771360808   -0.001204599687236939
-0.004170229972973729   -0.008684115503129421   -0.0009991593110461245
-0.0024577831368527247   -0.013430224728930195   -0.0011011684285558263
-0.0050078085406333505   -0.01346349771360808   -0.001204599687236939
-0.001974344156373123   -0.008557114224874051   -0.0009841219667846388
-0.004170229972973729   -0.008684115503129421   -0.0009991593110461245
-0.005011150681362389   -0.013508354400805545   -0.001158208772277973
-0.0019673955609049946   -0.008581823558554911   -0.0009482567866410326
-0.004161475005476018   -0.008714412317946167   -0.0009363961068418543
-0.005011150681362389   -0.013508354400805545   -0.001158208772277973
-0.0024577831368527247   -0.013430224728930195   -0.0011011684285558263
-0.0019673955609049946   -0.008581823558554911   -0.0009482567866410326
-0.002447328416409165   -0.013446269243265797   -0.001077260110044675
-0.004161475005476018   -0.008714412317946167   -0.0009363961068418543
-0.0019565227500153745   -0.008589579005386599   -0.0009173765573408861
-0.002447328416409165   -0.013446269243265797   -0.001077260110044675
-0.0019673955609049946   -0.008581823558554911   -0.0009482567866410326
-0.004161475005476018   -0.008714412317946167   -0.0009363961068418543
-0.002447328416409165   -0.013446269243265797   -0.001077260110044675
-0.004999851081474008   -0.013545315971497373   -0.0011162796255312307
-0.005011150681362389   -0.013508354400805545   -0.001158208772277973
-0.004161475005476018   -0.008714412317946167   -0.0009363961068418543
-0.002447328416409165   -0.013446269243265797   -0.001077260110044675
-0.005011150681362389   -0.013508354400805545   -0.001158208772277973
-0.0019673955609049946   -0.008581823558554911   -0.0009482567866410326
-0.00198018254009043   -0.00851509795091055   -0.0010249844080976074
-0.0024706652182174948   -0.013369226924156445   -0.0011643711120629626
0.00012769512927328664   -0.008512031639411763   -0.0009549705364119949
-0.001974344156373123   -0.008557114224874051   -0.0009841219667846388
-0.0024706652182174948   -0.013369226924156445   -0.0011643711120629626
-7.599355561145572e-06   -0.013362643861078992   -0.0011111183267899555
0.00012769512927328664   -0.008512031639411763   -0.0009549705364119949
2.155466504118934e-06   -0.01337676820302649   -0.0010945349892877152
-0.001974344156373123   -0.008557114224874051   -0.0009841219667846388
0.0001377271809994401   -0.008530599145770378   -0.0009452329781821766
2.155466504118934e-06   -0.01337676820302649   -0.0010945349892877152
0.00012769512927328664   -0.008512031639411763   -0.0009549705364119949
-0.001974344156373123   -0.008557114224874051   -0.0009841219667846388
2.155466504118934e-06   -0.01337676820302649   -0.0010945349892877152
-0.002465077157359789   -0.01340460027227351   -0.0011302345645156971
-0.0024706652182174948   -0.013369226924156445   -0.0011643711120629626
-0.001974344156373123   -0.008557114224874051   -0.0009841219667846388
2.155466504118934e-06   -0.01337676820302649   -0.0010945349892877152
-0.0024706652182174948   -0.013369226924156445   -0.0011643711120629626
0.00012769512927328664   -0.008512031639411763   -0.0009549705364119949
-0.001974344156373123   -0.008557114224874051   -0.0009841219667846388
-0.002465077157359789   -0.01340460027227351   -0.0011302345645156971
0.0001377271809994401   -0.008530599145770378   -0.0009452329781821766
-0.0019673955609049946   -0.008581823558554911   -0.0009482567866410326
-0.002465077157359789   -0.01340460027227351   -0.0011302345645156971
2.155466504118934e-06   -0.01337676820302649   -0.0010945349892877152
0.0001377271809994401   -0.008530599145770378   -0.0009452329781821766
9.35533213927079e-06   -0.013381075292336352   -0.0010829610442914508
-0.0019673955609049946   -0.008581823558554911   -0.0009482567866410326
0.00014447215126340155   -0.00853192741039939   -0.0009403651524379742
9.35533213927079e-06   -0.013381075292336352   -0.0010829610442914508
0.0001377271809994401   -0.008530599145770378   -0.0009452329781821766
-0.0019673955609049946   -0.008581823558554911   -0.0009482567866410326
9.35533213927079e-06   -0.013381075292336352   -0.0010829610442914508
-0.0024577831368527247   -0.013430224728930195   -0.0011011684285558263
-0.002465077157359789   -0.01340460027227351   -0.0011302345645156971
-0.0019673955609049946   -0.008581823558554911   -0.0009482567866410326
9.35533213927079e-06   -0.013381075292336352   -0.0010829610442914508
-0.002465077157359789   -0.01340460027227351   -0.0011302345645156971
0.0001377271809994401   -0.008530599145770378   -0.0009452329781821766
-0.0019673955609049946   -0.008581823558554911   -0.0009482567866410326
-0.0024577831368527247   -0.013430224728930195   -0.0011011684285558263
0.00014447215126340155   -0.00853192741039939   -0.0009403651524379742
-0.0019565227500153745   -0.008589579005386599   -0.0009173765573408861
-0.0024577831368527247   -0.013430224728930195   -0.0011011684285558263
9.35533213927079e-06   -0.013381075292336352   -0.0010829610442914508
0.00014447215126340155   -0.00853192741039939   -0.0009403651524379742
1.4268551879012451e-05   -0.01337542974192655   -0.0010766154283119128
-0.0019565227500153745   -0.008589579005386599   -0.0009173765573408861
0.00014960435258312647   -0.008515760613764748   -0.0009406596303655933
1.4268551879012451e-05   -0.01337542974192655   -0.0010766154283119128
0.00014447215126340155   -0.00853192741039939   -0.0009403651524379742
-0.0019565227500153745   -0.008589579005386599   -0.0009173765573408861
1.4268551879012451e-05   -0.01337542974192655   -0.0010766154283119128
-0.002447328416409165   -0.013446269243265797   -0.001077260110044675
-0.0024577831368527247   -0.013430224728930195   -0.0011011684285558263
-0.0019565227500153745   -0.008589579005386599   -0.0009173765573408861
1.4268551879012451e-05   -0.01337542974192655   -0.0010766154283119128
-0.0024577831368527247   -0.013430224728930195   -0.0011011684285558263
0.00014447215126340155   -0.00853192741039939   -0.0009403651524379742
0.00012769512927328664   -0.008512031639411763   -0.0009549705364119949
-7.599355561145572e-06   -0.013362643861078992   -0.0011111183267899555
0.002325788069462589   -0.008559990565602813   -0.0009269921440673504
0.0001377271809994401   -0.008530599145770378   -0.0009452329781821766
-7.599355561145572e-06   -0.013362643861078992   -0.0011111183267899555
0.0025402189300216993   -0.013384579683815975   -0.0010962037503627147
0.002325788069462589   -0.008559990565602813   -0.0009269921440673504
0.0025520268549415717   -0.013378661942892509   -0.0010975364205746733
0.0001377271809994401   -0.008530599145770378   -0.0009452329781821766
0.0023347510523232637   -0.008557033910486626   -0.0009490186580328058
0.0025520268549415717   -0.013378661942892509   -0.0010975364205746733
0.002325788069462589   -0.008559990565602813   -0.0009269921440673504
0.0001377271809994401   -0.008530599145770378   -0.0009452329781821766
0.0025520268549415717   -0.013378661942892509   -0.0010975364205746733
2.155466504118934e-06   -0.01337676820302649   -0.0010945349892877152
-7.599355561145572e-06   -0.013362643861078992   -0.0011111183267899555
0.0001377271809994401   -0.008530599145770378   -0.0009452329781821766
0.0025520268549415717   -0.013378661942892509   -0.0010975364205746733
-7.599355561145572e-06   -0.013362643861078992   -0.0011111183267899555
0.002325788069462589   -0.008559990565602813   -0.0009269921440673504
0.0001377271809994401   -0.008530599145770378   -0.0009452329781821766
2.155466504118934e-06   -0.01337676820302649   -0.0010945349892877152
0.0023347510523232637   -0.008557033910486626   -0.0009490186580328058
0.00014447215126340155   -0.00853192741039939   -0.0009403651524379742
2.155466504118934e-06   -0.01337676820302649   -0.0010945349892877152
0.0025520268549415717   -0.013378661942892509   -0.0010975364205746733
0.0023347510523232637   -0.008557033910486626   -0.0009490186580328058
0.0025539006307937115   -0.013363713423416147   -0.0011036063921830658
0.00014447215126340155   -0.00853192741039939   -0.0009403651524379742
0.002329845708438835   -0.008537237931592015   -0.000975557092113279
0.0025539006307937115   -0.013363713423416147   -0.0011036063921830658
0.0023347510523232637   -0.008557033910486626   -0.0009490186580328058
0.00014447215126340155   -0.00853192741039939   -0.0009403651524379742
0.0025539006307937115   -0.013363713423416147   -0.0011036063921830658
9.35533213927079e-06   -0.013381075292336352   -0.0010829610442914508
2.155466504118934e-06   -0.01337676820302649   -0.0010945349892877152
0.00014447215126340155   -0.00853192741039939   -0.0009403651524379742
0.0025539006307937115   -0.013363713423416147   -0.0011036063921830658
2.155466504118934e-06   -0.01337676820302649   -0.0010945349892877152
0.0023347510523232637   -0.008557033910486626   -0.0009490186580328058
0.00014447215126340155   -0.00853192741039939   -0.0009403651524379742
9.35533213927079e-06   -0.013381075292336352   -0.0010829610442914508
0.002329845708438835   -0.008537237931592015   -0.000975557092113279
0.00014960435258312647   -0.008515760613764748   -0.0009406596303655933
9.35533213927079e-06   -0.013381075292336352   -0.0010829610442914508
0.0025539006307937115   -0.013363713423416147   -0.0011036063921830658
0.002329845708438835   -0.008537237931592015   -0.000975557092113279
0.0025493239801087004   -0.013336026868436466   -0.0011145972813779356
0.00014960435258312647   -0.008515760613764748   -0.0009406596303655933
0.0023219323941823136   -0.008496399351897948   -0.0010071447187572078
0.0025493239801087004   -0.013336026868436466   -0.0011145972813779356
0.002329845708438835   -0.008537237931592015   -0.000975557092113279
0.00014960435258312647   -0.008515760613764748   -0.0009406596303655933
0.0025493239801087004   -0.013336026868436466   -0.0011145972813779356
1.4268551879012451e-05   -0.01337542974192655   -0.0010766154283119128
9.35533213927079e-06   -0.013381075292336352   -0.0010829610442914508
0.00014960435258312647   -0.008515760613764748   -0.0009406596303655933
0.0025493239801087004   -0.013336026868436466   -0.0011145972813779356
9.35533213927079e-06   -0.013381075292336352   -0.0010829610442914508
0.002329845708438835   -0.008537237931592015   -0.000975557092113279
0.002325788069462589   -0.008559990565602813   -0.0009269921440673504
0.0025402189300216993   -0.013384579683815975   -0.0010962037503627147
0.004829609772668328   -0.008646777769289246   -0.0009282853443087738
0.0023347510523232637   -0.008557033910486626   -0.0009490186580328058
0.0025402189300216993   -0.013384579683815975   -0.0010962037503627147
0.00535354202422457   -0.013424730090627812   -0.0011114202410315243
0.004829609772668328   -0.008646777769289246   -0.0009282853443087738
0.0053501686108043955   -0.013405201668635921   -0.0011319784485419005
0.0023347510523232637   -0.008557033910486626   -0.0009490186580328058
0.004789081636938489   -0.008631369605213818   -0.0009860656764336016
0.0053501686108043955   -0.013405201668635921   -0.0011319784485419005
0.004829609772668328   -0.008646777769289246   -0.0009282853443087738
0.0023347510523232637   -0.008557033910486626   -0.0009490186580328058
0.0053501686108043955   -0.013405201668635921   -0.0011319784485419005
0.0025520268549415717   -0.013378661942892509   -0.0010975364205746733
0.0025402189300216993   -0.013384579683815975   -0.0010962037503627147
0.0023347510523232637   -0.008557033910486626   -0.0009490186580328058
0.0053501686108043955   -0.013405201668635921   -0.0011319784485419005
0.0025402189300216993   -0.013384579683815975   -0.0010962037503627147
0.004829609772668328   -0.008646777769289246   -0.0009282853443087738
0.0023347510523232637   -0.008557033910486626   -0.0009490186580328058
0.0025520268549415717   -0.013378661942892509   -0.0010975364205746733
0.004789081636938489   -0.008631369605213818   -0.0009860656764336016
0.002329845708438835   -0.008537237931592015   -0.000975557092113279
0.0025520268549415717   -0.013378661942892509   -0.0010975364205746733
0.0053501686108043955   -0.013405201668635921   -0.0011319784485419005
0.004789081636938489   -0.008631369605213818   -0.0009860656764336016
0.005338151100504666   -0.01338088862506172   -0.0011602291723982487
0.002329845708438835   -0.008537237931592015   -0.000975557092113279
0.004748417185480467   -0.00860095001391779   -0.0010519829095221756
0.005338151100504666   -0.01338088862506172   -0.0011602291723982487
0.004789081636938489   -0.008631369605213818   -0.0009860656764336016
0.002329845708438835   -0.008537237931592015   -0.000975557092113279
0.005338151100504666   -0.01338088862506172   -0.0011602291723982487
0.0025539006307937115   -0.013363713423416147   -0.0011036063921830658
0.0025520268549415717   -0.013378661942892509   -0.0010975364205746733
0.002329845708438835   -0.008537237931592015   -0.000975557092113279
0.005338151100504666   -0.01338088862506172   -0.0011602291723982487
0.0025520268549415717   -0.013378661942892509   -0.0010975364205746733
0.004789081636938489   -0.008631369605213818   -0.0009860656764336016
0.002329845708438835   -0.008537237931592015   -0.000975557092113279
0.0025539006307937115   -0.013363713423416147   -0.0011036063921830658
0.004748417185480467   -0.00860095001391779   -0.0010519829095221756
0.0023219323941823136   -0.008496399351897948   -0.0010071447187572078
0.0025539006307937115   -0.013363713423416147   -0.0011036063921830658
0.005338151100504666   -0.01338088862506172   -0.0011602291723982487
0.004748417185480467   -0.00860095001391779   -0.0010519829095221756
0.005303086608327633   -0.01333485317704096   -0.0011961164934901252
0.0023219323941823136   -0.008496399351897948   -0.0010071447187572078
0.00467521392195149   -0.008537462522677642   -0.001126046059669497
0.005303086608327633   -0.01333485317704096   -0.0011961164934901252
0.004748417185480467   -0.00860095001391779   -0.0010519829095221756
0.0023219323941823136   -0.008496399351897948   -0.0010071447187572078
0.005303086608327633   -0.01333485317704096   -0.0011961164934901252
0.0025493239801087004   -0.013336026868436466   -0.0011145972813779356
0.0025539006307937115   -0.013363713423416147   -0.0011036063921830658
0.0023219323941823136   -0.008496399351897948   -0.0010071447187572078
0.005303086608327633   -0.01333485317704096   -0.0011961164934901252
0.0025539006307937115   -0.013363713423416147   -0.0011036063921830658
0.004748417185480467   -0.00860095001391779   -0.0010519829095221756
-0.007704459026254318   -0.013479873608595164   -0.0013887191533002703
-0.008456579094800758   -0.018689558140831626   -0.0014152472442107266
-0.005002711362830098   -0.0134070172655474   -0.0012561431230696835
-0.007780461533518506   -0.013556329938171406   -0.0013142899126268768
-0.008456579094800758   -0.018689558140831626   -0.0014152472442107266
-0.005559772191759965   -0.01866004560423046   -0.0013099461987458037
-0.005002711362830098   -0.0134070172655474   -0.0012561431230696835
-0.0055567710997265676   -0.01870809751068304   -0.0012784014121721339
-0.007780461533518506   -0.013556329938171406   -0.0013142899126268768
-0.0050078085406333505   -0.01346349771360808   -0.001204599687236939
-0.0055567710997265676   -0.01870809751068304   -0.0012784014121721339
-0.005002711362830098   -0.0134070172655474   -0.0012561431230696835
-0.007780461533518506   -0.013556329938171406   -0.0013142899126268768
-0.0055567710997265676   -0.01870809751068304   -0.0012784014121721339
-0.008491502458271339   -0.018754195318430644   -0.0013770835528436791
-0.008456579094800758   -0.018689558140831626   -0.0014152472442107266
-0.007780461533518506   -0.013556329938171406   -0.0013142899126268768
-0.0055567710997265676   -0.01870809751068304   -0.0012784014121721339
-0.008456579094800758   -0.018689558140831626   -0.0014152472442107266
-0.005002711362830098   -0.0134070172655474   -0.0012561431230696835
-0.007780461533518506   -0.013556329938171406   -0.0013142899126268768
-0.008491502458271339   -0.018754195318430644   -0.0013770835528436791
-0.0050078085406333505   -0.01346349771360808   -0.001204599687236939
-0.007823616647376214   -0.01361052010729697   -0.0012470420974183074
-0.008491502458271339   -0.018754195318430644   -0.0013770835528436791
-0.0055567710997265676   -0.01870809751068304   -0.0012784014121721339
-0.0050078085406333505   -0.01346349771360808   -0.001204599687236939
-0.005548525933435549   -0.018752519565527995   -0.0012520974742519632
-0.007823616647376214   -0.01361052010729697   -0.0012470420974183074
-0.005011150681362389   -0.013508354400805545   -0.001158208772277973
-0.005548525933435549   -0.018752519565527995   -0.0012520974742519632
-0.0050078085406333505   -0.01346349771360808   -0.001204599687236939
-0.007823616647376214   -0.01361052010729697   -0.0012470420974183074
-0.005548525933435549   -0.018752519565527995   -0.0012520974742519632
-0.008501975395115319   -0.01880702928590403   -0.0013464603162420743
-0.008491502458271339   -0.018754195318430644   -0.0013770835528436791
-0.007823616647376214   -0.01361052010729697   -0.0012470420974183074
-0.005548525933435549   -0.018752519565527995   -0.0012520974742519632
-0.008491502458271339   -0.018754195318430644   -0.0013770835528436791
-0.0050078085406333505   -0.01346349771360808   -0.001204599687236939
-0.007823616647376214   -0.01361052010729697   -0.0012470420974183074
-0.008501975395115319   -0.01880702928590403   -0.0013464603162420743
-0.005011150681362389   -0.013508354400805545   -0.001158208772277973
-0.007867992087709766   -0.013659258639928416   -0.0011878346877082912
-0.008501975395115319   -0.01880702928590403   -0.0013464603162420743
-0.005548525933435549   -0.018752519565527995   -0.0012520974742519632
-0.005011150681362389   -0.013508354400805545   -0.001158208772277973
-0.005529408595329008   -0.018796706733524626   -0.001230659100864116
-0.007867992087709766   -0.013659258639928416   -0.0011878346877082912
-0.004999851081474008   -0.013545315971497373   -0.0011162796255312307
-0.005529408595329008   -0.018796706733524626   -0.001230659100864116
-0.005011150681362389   -0.013508354400805545   -0.001158208772277973
-0.007867992087709766   -0.013659258639928416   -0.0011878346877082912
-0.005529408595329008   -0.018796706733524626   -0.001230659100864116
-0.008504755560983865   -0.01886455714254197   -0.00132403421489442
-0.008501975395115319   -0.01880702928590403   -0.0013464603162420743
-0.007867992087709766   -0.013659258639928416   -0.0011878346877082912
-0.005529408595329008   -0.018796706733524626   -0.001230659100864116
-0.008501975395115319   -0.01880702928590403   -0.0013464603162420743
-0.005011150681362389   -0.013508354400805545   -0.001158208772277973
-0.005002711362830098   -0.0134070172655474   -0.0012561431230696835
-0.005559772191759965   -0.01866004560423046   -0.0013099461987458037
-0.0024706652182174948   -0.013369226924156445   -0.0011643711120629626
-0.0050078085406333505   -0.01346349771360808   -0.001204599687236939
-0.005559772191759965   -0.01866004560423046   -0.0013099461987458037
-0.0028690274711252782   -0.01864292821928716   -0.0012382857256365738
-0.0024706652182174948   -0.013369226924156445   -0.0011643711120629626
-0.0028582024856274577   -0.018671944939897985   -0.0012106542174809818
-0.0050078085406333505   -0.01346349771360808   -0.001204599687236939
-0.002465077157359789   -0.01340460027227351   -0.0011302345645156971
-0.0028582024856274577   -0.018671944939897985   -0.0012106542174809818
-0.0024706652182174948   -0.013369226924156445   -0.0011643711120629626
-0.0050078085406333505   -0.01346349771360808   -0.001204599687236939
-0.0028582024856274577   -0.018671944939897985   -0.0012106542174809818
-0.0055567710997265676   -0.01870809751068304   -0.0012784014121721339
-0.005559772191759965   -0.01866004560423046   -0.0013099461987458037
-0.0050078085406333505   -0.01346349771360808   -0.001204599687236939
-0.0028582024856274577   -0.018671944939897985   -0.0012106542174809818
-0.005559772191759965   -0.01866004560423046   -0.0013099461987458037
-0.0024706652182174948   -0.013369226924156445   -0.0011643711120629626
-0.0050078085406333505   -0.01346349771360808   -0.001204599687236939
-0.0055567710997265676   -0.01870809751068304   -0.0012784014121721339
-0.002465077157359789   -0.01340460027227351   -0.0011302345645156971
-0.005011150681362389   -0.013508354400805545   -0.001158208772277973
-0.0055567710997265676   -0.01870809751068304   -0.0012784014121721339
-0.0028582024856274577   -0.018671944939897985   -0.0012106542174809818
-0.002465077157359789   -0.01340460027227351   -0.0011302345645156971
-0.0028451158013759366   -0.0186986402198351   -0.0011882636024726952
-0.005011150681362389   -0.013508354400805545   -0.001158208772277973
-0.0024577831368527247   -0.013430224728930195   -0.0011011684285558263
-0.0028451158013759366   -0.0186986402198351   -0.0011882636024726952
-0.002465077157359789   -0.01340460027227351   -0.0011302345645156971
-0.005011150681362389   -0.013508354400805545   -0.001158208772277973
-0.0028451158013759366   -0.0186986402198351   -0.0011882636024726952
-0.005548525933435549   -0.018752519565527995   -0.0012520974742519632
-0.0055567710997265676   -0.01870809751068304   -0.0012784014121721339
-0.005011150681362389   -0.013508354400805545   -0.001158208772277973
-0.0028451158013759366   -0.0186986402198351   -0.0011882636024726952
-0.0055567710997265676   -0.01870809751068304   -0.0012784014121721339
-0.002465077157359789   -0.01340460027227351   -0.0011302345645156971
-0.005011150681362389   -0.013508354400805545   -0.001158208772277973
-0.005548525933435549   -0.018752519565527995   -0.0012520974742519632
-0.0024577831368527247   -0.013430224728930195   -0.0011011684285558263
-0.004999851081474008   -0.013545315971497373   -0.0011162796255312307
-0.005548525933435549   -0.018752519565527995   -0.0012520974742519632
-0.0028451158013759366   -0.0186986402198351   -0.0011882636024726952
-0.0024577831368527247   -0.013430224728930195   -0.0011011684285558263
-0.0028295350979201054   -0.018723103424123446   -0.0011712439572279694
-0.004999851081474008   -0.013545315971497373   -0.0011162796255312307
-0.002447328416409165   -0.013446269243265797   -0.001077260110044675
-0.0028295350979201054   -0.018723103424123446   -0.0011712439572279694
-0.0024577831368527247   -0.013430224728930195   -0.0011011684285558263
-0.004999851081474008   -0.013545315971497373   -0.0011162796255312307
-0.0028295350979201054   -0.018723103424123446   -0.0011712439572279694
-0.005529408595329008   -0.018796706733524626   -0.001230659100864116
-0.005548525933435549   -0.018752519565527995   -0.0012520974742519632
-0.004999851081474008   -0.013545315971497373   -0.0011162796255312307
-0.0028295350979201054   -0.018723103424123446   -0.0011712439572279694
-0.005548525933435549   -0.018752519565527995   -0.0012520974742519632
-0.0024577831368527247   -0.013430224728930195   -0.0011011684285558263
-0.0024706652182174948   -0.013369226924156445   -0.0011643711120629626
-0.0028690274711252782   -0.01864292821928716   -0.0012382857256365738
-7.599355561145572e-06   -0.013362643861078992   -0.0011111183267899555
-0.002465077157359789   -0.01340460027227351   -0.0011302345645156971
-0.0028690274711252782   -0.01864292821928716   -0.0012382857256365738
-0.00025113838999748475   -0.018633002701876834   -0.0012014345662195692
-7.599355561145572e-06   -0.013362643861078992   -0.0011111183267899555
-0.00023629549725179996   -0.018642601385382807   -0.0011780020744204792
-0.002465077157359789   -0.01340460027227351   -0.0011302345645156971
2.155466504118934e-06   -0.01337676820302649   -0.0010945349892877152
-0.00023629549725179996   -0.018642601385382807   -0.0011780020744204792
-7.599355561145572e-06   -0.013362643861078992   -0.0011111183267899555
-0.002465077157359789   -0.01340460027227351   -0.0011302345645156971
-0.00023629549725179996   -0.018642601385382807   -0.0011780020744204792
-0.0028582024856274577   -0.018671944939897985   -0.0012106542174809818
-0.0028690274711252782   -0.01864292821928716   -0.0012382857256365738
-0.002465077157359789   -0.01340460027227351   -0.0011302345645156971
-0.00023629549725179996   -0.018642601385382807   -0.0011780020744204792
-0.0028690274711252782   -0.01864292821928716   -0.0012382857256365738
-7.599355561145572e-06   -0.013362643861078992   -0.0011111183267899555
-0.002465077157359789   -0.01340460027227351   -0.0011302345645156971
-0.0028582024856274577   -0.018671944939897985   -0.0012106542174809818
2.155466504118934e-06   -0.01337676820302649   -0.0010945349892877152
-0.0024577831368527247   -0.013430224728930195   -0.0011011684285558263
-0.0028582024856274577   -0.018671944939897985   -0.0012106542174809818
-0.00023629549725179996   -0.018642601385382807   -0.0011780020744204792
2.155466504118934e-06   -0.01337676820302649   -0.0010945349892877152
-0.0002233425611092246   -0.018649709906427298   -0.0011597687700334132
-0.0024577831368527247   -0.013430224728930195   -0.0011011684285558263
9.35533213927079e-06   -0.013381075292336352   -0.0010829610442914508
-0.0002233425611092246   -0.018649709906427298   -0.0011597687700334132
2.155466504118934e-06   -0.01337676820302649   -0.0010945349892877152
-0.0024577831368527247   -0.013430224728930195   -0.0011011684285558263
-0.0002233425611092246   -0.018649709906427298   -0.0011597687700334132
-0.0028451158013759366   -0.0186986402198351   -0.0011882636024726952
-0.0028582024856274577   -0.018671944939897985   -0.0012106542174809818
-0.0024577831368527247   -0.013430224728930195   -0.0011011684285558263
-0.0002233425611092246   -0.018649709906427298   -0.0011597687700334132
-0.0028582024856274577   -0.018671944939897985   -0.0012106542174809818
2.155466504118934e-06   -0.01337676820302649   -0.0010945349892877152
-0.0024577831368527247   -0.013430224728930195   -0.0011011684285558263
-0.0028451158013759366   -0.0186986402198351   -0.0011882636024726952
9.35533213927079e-06   -0.013381075292336352   -0.0010829610442914508
-0.002447328416409165   -0.013446269243265797   -0.001077260110044675
-0.0028451158013759366   -0.0186986402198351   -0.0011882636024726952
-0.0002233425611092246   -0.018649709906427298   -0.0011597687700334132
9.35533213927079e-06   -0.013381075292336352   -0.0010829610442914508
-0.00021326889231909797   -0.01865428914523673   -0.0011469219839209772
-0.002447328416409165   -0.013446269243265797   -0.001077260110044675
1.4268551879012451e-05   -0.01337542974192655   -0.0010766154283119128
-0.00021326889231909797   -0.01865428914523673   -0.0011469219839209772
9.35533213927079e-06   -0.013381075292336352   -0.0010829610442914508
-0.002447328416409165   -0.013446269243265797   -0.001077260110044675
-0.00021326889231909797   -0.01865428914523673   -0.0011469219839209772
-0.0028295350979201054   -0.018723103424123446   -0.0011712439572279694
-0.0028451158013759366   -0.0186986402198351   -0.0011882636024726952
-0.002447328416409165   -0.013446269243265797   -0.001077260110044675
-0.00021326889231909797   -0.01865428914523673   -0.0011469219839209772
-0.0028451158013759366   -0.0186986402198351   -0.0011882636024726952
9.35533213927079e-06   -0.013381075292336352   -0.0010829610442914508
-7.599355561145572e-06   -0.013362643861078992   -0.0011111183267899555
-0.00025113838999748475   -0.018633002701876834   -0.0012014345662195692
0.0025402189300216993   -0.013384579683815975   -0.0010962037503627147
2.155466504118934e-06   -0.01337676820302649   -0.0010945349892877152
-0.00025113838999748475   -0.018633002701876834   -0.0012014345662195692
0.0024464781636348455   -0.018628552874234126   -0.0011997516309688347
0.0025402189300216993   -0.013384579683815975   -0.0010962037503627147
0.0024659570144105938   -0.01861931854582824   -0.0011807246701052735
2.155466504118934e-06   -0.01337676820302649   -0.0010945349892877152
0.0025520268549415717   -0.013378661942892509   -0.0010975364205746733
0.0024659570144105938   -0.01861931854582824   -0.0011807246701052735
0.0025402189300216993   -0.013384579683815975   -0.0010962037503627147
2.155466504118934e-06   -0.01337676820302649   -0.0010945349892877152
0.0024659570144105938   -0.01861931854582824   -0.0011807246701052735
-0.00023629549725179996   -0.018642601385382807   -0.0011780020744204792
-0.00025113838999748475   -0.018633002701876834   -0.0012014345662195692
2.155466504118934e-06   -0.01337676820302649   -0.0010945349892877152
0.0024659570144105938   -0.01861931854582824   -0.0011807246701052735
-0.00025113838999748475   -0.018633002701876834   -0.0012014345662195692
0.0025402189300216993   -0.013384579683815975   -0.0010962037503627147
2.155466504118934e-06   -0.01337676820302649   -0.0010945349892877152
-0.00023629549725179996   -0.018642601385382807   -0.0011780020744204792
0.0025520268549415717   -0.013378661942892509   -0.0010975364205746733
9.35533213927079e-06   -0.013381075292336352   -0.0010829610442914508
-0.00023629549725179996   -0.018642601385382807   -0.0011780020744204792
0.0024659570144105938   -0.01861931854582824   -0.0011807246701052735
0.0025520268549415717   -0.013378661942892509   -0.0010975364205746733
0.0024793314023370096   -0.018608703014686114   -0.0011667451327438388
9.35533213927079e-06   -0.013381075292336352   -0.0010829610442914508
0.0025539006307937115   -0.013363713423416147   -0.0011036063921830658
0.0024793314023370096   -0.018608703014686114   -0.0011667451327438388
0.0025520268549415717   -0.013378661942892509   -0.0010975364205746733
9.35533213927079e-06   -0.013381075292336352   -0.0010829610442914508
0.0024793314023370096   -0.018608703014686114   -0.0011667451327438388
-0.0002233425611092246   -0.018649709906427298   -0.0011597687700334132
-0.00023629549725179996   -0.018642601385382807   -0.0011780020744204792
9.35533213927079e-06   -0.013381075292336352   -0.0010829610442914508
0.0024793314023370096   -0.018608703014686114   -0.0011667451327438388
-0.00023629549725179996   -0.018642601385382807   -0.0011780020744204792
0.0025520268549415717   -0.013378661942892509   -0.0010975364205746733
9.35533213927079e-06   -0.013381075292336352   -0.0010829610442914508
-0.0002233425611092246   -0.018649709906427298   -0.0011597687700334132
0.0025539006307937115   -0.013363713423416147   -0.0011036063921830658
1.4268551879012451e-05   -0.01337542974192655   -0.0010766154283119128
-0.0002233425611092246   -0.018649709906427298   -0.0011597687700334132
0.0024793314023370096   -0.018608703014686114   -0.0011667451327438388
0.0025539006307937115   -0.013363713423416147   -0.0011036063921830658
0.002482765539585482   -0.018593270666614422   -0.001157711549429711
1.4268551879012451e-05   -0.01337542974192655   -0.0010766154283119128
0.0025493239801087004   -0.013336026868436466   -0.0011145972813779356
0.002482765539585482   -0.018593270666614422   -0.001157711549429711
0.0025539006307937115   -0.013363713423416147   -0.0011036063921830658
1.4268551879012451e-05   -0.01337542974192655   -0.0010766154283119128
0.002482765539585482   -0.018593270666614422   -0.001157711549429711
-0.00021326889231909797   -0.01865428914523673   -0.0011469219839209772
-0.0002233425611092246   -0.018649709906427298   -0.0011597687700334132
1.4268551879012451e-05   -0.01337542974192655   -0.0010766154283119128
0.002482765539585482   -0.018593270666614422   -0.001157711549429711
-0.0002233425611092246   -0.018649709906427298   -0.0011597687700334132
0.0025539006307937115   -0.013363713423416147   -0.0011036063921830658
0.0025402189300216993   -0.013384579683815975   -0.0010962037503627147
0.0024464781636348455   -0.018628552874234126   -0.0011997516309688347
0.00535354202422457   -0.013424730090627812   -0.0011114202410315243
0.0025520268549415717   -0.013378661942892509   -0.0010975364205746733
0.0024464781636348455   -0.018628552874234126   -0.0011997516309688347
0.005369175933167356   -0.01862215082861254   -0.0012298486666118727
0.00535354202422457   -0.013424730090627812   -0.0011114202410315243
0.005407001187432788   -0.0185980018825572   -0.0012139420282208213
0.0025520268549415717   -0.013378661942892509   -0.0010975364205746733
0.0053501686108043955   -0.013405201668635921   -0.0011319784485419005
0.005407001187432788   -0.0185980018825572   -0.0012139420282208213
0.00535354202422457   -0.013424730090627812   -0.0011114202410315243
0.0025520268549415717   -0.013378661942892509   -0.0010975364205746733
0.005407001187432788   -0.0185980018825572   -0.0012139420282208213
0.0024659570144105938   -0.01861931854582824   -0.0011807246701052735
0.0024464781636348455   -0.018628552874234126   -0.0011997516309688347
0.0025520268549415717   -0.013378661942892509   -0.0010975364205746733
0.005407001187432788   -0.0185980018825572   -0.0012139420282208213
0.0024464781636348455   -0.018628552874234126   -0.0011997516309688347
0.00535354202422457   -0.013424730090627812   -0.0011114202410315243
0.0025520268549415717   -0.013378661942892509   -0.0010975364205746733
0.0024659570144105938   -0.01861931854582824   -0.0011807246701052735
0.0053501686108043955   -0.013405201668635921   -0.0011319784485419005
0.0025539006307937115   -0.013363713423416147   -0.0011036063921830658
0.0024659570144105938   -0.01861931854582824   -0.0011807246701052735
0.005407001187432788   -0.0185980018825572   -0.0012139420282208213
0.0053501686108043955   -0.013405201668635921   -0.0011319784485419005
0.005427530732481287   -0.018579013453918485   -0.0012057142741767055
0.0025539006307937115   -0.013363713423416147   -0.0011036063921830658
0.005338151100504666   -0.01338088862506172   -0.0011602291723982487
0.005427530732481287   -0.018579013453918485   -0.0012057142741767055
0.0053501686108043955   -0.013405201668635921   -0.0011319784485419005
0.0025539006307937115   -0.013363713423416147   -0.0011036063921830658
0.005427530732481287   -0.018579013453918485   -0.0012057142741767055
0.0024793314023370096   -0.018608703014686114   -0.0011667451327438388
0.0024659570144105938   -0.01861931854582824   -0.0011807246701052735
0.0025539006307937115   -0.013363713423416147   -0.0011036063921830658
0.005427530732481287   -0.018579013453918485   -0.0012057142741767055
0.0024659570144105938   -0.01861931854582824   -0.0011807246701052735
0.0053501686108043955   -0.013405201668635921   -0.0011319784485419005
0.0025539006307937115   -0.013363713423416147   -0.0011036063921830658
0.0024793314023370096   -0.018608703014686114   -0.0011667451327438388
0.005338151100504666   -0.01338088862506172   -0.0011602291723982487
0.0025493239801087004   -0.013336026868436466   -0.0011145972813779356
0.0024793314023370096   -0.018608703014686114   -0.0011667451327438388
0.005427530732481287   -0.018579013453918485   -0.0012057142741767055
0.005338151100504666   -0.01338088862506172   -0.0011602291723982487
0.005433636141967537   -0.01854880311673798   -0.0012052966755910267
0.0025493239801087004   -0.013336026868436466   -0.0011145972813779356
0.005303086608327633   -0.01333485317704096   -0.0011961164934901252
0.005433636141967537   -0.01854880311673798   -0.0012052966755910267
0.005338151100504666   -0.01338088862506172   -0.0011602291723982487
0.0025493239801087004   -0.013336026868436466   -0.0011145972813779356
0.005433636141967537   -0.01854880311673798   -0.0012052966755910267
0.002482765539585482   -0.018593270666614422   -0.001157711549429711
0.0024793314023370096   -0.018608703014686114   -0.0011667451327438388
0.0025493239801087004   -0.013336026868436466   -0.0011145972813779356
0.005433636141967537   -0.01854880311673798   -0.0012052966755910267
0.0024793314023370096   -0.018608703014686114   -0.0011667451327438388
0.005338151100504666   -0.01338088862506172   -0.0011602291723982487
-0.008456579094800758   -0.018689558140831626   -0.0014152472442107266
-0.008715515727461227   -0.023986310711975194   -0.0013923904756813392
-0.005559772191759965   -0.01866004560423046   -0.0013099461987458037
-0.008491502458271339   -0.018754195318430644   -0.0013770835528436791
-0.008715515727461227   -0.023986310711975194   -0.0013923904756813392
-0.005825162866939906   -0.024000308338826885   -0.0013147876910086429
-0.005559772191759965   -0.01866004560423046   -0.0013099461987458037
-0.005809041887916892   -0.02403980591254983   -0.0013028697142836014
-0.008491502458271339   -0.018754195318430644   -0.0013770835528436791
-0.0055567710997265676   -0.01870809751068304   -0.0012784014121721339
-0.005809041887916892   -0.02403980591254983   -0.0013028697142836014
-0.005559772191759965   -0.01866004560423046   -0.0013099461987458037
-0.008491502458271339   -0.018754195318430644   -0.0013770835528436791
-0.005809041887916892   -0.02403980591254983   -0.0013028697142836014
-0.008704680288727706   -0.02403919003973958   -0.0013902091215254168
-0.008715515727461227   -0.023986310711975194   -0.0013923904756813392
-0.008491502458271339   -0.018754195318430644   -0.0013770835528436791
-0.005809041887916892   -0.02403980591254983   -0.0013028697142836014
-0.008715515727461227   -0.023986310711975194   -0.0013923904756813392
-0.005559772191759965   -0.01866004560423046   -0.0013099461987458037
-0.008491502458271339   -0.018754195318430644   -0.0013770835528436791
-0.008704680288727706   -0.02403919003973958   -0.0013902091215254168
-0.0055567710997265676   -0.01870809751068304   -0.0012784014121721339
-0.008501975395115319   -0.01880702928590403   -0.0013464603162420743
-0.008704680288727706   -0.02403919003973958   -0.0013902091215254168
-0.005809041887916892   -0.02403980591254983   -0.0013028697142836014
-0.0055567710997265676   -0.01870809751068304   -0.0012784014121721339
-0.005784210811655889   -0.02408368556410981   -0.001296329339069377
-0.008501975395115319   -0.01880702928590403   -0.0013464603162420743
-0.005548525933435549   -0.018752519565527995   -0.0012520974742519632
-0.005784210811655889   -0.02408368556410981   -0.001296329339069377
-0.0055567710997265676   -0.01870809751068304   -0.0012784014121721339
-0.008501975395115319   -0.01880702928590403   -0.0013464603162420743
-0.005784210811655889   -0.02408368556410981   -0.001296329339069377
-0.00867741376105177   -0.02409067668548193   -0.0013960611029798775
-0.008704680288727706   -0.02403919003973958   -0.0013902091215254168
-0.008501975395115319   -0.01880702928590403   -0.0013464603162420743
-0.005784210811655889   -0.02408368556410981   -0.001296329339069377
-0.008704680288727706   -0.02403919003973958   -0.0013902091215254168
-0.0055567710997265676   -0.01870809751068304   -0.0012784014121721339
-0.008501975395115319   -0.01880702928590403   -0.0013464603162420743
-0.00867741376105177   -0.02409067668548193   -0.0013960611029798775
-0.005548525933435549   -0.018752519565527995   -0.0012520974742519632
-0.008504755560983865   -0.01886455714254197   -0.00132403421489442
-0.00867741376105177   -0.02409067668548193   -0.0013960611029798775
-0.005784210811655889   -0.02408368556410981   -0.001296329339069377
-0.005548525933435549   -0.018752519565527995   -0.0012520974742519632
-0.005752240488877473   -0.02413497694151414   -0.0012950707950269897
-0.008504755560983865   -0.01886455714254197   -0.00132403421489442
-0.005529408595329008   -0.018796706733524626   -0.001230659100864116
-0.005752240488877473   -0.02413497694151414   -0.0012950707950269897
-0.005548525933435549   -0.018752519565527995   -0.0012520974742519632
-0.008504755560983865   -0.01886455714254197   -0.00132403421489442
-0.005752240488877473   -0.02413497694151414   -0.0012950707950269897
-0.008633597673626961   -0.024157126842745527   -0.0014103633771359598
-0.00867741376105177   -0.02409067668548193   -0.0013960611029798775
-0.008504755560983865   -0.01886455714254197   -0.00132403421489442
-0.005752240488877473   -0.02413497694151414   -0.0012950707950269897
-0.00867741376105177   -0.02409067668548193   -0.0013960611029798775
-0.005548525933435549   -0.018752519565527995   -0.0012520974742519632
-0.005559772191759965   -0.01866004560423046   -0.0013099461987458037
-0.005825162866939906   -0.024000308338826885   -0.0013147876910086429
-0.0028690274711252782   -0.01864292821928716   -0.0012382857256365738
-0.0055567710997265676   -0.01870809751068304   -0.0012784014121721339
-0.005825162866939906   -0.024000308338826885   -0.0013147876910086429
-0.0031771147993190584   -0.024003219372205425   -0.001263240218376913
-0.0028690274711252782   -0.01864292821928716   -0.0012382857256365738
-0.0031557558428431643   -0.024025808406243354   -0.0012419043620181308
-0.0055567710997265676   -0.01870809751068304   -0.0012784014121721339
-0.0028582024856274577   -0.018671944939897985   -0.0012106542174809818
-0.0031557558428431643   -0.024025808406243354   -0.0012419043620181308
-0.0028690274711252782   -0.01864292821928716   -0.0012382857256365738
-0.0055567710997265676   -0.01870809751068304   -0.0012784014121721339
-0.0031557558428431643   -0.024025808406243354   -0.0012419043620181308
-0.005809041887916892   -0.02403980591254983   -0.0013028697142836014
-0.005825162866939906   -0.024000308338826885   -0.0013147876910086429
-0.0055567710997265676   -0.01870809751068304   -0.0012784014121721339
-0.0031557558428431643   -0.024025808406243354   -0.0012419043620181308
-0.005825162866939906   -0.024000308338826885   -0.0013147876910086429
-0.0028690274711252782   -0.01864292821928716   -0.0012382857256365738
-0.0055567710997265676   -0.01870809751068304   -0.0012784014121721339
-0.005809041887916892   -0.02403980591254983   -0.0013028697142836014
-0.0028582024856274577   -0.018671944939897985   -0.0012106542174809818
-0.005548525933435549   -0.018752519565527995   -0.0012520974742519632
-0.005809041887916892   -0.02403980591254983   -0.0013028697142836014
-0.0031557558428431643   -0.024025808406243354   -0.0012419043620181308
-0.0028582024856274577   -0.018671944939897985   -0.0012106542174809818
-0.0031317074720679777   -0.024053384433263224   -0.0012259631796246897
-0.005548525933435549   -0.018752519565527995   -0.0012520974742519632
-0.0028451158013759366   -0.0186986402198351   -0.0011882636024726952
-0.0031317074720679777   -0.024053384433263224   -0.0012259631796246897
-0.0028582024856274577   -0.018671944939897985   -0.0012106542174809818
-0.005548525933435549   -0.018752519565527995   -0.0012520974742519632
-0.0031317074720679777   -0.024053384433263224   -0.0012259631796246897
-0.005784210811655889   -0.02408368556410981   -0.001296329339069377
-0.005809041887916892   -0.02403980591254983   -0.0013028697142836014
-0.005548525933435549   -0.018752519565527995   -0.0012520974742519632
-0.0031317074720679777   -0.024053384433263224   -0.0012259631796246897
-0.005809041887916892   -0.02403980591254983   -0.0013028697142836014
-0.0028582024856274577   -0.018671944939897985   -0.0012106542174809818
-0.005548525933435549   -0.018752519565527995   -0.0012520974742519632
-0.005784210811655889   -0.02408368556410981   -0.001296329339069377
-0.0028451158013759366   -0.0186986402198351   -0.0011882636024726952
-0.005529408595329008   -0.018796706733524626   -0.001230659100864116
-0.005784210811655889   -0.02408368556410981   -0.001296329339069377
-0.0031317074720679777   -0.024053384433263224   -0.0012259631796246897
-0.0028451158013759366   -0.0186986402198351   -0.0011882636024726952
-0.003105826127238374   -0.0240860336758464   -0.0012155961252364711
-0.005529408595329008   -0.018796706733524626   -0.001230659100864116
-0.0028295350979201054   -0.018723103424123446   -0.0011712439572279694
-0.003105826127238374   -0.0240860336758464   -0.0012155961252364711
-0.0028451158013759366   -0.0186986402198351   -0.0011882636024726952
-0.005529408595329008   -0.018796706733524626   -0.001230659100864116
-0.003105826127238374   -0.0240860336758464   -0.0012155961252364711
-0.005752240488877473   -0.02413497694151414   -0.0012950707950269897
-0.005784210811655889   -0.02408368556410981   -0.001296329339069377
-0.005529408595329008   -0.018796706733524626   -0.001230659100864116
-0.003105826127238374   -0.0240860336758464   -0.0012155961252364711
-0.005784210811655889   -0.02408368556410981   -0.001296329339069377
-0.0028451158013759366   -0.0186986402198351   -0.0011882636024726952
-0.0028690274711252782   -0.01864292821928716   -0.0012382857256365738
-0.0031771147993190584   -0.024003219372205425   -0.001263240218376913
-0.00025113838999748475   -0.018633002701876834   -0.0012014345662195692
-0.0028582024856274577   -0.018671944939897985   -0.0012106542174809818
-0.0031771147993190584   -0.024003219372205425   -0.001263240218376913
-0.0006038716493854113   -0.023989029073964295   -0.0012424181101977035
-0.00025113838999748475   -0.018633002701876834   -0.0012014345662195692
-0.0005786921213286186   -0.023994110150462673   -0.0012121347164312036
-0.0028582024856274577   -0.018671944939897985   -0.0012106542174809818
-0.00023629549725179996   -0.018642601385382807   -0.0011780020744204792
-0.0005786921213286186   -0.023994110150462673   -0.0012121347164312036
-0.00025113838999748475   -0.018633002701876834   -0.0012014345662195692
-0.0028582024856274577   -0.018671944939897985   -0.0012106542174809818
-0.0005786921213286186   -0.023994110150462673   -0.0012121347164312036
-0.0031557558428431643   -0.024025808406243354   -0.0012419043620181308
-0.0031771147993190584   -0.024003219372205425   -0.001263240218376913
-0.0028582024856274577   -0.018671944939897985   -0.0012106542174809818
-0.0005786921213286186   -0.023994110150462673   -0.0012121347164312036
-0.0031771147993190584   -0.024003219372205425   -0.001263240218376913
-0.00025113838999748475   -0.018633002701876834   -0.0012014345662195692
-0.0028582024856274577   -0.018671944939897985   -0.0012106542174809818
-0.0031557558428431643   -0.024025808406243354   -0.0012419043620181308
-0.00023629549725179996   -0.018642601385382807   -0.0011780020744204792
-0.0028451158013759366   -0.0186986402198351   -0.0011882636024726952
-0.0031557558428431643   -0.024025808406243354   -0.0012419043620181308
-0.0005786921213286186   -0.023994110150462673   -0.0012121347164312036
-0.00023629549725179996   -0.018642601385382807   -0.0011780020744204792
-0.0005548435616301435   -0.024003798347389527   -0.0011872115779132438
-0.0028451158013759366   -0.0186986402198351   -0.0011882636024726952
-0.0002233425611092246   -0.018649709906427298   -0.0011597687700334132
-0.0005548435616301435   -0.024003798347389527   -0.0011872115779132438
-0.00023629549725179996   -0.018642601385382807   -0.0011780020744204792
-0.0028451158013759366   -0.0186986402198351   -0.0011882636024726952
-0.0005548435616301435   -0.024003798347389527   -0.0011872115779132438
-0.0031317074720679777   -0.024053384433263224   -0.0012259631796246897
-0.0031557558428431643   -0.024025808406243354   -0.0012419043620181308
-0.0028451158013759366   -0.0186986402198351   -0.0011882636024726952
-0.0005548435616301435   -0.024003798347389527   -0.0011872115779132438
-0.0031557558428431643   -0.024025808406243354   -0.0012419043620181308
-0.00023629549725179996   -0.018642601385382807   -0.0011780020744204792
-0.0028451158013759366   -0.0186986402198351   -0.0011882636024726952
-0.0031317074720679777   -0.024053384433263224   -0.0012259631796246897
-0.0002233425611092246   -0.018649709906427298   -0.0011597687700334132
-0.0028295350979201054   -0.018723103424123446   -0.0011712439572279694
-0.0031317074720679777   -0.024053384433263224   -0.0012259631796246897
-0.0005548435616301435   -0.024003798347389527   -0.0011872115779132438
-0.0002233425611092246   -0.018649709906427298   -0.0011597687700334132
-0.0005345000584370007   -0.024018309771763252   -0.0011678338746573176
-0.0028295350979201054   -0.018723103424123446   -0.0011712439572279694
-0.00021326889231909797   -0.01865428914523673   -0.0011469219839209772
-0.0005345000584370007   -0.024018309771763252   -0.0011678338746573176
-0.0002233425611092246   -0.018649709906427298   -0.0011597687700334132
-0.0028295350979201054   -0.018723103424123446   -0.0011712439572279694
-0.0005345000584370007   -0.024018309771763252   -0.0011678338746573176
-0.003105826127238374   -0.0240860336758464   -0.0012155961252364711
-0.0031317074720679777   -0.024053384433263224   -0.0012259631796246897
-0.0028295350979201054   -0.018723103424123446   -0.0011712439572279694
-0.0005345000584370007   -0.024018309771763252   -0.0011678338746573176
-0.0031317074720679777   -0.024053384433263224   -0.0012259631796246897
-0.0002233425611092246   -0.018649709906427298   -0.0011597687700334132
-0.00025113838999748475   -0.018633002701876834   -0.0012014345662195692
-0.0006038716493854113   -0.023989029073964295   -0.0012424181101977035
0.0024464781636348455   -0.018628552874234126   -0.0011997516309688347
-0.00023629549725179996   -0.018642601385382807   -0.0011780020744204792
-0.0006038716493854113   -0.023989029073964295   -0.0012424181101977035
0.002046379539907605   -0.02395755692266429   -0.0012533550563425704
0.0024464781636348455   -0.018628552874234126   -0.0011997516309688347
0.0020784121974383465   -0.023945054232006963   -0.00121426792917795
-0.00023629549725179996   -0.018642601385382807   -0.0011780020744204792
0.0024659570144105938   -0.01861931854582824   -0.0011807246701052735
0.0020784121974383465   -0.023945054232006963   -0.00121426792917795
0.0024464781636348455   -0.018628552874234126   -0.0011997516309688347
-0.00023629549725179996   -0.018642601385382807   -0.0011780020744204792
0.0020784121974383465   -0.023945054232006963   -0.00121426792917795
-0.0005786921213286186   -0.023994110150462673   -0.0012121347164312036
-0.0006038716493854113   -0.023989029073964295   -0.0012424181101977035
-0.00023629549725179996   -0.018642601385382807   -0.0011780020744204792
0.0020784121974383465   -0.023945054232006963   -0.00121426792917795
-0.0006038716493854113   -0.023989029073964295   -0.0012424181101977035
0.0024464781636348455   -0.018628552874234126   -0.0011997516309688347
-0.00023629549725179996   -0.018642601385382807   -0.0011780020744204792
-0.0005786921213286186   -0.023994110150462673   -0.0012121347164312036
0.0024659570144105938   -0.01861931854582824   -0.0011807246701052735
-0.0002233425611092246   -0.018649709906427298   -0.0011597687700334132
-0.0005786921213286186   -0.023994110150462673   -0.0012121347164312036
0.0020784121974383465   -0.023945054232006963   -0.00121426792917795
0.0024659570144105938   -0.01861931854582824   -0.0011807246701052735
0.002108117252751426   -0.023938541347697913   -0.0011805226344082018
-0.0002233425611092246   -0.018649709906427298   -0.0011597687700334132
0.0024793314023370096   -0.018608703014686114   -0.0011667451327438388
0.002108117252751426   -0.023938541347697913   -0.0011805226344082018
0.0024659570144105938   -0.01861931854582824   -0.0011807246701052735
-0.0002233425611092246   -0.018649709906427298   -0.0011597687700334132
0.002108117252751426   -0.023938541347697913   -0.0011805226344082018
-0.0005548435616301435   -0.024003798347389527   -0.0011872115779132438
-0.0005786921213286186   -0.023994110150462673   -0.0012121347164312036
-0.0002233425611092246   -0.018649709906427298   -0.0011597687700334132
0.002108117252751426   -0.023938541347697913   -0.0011805226344082018
-0.0005786921213286186   -0.023994110150462673   -0.0012121347164312036
0.0024659570144105938   -0.01861931854582824   -0.0011807246701052735
-0.0002233425611092246   -0.018649709906427298   -0.0011597687700334132
-0.0005548435616301435   -0.024003798347389527   -0.0011872115779132438
0.0024793314023370096   -0.018608703014686114   -0.0011667451327438388
-0.00021326889231909797   -0.01865428914523673   -0.0011469219839209772
-0.0005548435616301435   -0.024003798347389527   -0.0011872115779132438
0.002108117252751426   -0.023938541347697913   -0.0011805226344082018
0.0024793314023370096   -0.018608703014686114   -0.0011667451327438388
0.0021243534599873592   -0.023934928132240213   -0.0011517703823391856
-0.00021326889231909797   -0.01865428914523673   -0.0011469219839209772
0.002482765539585482   -0.018593270666614422   -0.001157711549429711
0.0021243534599873592   -0.023934928132240213   -0.0011517703823391856
0.0024793314023370096   -0.018608703014686114   -0.0011667451327438388
-0.00021326889231909797   -0.01865428914523673   -0.0011469219839209772
0.0021243534599873592   -0.023934928132240213   -0.0011517703823391856
-0.0005345000584370007   -0.024018309771763252   -0.0011678338746573176
-0.0005548435616301435   -0.024003798347389527   -0.0011872115779132438
-0.00021326889231909797   -0.01865428914523673   -0.0011469219839209772
0.0021243534599873592   -0.023934928132240213   -0.0011517703823391856
-0.0005548435616301435   -0.024003798347389527   -0.0011872115779132438
0.0024793314023370096   -0.018608703014686114   -0.0011667451327438388
0.0024464781636348455   -0.018628552874234126   -0.0011997516309688347
0.002046379539907605   -0.02395755692266429   -0.0012533550563425704
0.005369175933167356   -0.01862215082861254   -0.0012298486666118727
0.0024659570144105938   -0.01861931854582824   -0.0011807246701052735
0.002046379539907605   -0.02395755692266429   -0.0012533550563425704
0.004882613778394781   -0.02390454538838439   -0.0012978118444411627
0.005369175933167356   -0.01862215082861254   -0.0012298486666118727
0.004965716341420122   -0.02387607335146632   -0.001246360433361306
0.0024659570144105938   -0.01861931854582824   -0.0011807246701052735
0.005407001187432788   -0.0185980018825572   -0.0012139420282208213
0.004965716341420122   -0.02387607335146632   -0.001246360433361306
0.005369175933167356   -0.01862215082861254   -0.0012298486666118727
0.0024659570144105938   -0.01861931854582824   -0.0011807246701052735
0.004965716341420122   -0.02387607335146632   -0.001246360433361306
0.0020784121974383465   -0.023945054232006963   -0.00121426792917795
0.002046379539907605   -0.02395755692266429   -0.0012533550563425704
0.0024659570144105938   -0.01861931854582824   -0.0011807246701052735
0.004965716341420122   -0.02387607335146632   -0.001246360433361306
0.002046379539907605   -0.02395755692266429   -0.0012533550563425704
0.005369175933167356   -0.01862215082861254   -0.0012298486666118727
0.0024659570144105938   -0.01861931854582824   -0.0011807246701052735
0.0020784121974383465   -0.023945054232006963   -0.00121426792917795
0.005407001187432788   -0.0185980018825572   -0.0012139420282208213
0.0024793314023370096   -0.018608703014686114   -0.0011667451327438388
0.0020784121974383465   -0.023945054232006963   -0.00121426792917795
0.004965716341420122   -0.02387607335146632   -0.001246360433361306
0.005407001187432788   -0.0185980018825572   -0.0012139420282208213
0.005023072567844541   -0.023862251119021686   -0.0012025270373528878
0.0024793314023370096   -0.018608703014686114   -0.0011667451327438388
0.005427530732481287   -0.018579013453918485   -0.0012057142741767055
0.005023072567844541   -0.023862251119021686   -0.0012025270373528878
0.005407001187432788   -0.0185980018825572   -0.0012139420282208213
0.0024793314023370096   -0.018608703014686114   -0.0011667451327438388
0.005023072567844541   -0.023862251119021686   -0.0012025270373528878
0.002108117252751426   -0.023938541347697913   -0.0011805226344082018
0.0020784121974383465   -0.023945054232006963   -0.00121426792917795
0.0024793314023370096   -0.018608703014686114   -0.0011667451327438388
0.005023072567844541   -0.023862251119021686   -0.0012025270373528878
0.0020784121974383465   -0.023945054232006963   -0.00121426792917795
0.005407001187432788   -0.0185980018825572   -0.0012139420282208213
0.0024793314023370096   -0.018608703014686114   -0.0011667451327438388
0.002108117252751426   -0.023938541347697913   -0.0011805226344082018
0.005427530732481287   -0.018579013453918485   -0.0012057142741767055
0.002482765539585482   -0.018593270666614422   -0.001157711549429711
0.002108117252751426   -0.023938541347697913   -0.0011805226344082018
0.005023072567844541   -0.023862251119021686   -0.0012025270373528878
0.005427530732481287   -0.018579013453918485   -0.0012057142741767055
0.005074335347152747   -0.023847389590102297   -0.0011666305104592464
0.002482765539585482   -0.018593270666614422   -0.001157711549429711
0.005433636141967537   -0.01854880311673798   -0.0012052966755910267
0.005074335347152747   -0.023847389590102297   -0.0011666305104592464
0.005427530732481287   -0.018579013453918485   -0.0012057142741767055
0.002482765539585482   -0.018593270666614422   -0.001157711549429711
0.005074335347152747   -0.023847389590102297   -0.0011666305104592464
0.0021243534599873592   -0.023934928132240213   -0.0011517703823391856
0.002108117252751426   -0.023938541347697913   -0.0011805226344082018
0.002482765539585482   -0.018593270666614422   -0.001157711549429711
0.005074335347152747   -0.023847389590102297   -0.0011666305104592464
0.002108117252751426   -0.023938541347697913   -0.0011805226344082018
0.005427530732481287   -0.018579013453918485   -0.0012057142741767055
-0.008715515727461227   -0.023986310711975194   -0.0013923904756813392
-0.008479067626404376   -0.02903813075657566   -0.0013321297966162123
-0.005825162866939906   -0.024000308338826885   -0.0013147876910086429
-0.008704680288727706   -0.02403919003973958   -0.0013902091215254168
-0.008479067626404376   -0.02903813075657566   -0.0013321297966162123
-0.005800354106203516   -0.029096249226893005   -0.0012855860092208142
-0.005825162866939906   -0.024000308338826885   -0.0013147876910086429
-0.005766287349358998   -0.02912566706732244   -0.0012927130077918592
-0.008704680288727706   -0.02403919003973958   -0.0013902091215254168
-0.005809041887916892   -0.02403980591254983   -0.0013028697142836014
-0.005766287349358998   -0.02912566706732244   -0.0012927130077918592
-0.005825162866939906   -0.024000308338826885   -0.0013147876910086429
-0.008704680288727706   -0.02403919003973958   -0.0013902091215254168
-0.005766287349358998   -0.02912566706732244   -0.0012927130077918592
-0.008417532812284531   -0.02907786222398565   -0.0013658751786531618
-0.008479067626404376   -0.02903813075657566   -0.0013321297966162123
-0.008704680288727706   -0.02403919003973958   -0.0013902091215254168
-0.005766287349358998   -0.02912566706732244   -0.0012927130077918592
-0.008479067626404376   -0.02903813075657566   -0.0013321297966162123
-0.005825162866939906   -0.024000308338826885   -0.0013147876910086429
-0.008704680288727706   -0.02403919003973958   -0.0013902091215254168
-0.008417532812284531   -0.02907786222398565   -0.0013658751786531618
-0.005809041887916892   -0.02403980591254983   -0.0013028697142836014
-0.00867741376105177   -0.02409067668548193   -0.0013960611029798775
-0.008417532812284531   -0.02907786222398565   -0.0013658751786531618
-0.005766287349358998   -0.02912566706732244   -0.0012927130077918592
-0.005809041887916892   -0.02403980591254983   -0.0013028697142836014
-0.005720269311464638   -0.029167695715584977   -0.001305331517271281
-0.00867741376105177   -0.02409067668548193   -0.0013960611029798775
-0.005784210811655889   -0.02408368556410981   -0.001296329339069377
-0.005720269311464638   -0.029167695715584977   -0.001305331517271281
-0.005809041887916892   -0.02403980591254983   -0.0013028697142836014
-0.00867741376105177   -0.02409067668548193   -0.0013960611029798775
-0.005720269311464638   -0.029167695715584977   -0.001305331517271281
-0.008347518445535747   -0.029126809765383215   -0.001408253282261338
-0.008417532812284531   -0.02907786222398565   -0.0013658751786531618
-0.00867741376105177   -0.02409067668548193   -0.0013960611029798775
-0.005720269311464638   -0.029167695715584977   -0.001305331517271281
-0.008417532812284531   -0.02907786222398565   -0.0013658751786531618
-0.005809041887916892   -0.02403980591254983   -0.0013028697142836014
-0.00867741376105177   -0.02409067668548193   -0.0013960611029798775
-0.008347518445535747   -0.029126809765383215   -0.001408253282261338
-0.005784210811655889   -0.02408368556410981   -0.001296329339069377
-0.008633597673626961   -0.024157126842745527   -0.0014103633771359598
-0.008347518445535747   -0.029126809765383215   -0.001408253282261338
-0.005720269311464638   -0.029167695715584977   -0.001305331517271281
-0.005784210811655889   -0.02408368556410981   -0.001296329339069377
-0.0056709399200818664   -0.029224906107840693   -0.0013235961222634656
-0.008633597673626961   -0.024157126842745527   -0.0014103633771359598
-0.005752240488877473   -0.02413497694151414   -0.0012950707950269897
-0.0056709399200818664   -0.029224906107840693   -0.0013235961222634656
-0.005784210811655889   -0.02408368556410981   -0.001296329339069377
-0.008633597673626961   -0.024157126842745527   -0.0014103633771359598
-0.0056709399200818664   -0.029224906107840693   -0.0013235961222634656
-0.008252342267678604   -0.029201412088986883   -0.0014594347799579631
-0.008347518445535747   -0.029126809765383215   -0.001408253282261338
-0.008633597673626961   -0.024157126842745527   -0.0014103633771359598
-0.0056709399200818664   -0.029224906107840693   -0.0013235961222634656
-0.008347518445535747   -0.029126809765383215   -0.001408253282261338
-0.005784210811655889   -0.02408368556410981   -0.001296329339069377
-0.005825162866939906   -0.024000308338826885   -0.0013147876910086429
-0.005800354106203516   -0.029096249226893005   -0.0012855860092208142
-0.0031771147993190584   -0.024003219372205425   -0.001263240218376913
-0.005809041887916892   -0.02403980591254983   -0.0013028697142836014
-0.005800354106203516   -0.029096249226893005   -0.0012855860092208142
-0.003397962477029623   -0.029119061232277765   -0.0012558415407956948
-0.0031771147993190584   -0.024003219372205425   -0.001263240218376913
-0.0033609236060834643   -0.029134291937576048   -0.0012402973398790438
-0.005809041887916892   -0.02403980591254983   -0.0013028697142836014
-0.0031557558428431643   -0.024025808406243354   -0.0012419043620181308
-0.0033609236060834643   -0.029134291937576048   -0.0012402973398790438
-0.0031771147993190584   -0.024003219372205425   -0.001263240218376913
-0.005809041887916892   -0.02403980591254983   -0.0013028697142836014
-0.0033609236060834643   -0.029134291937576048   -0.0012402973398790438
-0.005766287349358998   -0.02912566706732244   -0.0012927130077918592
-0.005800354106203516   -0.029096249226893005   -0.0012855860092208142
-0.005809041887916892   -0.02403980591254983   -0.0013028697142836014
-0.0033609236060834643   -0.029134291937576048   -0.0012402973398790438
-0.005800354106203516   -0.029096249226893005   -0.0012855860092208142
-0.0031771147993190584   -0.024003219372205425   -0.001263240218376913
-0.005809041887916892   -0.02403980591254983   -0.0013028697142836014
-0.005766287349358998   -0.02912566706732244   -0.0012927130077918592
-0.0031557558428431643   -0.024025808406243354   -0.0012419043620181308
-0.005784210811655889   -0.02408368556410981   -0.001296329339069377
-0.005766287349358998   -0.02912566706732244   -0.0012927130077918592
-0.0033609236060834643   -0.029134291937576048   -0.0012402973398790438
-0.0031557558428431643   -0.024025808406243354   -0.0012419043620181308
-0.0033211032977549493   -0.02916163566887066   -0.0012301763503920387
-0.005784210811655889   -0.02408368556410981   -0.001296329339069377
-0.0031317074720679777   -0.024053384433263224   -0.0012259631796246897
-0.0033211032977549493   -0.02916163566887066   -0.0012301763503920387
-0.0031557558428431643   -0.024025808406243354   -0.0012419043620181308
-0.005784210811655889   -0.02408368556410981   -0.001296329339069377
-0.0033211032977549493   -0.02916163566887066   -0.0012301763503920387
-0.005720269311464638   -0.029167695715584977   -0.001305331517271281
-0.005766287349358998   -0.02912566706732244   -0.0012927130077918592
-0.005784210811655889   -0.02408368556410981   -0.001296329339069377
-0.0033211032977549493   -0.02916163566887066   -0.0012301763503920387
-0.005766287349358998   -0.02912566706732244   -0.0012927130077918592
-0.0031557558428431643   -0.024025808406243354   -0.0012419043620181308
-0.005784210811655889   -0.02408368556410981   -0.001296329339069377
-0.005720269311464638   -0.029167695715584977   -0.001305331517271281
-0.0031317074720679777   -0.024053384433263224   -0.0012259631796246897
-0.005752240488877473   -0.02413497694151414   -0.0012950707950269897
-0.005720269311464638   -0.029167695715584977   -0.001305331517271281
-0.0033211032977549493   -0.02916163566887066   -0.0012301763503920387
-0.0031317074720679777   -0.024053384433263224   -0.0012259631796246897
-0.0032801739516837014   -0.02920143216350131   -0.0012257485060819522
-0.005752240488877473   -0.02413497694151414   -0.0012950707950269897
-0.003105826127238374   -0.0240860336758464   -0.0012155961252364711
-0.0032801739516837014   -0.02920143216350131   -0.0012257485060819522
-0.0031317074720679777   -0.024053384433263224   -0.0012259631796246897
-0.005752240488877473   -0.02413497694151414   -0.0012950707950269897
-0.0032801739516837014   -0.02920143216350131   -0.0012257485060819522
-0.0056709399200818664   -0.029224906107840693   -0.0013235961222634656
-0.005720269311464638   -0.029167695715584977   -0.001305331517271281
-0.005752240488877473   -0.02413497694151414   -0.0012950707950269897
-0.0032801739516837014   -0.02920143216350131   -0.0012257485060819522
-0.005720269311464638   -0.029167695715584977   -0.001305331517271281
-0.0031317074720679777   -0.024053384433263224   -0.0012259631796246897
-0.0031771147993190584   -0.024003219372205425   -0.001263240218376913
-0.003397962477029623   -0.029119061232277765   -0.0012558415407956948
-0.0006038716493854113   -0.023989029073964295   -0.0012424181101977035
-0.0031557558428431643   -0.024025808406243354   -0.0012419043620181308
-0.003397962477029623   -0.029119061232277765   -0.0012558415407956948
-0.001068128924008182   -0.029101184138604432   -0.001251238082198143
-0.0006038716493854113   -0.023989029073964295   -0.0012424181101977035
-0.0010271719442728575   -0.029101374346338808   -0.0012138003046707434
-0.0031557558428431643   -0.024025808406243354   -0.0012419043620181308
-0.0005786921213286186   -0.023994110150462673   -0.0012121347164312036
-0.0010271719442728575   -0.029101374346338808   -0.0012138003046707434
-0.0006038716493854113   -0.023989029073964295   -0.0012424181101977035
-0.0031557558428431643   -0.024025808406243354   -0.0012419043620181308
-0.0010271719442728575   -0.029101374346338808   -0.0012138003046707434
-0.0033609236060834643   -0.029134291937576048   -0.0012402973398790438
-0.003397962477029623   -0.029119061232277765   -0.0012558415407956948
-0.0031557558428431643   -0.024025808406243354   -0.0012419043620181308
-0.0010271719442728575   -0.029101374346338808   -0.0012138003046707434
-0.003397962477029623   -0.029119061232277765   -0.0012558415407956948
-0.0006038716493854113   -0.023989029073964295   -0.0012424181101977035
-0.0031557558428431643   -0.024025808406243354   -0.0012419043620181308
-0.0033609236060834643   -0.029134291937576048   -0.0012402973398790438
-0.0005786921213286186   -0.023994110150462673   -0.0012121347164312036
-0.0031317074720679777   -0.024053384433263224   -0.0012259631796246897
-0.0033609236060834643   -0.029134291937576048   -0.0012402973398790438
-0.0010271719442728575   -0.029101374346338808   -0.0012138003046707434
-0.0005786921213286186   -0.023994110150462673   -0.0012121347164312036
-0.0009872726907312823   -0.029112808110393032   -0.0011818023353899318
-0.0031317074720679777   -0.024053384433263224   -0.0012259631796246897
-0.0005548435616301435   -0.024003798347389527   -0.0011872115779132438
-0.0009872726907312823   -0.029112808110393032   -0.0011818023353899318
-0.0005786921213286186   -0.023994110150462673   -0.0012121347164312036
-0.0031317074720679777   -0.024053384433263224   -0.0012259631796246897
-0.0009872726907312823   -0.029112808110393032   -0.0011818023353899318
-0.0033211032977549493   -0.02916163566887066   -0.0012301763503920387
-0.0033609236060834643   -0.029134291937576048   -0.0012402973398790438
-0.0031317074720679777   -0.024053384433263224   -0.0012259631796246897
-0.0009872726907312823   -0.029112808110393032   -0.0011818023353899318
-0.0033609236060834643   -0.029134291937576048   -0.0012402973398790438
-0.0005786921213286186   -0.023994110150462673   -0.0012121347164312036
-0.0031317074720679777   -0.024053384433263224   -0.0012259631796246897
-0.0033211032977549493   -0.02916163566887066   -0.0012301763503920387
-0.0005548435616301435   -0.024003798347389527   -0.0011872115779132438
-0.003105826127238374   -0.0240860336758464   -0.0012155961252364711
-0.0033211032977549493   -0.02916163566887066   -0.0012301763503920387
-0.0009872726907312823   -0.029112808110393032   -0.0011818023353899318
-0.0005548435616301435   -0.024003798347389527   -0.0011872115779132438
-0.0009516276569505461   -0.029136418097083536   -0.0011554318431445361
-0.003105826127238374   -0.0240860336758464   -0.0012155961252364711
-0.0005345000584370007   -0.024018309771763252   -0.0011678338746573176
-0.0009516276569505461   -0.029136418097083536   -0.0011554318431445361
-0.0005548435616301435   -0.024003798347389527   -0.0011872115779132438
-0.003105826127238374   -0.0240860336758464   -0.0012155961252364711
-0.0009516276569505461   -0.029136418097083536   -0.0011554318431445361
-0.0032801739516837014   -0.02920143216350131   -0.0012257485060819522
-0.0033211032977549493   -0.02916163566887066   -0.0012301763503920387
-0.003105826127238374   -0.0240860336758464   -0.0012155961252364711
-0.0009516276569505461   -0.029136418097083536   -0.0011554318431445361
-0.0033211032977549493   -0.02916163566887066   -0.0012301763503920387
-0.0005548435616301435   -0.024003798347389527   -0.0011872115779132438
-0.0006038716493854113   -0.023989029073964295   -0.0012424181101977035
-0.001068128924008182   -0.029101184138604432   -0.001251238082198143
0.002046379539907605   -0.02395755692266429   -0.0012533550563425704
-0.0005786921213286186   -0.023994110150462673   -0.0012121347164312036
-0.001068128924008182   -0.029101184138604432   -0.001251238082198143
0.0013411681921557317   -0.029043737899528924   -0.0012737431474303964
0.002046379539907605   -0.02395755692266429   -0.0012533550563425704
0.0013912628724247757   -0.029027871423422377   -0.0012146016592518506
-0.0005786921213286186   -0.023994110150462673   -0.0012121347164312036
0.0020784121974383465   -0.023945054232006963   -0.00121426792917795
0.0013912628724247757   -0.029027871423422377   -0.0012146016592518506
0.002046379539907605   -0.02395755692266429   -0.0012533550563425704
-0.0005786921213286186   -0.023994110150462673   -0.0012121347164312036
0.0013912628724247757   -0.029027871423422377   -0.0012146016592518506
-0.0010271719442728575   -0.029101374346338808   -0.0012138003046707434
-0.001068128924008182   -0.029101184138604432   -0.001251238082198143
-0.0005786921213286186   -0.023994110150462673   -0.0012121347164312036
0.0013912628724247757   -0.029027871423422377   -0.0012146016592518506
-0.001068128924008182   -0.029101184138604432   -0.001251238082198143
0.002046379539907605   -0.02395755692266429   -0.0012533550563425704
-0.0005786921213286186   -0.023994110150462673   -0.0012121347164312036
-0.0010271719442728575   -0.029101374346338808   -0.0012138003046707434
0.0020784121974383465   -0.023945054232006963   -0.00121426792917795
-0.0005548435616301435   -0.024003798347389527   -0.0011872115779132438
-0.0010271719442728575   -0.029101374346338808   -0.0012138003046707434
0.0013912628724247757   -0.029027871423422377   -0.0012146016592518506
0.0020784121974383465   -0.023945054232006963   -0.00121426792917795
0.0014426909838130538   -0.029024858302598454   -0.0011612440527958505
-0.0005548435616301435   -0.024003798347389527   -0.0011872115779132438
0.002108117252751426   -0.023938541347697913   -0.0011805226344082018
0.0014426909838130538   -0.029024858302598454   -0.0011612440527958505
0.0020784121974383465   -0.023945054232006963   -0.00121426792917795
-0.0005548435616301435   -0.024003798347389527   -0.0011872115779132438
0.0014426909838130538   -0.029024858302598454   -0.0011612440527958505
-0.0009872726907312823   -0.029112808110393032   -0.0011818023353899318
-0.0010271719442728575   -0.029101374346338808   -0.0012138003046707434
-0.0005548435616301435   -0.024003798347389527   -0.0011872115779132438
0.0014426909838130538   -0.029024858302598454   -0.0011612440527958505
-0.0010271719442728575   -0.029101374346338808   -0.0012138003046707434
0.0020784121974383465   -0.023945054232006963   -0.00121426792917795
-0.0005548435616301435   -0.024003798347389527   -0.0011872115779132438
-0.0009872726907312823   -0.029112808110393032   -0.0011818023353899318
0.002108117252751426   -0.023938541347697913   -0.0011805226344082018
-0.0005345000584370007   -0.024018309771763252   -0.0011678338746573176
-0.0009872726907312823   -0.029112808110393032   -0.0011818023353899318
0.0014426909838130538   -0.029024858302598454   -0.0011612440527958505
0.002108117252751426   -0.023938541347697913   -0.0011805226344082018
0.0014770002097797125   -0.02903233988022308   -0.0011129062362197958
-0.0005345000584370007   -0.024018309771763252   -0.0011678338746573176
0.0021243534599873592   -0.023934928132240213   -0.0011517703823391856
0.0014770002097797125   -0.02903233988022308   -0.0011129062362197958
0.002108117252751426   -0.023938541347697913   -0.0011805226344082018
-0.0005345000584370007   -0.024018309771763252   -0.0011678338746573176
0.0014770002097797125   -0.02903233988022308   -0.0011129062362197958
-0.0009516276569505461   -0.029136418097083536   -0.0011554318431445361
-0.0009872726907312823   -0.029112808110393032   -0.0011818023353899318
-0.0005345000584370007   -0.024018309771763252   -0.0011678338746573176
0.0014770002097797125   -0.02903233988022308   -0.0011129062362197958
-0.0009872726907312823   -0.029112808110393032   -0.0011818023353899318
0.002108117252751426   -0.023938541347697913   -0.0011805226344082018
0.002046379539907605   -0.02395755692266429   -0.0012533550563425704
0.0013411681921557317   -0.029043737899528924   -0.0012737431474303964
0.004882613778394781   -0.02390454538838439   -0.0012978118444411627
0.0020784121974383465   -0.023945054232006963   -0.00121426792917795
0.0013411681921557317   -0.029043737899528924   -0.0012737431474303964
0.00390230639380587   -0.028944923265551484   -0.0013312548626816943
0.004882613778394781   -0.02390454538838439   -0.0012978118444411627
0.004035653628047878   -0.02891235762868708   -0.0012451055005986175
0.0020784121974383465   -0.023945054232006963   -0.00121426792917795
0.004965716341420122   -0.02387607335146632   -0.001246360433361306
0.004035653628047878   -0.02891235762868708   -0.0012451055005986175
0.004882613778394781   -0.02390454538838439   -0.0012978118444411627
0.0020784121974383465   -0.023945054232006963   -0.00121426792917795
0.004035653628047878   -0.02891235762868708   -0.0012451055005986175
0.0013912628724247757   -0.029027871423422377   -0.0012146016592518506
0.0013411681921557317   -0.029043737899528924   -0.0012737431474303964
0.0020784121974383465   -0.023945054232006963   -0.00121426792917795
0.004035653628047878   -0.02891235762868708   -0.0012451055005986175
0.0013411681921557317   -0.029043737899528924   -0.0012737431474303964
0.004882613778394781   -0.02390454538838439   -0.0012978118444411627
0.0020784121974383465   -0.023945054232006963   -0.00121426792917795
0.0013912628724247757   -0.029027871423422377   -0.0012146016592518506
0.004965716341420122   -0.02387607335146632   -0.001246360433361306
0.002108117252751426   -0.023938541347697913   -0.0011805226344082018
0.0013912628724247757   -0.029027871423422377   -0.0012146016592518506
0.004035653628047878   -0.02891235762868708   -0.0012451055005986175
0.004965716341420122   -0.02387607335146632   -0.001246360433361306
0.004134533487823612   -0.02890335150450859   -0.0011666572085598929
0.002108117252751426   -0.023938541347697913   -0.0011805226344082018
0.005023072567844541   -0.023862251119021686   -0.0012025270373528878
0.004134533487823612   -0.02890335150450859   -0.0011666572085598929
0.004965716341420122   -0.02387607335146632   -0.001246360433361306
0.002108117252751426   -0.023938541347697913   -0.0011805226344082018
0.004134533487823612   -0.02890335150450859   -0.0011666572085598929
0.0014426909838130538   -0.029024858302598454   -0.0011612440527958505
0.0013912628724247757   -0.029027871423422377   -0.0012146016592518506
0.002108117252751426   -0.023938541347697913   -0.0011805226344082018
0.004134533487823612   -0.02890335150450859   -0.0011666572085598929
0.0013912628724247757   -0.029027871423422377   -0.0012146016592518506
0.004965716341420122   -0.02387607335146632   -0.001246360433361306
0.002108117252751426   -0.023938541347697913   -0.0011805226344082018
0.0014426909838130538   -0.029024858302598454   -0.0011612440527958505
0.005023072567844541   -0.023862251119021686   -0.0012025270373528878
0.0021243534599873592   -0.023934928132240213   -0.0011517703823391856
0.0014426909838130538   -0.029024858302598454   -0.0011612440527958505
0.004134533487823612   -0.02890335150450859   -0.0011666572085598929
0.005023072567844541   -0.023862251119021686   -0.0012025270373528878
0.004235028377403278   -0.028903316843780787   -0.0010962677266288976
0.0021243534599873592   -0.023934928132240213   -0.0011517703823391856
0.005074335347152747   -0.023847389590102297   -0.0011666305104592464
0.004235028377403278   -0.028903316843780787   -0.0010962677266288976
0.005023072567844541   -0.023862251119021686   -0.0012025270373528878
0.0021243534599873592   -0.023934928132240213   -0.0011517703823391856
0.004235028377403278   -0.028903316843780787   -0.0010962677266288976
0.0014770002097797125   -0.02903233988022308   -0.0011129062362197958
0.0014426909838130538   -0.029024858302598454   -0.0011612440527958505
0.0021243534599873592   -0.023934928132240213   -0.0011517703823391856
0.004235028377403278   -0.028903316843780787   -0.0010962677266288976
0.0014426909838130538   -0.029024858302598454   -0.0011612440527958505
0.005023072567844541   -0.023862251119021686   -0.0012025270373528878
-0.008479067626404376   -0.02903813075657566   -0.0013321297966162123
-0.007739136806260784   -0.03350351221843918   -0.0012429205183431778
-0.005800354106203516   -0.029096249226893005   -0.0012855860092208142
-0.008417532812284531   -0.02907786222398565   -0.0013658751786531618
-0.007739136806260784   -0.03350351221843918   -0.0012429205183431778
-0.005485832977103871   -0.03360797386786189   -0.0012355540886524593
-0.005800354106203516   -0.029096249226893005   -0.0012855860092208142
-0.005429908282188901   -0.033623057407430997   -0.0012603110855570557
-0.008417532812284531   -0.02907786222398565   -0.0013658751786531618
-0.005766287349358998   -0.02912566706732244   -0.0012927130077918592
-0.005429908282188901   -0.033623057407430997   -0.0012603110855570557
-0.005800354106203516   -0.029096249226893005   -0.0012855860092208142
-0.008417532812284531   -0.02907786222398565   -0.0013658751786531618
-0.005429908282188901   -0.033623057407430997   -0.0012603110855570557
-0.007622364727093371   -0.03352586439265653   -0.0013123617523113822
-0.007739136806260784   -0.03350351221843918   -0.0012429205183431778
-0.008417532812284531   -0.02907786222398565   -0.0013658751786531618
-0.005429908282188901   -0.033623057407430997   -0.0012603110855570557
-0.007739136806260784   -0.03350351221843918   -0.0012429205183431778
-0.005800354106203516   -0.029096249226893005   -0.0012855860092208142
-0.008417532812284531   -0.02907786222398565   -0.0013658751786531618
-0.007622364727093371   -0.03352586439265653   -0.0013123617523113822
-0.005766287349358998   -0.02912566706732244   -0.0012927130077918592
-0.008347518445535747   -0.029126809765383215   -0.001408253282261338
-0.007622364727093371   -0.03352586439265653   -0.0013123617523113822
-0.005429908282188901   -0.033623057407430997   -0.0012603110855570557
-0.005766287349358998   -0.02912566706732244   -0.0012927130077918592
-0.00535965323559144   -0.033659323397786566   -0.0012906200072013085
-0.008347518445535747   -0.029126809765383215   -0.001408253282261338
-0.005720269311464638   -0.029167695715584977   -0.001305331517271281
-0.00535965323559144   -0.033659323397786566   -0.0012906200072013085
-0.005766287349358998   -0.02912566706732244   -0.0012927130077918592
-0.008347518445535747   -0.029126809765383215   -0.001408253282261338
-0.00535965323559144   -0.033659323397786566   -0.0012906200072013085
-0.007506041368901478   -0.03356843075627903   -0.0013908412552877157
-0.007622364727093371   -0.03352586439265653   -0.0013123617523113822
-0.008347518445535747   -0.029126809765383215   -0.001408253282261338
-0.00535965323559144   -0.033659323397786566   -0.0012906200072013085
-0.007622364727093371   -0.03352586439265653   -0.0013123617523113822
-0.005766287349358998   -0.02912566706732244   -0.0012927130077918592
-0.008347518445535747   -0.029126809765383215   -0.001408253282261338
-0.007506041368901478   -0.03356843075627903   -0.0013908412552877157
-0.005720269311464638   -0.029167695715584977   -0.001305331517271281
-0.008252342267678604   -0.029201412088986883   -0.0014594347799579631
-0.007506041368901478   -0.03356843075627903   -0.0013908412552877157
-0.00535965323559144   -0.033659323397786566   -0.0012906200072013085
-0.005720269311464638   -0.029167695715584977   -0.001305331517271281
-0.0052903628587269835   -0.03371883432380257   -0.0013264282688699128
-0.008252342267678604   -0.029201412088986883   -0.0014594347799579631
-0.0056709399200818664   -0.029224906107840693   -0.0013235961222634656
-0.0052903628587269835   -0.03371883432380257   -0.0013264282688699128
-0.005720269311464638   -0.029167695715584977   -0.001305331517271281
-0.008252342267678604   -0.029201412088986883   -0.0014594347799579631
-0.0052903628587269835   -0.03371883432380257   -0.0013264282688699128
-0.0073570819938589774   -0.03364780577636133   -0.001478204501744773
-0.007506041368901478   -0.03356843075627903   -0.0013908412552877157
-0.008252342267678604   -0.029201412088986883   -0.0014594347799579631
-0.0052903628587269835   -0.03371883432380257   -0.0013264282688699128
-0.007506041368901478   -0.03356843075627903   -0.0013908412552877157
-0.005720269311464638   -0.029167695715584977   -0.001305331517271281
-0.005800354106203516   -0.029096249226893005   -0.0012855860092208142
-0.005485832977103871   -0.03360797386786189   -0.0012355540886524593
-0.003397962477029623   -0.029119061232277765   -0.0012558415407956948
-0.005766287349358998   -0.02912566706732244   -0.0012927130077918592
-0.005485832977103871   -0.03360797386786189   -0.0012355540886524593
-0.003532877930848162   -0.03365661536850372   -0.0012327198015638827
-0.003397962477029623   -0.029119061232277765   -0.0012558415407956948
-0.003475554322419153   -0.033661516724804136   -0.0012215698774266284
-0.005766287349358998   -0.02912566706732244   -0.0012927130077918592
-0.0033609236060834643   -0.029134291937576048   -0.0012402973398790438
-0.003475554322419153   -0.033661516724804136   -0.0012215698774266284
-0.003397962477029623   -0.029119061232277765   -0.0012558415407956948
-0.005766287349358998   -0.02912566706732244   -0.0012927130077918592
-0.003475554322419153   -0.033661516724804136   -0.0012215698774266284
-0.005429908282188901   -0.033623057407430997   -0.0012603110855570557
-0.005485832977103871   -0.03360797386786189   -0.0012355540886524593
-0.005766287349358998   -0.02912566706732244   -0.0012927130077918592
-0.003475554322419153   -0.033661516724804136   -0.0012215698774266284
-0.005485832977103871   -0.03360797386786189   -0.0012355540886524593
-0.003397962477029623   -0.029119061232277765   -0.0012558415407956948
-0.005766287349358998   -0.02912566706732244   -0.0012927130077918592
-0.005429908282188901   -0.033623057407430997   -0.0012603110855570557
-0.0033609236060834643   -0.029134291937576048   -0.0012402973398790438
-0.005720269311464638   -0.029167695715584977   -0.001305331517271281
-0.005429908282188901   -0.033623057407430997   -0.0012603110855570557
-0.003475554322419153   -0.033661516724804136   -0.0012215698774266284
-0.0033609236060834643   -0.029134291937576048   -0.0012402973398790438
-0.0034163681748619152   -0.03368534444037165   -0.001215807195756393
-0.005720269311464638   -0.029167695715584977   -0.001305331517271281
-0.0033211032977549493   -0.02916163566887066   -0.0012301763503920387
-0.0034163681748619152   -0.03368534444037165   -0.001215807195756393
-0.0033609236060834643   -0.029134291937576048   -0.0012402973398790438
-0.005720269311464638   -0.029167695715584977   -0.001305331517271281
-0.0034163681748619152   -0.03368534444037165   -0.001215807195756393
-0.00535965323559144   -0.033659323397786566   -0.0012906200072013085
-0.005429908282188901   -0.033623057407430997   -0.0012603110855570557
-0.005720269311464638   -0.029167695715584977   -0.001305331517271281
-0.0034163681748619152   -0.03368534444037165   -0.001215807195756393
-0.005429908282188901   -0.033623057407430997   -0.0012603110855570557
-0.0033609236060834643   -0.029134291937576048   -0.0012402973398790438
-0.005720269311464638   -0.029167695715584977   -0.001305331517271281
-0.00535965323559144   -0.033659323397786566   -0.0012906200072013085
-0.0033211032977549493   -0.02916163566887066   -0.0012301763503920387
-0.0056709399200818664   -0.029224906107840693   -0.0013235961222634656
-0.00535965323559144   -0.033659323397786566   -0.0012906200072013085
-0.0034163681748619152   -0.03368534444037165   -0.001215807195756393
-0.0033211032977549493   -0.02916163566887066   -0.0012301763503920387
-0.0033572674394585474   -0.03372918660317957   -0.0012153714449559456
-0.0056709399200818664   -0.029224906107840693   -0.0013235961222634656
-0.0032801739516837014   -0.02920143216350131   -0.0012257485060819522
-0.0033572674394585474   -0.03372918660317957   -0.0012153714449559456
-0.0033211032977549493   -0.02916163566887066   -0.0012301763503920387
-0.0056709399200818664   -0.029224906107840693   -0.0013235961222634656
-0.0033572674394585474   -0.03372918660317957   -0.0012153714449559456
-0.0052903628587269835   -0.03371883432380257   -0.0013264282688699128
-0.00535965323559144   -0.033659323397786566   -0.0012906200072013085
-0.0056709399200818664   -0.029224906107840693   -0.0013235961222634656
-0.0033572674394585474   -0.03372918660317957   -0.0012153714449559456
-0.00535965323559144   -0.033659323397786566   -0.0012906200072013085
-0.0033211032977549493   -0.02916163566887066   -0.0012301763503920387
-0.003397962477029623   -0.029119061232277765   -0.0012558415407956948
-0.003532877930848162   -0.03365661536850372   -0.0012327198015638827
-0.001068128924008182   -0.029101184138604432   -0.001251238082198143
-0.0033609236060834643   -0.029134291937576048   -0.0012402973398790438
-0.003532877930848162   -0.03365661536850372   -0.0012327198015638827
-0.001644561095247721   -0.033647211542541675   -0.0012469584618097912
-0.001068128924008182   -0.029101184138604432   -0.001251238082198143
-0.0015817774739995346   -0.03364065567578859   -0.0012011555745169405
-0.0033609236060834643   -0.029134291937576048   -0.0012402973398790438
-0.0010271719442728575   -0.029101374346338808   -0.0012138003046707434
-0.0015817774739995346   -0.03364065567578859   -0.0012011555745169405
-0.001068128924008182   -0.029101184138604432   -0.001251238082198143
-0.0033609236060834643   -0.029134291937576048   -0.0012402973398790438
-0.0015817774739995346   -0.03364065567578859   -0.0012011555745169405
-0.003475554322419153   -0.033661516724804136   -0.0012215698774266284
-0.003532877930848162   -0.03365661536850372   -0.0012327198015638827
-0.0033609236060834643   -0.029134291937576048   -0.0012402973398790438
-0.0015817774739995346   -0.03364065567578859   -0.0012011555745169405
-0.003532877930848162   -0.03365661536850372   -0.0012327198015638827
-0.001068128924008182   -0.029101184138604432   -0.001251238082198143
-0.0033609236060834643   -0.029134291937576048   -0.0012402973398790438
-0.003475554322419153   -0.033661516724804136   -0.0012215698774266284
-0.0010271719442728575   -0.029101374346338808   -0.0012138003046707434
-0.0033211032977549493   -0.02916163566887066   -0.0012301763503920387
-0.003475554322419153   -0.033661516724804136   -0.0012215698774266284
-0.0015817774739995346   -0.03364065567578859   -0.0012011555745169405
-0.0010271719442728575   -0.029101374346338808   -0.0012138003046707434
-0.0015208138197230331   -0.03365124651884711   -0.0011610964847773248
-0.0033211032977549493   -0.02916163566887066   -0.0012301763503920387
-0.0009872726907312823   -0.029112808110393032   -0.0011818023353899318
-0.0015208138197230331   -0.03365124651884711   -0.0011610964847773248
-0.0010271719442728575   -0.029101374346338808   -0.0012138003046707434
-0.0033211032977549493   -0.02916163566887066   -0.0012301763503920387
-0.0015208138197230331   -0.03365124651884711   -0.0011610964847773248
-0.0034163681748619152   -0.03368534444037165   -0.001215807195756393
-0.003475554322419153   -0.033661516724804136   -0.0012215698774266284
-0.0033211032977549493   -0.02916163566887066   -0.0012301763503920387
-0.0015208138197230331   -0.03365124651884711   -0.0011610964847773248
-0.003475554322419153   -0.033661516724804136   -0.0012215698774266284
-0.0010271719442728575   -0.029101374346338808   -0.0012138003046707434
-0.0033211032977549493   -0.02916163566887066   -0.0012301763503920387
-0.0034163681748619152   -0.03368534444037165   -0.001215807195756393
-0.0009872726907312823   -0.029112808110393032   -0.0011818023353899318
-0.0032801739516837014   -0.02920143216350131   -0.0012257485060819522
-0.0034163681748619152   -0.03368534444037165   -0.001215807195756393
-0.0015208138197230331   -0.03365124651884711   -0.0011610964847773248
-0.0009872726907312823   -0.029112808110393032   -0.0011818023353899318
-0.0014657062396882887   -0.03368141464881712   -0.0011262883954618911
-0.0032801739516837014   -0.02920143216350131   -0.0012257485060819522
-0.0009516276569505461   -0.029136418097083536   -0.0011554318431445361
-0.0014657062396882887   -0.03368141464881712   -0.0011262883954618911
-0.0009872726907312823   -0.029112808110393032   -0.0011818023353899318
-0.0032801739516837014   -0.02920143216350131   -0.0012257485060819522
-0.0014657062396882887   -0.03368141464881712   -0.0011262883954618911
-0.0033572674394585474   -0.03372918660317957   -0.0012153714449559456
-0.0034163681748619152   -0.03368534444037165   -0.001215807195756393
-0.0032801739516837014   -0.02920143216350131   -0.0012257485060819522
-0.0014657062396882887   -0.03368141464881712   -0.0011262883954618911
-0.0034163681748619152   -0.03368534444037165   -0.001215807195756393
-0.0009872726907312823   -0.029112808110393032   -0.0011818023353899318
-0.001068128924008182   -0.029101184138604432   -0.001251238082198143
-0.001644561095247721   -0.033647211542541675   -0.0012469584618097912
0.0013411681921557317   -0.029043737899528924   -0.0012737431474303964
-0.0010271719442728575   -0.029101374346338808   -0.0012138003046707434
-0.001644561095247721   -0.033647211542541675   -0.0012469584618097912
0.0003308675131893746   -0.0335776744063264   -0.0012813064683576325
0.0013411681921557317   -0.029043737899528924   -0.0012737431474303964
0.00040730366143322706   -0.03355660776071129   -0.0012009525441079325
-0.0010271719442728575   -0.029101374346338808   -0.0012138003046707434
0.0013912628724247757   -0.029027871423422377   -0.0012146016592518506
0.00040730366143322706   -0.03355660776071129   -0.0012009525441079325
0.0013411681921557317   -0.029043737899528924   -0.0012737431474303964
-0.0010271719442728575   -0.029101374346338808   -0.0012138003046707434
0.00040730366143322706   -0.03355660776071129   -0.0012009525441079325
-0.0015817774739995346   -0.03364065567578859   -0.0012011555745169405
-0.001644561095247721   -0.033647211542541675   -0.0012469584618097912
-0.0010271719442728575   -0.029101374346338808   -0.0012138003046707434
0.00040730366143322706   -0.03355660776071129   -0.0012009525441079325
-0.001644561095247721   -0.033647211542541675   -0.0012469584618097912
0.0013411681921557317   -0.029043737899528924   -0.0012737431474303964
-0.0010271719442728575   -0.029101374346338808   -0.0012138003046707434
-0.0015817774739995346   -0.03364065567578859   -0.0012011555745169405
0.0013912628724247757   -0.029027871423422377   -0.0012146016592518506
-0.0009872726907312823   -0.029112808110393032   -0.0011818023353899318
-0.0015817774739995346   -0.03364065567578859   -0.0012011555745169405
0.00040730366143322706   -0.03355660776071129   -0.0012009525441079325
0.0013912628724247757   -0.029027871423422377   -0.0012146016592518506
0.00048795380939359886   -0.03355470779839539   -0.001127871527941907
-0.0009872726907312823   -0.029112808110393032   -0.0011818023353899318
0.0014426909838130538   -0.029024858302598454   -0.0011612440527958505
0.00048795380939359886   -0.03355470779839539   -0.001127871527941907
0.0013912628724247757   -0.029027871423422377   -0.0012146016592518506
-0.0009872726907312823   -0.029112808110393032   -0.0011818023353899318
0.00048795380939359886   -0.03355470779839539   -0.001127871527941907
-0.0015208138197230331   -0.03365124651884711   -0.0011610964847773248
-0.0015817774739995346   -0.03364065567578859   -0.0012011555745169405
-0.0009872726907312823   -0.029112808110393032   -0.0011818023353899318
0.00048795380939359886   -0.03355470779839539   -0.001127871527941907
-0.0015817774739995346   -0.03364065567578859   -0.0012011555745169405
0.0013912628724247757   -0.029027871423422377   -0.0012146016592518506
-0.0009872726907312823   -0.029112808110393032   -0.0011818023353899318
-0.0015208138197230331   -0.03365124651884711   -0.0011610964847773248
0.0014426909838130538   -0.029024858302598454   -0.0011612440527958505
-0.0009516276569505461   -0.029136418097083536   -0.0011554318431445361
-0.0015208138197230331   -0.03365124651884711   -0.0011610964847773248
0.00048795380939359886   -0.03355470779839539   -0.001127871527941907
0.0014426909838130538   -0.029024858302598454   -0.0011612440527958505
0.0005469361555712829   -0.033571088115821775   -0.0010597945180278385
-0.0009516276569505461   -0.029136418097083536   -0.0011554318431445361
0.0014770002097797125   -0.02903233988022308   -0.0011129062362197958
0.0005469361555712829   -0.033571088115821775   -0.0010597945180278385
0.0014426909838130538   -0.029024858302598454   -0.0011612440527958505
-0.0009516276569505461   -0.029136418097083536   -0.0011554318431445361
0.0005469361555712829   -0.033571088115821775   -0.0010597945180278385
-0.0014657062396882887   -0.03368141464881712   -0.0011262883954618911
-0.0015208138197230331   -0.03365124651884711   -0.0011610964847773248
-0.0009516276569505461   -0.029136418097083536   -0.0011554318431445361
0.0005469361555712829   -0.033571088115821775   -0.0010597945180278385
-0.0015208138197230331   -0.03365124651884711   -0.0011610964847773248
0.0014426909838130538   -0.029024858302598454   -0.0011612440527958505
0.0013411681921557317   -0.029043737899528924   -0.0012737431474303964
0.0003308675131893746   -0.0335776744063264   -0.0012813064683576325
0.00390230639380587   -0.028944923265551484   -0.0013312548626816943
0.0013912628724247757   -0.029027871423422377   -0.0012146016592518506
0.0003308675131893746   -0.0335776744063264   -0.0012813064683576325
0.0024342783190096006   -0.03344145241803069   -0.0013542720524005662
0.00390230639380587   -0.028944923265551484   -0.0013312548626816943
0.0026286458461660554   -0.03340109986110889   -0.0012312484293728553
0.0013912628724247757   -0.029027871423422377   -0.0012146016592518506
0.004035653628047878   -0.02891235762868708   -0.0012451055005986175
0.0026286458461660554   -0.03340109986110889   -0.0012312484293728553
0.00390230639380587   -0.028944923265551484   -0.0013312548626816943
0.0013912628724247757   -0.029027871423422377   -0.0012146016592518506
0.0026286458461660554   -0.03340109986110889   -0.0012312484293728553
0.00040730366143322706   -0.03355660776071129   -0.0012009525441079325
0.0003308675131893746   -0.0335776744063264   -0.0012813064683576325
0.0013912628724247757   -0.029027871423422377   -0.0012146016592518506
0.0026286458461660554   -0.03340109986110889   -0.0012312484293728553
0.0003308675131893746   -0.0335776744063264   -0.0012813064683576325
0.00390230639380587   -0.028944923265551484   -0.0013312548626816943
0.0013912628724247757   -0.029027871423422377   -0.0012146016592518506
0.00040730366143322706   -0.03355660776071129   -0.0012009525441079325
0.004035653628047878   -0.02891235762868708   -0.0012451055005986175
0.0014426909838130538   -0.029024858302598454   -0.0011612440527958505
0.00040730366143322706   -0.03355660776071129   -0.0012009525441079325
0.0026286458461660554   -0.03340109986110889   -0.0012312484293728553
0.004035653628047878   -0.02891235762868708   -0.0012451055005986175
0.0027777283895320556   -0.033394109548946734   -0.0011172470899422171
0.0014426909838130538   -0.029024858302598454   -0.0011612440527958505
0.004134533487823612   -0.02890335150450859   -0.0011666572085598929
0.0027777283895320556   -0.033394109548946734   -0.0011172470899422171
0.004035653628047878   -0.02891235762868708   -0.0012451055005986175
0.0014426909838130538   -0.029024858302598454   -0.0011612440527958505
0.0027777283895320556   -0.033394109548946734   -0.0011172470899422171
0.00048795380939359886   -0.03355470779839539   -0.001127871527941907
0.00040730366143322706   -0.03355660776071129   -0.0012009525441079325
0.0014426909838130538   -0.029024858302598454   -0.0011612440527958505
0.0027777283895320556   -0.033394109548946734   -0.0011172470899422171
0.00040730366143322706   -0.03355660776071129   -0.0012009525441079325
0.004035653628047878   -0.02891235762868708   -0.0012451055005986175
0.0014426909838130538   -0.029024858302598454   -0.0011612440527958505
0.00048795380939359886   -0.03355470779839539   -0.001127871527941907
0.004134533487823612   -0.02890335150450859   -0.0011666572085598929
0.0014770002097797125   -0.02903233988022308   -0.0011129062362197958
0.00048795380939359886   -0.03355470779839539   -0.001127871527941907
0.0027777283895320556   -0.033394109548946734   -0.0011172470899422171
0.004134533487823612   -0.02890335150450859   -0.0011666572085598929
0.0029325145219616907   -0.03340619907095294   -0.0010131935165545885
0.0014770002097797125   -0.02903233988022308   -0.0011129062362197958
0.004235028377403278   -0.028903316843780787   -0.0010962677266288976
0.0029325145219616907   -0.03340619907095294   -0.0010131935165545885
0.004134533487823612   -0.02890335150450859   -0.0011666572085598929
0.0014770002097797125   -0.02903233988022308   -0.0011129062362197958
0.0029325145219616907   -0.03340619907095294   -0.0010131935165545885
0.0005469361555712829   -0.033571088115821775   -0.0010597945180278385
0.00048795380939359886   -0.03355470779839539   -0.001127871527941907
0.0014770002097797125   -0.02903233988022308   -0.0011129062362197958
0.0029325145219616907   -0.03340619907095294   -0.0010131935165545885
0.00048795380939359886   -0.03355470779839539   -0.001127871527941907
0.004134533487823612   -0.02890335150450859   -0.0011666572085598929
-0.007739136806260784   -0.03350351221843918   -0.0012429205183431778
-0.006488624769746347   -0.03700645043313655   -0.0011282400639686186
-0.005485832977103871   -0.03360797386786189   -0.0012355540886524593
-0.007622364727093371   -0.03352586439265653   -0.0013123617523113822
-0.006488624769746347   -0.03700645043313655   -0.0011282400639686186
-0.004884232502953248   -0.03716070592454738   -0.0011744172895624824
-0.005485832977103871   -0.03360797386786189   -0.0012355540886524593
-0.004804112391085499   -0.037152907242393444   -0.0012124940466693565
-0.007622364727093371   -0.03352586439265653   -0.0013123617523113822
-0.005429908282188901   -0.033623057407430997   -0.0012603110855570557
-0.004804112391085499   -0.037152907242393444   -0.0012124940466693565
-0.005485832977103871   -0.03360797386786189   -0.0012355540886524593
-0.007622364727093371   -0.03352586439265653   -0.0013123617523113822
-0.004804112391085499   -0.037152907242393444   -0.0012124940466693565
-0.006315270110839063   -0.03700220449981185   -0.0012308765326199762
-0.006488624769746347   -0.03700645043313655   -0.0011282400639686186
-0.007622364727093371   -0.03352586439265653   -0.0013123617523113822
-0.004804112391085499   -0.037152907242393444   -0.0012124940466693565
-0.006488624769746347   -0.03700645043313655   -0.0011282400639686186
-0.005485832977103871   -0.03360797386786189   -0.0012355540886524593
-0.007622364727093371   -0.03352586439265653   -0.0013123617523113822
-0.006315270110839063   -0.03700220449981185   -0.0012308765326199762
-0.005429908282188901   -0.033623057407430997   -0.0012603110855570557
-0.007506041368901478   -0.03356843075627903   -0.0013908412552877157
-0.006315270110839063   -0.03700220449981185   -0.0012308765326199762
-0.004804112391085499   -0.037152907242393444   -0.0012124940466693565
-0.005429908282188901   -0.033623057407430997   -0.0012603110855570557
-0.004709776965809773   -0.03717536767201882   -0.0012562240659555353
-0.007506041368901478   -0.03356843075627903   -0.0013908412552877157
-0.00535965323559144   -0.033659323397786566   -0.0012906200072013085
-0.004709776965809773   -0.03717536767201882   -0.0012562240659555353
-0.005429908282188901   -0.033623057407430997   -0.0012603110855570557
-0.007506041368901478   -0.03356843075627903   -0.0013908412552877157
-0.004709776965809773   -0.03717536767201882   -0.0012562240659555353
-0.006155578291940571   -0.03702991362182908   -0.0013414823459463677
-0.006315270110839063   -0.03700220449981185   -0.0012308765326199762
-0.007506041368901478   -0.03356843075627903   -0.0013908412552877157
-0.004709776965809773   -0.03717536767201882   -0.0012562240659555353
-0.006315270110839063   -0.03700220449981185   -0.0012308765326199762
-0.005429908282188901   -0.033623057407430997   -0.0012603110855570557
-0.007506041368901478   -0.03356843075627903   -0.0013908412552877157
-0.006155578291940571   -0.03702991362182908   -0.0013414823459463677
-0.00535965323559144   -0.033659323397786566   -0.0012906200072013085
-0.0073570819938589774   -0.03364780577636133   -0.001478204501744773
-0.006155578291940571   -0.03702991362182908   -0.0013414823459463677
-0.004709776965809773   -0.03717536767201882   -0.0012562240659555353
-0.00535965323559144   -0.033659323397786566   -0.0012906200072013085
-0.004624201839460226   -0.03722861438105825   -0.001305247876774918
-0.0073570819938589774   -0.03364780577636133   -0.001478204501744773
-0.0052903628587269835   -0.03371883432380257   -0.0013264282688699128
-0.004624201839460226   -0.03722861438105825   -0.001305247876774918
-0.00535965323559144   -0.033659323397786566   -0.0012906200072013085
-0.0073570819938589774   -0.03364780577636133   -0.001478204501744773
-0.004624201839460226   -0.03722861438105825   -0.001305247876774918
-0.005960736314151844   -0.03710357203859793   -0.001459599705821398
-0.006155578291940571   -0.03702991362182908   -0.0013414823459463677
-0.0073570819938589774   -0.03364780577636133   -0.001478204501744773
-0.004624201839460226   -0.03722861438105825   -0.001305247876774918
-0.006155578291940571   -0.03702991362182908   -0.0013414823459463677
-0.00535965323559144   -0.033659323397786566   -0.0012906200072013085
-0.005485832977103871   -0.03360797386786189   -0.0012355540886524593
-0.004884232502953248   -0.03716070592454738   -0.0011744172895624824
-0.003532877930848162   -0.03365661536850372   -0.0012327198015638827
-0.005429908282188901   -0.033623057407430997   -0.0012603110855570557
-0.004884232502953248   -0.03716070592454738   -0.0011744172895624824
-0.0035711457104469686   -0.03726000184435162   -0.0012105791553835143
-0.003532877930848162   -0.03365661536850372   -0.0012327198015638827
-0.003489026161678194   -0.0372473564415443   -0.001198948844593098
-0.005429908282188901   -0.033623057407430997   -0.0012603110855570557
-0.003475554322419153   -0.033661516724804136   -0.0012215698774266284
-0.003489026161678194   -0.0372473564415443   -0.001198948844593098
-0.003532877930848162   -0.03365661536850372   -0.0012327198015638827
-0.005429908282188901   -0.033623057407430997   -0.0012603110855570557
-0.003489026161678194   -0.0372473564415443   -0.001198948844593098
-0.004804112391085499   -0.037152907242393444   -0.0012124940466693565
-0.004884232502953248   -0.03716070592454738   -0.0011744172895624824
-0.005429908282188901   -0.033623057407430997   -0.0012603110855570557
-0.003489026161678194   -0.0372473564415443   -0.001198948844593098
-0.004884232502953248   -0.03716070592454738   -0.0011744172895624824
-0.003532877930848162   -0.03365661536850372   -0.0012327198015638827
-0.005429908282188901   -0.033623057407430997   -0.0012603110855570557
-0.004804112391085499   -0.037152907242393444   -0.0012124940466693565
-0.003475554322419153   -0.033661516724804136   -0.0012215698774266284
-0.00535965323559144   -0.033659323397786566   -0.0012906200072013085
-0.004804112391085499   -0.037152907242393444   -0.0012124940466693565
-0.003489026161678194   -0.0372473564415443   -0.001198948844593098
-0.003475554322419153   -0.033661516724804136   -0.0012215698774266284
-0.0034080032874971512   -0.037260861602719686   -0.0011928163304868215
-0.00535965323559144   -0.033659323397786566   -0.0012906200072013085
-0.0034163681748619152   -0.03368534444037165   -0.001215807195756393
-0.0034080032874971512   -0.037260861602719686   -0.0011928163304868215
-0.003475554322419153   -0.033661516724804136   -0.0012215698774266284
-0.00535965323559144   -0.033659323397786566   -0.0012906200072013085
-0.0034080032874971512   -0.037260861602719686   -0.0011928163304868215
-0.004709776965809773   -0.03717536767201882   -0.0012562240659555353
-0.004804112391085499   -0.037152907242393444   -0.0012124940466693565
-0.00535965323559144   -0.033659323397786566   -0.0012906200072013085
-0.0034080032874971512   -0.037260861602719686   -0.0011928163304868215
-0.004804112391085499   -0.037152907242393444   -0.0012124940466693565
-0.003475554322419153   -0.033661516724804136   -0.0012215698774266284
-0.00535965323559144   -0.033659323397786566   -0.0012906200072013085
-0.004709776965809773   -0.03717536767201882   -0.0012562240659555353
-0.0034163681748619152   -0.03368534444037165   -0.001215807195756393
-0.0052903628587269835   -0.03371883432380257   -0.0013264282688699128
-0.004709776965809773   -0.03717536767201882   -0.0012562240659555353
-0.0034080032874971512   -0.037260861602719686   -0.0011928163304868215
-0.0034163681748619152   -0.03368534444037165   -0.001215807195756393
-0.0033333901695239013   -0.03730136168689093   -0.0011933230100039693
-0.0052903628587269835   -0.03371883432380257   -0.0013264282688699128
-0.0033572674394585474   -0.03372918660317957   -0.0012153714449559456
-0.0033333901695239013   -0.03730136168689093   -0.0011933230100039693
-0.0034163681748619152   -0.03368534444037165   -0.001215807195756393
-0.0052903628587269835   -0.03371883432380257   -0.0013264282688699128
-0.0033333901695239013   -0.03730136168689093   -0.0011933230100039693
-0.004624201839460226   -0.03722861438105825   -0.001305247876774918
-0.004709776965809773   -0.03717536767201882   -0.0012562240659555353
-0.0052903628587269835   -0.03371883432380257   -0.0013264282688699128
-0.0033333901695239013   -0.03730136168689093   -0.0011933230100039693
-0.004709776965809773   -0.03717536767201882   -0.0012562240659555353
-0.0034163681748619152   -0.03368534444037165   -0.001215807195756393
-0.003532877930848162   -0.03365661536850372   -0.0012327198015638827
-0.0035711457104469686   -0.03726000184435162   -0.0012105791553835143
-0.001644561095247721   -0.033647211542541675   -0.0012469584618097912
-0.003475554322419153   -0.033661516724804136   -0.0012215698774266284
-0.0035711457104469686   -0.03726000184435162   -0.0012105791553835143
-0.0023132501954323246   -0.0373111063360447   -0.0012535449909142954
-0.001644561095247721   -0.033647211542541675   -0.0012469584618097912
-0.0022207010648383134   -0.03729272115372465   -0.0011949964319452103
-0.003475554322419153   -0.033661516724804136   -0.0012215698774266284
-0.0015817774739995346   -0.03364065567578859   -0.0012011555745169405
-0.0022207010648383134   -0.03729272115372465   -0.0011949964319452103
-0.001644561095247721   -0.033647211542541675   -0.0012469584618097912
-0.003475554322419153   -0.033661516724804136   -0.0012215698774266284
-0.0022207010648383134   -0.03729272115372465   -0.0011949964319452103
-0.003489026161678194   -0.0372473564415443   -0.001198948844593098
-0.0035711457104469686   -0.03726000184435162   -0.0012105791553835143
-0.003475554322419153   -0.033661516724804136   -0.0012215698774266284
-0.0022207010648383134   -0.03729272115372465   -0.0011949964319452103
-0.0035711457104469686   -0.03726000184435162   -0.0012105791553835143
-0.001644561095247721   -0.033647211542541675   -0.0012469584618097912
-0.003475554322419153   -0.033661516724804136   -0.0012215698774266284
-0.003489026161678194   -0.0372473564415443   -0.001198948844593098
-0.0015817774739995346   -0.03364065567578859   -0.0012011555745169405
-0.0034163681748619152   -0.03368534444037165   -0.001215807195756393
-0.003489026161678194   -0.0372473564415443   -0.001198948844593098
-0.0022207010648383134   -0.03729272115372465   -0.0011949964319452103
-0.0015817774739995346   -0.03364065567578859   -0.0012011555745169405
-0.0021324308988376504   -0.03729738912202368   -0.001141332537455488
-0.0034163681748619152   -0.03368534444037165   -0.001215807195756393
-0.0015208138197230331   -0.03365124651884711   -0.0011610964847773248
-0.0021324308988376504   -0.03729738912202368   -0.001141332537455488
-0.0015817774739995346   -0.03364065567578859   -0.0012011555745169405
-0.0034163681748619152   -0.03368534444037165   -0.001215807195756393
-0.0021324308988376504   -0.03729738912202368   -0.001141332537455488
-0.0034080032874971512   -0.037260861602719686   -0.0011928163304868215
-0.003489026161678194   -0.0372473564415443   -0.001198948844593098
-0.0034163681748619152   -0.03368534444037165   -0.001215807195756393
-0.0021324308988376504   -0.03729738912202368   -0.001141332537455488
-0.003489026161678194   -0.0372473564415443   -0.001198948844593098
-0.0015817774739995346   -0.03364065567578859   -0.0012011555745169405
-0.0034163681748619152   -0.03368534444037165   -0.001215807195756393
-0.0034080032874971512   -0.037260861602719686   -0.0011928163304868215
-0.0015208138197230331   -0.03365124651884711   -0.0011610964847773248
-0.0033572674394585474   -0.03372918660317957   -0.0012153714449559456
-0.0034080032874971512   -0.037260861602719686   -0.0011928163304868215
-0.0021324308988376504   -0.03729738912202368   -0.001141332537455488
-0.0015208138197230331   -0.03365124651884711   -0.0011610964847773248
-0.0020589256370610867   -0.03732949510005471   -0.0010955478233031241
-0.0033572674394585474   -0.03372918660317957   -0.0012153714449559456
-0.0014657062396882887   -0.03368141464881712   -0.0011262883954618911
-0.0020589256370610867   -0.03732949510005471   -0.0010955478233031241
-0.0015208138197230331   -0.03365124651884711   -0.0011610964847773248
-0.0033572674394585474   -0.03372918660317957   -0.0012153714449559456
-0.0020589256370610867   -0.03732949510005471   -0.0010955478233031241
-0.0033333901695239013   -0.03730136168689093   -0.0011933230100039693
-0.0034080032874971512   -0.037260861602719686   -0.0011928163304868215
-0.0033572674394585474   -0.03372918660317957   -0.0012153714449559456
-0.0020589256370610867   -0.03732949510005471   -0.0010955478233031241
-0.0034080032874971512   -0.037260861602719686   -0.0011928163304868215
-0.0015208138197230331   -0.03365124651884711   -0.0011610964847773248
-0.001644561095247721   -0.033647211542541675   -0.0012469584618097912
-0.0023132501954323246   -0.0373111063360447   -0.0012535449909142954
0.0003308675131893746   -0.0335776744063264   -0.0012813064683576325
-0.0015817774739995346   -0.03364065567578859   -0.0012011555745169405
-0.0023132501954323246   -0.0373111063360447   -0.0012535449909142954
-0.0009772612576291113   -0.03729591397514906   -0.001304354577398197
0.0003308675131893746   -0.0335776744063264   -0.0012813064683576325
-0.0008584322219638903   -0.037267052977093706   -0.0012008623567648208
-0.0015817774739995346   -0.03364065567578859   -0.0012011555745169405
0.00040730366143322706   -0.03355660776071129   -0.0012009525441079325
-0.0008584322219638903   -0.037267052977093706   -0.0012008623567648208
0.0003308675131893746   -0.0335776744063264   -0.0012813064683576325
-0.0015817774739995346   -0.03364065567578859   -0.0012011555745169405
-0.0008584322219638903   -0.037267052977093706   -0.0012008623567648208
-0.0022207010648383134   -0.03729272115372465   -0.0011949964319452103
-0.0023132501954323246   -0.0373111063360447   -0.0012535449909142954
-0.0015817774739995346   -0.03364065567578859   -0.0012011555745169405
-0.0008584322219638903   -0.037267052977093706   -0.0012008623567648208
-0.0023132501954323246   -0.0373111063360447   -0.0012535449909142954
0.0003308675131893746   -0.0335776744063264   -0.0012813064683576325
-0.0015817774739995346   -0.03364065567578859   -0.0012011555745169405
-0.0022207010648383134   -0.03729272115372465   -0.0011949964319452103
0.00040730366143322706   -0.03355660776071129   -0.0012009525441079325
-0.0015208138197230331   -0.03365124651884711   -0.0011610964847773248
-0.0022207010648383134   -0.03729272115372465   -0.0011949964319452103
-0.0008584322219638903   -0.037267052977093706   -0.0012008623567648208
0.00040730366143322706   -0.03355660776071129   -0.0012009525441079325
-0.0007367238706344471   -0.03726209165131331   -0.001102580705629972
-0.0015208138197230331   -0.03365124651884711   -0.0011610964847773248
0.00048795380939359886   -0.03355470779839539   -0.001127871527941907
-0.0007367238706344471   -0.03726209165131331   -0.001102580705629972
0.00040730366143322706   -0.03355660776071129   -0.0012009525441079325
-0.0015208138197230331   -0.03365124651884711   -0.0011610964847773248
-0.0007367238706344471   -0.03726209165131331   -0.001102580705629972
-0.0021324308988376504   -0.03729738912202368   -0.001141332537455488
-0.0022207010648383134   -0.03729272115372465   -0.0011949964319452103
-0.0015208138197230331   -0.03365124651884711   -0.0011610964847773248
-0.0007367238706344471   -0.03726209165131331   -0.001102580705629972
-0.0022207010648383134   -0.03729272115372465   -0.0011949964319452103
0.00040730366143322706   -0.03355660776071129   -0.0012009525441079325
-0.0015208138197230331   -0.03365124651884711   -0.0011610964847773248
-0.0021324308988376504   -0.03729738912202368   -0.001141332537455488
0.00048795380939359886   -0.03355470779839539   -0.001127871527941907
-0.0014657062396882887   -0.03368141464881712   -0.0011262883954618911
-0.0021324308988376504   -0.03729738912202368   -0.001141332537455488
-0.0007367238706344471   -0.03726209165131331   -0.001102580705629972
0.00048795380939359886   -0.03355470779839539   -0.001127871527941907
-0.0006467082987605901   -0.03728608301967719   -0.0010132080313894369
-0.0014657062396882887   -0.03368141464881712   -0.0011262883954618911
0.0005469361555712829   -0.033571088115821775   -0.0010597945180278385
-0.0006467082987605901   -0.03728608301967719   -0.0010132080313894369
0.00048795380939359886   -0.03355470779839539   -0.001127871527941907
-0.0014657062396882887   -0.03368141464881712   -0.0011262883954618911
-0.0006467082987605901   -0.03728608301967719   -0.0010132080313894369
-0.0020589256370610867   -0.03732949510005471   -0.0010955478233031241
-0.0021324308988376504   -0.03729738912202368   -0.001141332537455488
-0.0014657062396882887   -0.03368141464881712   -0.0011262883954618911
-0.0006467082987605901   -0.03728608301967719   -0.0010132080313894369
-0.0021324308988376504   -0.03729738912202368   -0.001141332537455488
0.00048795380939359886   -0.03355470779839539   -0.001127871527941907
0.0003308675131893746   -0.0335776744063264   -0.0012813064683576325
-0.0009772612576291113   -0.03729591397514906   -0.001304354577398197
0.0024342783190096006   -0.03344145241803069   -0.0013542720524005662
0.00040730366143322706   -0.03355660776071129   -0.0012009525441079325
-0.0009772612576291113   -0.03729591397514906   -0.001304354577398197
0.000457405097531075   -0.03716687861434884   -0.0014077912509479894
0.0024342783190096006   -0.03344145241803069   -0.0013542720524005662
0.000736020648236037   -0.037104294035969695   -0.0012386163484701298
0.00040730366143322706   -0.03355660776071129   -0.0012009525441079325
0.0026286458461660554   -0.03340109986110889   -0.0012312484293728553
0.000736020648236037   -0.037104294035969695   -0.0012386163484701298
0.0024342783190096006   -0.03344145241803069   -0.0013542720524005662
0.00040730366143322706   -0.03355660776071129   -0.0012009525441079325
0.000736020648236037   -0.037104294035969695   -0.0012386163484701298
-0.0008584322219638903   -0.037267052977093706   -0.0012008623567648208
-0.0009772612576291113   -0.03729591397514906   -0.001304354577398197
0.00040730366143322706   -0.03355660776071129   -0.0012009525441079325
0.000736020648236037   -0.037104294035969695   -0.0012386163484701298
-0.0009772612576291113   -0.03729591397514906   -0.001304354577398197
0.0024342783190096006   -0.03344145241803069   -0.0013542720524005662
0.00040730366143322706   -0.03355660776071129   -0.0012009525441079325
-0.0008584322219638903   -0.037267052977093706   -0.0012008623567648208
0.0026286458461660554   -0.03340109986110889   -0.0012312484293728553
0.00048795380939359886   -0.03355470779839539   -0.001127871527941907
-0.0008584322219638903   -0.037267052977093706   -0.0012008623567648208
0.000736020648236037   -0.037104294035969695   -0.0012386163484701298
0.0026286458461660554   -0.03340109986110889   -0.0012312484293728553
0.0009548846260855259   -0.0370917269110905   -0.0010796316103660348
0.00048795380939359886   -0.03355470779839539   -0.001127871527941907
0.0027777283895320556   -0.033394109548946734   -0.0011172470899422171
0.0009548846260855259   -0.0370917269110905   -0.0010796316103660348
0.0026286458461660554   -0.03340109986110889   -0.0012312484293728553
0.00048795380939359886   -0.03355470779839539   -0.001127871527941907
0.0009548846260855259   -0.0370917269110905   -0.0010796316103660348
-0.0007367238706344471   -0.03726209165131331   -0.001102580705629972
-0.0008584322219638903   -0.037267052977093706   -0.0012008623567648208
0.00048795380939359886   -0.03355470779839539   -0.001127871527941907
0.0009548846260855259   -0.0370917269110905   -0.0010796316103660348
-0.0008584322219638903   -0.037267052977093706   -0.0012008623567648208
0.0026286458461660554   -0.03340109986110889   -0.0012312484293728553
0.00048795380939359886   -0.03355470779839539   -0.001127871527941907
-0.0007367238706344471   -0.03726209165131331   -0.001102580705629972
0.0027777283895320556   -0.033394109548946734   -0.0011172470899422171
0.0005469361555712829   -0.033571088115821775   -0.0010597945180278385
-0.0007367238706344471   -0.03726209165131331   -0.001102580705629972
0.0009548846260855259   -0.0370917269110905   -0.0010796316103660348
0.0027777283895320556   -0.033394109548946734   -0.0011172470899422171
0.0011827511912945695   -0.03710283276189303   -0.0009342657379278193
0.0005469361555712829   -0.033571088115821775   -0.0010597945180278385
0.0029325145219616907   -0.03340619907095294   -0.0010131935165545885
0.0011827511912945695   -0.03710283276189303   -0.0009342657379278193
0.0027777283895320556   -0.033394109548946734   -0.0011172470899422171
0.0005469361555712829   -0.033571088115821775   -0.0010597945180278385
0.0011827511912945695   -0.03710283276189303   -0.0009342657379278193
-0.0006467082987605901   -0.03728608301967719   -0.0010132080313894369
-0.0007367238706344471   -0.03726209165131331   -0.001102580705629972
0.0005469361555712829   -0.033571088115821775   -0.0010597945180278385
0.0011827511912945695   -0.03710283276189303   -0.0009342657379278193
-0.0007367238706344471   -0.03726209165131331   -0.001102580705629972
0.0027777283895320556   -0.033394109548946734   -0.0011172470899422171
-0.006488624769746347   -0.03700645043313655   -0.0011282400639686186
-0.004773503062621877   -0.03909165653720596   -0.0009933497154033088
-0.004884232502953248   -0.03716070592454738   -0.0011744172895624824
-0.006315270110839063   -0.03700220449981185   -0.0012308765326199762
-0.004773503062621877   -0.03909165653720596   -0.0009933497154033088
-0.004023221689049619   -0.039286408336371335   -0.0011099096844554694
-0.004884232502953248   -0.03716070592454738   -0.0011744172895624824
-0.003922434220175027   -0.039248268676980155   -0.0011505458687370526
-0.006315270110839063   -0.03700220449981185   -0.0012308765326199762
-0.004804112391085499   -0.037152907242393444   -0.0012124940466693565
-0.003922434220175027   -0.039248268676980155   -0.0011505458687370526
-0.004884232502953248   -0.03716070592454738   -0.0011744172895624824
-0.006315270110839063   -0.03700220449981185   -0.0012308765326199762
-0.003922434220175027   -0.039248268676980155   -0.0011505458687370526
-0.004557888944249987   -0.039048642685369124   -0.0011164013281751324
-0.004773503062621877   -0.03909165653720596   -0.0009933497154033088
-0.006315270110839063   -0.03700220449981185   -0.0012308765326199762
-0.003922434220175027   -0.039248268676980155   -0.0011505458687370526
-0.004773503062621877   -0.03909165653720596   -0.0009933497154033088
-0.004884232502953248   -0.03716070592454738   -0.0011744172895624824
-0.006315270110839063   -0.03700220449981185   -0.0012308765326199762
-0.004557888944249987   -0.039048642685369124   -0.0011164013281751324
-0.004804112391085499   -0.037152907242393444   -0.0012124940466693565
-0.006155578291940571   -0.03702991362182908   -0.0013414823459463677
-0.004557888944249987   -0.039048642685369124   -0.0011164013281751324
-0.003922434220175027   -0.039248268676980155   -0.0011505458687370526
-0.004804112391085499   -0.037152907242393444   -0.0012124940466693565
-0.0038106384603286067   -0.03925060932878863   -0.0011916018165046992
-0.006155578291940571   -0.03702991362182908   -0.0013414823459463677
-0.004709776965809773   -0.03717536767201882   -0.0012562240659555353
-0.0038106384603286067   -0.03925060932878863   -0.0011916018165046992
-0.004804112391085499   -0.037152907242393444   -0.0012124940466693565
-0.006155578291940571   -0.03702991362182908   -0.0013414823459463677
-0.0038106384603286067   -0.03925060932878863   -0.0011916018165046992
-0.004371898233484645   -0.03905283511496864   -0.001239019214903606
-0.004557888944249987   -0.039048642685369124   -0.0011164013281751324
-0.006155578291940571   -0.03702991362182908   -0.0013414823459463677
-0.0038106384603286067   -0.03925060932878863   -0.0011916018165046992
-0.004557888944249987   -0.039048642685369124   -0.0011164013281751324
-0.004804112391085499   -0.037152907242393444   -0.0012124940466693565
-0.006155578291940571   -0.03702991362182908   -0.0013414823459463677
-0.004371898233484645   -0.03905283511496864   -0.001239019214903606
-0.004709776965809773   -0.03717536767201882   -0.0012562240659555353
-0.005960736314151844   -0.03710357203859793   -0.001459599705821398
-0.004371898233484645   -0.03905283511496864   -0.001239019214903606
-0.0038106384603286067   -0.03925060932878863   -0.0011916018165046992
-0.004709776965809773   -0.03717536767201882   -0.0012562240659555353
-0.0037068756408984082   -0.039293639616630405   -0.0012332483551220554
-0.005960736314151844   -0.03710357203859793   -0.001459599705821398
-0.004624201839460226   -0.03722861438105825   -0.001305247876774918
-0.0037068756408984082   -0.039293639616630405   -0.0012332483551220554
-0.004709776965809773   -0.03717536767201882   -0.0012562240659555353
-0.005960736314151844   -0.03710357203859793   -0.001459599705821398
-0.0037068756408984082   -0.039293639616630405   -0.0012332483551220554
-0.004151156466581254   -0.039106993544029266   -0.0013642654761331584
-0.004371898233484645   -0.03905283511496864   -0.001239019214903606
-0.005960736314151844   -0.03710357203859793   -0.001459599705821398
-0.0037068756408984082   -0.039293639616630405   -0.0012332483551220554
-0.004371898233484645   -0.03905283511496864   -0.001239019214903606
-0.004709776965809773   -0.03717536767201882   -0.0012562240659555353
-0.004884232502953248   -0.03716070592454738   -0.0011744172895624824
-0.004023221689049619   -0.039286408336371335   -0.0011099096844554694
-0.0035711457104469686   -0.03726000184435162   -0.0012105791553835143
-0.004804112391085499   -0.037152907242393444   -0.0012124940466693565
-0.004023221689049619   -0.039286408336371335   -0.0011099096844554694
-0.0034719599389432566   -0.039480192968982954   -0.0012128091364577746
-0.0035711457104469686   -0.03726000184435162   -0.0012105791553835143
-0.003365787927413821   -0.039440971667682456   -0.0011848209434618712
-0.004804112391085499   -0.037152907242393444   -0.0012124940466693565
-0.003489026161678194   -0.0372473564415443   -0.001198948844593098
-0.003365787927413821   -0.039440971667682456   -0.0011848209434618712
-0.0035711457104469686   -0.03726000184435162   -0.0012105791553835143
-0.004804112391085499   -0.037152907242393444   -0.0012124940466693565
-0.003365787927413821   -0.039440971667682456   -0.0011848209434618712
-0.003922434220175027   -0.039248268676980155   -0.0011505458687370526
-0.004023221689049619   -0.039286408336371335   -0.0011099096844554694
-0.004804112391085499   -0.037152907242393444   -0.0012124940466693565
-0.003365787927413821   -0.039440971667682456   -0.0011848209434618712
-0.004023221689049619   -0.039286408336371335   -0.0011099096844554694
-0.0035711457104469686   -0.03726000184435162   -0.0012105791553835143
-0.004804112391085499   -0.037152907242393444   -0.0012124940466693565
-0.003922434220175027   -0.039248268676980155   -0.0011505458687370526
-0.003489026161678194   -0.0372473564415443   -0.001198948844593098
-0.004709776965809773   -0.03717536767201882   -0.0012562240659555353
-0.003922434220175027   -0.039248268676980155   -0.0011505458687370526
-0.003365787927413821   -0.039440971667682456   -0.0011848209434618712
-0.003489026161678194   -0.0372473564415443   -0.001198948844593098
-0.0032630581742911224   -0.03944060772565315   -0.0011564963972373404
-0.004709776965809773   -0.03717536767201882   -0.0012562240659555353
-0.0034080032874971512   -0.037260861602719686   -0.0011928163304868215
-0.0032630581742911224   -0.03944060772565315   -0.0011564963972373404
-0.003489026161678194   -0.0372473564415443   -0.001198948844593098
-0.004709776965809773   -0.03717536767201882   -0.0012562240659555353
-0.0032630581742911224   -0.03944060772565315   -0.0011564963972373404
-0.0038106384603286067   -0.03925060932878863   -0.0011916018165046992
-0.003922434220175027   -0.039248268676980155   -0.0011505458687370526
-0.004709776965809773   -0.03717536767201882   -0.0012562240659555353
-0.0032630581742911224   -0.03944060772565315   -0.0011564963972373404
-0.003922434220175027   -0.039248268676980155   -0.0011505458687370526
-0.003489026161678194   -0.0372473564415443   -0.001198948844593098
-0.004709776965809773   -0.03717536767201882   -0.0012562240659555353
-0.0038106384603286067   -0.03925060932878863   -0.0011916018165046992
-0.0034080032874971512   -0.037260861602719686   -0.0011928163304868215
-0.004624201839460226   -0.03722861438105825   -0.001305247876774918
-0.0038106384603286067   -0.03925060932878863   -0.0011916018165046992
-0.0032630581742911224   -0.03944060772565315   -0.0011564963972373404
-0.0034080032874971512   -0.037260861602719686   -0.0011928163304868215
-0.0031560183024000555   -0.03947831109495764   -0.0011293190854671407
-0.004624201839460226   -0.03722861438105825   -0.001305247876774918
-0.0033333901695239013   -0.03730136168689093   -0.0011933230100039693
-0.0031560183024000555   -0.03947831109495764   -0.0011293190854671407
-0.0034080032874971512   -0.037260861602719686   -0.0011928163304868215
-0.004624201839460226   -0.03722861438105825   -0.001305247876774918
-0.0031560183024000555   -0.03947831109495764   -0.0011293190854671407
-0.0037068756408984082   -0.039293639616630405   -0.0012332483551220554
-0.0038106384603286067   -0.03925060932878863   -0.0011916018165046992
-0.004624201839460226   -0.03722861438105825   -0.001305247876774918
-0.0031560183024000555   -0.03947831109495764   -0.0011293190854671407
-0.0038106384603286067   -0.03925060932878863   -0.0011916018165046992
-0.0034080032874971512   -0.037260861602719686   -0.0011928163304868215
-0.0035711457104469686   -0.03726000184435162   -0.0012105791553835143
-0.0034719599389432566   -0.039480192968982954   -0.0012128091364577746
-0.0023132501954323246   -0.0373111063360447   -0.0012535449909142954
-0.003489026161678194   -0.0372473564415443   -0.001198948844593098
-0.0034719599389432566   -0.039480192968982954   -0.0012128091364577746
-0.0029678883072836865   -0.03971227629198979   -0.0013263646401674523
-0.0023132501954323246   -0.0373111063360447   -0.0012535449909142954
-0.002837840489029559   -0.039678054419143405   -0.0012259384746408902
-0.003489026161678194   -0.0372473564415443   -0.001198948844593098
-0.0022207010648383134   -0.03729272115372465   -0.0011949964319452103
-0.002837840489029559   -0.039678054419143405   -0.0012259384746408902
-0.0023132501954323246   -0.0373111063360447   -0.0012535449909142954
-0.003489026161678194   -0.0372473564415443   -0.001198948844593098
-0.002837840489029559   -0.039678054419143405   -0.0012259384746408902
-0.003365787927413821   -0.039440971667682456   -0.0011848209434618712
-0.0034719599389432566   -0.039480192968982954   -0.0012128091364577746
-0.003489026161678194   -0.0372473564415443   -0.001198948844593098
-0.002837840489029559   -0.039678054419143405   -0.0012259384746408902
-0.0034719599389432566   -0.039480192968982954   -0.0012128091364577746
-0.0023132501954323246   -0.0373111063360447   -0.0012535449909142954
-0.003489026161678194   -0.0372473564415443   -0.001198948844593098
-0.003365787927413821   -0.039440971667682456   -0.0011848209434618712
-0.0022207010648383134   -0.03729272115372465   -0.0011949964319452103
-0.0034080032874971512   -0.037260861602719686   -0.0011928163304868215
-0.003365787927413821   -0.039440971667682456   -0.0011848209434618712
-0.002837840489029559   -0.039678054419143405   -0.0012259384746408902
-0.0022207010648383134   -0.03729272115372465   -0.0011949964319452103
-0.002717219728262125   -0.039676420708582134   -0.0011257799974040497
-0.0034080032874971512   -0.037260861602719686   -0.0011928163304868215
-0.0021324308988376504   -0.03729738912202368   -0.001141332537455488
-0.002717219728262125   -0.039676420708582134   -0.0011257799974040497
-0.0022207010648383134   -0.03729272115372465   -0.0011949964319452103
-0.0034080032874971512   -0.037260861602719686   -0.0011928163304868215
-0.002717219728262125   -0.039676420708582134   -0.0011257799974040497
-0.0032630581742911224   -0.03944060772565315   -0.0011564963972373404
-0.003365787927413821   -0.039440971667682456   -0.0011848209434618712
-0.0034080032874971512   -0.037260861602719686   -0.0011928163304868215
-0.002717219728262125   -0.039676420708582134   -0.0011257799974040497
-0.003365787927413821   -0.039440971667682456   -0.0011848209434618712
-0.0022207010648383134   -0.03729272115372465   -0.0011949964319452103
-0.0034080032874971512   -0.037260861602719686   -0.0011928163304868215
-0.0032630581742911224   -0.03944060772565315   -0.0011564963972373404
-0.0021324308988376504   -0.03729738912202368   -0.001141332537455488
-0.0033333901695239013   -0.03730136168689093   -0.0011933230100039693
-0.0032630581742911224   -0.03944060772565315   -0.0011564963972373404
-0.002717219728262125   -0.039676420708582134   -0.0011257799974040497
-0.0021324308988376504   -0.03729738912202368   -0.001141332537455488
-0.00258787456562222   -0.039705667054141004   -0.0010255200626350205
-0.0033333901695239013   -0.03730136168689093   -0.0011933230100039693
-0.0020589256370610867   -0.03732949510005471   -0.0010955478233031241
-0.00258787456562222   -0.039705667054141004   -0.0010255200626350205
-0.0021324308988376504   -0.03729738912202368   -0.001141332537455488
-0.0033333901695239013   -0.03730136168689093   -0.0011933230100039693
-0.00258787456562222   -0.039705667054141004   -0.0010255200626350205
-0.0031560183024000555   -0.03947831109495764   -0.0011293190854671407
-0.0032630581742911224   -0.03944060772565315   -0.0011564963972373404
-0.0033333901695239013   -0.03730136168689093   -0.0011933230100039693
-0.00258787456562222   -0.039705667054141004   -0.0010255200626350205
-0.0032630581742911224   -0.03944060772565315   -0.0011564963972373404
-0.0021324308988376504   -0.03729738912202368   -0.001141332537455488
-0.0023132501954323246   -0.0373111063360447   -0.0012535449909142954
-0.0029678883072836865   -0.03971227629198979   -0.0013263646401674523
-0.0009772612576291113   -0.03729591397514906   -0.001304354577398197
-0.0022207010648383134   -0.03729272115372465   -0.0011949964319452103
-0.0029678883072836865   -0.03971227629198979   -0.0013263646401674523
-0.0024717890103574678   -0.04   -0.0014145299323240041
-0.0009772612576291113   -0.03729591397514906   -0.001304354577398197
-0.0023079598335164955   -0.04   -0.0012612690285654286
-0.0022207010648383134   -0.03729272115372465   -0.0011949964319452103
-0.0008584322219638903   -0.037267052977093706   -0.0012008623567648208
-0.0023079598335164955   -0.04   -0.0012612690285654286
-0.0009772612576291113   -0.03729591397514906   -0.001304354577398197
-0.0022207010648383134   -0.03729272115372465   -0.0011949964319452103
-0.0023079598335164955   -0.04   -0.0012612690285654286
-0.002837840489029559   -0.039678054419143405   -0.0012259384746408902
-0.0029678883072836865   -0.03971227629198979   -0.0013263646401674523
-0.0022207010648383134   -0.03729272115372465   -0.0011949964319452103
-0.0023079598335164955   -0.04   -0.0012612690285654286
-0.0029678883072836865   -0.03971227629198979   -0.0013263646401674523
-0.0009772612576291113   -0.03729591397514906   -0.001304354577398197
-0.0022207010648383134   -0.03729272115372465   -0.0011949964319452103
-0.002837840489029559   -0.039678054419143405   -0.0012259384746408902
-0.0008584322219638903   -0.037267052977093706   -0.0012008623567648208
-0.0021324308988376504   -0.03729738912202368   -0.001141332537455488
-0.002837840489029559   -0.039678054419143405   -0.0012259384746408902
-0.0023079598335164955   -0.04   -0.0012612690285654286
-0.0008584322219638903   -0.037267052977093706   -0.0012008623567648208
-0.002143138952250346   -0.04   -0.0011061978151216338
-0.0021324308988376504   -0.03729738912202368   -0.001141332537455488
-0.0007367238706344471   -0.03726209165131331   -0.001102580705629972
-0.002143138952250346   -0.04   -0.0011061978151216338
-0.0008584322219638903   -0.037267052977093706   -0.0012008623567648208
-0.0021324308988376504   -0.03729738912202368   -0.001141332537455488
-0.002143138952250346   -0.04   -0.0011061978151216338
-0.002717219728262125   -0.039676420708582134   -0.0011257799974040497
-0.002837840489029559   -0.039678054419143405   -0.0012259384746408902
-0.0021324308988376504   -0.03729738912202368   -0.001141332537455488
-0.002143138952250346   -0.04   -0.0011061978151216338
-0.002837840489029559   -0.039678054419143405   -0.0012259384746408902
-0.0008584322219638903   -0.037267052977093706   -0.0012008623567648208
-0.0021324308988376504   -0.03729738912202368   -0.001141332537455488
-0.002717219728262125   -0.039676420708582134   -0.0011257799974040497
-0.0007367238706344471   -0.03726209165131331   -0.001102580705629972
-0.0020589256370610867   -0.03732949510005471   -0.0010955478233031241
-0.002717219728262125   -0.039676420708582134   -0.0011257799974040497
-0.002143138952250346   -0.04   -0.0011061978151216338
-0.0007367238706344471   -0.03726209165131331   -0.001102580705629972
-0.001982289801117146   -0.04   -0.0009531950346511959
-0.0020589256370610867   -0.03732949510005471   -0.0010955478233031241
-0.0006467082987605901   -0.03728608301967719   -0.0010132080313894369
-0.001982289801117146   -0.04   -0.0009531950346511959
-0.0007367238706344471   -0.03726209165131331   -0.001102580705629972
-0.0020589256370610867   -0.03732949510005471   -0.0010955478233031241
-0.001982289801117146   -0.04   -0.0009531950346511959
-0.00258787456562222   -0.039705667054141004   -0.0010255200626350205
-0.002717219728262125   -0.039676420708582134   -0.0011257799974040497
-0.0020589256370610867   -0.03732949510005471   -0.0010955478233031241
-0.001982289801117146   -0.04   -0.0009531950346511959
-0.002717219728262125   -0.039676420708582134   -0.0011257799974040497
-0.0007367238706344471   -0.03726209165131331   -0.001102580705629972
-0.0009772612576291113   -0.03729591397514906   -0.001304354577398197
-0.0024717890103574678   -0.04   -0.0014145299323240041
0.000457405097531075   -0.03716687861434884   -0.0014077912509479894
-0.0008584322219638903   -0.037267052977093706   -0.0012008623567648208
-0.0024717890103574678   -0.04   -0.0014145299323240041
-0.002109599799754642   -0.04   -0.0015213001254381874
0.000457405097531075   -0.03716687861434884   -0.0014077912509479894
-0.0017653413461093163   -0.04   -0.001299193330712317
-0.0008584322219638903   -0.037267052977093706   -0.0012008623567648208
0.000736020648236037   -0.037104294035969695   -0.0012386163484701298
-0.0017653413461093163   -0.04   -0.001299193330712317
0.000457405097531075   -0.03716687861434884   -0.0014077912509479894
-0.0008584322219638903   -0.037267052977093706   -0.0012008623567648208
-0.0017653413461093163   -0.04   -0.001299193330712317
-0.0023079598335164955   -0.04   -0.0012612690285654286
-0.0024717890103574678   -0.04   -0.0014145299323240041
-0.0008584322219638903   -0.037267052977093706   -0.0012008623567648208
-0.0017653413461093163   -0.04   -0.001299193330712317
-0.0024717890103574678   -0.04   -0.0014145299323240041
0.000457405097531075   -0.03716687861434884   -0.0014077912509479894
-0.0008584322219638903   -0.037267052977093706   -0.0012008623567648208
-0.0023079598335164955   -0.04   -0.0012612690285654286
0.000736020648236037   -0.037104294035969695   -0.0012386163484701298
-0.0007367238706344471   -0.03726209165131331   -0.001102580705629972
-0.0023079598335164955   -0.04   -0.0012612690285654286
-0.0017653413461093163   -0.04   -0.001299193330712317
0.000736020648236037   -0.037104294035969695   -0.0012386163484701298
-0.001490817681601736   -0.04   -0.0010867421710118624
-0.0007367238706344471   -0.03726209165131331   -0.001102580705629972
0.0009548846260855259   -0.0370917269110905   -0.0010796316103660348
-0.001490817681601736   -0.04   -0.0010867421710118624
0.000736020648236037   -0.037104294035969695   -0.0012386163484701298
-0.0007367238706344471   -0.03726209165131331   -0.001102580705629972
-0.001490817681601736   -0.04   -0.0010867421710118624
-0.002143138952250346   -0.04   -0.0011061978151216338
-0.0023079598335164955   -0.04   -0.0012612690285654286
-0.0007367238706344471   -0.03726209165131331   -0.001102580705629972
-0.001490817681601736   -0.04   -0.0010867421710118624
-0.0023079598335164955   -0.04   -0.0012612690285654286
0.000736020648236037   -0.037104294035969695   -0.0012386163484701298
-0.0007367238706344471   -0.03726209165131331   -0.001102580705629972
-0.002143138952250346   -0.04   -0.0011061978151216338
0.0009548846260855259   -0.0370917269110905   -0.0010796316103660348
-0.0006467082987605901   -0.03728608301967719   -0.0010132080313894369
-0.002143138952250346   -0.04   -0.0011061978151216338
-0.001490817681601736   -0.04   -0.0010867421710118624
0.0009548846260855259   -0.0370917269110905   -0.0010796316103660348
-0.0011517669610125482   -0.04   -0.000866175159237635
-0.0006467082987605901   -0.03728608301967719   -0.0010132080313894369
0.0011827511912945695   -0.03710283276189303   -0.0009342657379278193
-0.0011517669610125482   -0.04   -0.000866175159237635
0.0009548846260855259   -0.0370917269110905   -0.0010796316103660348
-0.0006467082987605901   -0.03728608301967719   -0.0010132080313894369
-0.0011517669610125482   -0.04   -0.000866175159237635
-0.001982289801117146   -0.04   -0.0009531950346511959
-0.002143138952250346   -0.04   -0.0011061978151216338
-0.0006467082987605901   -0.03728608301967719   -0.0010132080313894369
-0.0011517669610125482   -0.04   -0.000866175159237635
-0.002143138952250346   -0.04   -0.0011061978151216338
0.0009548846260855259   -0.0370917269110905   -0.0010796316103660348
-0.004773503062621877   -0.03909165653720596   -0.0009933497154033088
-0.0028760904036972007   -0.03921177010370864   -0.0008505436860823009
-0.004023221689049619   -0.039286408336371335   -0.0011099096844554694
-0.004557888944249987   -0.039048642685369124   -0.0011164013281751324
-0.0028760904036972007   -0.03921177010370864   -0.0008505436860823009
-0.0030402269509427907   -0.03936251343388369   -0.0010006705213799246
-0.004023221689049619   -0.039286408336371335   -0.0011099096844554694
-0.0029638738942127066   -0.03931035233339939   -0.0010558839950552028
-0.004557888944249987   -0.039048642685369124   -0.0011164013281751324
-0.003922434220175027   -0.039248268676980155   -0.0011505458687370526
-0.0029638738942127066   -0.03931035233339939   -0.0010558839950552028
-0.004023221689049619   -0.039286408336371335   -0.0011099096844554694
-0.004557888944249987   -0.039048642685369124   -0.0011164013281751324
-0.0029638738942127066   -0.03931035233339939   -0.0010558839950552028
-0.0026803605318499665   -0.03914474116687055   -0.0009798784475377402
-0.0028760904036972007   -0.03921177010370864   -0.0008505436860823009
-0.004557888944249987   -0.039048642685369124   -0.0011164013281751324
-0.0029638738942127066   -0.03931035233339939   -0.0010558839950552028
-0.0028760904036972007   -0.03921177010370864   -0.0008505436860823009
-0.004023221689049619   -0.039286408336371335   -0.0011099096844554694
-0.004557888944249987   -0.039048642685369124   -0.0011164013281751324
-0.0026803605318499665   -0.03914474116687055   -0.0009798784475377402
-0.003922434220175027   -0.039248268676980155   -0.0011505458687370526
-0.004371898233484645   -0.03905283511496864   -0.001239019214903606
-0.0026803605318499665   -0.03914474116687055   -0.0009798784475377402
-0.0029638738942127066   -0.03931035233339939   -0.0010558839950552028
-0.003922434220175027   -0.039248268676980155   -0.0011505458687370526
-0.0028742098162160244   -0.039291557928265074   -0.0011068972200762425
-0.004371898233484645   -0.03905283511496864   -0.001239019214903606
-0.0038106384603286067   -0.03925060932878863   -0.0011916018165046992
-0.0028742098162160244   -0.039291557928265074   -0.0011068972200762425
-0.003922434220175027   -0.039248268676980155   -0.0011505458687370526
-0.004371898233484645   -0.03905283511496864   -0.001239019214903606
-0.0028742098162160244   -0.039291557928265074   -0.0011068972200762425
-0.002517473079737439   -0.039124629804964624   -0.0011040050678063117
-0.0026803605318499665   -0.03914474116687055   -0.0009798784475377402
-0.004371898233484645   -0.03905283511496864   -0.001239019214903606
-0.0028742098162160244   -0.039291557928265074   -0.0011068972200762425
-0.0026803605318499665   -0.03914474116687055   -0.0009798784475377402
-0.003922434220175027   -0.039248268676980155   -0.0011505458687370526
-0.004371898233484645   -0.03905283511496864   -0.001239019214903606
-0.002517473079737439   -0.039124629804964624   -0.0011040050678063117
-0.0038106384603286067   -0.03925060932878863   -0.0011916018165046992
-0.004151156466581254   -0.039106993544029266   -0.0013642654761331584
-0.002517473079737439   -0.039124629804964624   -0.0011040050678063117
-0.0028742098162160244   -0.039291557928265074   -0.0011068972200762425
-0.0038106384603286067   -0.03925060932878863   -0.0011916018165046992
-0.0027974632191568763   -0.03930642282703039   -0.0011534510835023667
-0.004151156466581254   -0.039106993544029266   -0.0013642654761331584
-0.0037068756408984082   -0.039293639616630405   -0.0012332483551220554
-0.0027974632191568763   -0.03930642282703039   -0.0011534510835023667
-0.0038106384603286067   -0.03925060932878863   -0.0011916018165046992
-0.004151156466581254   -0.039106993544029266   -0.0013642654761331584
-0.0027974632191568763   -0.03930642282703039   -0.0011534510835023667
-0.0023329398288661866   -0.039143151698479706   -0.0012223878621796518
-0.002517473079737439   -0.039124629804964624   -0.0011040050678063117
-0.004151156466581254   -0.039106993544029266   -0.0013642654761331584
-0.0027974632191568763   -0.03930642282703039   -0.0011534510835023667
-0.002517473079737439   -0.039124629804964624   -0.0011040050678063117
-0.0038106384603286067   -0.03925060932878863   -0.0011916018165046992
-0.004023221689049619   -0.039286408336371335   -0.0011099096844554694
-0.0030402269509427907   -0.03936251343388369   -0.0010006705213799246
-0.0034719599389432566   -0.039480192968982954   -0.0012128091364577746
-0.003922434220175027   -0.039248268676980155   -0.0011505458687370526
-0.0030402269509427907   -0.03936251343388369   -0.0010006705213799246
-0.0032666736740163925   -0.03945495104421078   -0.0011205903381351833
-0.0034719599389432566   -0.039480192968982954   -0.0012128091364577746
-0.0031991658614767674   -0.039408341660193004   -0.001121929064266502
-0.003922434220175027   -0.039248268676980155   -0.0011505458687370526
-0.003365787927413821   -0.039440971667682456   -0.0011848209434618712
-0.0031991658614767674   -0.039408341660193004   -0.001121929064266502
-0.0034719599389432566   -0.039480192968982954   -0.0012128091364577746
-0.003922434220175027   -0.039248268676980155   -0.0011505458687370526
-0.0031991658614767674   -0.039408341660193004   -0.001121929064266502
-0.0029638738942127066   -0.03931035233339939   -0.0010558839950552028
-0.0030402269509427907   -0.03936251343388369   -0.0010006705213799246
-0.003922434220175027   -0.039248268676980155   -0.0011505458687370526
-0.0031991658614767674   -0.039408341660193004   -0.001121929064266502
-0.0030402269509427907   -0.03936251343388369   -0.0010006705213799246
-0.0034719599389432566   -0.039480192968982954   -0.0012128091364577746
-0.003922434220175027   -0.039248268676980155   -0.0011505458687370526
-0.0029638738942127066   -0.03931035233339939   -0.0010558839950552028
-0.003365787927413821   -0.039440971667682456   -0.0011848209434618712
-0.0038106384603286067   -0.03925060932878863   -0.0011916018165046992
-0.0029638738942127066   -0.03931035233339939   -0.0010558839950552028
-0.0031991658614767674   -0.039408341660193004   -0.001121929064266502
-0.003365787927413821   -0.039440971667682456   -0.0011848209434618712
-0.003124053149855971   -0.03939194749834597   -0.001117823259393409
-0.0038106384603286067   -0.03925060932878863   -0.0011916018165046992
-0.0032630581742911224   -0.03944060772565315   -0.0011564963972373404
-0.003124053149855971   -0.03939194749834597   -0.001117823259393409
-0.003365787927413821   -0.039440971667682456   -0.0011848209434618712
-0.0038106384603286067   -0.03925060932878863   -0.0011916018165046992
-0.003124053149855971   -0.03939194749834597   -0.001117823259393409
-0.0028742098162160244   -0.039291557928265074   -0.0011068972200762425
-0.0029638738942127066   -0.03931035233339939   -0.0010558839950552028
-0.0038106384603286067   -0.03925060932878863   -0.0011916018165046992
-0.003124053149855971   -0.03939194749834597   -0.001117823259393409
-0.0029638738942127066   -0.03931035233339939   -0.0010558839950552028
-0.003365787927413821   -0.039440971667682456   -0.0011848209434618712
-0.0038106384603286067   -0.03925060932878863   -0.0011916018165046992
-0.0028742098162160244   -0.039291557928265074   -0.0011068972200762425
-0.0032630581742911224   -0.03944060772565315   -0.0011564963972373404
-0.0037068756408984082   -0.039293639616630405   -0.0012332483551220554
-0.0028742098162160244   -0.039291557928265074   -0.0011068972200762425
-0.003124053149855971   -0.03939194749834597   -0.001117823259393409
-0.0032630581742911224   -0.03944060772565315   -0.0011564963972373404
-0.0030477159608462636   -0.039404426941442396   -0.0011094434550222622
-0.0037068756408984082   -0.039293639616630405   -0.0012332483551220554
-0.0031560183024000555   -0.03947831109495764   -0.0011293190854671407
-0.0030477159608462636   -0.039404426941442396   -0.0011094434550222622
-0.0032630581742911224   -0.03944060772565315   -0.0011564963972373404
-0.0037068756408984082   -0.039293639616630405   -0.0012332483551220554
-0.0030477159608462636   -0.039404426941442396   -0.0011094434550222622
-0.0027974632191568763   -0.03930642282703039   -0.0011534510835023667
-0.0028742098162160244   -0.039291557928265074   -0.0011068972200762425
-0.0037068756408984082   -0.039293639616630405   -0.0012332483551220554
-0.0030477159608462636   -0.039404426941442396   -0.0011094434550222622
-0.0028742098162160244   -0.039291557928265074   -0.0011068972200762425
-0.0032630581742911224   -0.03944060772565315   -0.0011564963972373404
-0.0034719599389432566   -0.039480192968982954   -0.0012128091364577746
-0.0032666736740163925   -0.03945495104421078   -0.0011205903381351833
-0.0029678883072836865   -0.03971227629198979   -0.0013263646401674523
-0.003365787927413821   -0.039440971667682456   -0.0011848209434618712
-0.0032666736740163925   -0.03945495104421078   -0.0011205903381351833
-0.0035099825155925023   -0.039492632044648486   -0.001238740937383077
-0.0029678883072836865   -0.03971227629198979   -0.0013263646401674523
-0.003440047435095394   -0.039448092957862134   -0.0011882653426788772
-0.003365787927413821   -0.039440971667682456   -0.0011848209434618712
-0.002837840489029559   -0.039678054419143405   -0.0012259384746408902
-0.003440047435095394   -0.039448092957862134   -0.0011882653426788772
-0.0029678883072836865   -0.03971227629198979   -0.0013263646401674523
-0.003365787927413821   -0.039440971667682456   -0.0011848209434618712
-0.003440047435095394   -0.039448092957862134   -0.0011882653426788772
-0.0031991658614767674   -0.039408341660193004   -0.001121929064266502
-0.0032666736740163925   -0.03945495104421078   -0.0011205903381351833
-0.003365787927413821   -0.039440971667682456   -0.0011848209434618712
-0.003440047435095394   -0.039448092957862134   -0.0011882653426788772
-0.0032666736740163925   -0.03945495104421078   -0.0011205903381351833
-0.0029678883072836865   -0.03971227629198979   -0.0013263646401674523
-0.003365787927413821   -0.039440971667682456   -0.0011848209434618712
-0.0031991658614767674   -0.039408341660193004   -0.001121929064266502
-0.002837840489029559   -0.039678054419143405   -0.0012259384746408902
-0.0032630581742911224   -0.03944060772565315   -0.0011564963972373404
-0.0031991658614767674   -0.039408341660193004   -0.001121929064266502
-0.003440047435095394   -0.039448092957862134   -0.0011882653426788772
-0.002837840489029559   -0.039678054419143405   -0.0012259384746408902
-0.003356243016055153   -0.03943425299532136   -0.0011311561134570455
-0.0032630581742911224   -0.03944060772565315   -0.0011564963972373404
-0.002717219728262125   -0.039676420708582134   -0.0011257799974040497
-0.003356243016055153   -0.03943425299532136   -0.0011311561134570455
-0.002837840489029559   -0.039678054419143405   -0.0012259384746408902
-0.0032630581742911224   -0.03944060772565315   -0.0011564963972373404
-0.003356243016055153   -0.03943425299532136   -0.0011311561134570455
-0.003124053149855971   -0.03939194749834597   -0.001117823259393409
-0.0031991658614767674   -0.039408341660193004   -0.001121929064266502
-0.0032630581742911224   -0.03944060772565315   -0.0011564963972373404
-0.003356243016055153   -0.03943425299532136   -0.0011311561134570455
-0.0031991658614767674   -0.039408341660193004   -0.001121929064266502
-0.002837840489029559   -0.039678054419143405   -0.0012259384746408902
-0.0032630581742911224   -0.03944060772565315   -0.0011564963972373404
-0.003124053149855971   -0.03939194749834597   -0.001117823259393409
-0.002717219728262125   -0.039676420708582134   -0.0011257799974040497
-0.0031560183024000555   -0.03947831109495764   -0.0011293190854671407
-0.003124053149855971   -0.03939194749834597   -0.001117823259393409
-0.003356243016055153   -0.03943425299532136   -0.0011311561134570455
-0.002717219728262125   -0.039676420708582134   -0.0011257799974040497
-0.0032701098112137886   -0.039446384869547754   -0.0010703762924682886
-0.0031560183024000555   -0.03947831109495764   -0.0011293190854671407
-0.00258787456562222   -0.039705667054141004   -0.0010255200626350205
-0.0032701098112137886   -0.039446384869547754   -0.0010703762924682886
-0.002717219728262125   -0.039676420708582134   -0.0011257799974040497
-0.0031560183024000555   -0.03947831109495764   -0.0011293190854671407
-0.0032701098112137886   -0.039446384869547754   -0.0010703762924682886
-0.0030477159608462636   -0.039404426941442396   -0.0011094434550222622
-0.003124053149855971   -0.03939194749834597   -0.001117823259393409
-0.0031560183024000555   -0.03947831109495764   -0.0011293190854671407
-0.0032701098112137886   -0.039446384869547754   -0.0010703762924682886
-0.003124053149855971   -0.03939194749834597   -0.001117823259393409
-0.002717219728262125   -0.039676420708582134   -0.0011257799974040497
-0.0029678883072836865   -0.03971227629198979   -0.0013263646401674523
-0.0035099825155925023   -0.039492632044648486   -0.001238740937383077
-0.0024717890103574678   -0.04   -0.0014145299323240041
-0.002837840489029559   -0.039678054419143405   -0.0012259384746408902
-0.0035099825155925023   -0.039492632044648486   -0.001238740937383077
-0.0038627230387101794   -0.03944871271738062   -0.0013513136890723188
-0.0024717890103574678   -0.04   -0.0014145299323240041
-0.0037714101627980535   -0.03940648710852211   -0.0012514333785998608
-0.002837840489029559   -0.039678054419143405   -0.0012259384746408902
-0.0023079598335164955   -0.04   -0.0012612690285654286
-0.0037714101627980535   -0.03940648710852211   -0.0012514333785998608
-0.0024717890103574678   -0.04   -0.0014145299323240041
-0.002837840489029559   -0.039678054419143405   -0.0012259384746408902
-0.0037714101627980535   -0.03940648710852211   -0.0012514333785998608
-0.003440047435095394   -0.039448092957862134   -0.0011882653426788772
-0.0035099825155925023   -0.039492632044648486   -0.001238740937383077
-0.002837840489029559   -0.039678054419143405   -0.0012259384746408902
-0.0037714101627980535   -0.03940648710852211   -0.0012514333785998608
-0.0035099825155925023   -0.039492632044648486   -0.001238740937383077
-0.0024717890103574678   -0.04   -0.0014145299323240041
-0.002837840489029559   -0.039678054419143405   -0.0012259384746408902
-0.003440047435095394   -0.039448092957862134   -0.0011882653426788772
-0.0023079598335164955   -0.04   -0.0012612690285654286
-0.002717219728262125   -0.039676420708582134   -0.0011257799974040497
-0.003440047435095394   -0.039448092957862134   -0.0011882653426788772
-0.0037714101627980535   -0.03940648710852211   -0.0012514333785998608
-0.0023079598335164955   -0.04   -0.0012612690285654286
-0.0036507330893511317   -0.039397125912243036   -0.0011441365362485974
-0.002717219728262125   -0.039676420708582134   -0.0011257799974040497
-0.002143138952250346   -0.04   -0.0011061978151216338
-0.0036507330893511317   -0.039397125912243036   -0.0011441365362485974
-0.0023079598335164955   -0.04   -0.0012612690285654286
-0.002717219728262125   -0.039676420708582134   -0.0011257799974040497
-0.0036507330893511317   -0.039397125912243036   -0.0011441365362485974
-0.003356243016055153   -0.03943425299532136   -0.0011311561134570455
-0.003440047435095394   -0.039448092957862134   -0.0011882653426788772
-0.002717219728262125   -0.039676420708582134   -0.0011257799974040497
-0.0036507330893511317   -0.039397125912243036   -0.0011441365362485974
-0.003440047435095394   -0.039448092957862134   -0.0011882653426788772
-0.0023079598335164955   -0.04   -0.0012612690285654286
-0.002717219728262125   -0.039676420708582134   -0.0011257799974040497
-0.003356243016055153   -0.03943425299532136   -0.0011311561134570455
-0.002143138952250346   -0.04   -0.0011061978151216338
-0.00258787456562222   -0.039705667054141004   -0.0010255200626350205
-0.003356243016055153   -0.03943425299532136   -0.0011311561134570455
-0.0036507330893511317   -0.039397125912243036   -0.0011441365362485974
-0.002143138952250346   -0.04   -0.0011061978151216338
-0.003537511149228154   -0.03941435656414376   -0.0010327624744173984
-0.00258787456562222   -0.039705667054141004   -0.0010255200626350205
-0.001982289801117146   -0.04   -0.0009531950346511959
-0.003537511149228154   -0.03941435656414376   -0.0010327624744173984
-0.002143138952250346   -0.04   -0.0011061978151216338
-0.00258787456562222   -0.039705667054141004   -0.0010255200626350205
-0.003537511149228154   -0.03941435656414376   -0.0010327624744173984
-0.0032701098112137886   -0.039446384869547754   -0.0010703762924682886
-0.003356243016055153   -0.03943425299532136   -0.0011311561134570455
-0.00258787456562222   -0.039705667054141004   -0.0010255200626350205
-0.003537511149228154   -0.03941435656414376   -0.0010327624744173984
-0.003356243016055153   -0.03943425299532136   -0.0011311561134570455
-0.002143138952250346   -0.04   -0.0011061978151216338
-0.0024717890103574678   -0.04   -0.0014145299323240041
-0.0038627230387101794   -0.03944871271738062   -0.0013513136890723188
-0.002109599799754642   -0.04   -0.0015213001254381874
-0.0023079598335164955   -0.04   -0.0012612690285654286
-0.0038627230387101794   -0.03944871271738062   -0.0013513136890723188
-0.004552716253750799   -0.039256051106676924   -0.0014712861155337243
-0.002109599799754642   -0.04   -0.0015213001254381874
-0.0043079376983438155   -0.03922015895971456   -0.0013074610378742315
-0.0023079598335164955   -0.04   -0.0012612690285654286
-0.0017653413461093163   -0.04   -0.001299193330712317
-0.0043079376983438155   -0.03922015895971456   -0.0013074610378742315
-0.002109599799754642   -0.04   -0.0015213001254381874
-0.0023079598335164955   -0.04   -0.0012612690285654286
-0.0043079376983438155   -0.03922015895971456   -0.0013074610378742315
-0.0037714101627980535   -0.03940648710852211   -0.0012514333785998608
-0.0038627230387101794   -0.03944871271738062   -0.0013513136890723188
-0.0023079598335164955   -0.04   -0.0012612690285654286
-0.0043079376983438155   -0.03922015895971456   -0.0013074610378742315
-0.0038627230387101794   -0.03944871271738062   -0.0013513136890723188
-0.002109599799754642   -0.04   -0.0015213001254381874
-0.0023079598335164955   -0.04   -0.0012612690285654286
-0.0037714101627980535   -0.03940648710852211   -0.0012514333785998608
-0.0017653413461093163   -0.04   -0.001299193330712317
-0.002143138952250346   -0.04   -0.0011061978151216338
-0.0037714101627980535   -0.03940648710852211   -0.0012514333785998608
-0.0043079376983438155   -0.03922015895971456   -0.0013074610378742315
-0.0017653413461093163   -0.04   -0.001299193330712317
-0.00408345043159474   -0.039215435444219   -0.001132786320626033
-0.002143138952250346   -0.04   -0.0011061978151216338
-0.001490817681601736   -0.04   -0.0010867421710118624
-0.00408345043159474   -0.039215435444219   -0.001132786320626033
-0.0017653413461093163   -0.04   -0.001299193330712317
-0.002143138952250346   -0.04   -0.0011061978151216338
-0.00408345043159474   -0.039215435444219   -0.001132786320626033
-0.0036507330893511317   -0.039397125912243036   -0.0011441365362485974
-0.0037714101627980535   -0.03940648710852211   -0.0012514333785998608
-0.002143138952250346   -0.04   -0.0011061978151216338
-0.00408345043159474   -0.039215435444219   -0.001132786320626033
-0.0037714101627980535   -0.03940648710852211   -0.0012514333785998608
-0.0017653413461093163   -0.04   -0.001299193330712317
-0.002143138952250346   -0.04   -0.0011061978151216338
-0.0036507330893511317   -0.039397125912243036   -0.0011441365362485974
-0.001490817681601736   -0.04   -0.0010867421710118624
-0.001982289801117146   -0.04   -0.0009531950346511959
-0.0036507330893511317   -0.039397125912243036   -0.0011441365362485974
-0.00408345043159474   -0.039215435444219   -0.001132786320626033
-0.001490817681601736   -0.04   -0.0010867421710118624
-0.003799869956855721   -0.03926245807142254   -0.0009502664200473496
-0.001982289801117146   -0.04   -0.0009531950346511959
-0.0011517669610125482   -0.04   -0.000866175159237635
-0.003799869956855721   -0.03926245807142254   -0.0009502664200473496
-0.001490817681601736   -0.04   -0.0010867421710118624
-0.001982289801117146   -0.04   -0.0009531950346511959
-0.003799869956855721   -0.03926245807142254   -0.0009502664200473496
-0.003537511149228154   -0.03941435656414376   -0.0010327624744173984
-0.0036507330893511317   -0.039397125912243036   -0.0011441365362485974
-0.001982289801117146   -0.04   -0.0009531950346511959
-0.003799869956855721   -0.03926245807142254   -0.0009502664200473496
-0.0036507330893511317   -0.039397125912243036   -0.0011441365362485974
-0.001490817681601736   -0.04   -0.0010867421710118624
-0.0028760904036972007   -0.03921177010370864   -0.0008505436860823009
-0.0012023338000028384   -0.03775419275547698   -0.000734081029527911
-0.0030402269509427907   -0.03936251343388369   -0.0010006705213799246
-0.0026803605318499665   -0.03914474116687055   -0.0009798784475377402
-0.0012023338000028384   -0.03775419275547698   -0.000734081029527911
-0.002194727442309877   -0.03786843525501513   -0.0008936801831442106
-0.0030402269509427907   -0.03936251343388369   -0.0010006705213799246
-0.0021404020852366337   -0.0378052828935103   -0.000943031021110417
-0.0026803605318499665   -0.03914474116687055   -0.0009798784475377402
-0.0029638738942127066   -0.03931035233339939   -0.0010558839950552028
-0.0021404020852366337   -0.0378052828935103   -0.000943031021110417
-0.0030402269509427907   -0.03936251343388369   -0.0010006705213799246
-0.0026803605318499665   -0.03914474116687055   -0.0009798784475377402
-0.0021404020852366337   -0.0378052828935103   -0.000943031021110417
-0.0010458066110722655   -0.03767594983506139   -0.0008461997180123157
-0.0012023338000028384   -0.03775419275547698   -0.000734081029527911
-0.0026803605318499665   -0.03914474116687055   -0.0009798784475377402
-0.0021404020852366337   -0.0378052828935103   -0.000943031021110417
-0.0012023338000028384   -0.03775419275547698   -0.000734081029527911
-0.0030402269509427907   -0.03936251343388369   -0.0010006705213799246
-0.0026803605318499665   -0.03914474116687055   -0.0009798784475377402
-0.0010458066110722655   -0.03767594983506139   -0.0008461997180123157
-0.0029638738942127066   -0.03931035233339939   -0.0010558839950552028
-0.002517473079737439   -0.039124629804964624   -0.0011040050678063117
-0.0010458066110722655   -0.03767594983506139   -0.0008461997180123157
-0.0021404020852366337   -0.0378052828935103   -0.000943031021110417
-0.0029638738942127066   -0.03931035233339939   -0.0010558839950552028
-0.002079116474656895   -0.03777076064946391   -0.0009880004136501497
-0.002517473079737439   -0.039124629804964624   -0.0011040050678063117
-0.0028742098162160244   -0.039291557928265074   -0.0011068972200762425
-0.002079116474656895   -0.03777076064946391   -0.0009880004136501497
-0.0029638738942127066   -0.03931035233339939   -0.0010558839950552028
-0.002517473079737439   -0.039124629804964624   -0.0011040050678063117
-0.002079116474656895   -0.03777076064946391   -0.0009880004136501497
-0.0009226257654119468   -0.037639219959193684   -0.0009518280122754452
-0.0010458066110722655   -0.03767594983506139   -0.0008461997180123157
-0.002517473079737439   -0.039124629804964624   -0.0011040050678063117
-0.002079116474656895   -0.03777076064946391   -0.0009880004136501497
-0.0010458066110722655   -0.03767594983506139   -0.0008461997180123157
-0.0029638738942127066   -0.03931035233339939   -0.0010558839950552028
-0.002517473079737439   -0.039124629804964624   -0.0011040050678063117
-0.0009226257654119468   -0.037639219959193684   -0.0009518280122754452
-0.0028742098162160244   -0.039291557928265074   -0.0011068972200762425
-0.0023329398288661866   -0.039143151698479706   -0.0012223878621796518
-0.0009226257654119468   -0.037639219959193684   -0.0009518280122754452
-0.002079116474656895   -0.03777076064946391   -0.0009880004136501497
-0.0028742098162160244   -0.039291557928265074   -0.0011068972200762425
-0.0020321655114920634   -0.03776389816558197   -0.0010287325969301584
-0.0023329398288661866   -0.039143151698479706   -0.0012223878621796518
-0.0027974632191568763   -0.03930642282703039   -0.0011534510835023667
-0.0020321655114920634   -0.03776389816558197   -0.0010287325969301584
-0.0028742098162160244   -0.039291557928265074   -0.0011068972200762425
-0.0023329398288661866   -0.039143151698479706   -0.0012223878621796518
-0.0020321655114920634   -0.03776389816558197   -0.0010287325969301584
-0.0007878146220750076   -0.03763334692823163   -0.0010506969499144885
-0.0009226257654119468   -0.037639219959193684   -0.0009518280122754452
-0.0023329398288661866   -0.039143151698479706   -0.0012223878621796518
-0.0020321655114920634   -0.03776389816558197   -0.0010287325969301584
-0.0009226257654119468   -0.037639219959193684   -0.0009518280122754452
-0.0028742098162160244   -0.039291557928265074   -0.0011068972200762425
-0.0030402269509427907   -0.03936251343388369   -0.0010006705213799246
-0.002194727442309877   -0.03786843525501513   -0.0008936801831442106
-0.0032666736740163925   -0.03945495104421078   -0.0011205903381351833
-0.0029638738942127066   -0.03931035233339939   -0.0010558839950552028
-0.002194727442309877   -0.03786843525501513   -0.0008936801831442106
-0.0031764406094435724   -0.03790855248161491   -0.001023656333368884
-0.0032666736740163925   -0.03945495104421078   -0.0011205903381351833
-0.003130843715699172   -0.037853474693799856   -0.0010262607789514706
-0.0029638738942127066   -0.03931035233339939   -0.0010558839950552028
-0.0031991658614767674   -0.039408341660193004   -0.001121929064266502
-0.003130843715699172   -0.037853474693799856   -0.0010262607789514706
-0.0032666736740163925   -0.03945495104421078   -0.0011205903381351833
-0.0029638738942127066   -0.03931035233339939   -0.0010558839950552028
-0.003130843715699172   -0.037853474693799856   -0.0010262607789514706
-0.0021404020852366337   -0.0378052828935103   -0.000943031021110417
-0.002194727442309877   -0.03786843525501513   -0.0008936801831442106
-0.0029638738942127066   -0.03931035233339939   -0.0010558839950552028
-0.003130843715699172   -0.037853474693799856   -0.0010262607789514706
-0.002194727442309877   -0.03786843525501513   -0.0008936801831442106
-0.0032666736740163925   -0.03945495104421078   -0.0011205903381351833
-0.0029638738942127066   -0.03931035233339939   -0.0010558839950552028
-0.0021404020852366337   -0.0378052828935103   -0.000943031021110417
-0.0031991658614767674   -0.039408341660193004   -0.001121929064266502
-0.0028742098162160244   -0.039291557928265074   -0.0011068972200762425
-0.0021404020852366337   -0.0378052828935103   -0.000943031021110417
-0.003130843715699172   -0.037853474693799856   -0.0010262607789514706
-0.0031991658614767674   -0.039408341660193004   -0.001121929064266502
-0.003083669861692863   -0.037824199519221745   -0.0010248056545210126
-0.0028742098162160244   -0.039291557928265074   -0.0011068972200762425
-0.003124053149855971   -0.03939194749834597   -0.001117823259393409
-0.003083669861692863   -0.037824199519221745   -0.0010248056545210126
-0.0031991658614767674   -0.039408341660193004   -0.001121929064266502
-0.0028742098162160244   -0.039291557928265074   -0.0011068972200762425
-0.003083669861692863   -0.037824199519221745   -0.0010248056545210126
-0.002079116474656895   -0.03777076064946391   -0.0009880004136501497
-0.0021404020852366337   -0.0378052828935103   -0.000943031021110417
-0.0028742098162160244   -0.039291557928265074   -0.0011068972200762425
-0.003083669861692863   -0.037824199519221745   -0.0010248056545210126
-0.0021404020852366337   -0.0378052828935103   -0.000943031021110417
-0.0031991658614767674   -0.039408341660193004   -0.001121929064266502
-0.0028742098162160244   -0.039291557928265074   -0.0011068972200762425
-0.002079116474656895   -0.03777076064946391   -0.0009880004136501497
-0.003124053149855971   -0.03939194749834597   -0.001117823259393409
-0.0027974632191568763   -0.03930642282703039   -0.0011534510835023667
-0.002079116474656895   -0.03777076064946391   -0.0009880004136501497
-0.003083669861692863   -0.037824199519221745   -0.0010248056545210126
-0.003124053149855971   -0.03939194749834597   -0.001117823259393409
-0.003038192828020721   -0.037819515368681514   -0.0010192613242360185
-0.0027974632191568763   -0.03930642282703039   -0.0011534510835023667
-0.0030477159608462636   -0.039404426941442396   -0.0011094434550222622
-0.003038192828020721   -0.037819515368681514   -0.0010192613242360185
-0.003124053149855971   -0.03939194749834597   -0.001117823259393409
-0.0027974632191568763   -0.03930642282703039   -0.0011534510835023667
-0.003038192828020721   -0.037819515368681514   -0.0010192613242360185
-0.0020321655114920634   -0.03776389816558197   -0.0010287325969301584
-0.002079116474656895   -0.03777076064946391   -0.0009880004136501497
-0.0027974632191568763   -0.03930642282703039   -0.0011534510835023667
-0.003038192828020721   -0.037819515368681514   -0.0010192613242360185
-0.002079116474656895   -0.03777076064946391   -0.0009880004136501497
-0.003124053149855971   -0.03939194749834597   -0.001117823259393409
-0.0032666736740163925   -0.03945495104421078   -0.0011205903381351833
-0.0031764406094435724   -0.03790855248161491   -0.001023656333368884
-0.0035099825155925023   -0.039492632044648486   -0.001238740937383077
-0.0031991658614767674   -0.039408341660193004   -0.001121929064266502
-0.0031764406094435724   -0.03790855248161491   -0.001023656333368884
-0.004151675274521714   -0.03787248015774389   -0.0011453520597925512
-0.0035099825155925023   -0.039492632044648486   -0.001238740937383077
-0.0041064394145580866   -0.03782351884476847   -0.0011031146156050698
-0.0031991658614767674   -0.039408341660193004   -0.001121929064266502
-0.003440047435095394   -0.039448092957862134   -0.0011882653426788772
-0.0041064394145580866   -0.03782351884476847   -0.0011031146156050698
-0.0035099825155925023   -0.039492632044648486   -0.001238740937383077
-0.0031991658614767674   -0.039408341660193004   -0.001121929064266502
-0.0041064394145580866   -0.03782351884476847   -0.0011031146156050698
-0.003130843715699172   -0.037853474693799856   -0.0010262607789514706
-0.0031764406094435724   -0.03790855248161491   -0.001023656333368884
-0.0031991658614767674   -0.039408341660193004   -0.001121929064266502
-0.0041064394145580866   -0.03782351884476847   -0.0011031146156050698
-0.0031764406094435724   -0.03790855248161491   -0.001023656333368884
-0.0035099825155925023   -0.039492632044648486   -0.001238740937383077
-0.0031991658614767674   -0.039408341660193004   -0.001121929064266502
-0.003130843715699172   -0.037853474693799856   -0.0010262607789514706
-0.003440047435095394   -0.039448092957862134   -0.0011882653426788772
-0.003124053149855971   -0.03939194749834597   -0.001117823259393409
-0.003130843715699172   -0.037853474693799856   -0.0010262607789514706
-0.0041064394145580866   -0.03782351884476847   -0.0011031146156050698
-0.003440047435095394   -0.039448092957862134   -0.0011882653426788772
-0.004055677390757454   -0.03779993688934075   -0.0010568815355526161
-0.003124053149855971   -0.03939194749834597   -0.001117823259393409
-0.003356243016055153   -0.03943425299532136   -0.0011311561134570455
-0.004055677390757454   -0.03779993688934075   -0.0010568815355526161
-0.003440047435095394   -0.039448092957862134   -0.0011882653426788772
-0.003124053149855971   -0.03939194749834597   -0.001117823259393409
-0.004055677390757454   -0.03779993688934075   -0.0010568815355526161
-0.003083669861692863   -0.037824199519221745   -0.0010248056545210126
-0.003130843715699172   -0.037853474693799856   -0.0010262607789514706
-0.003124053149855971   -0.03939194749834597   -0.001117823259393409
-0.004055677390757454   -0.03779993688934075   -0.0010568815355526161
-0.003130843715699172   -0.037853474693799856   -0.0010262607789514706
-0.003440047435095394   -0.039448092957862134   -0.0011882653426788772
-0.003124053149855971   -0.03939194749834597   -0.001117823259393409
-0.003083669861692863   -0.037824199519221745   -0.0010248056545210126
-0.003356243016055153   -0.03943425299532136   -0.0011311561134570455
-0.0030477159608462636   -0.039404426941442396   -0.0011094434550222622
-0.003083669861692863   -0.037824199519221745   -0.0010248056545210126
-0.004055677390757454   -0.03779993688934075   -0.0010568815355526161
-0.003356243016055153   -0.03943425299532136   -0.0011311561134570455
-0.0040047466833629496   -0.03779933771874386   -0.0010061667043039244
-0.0030477159608462636   -0.039404426941442396   -0.0011094434550222622
-0.0032701098112137886   -0.039446384869547754   -0.0010703762924682886
-0.0040047466833629496   -0.03779933771874386   -0.0010061667043039244
-0.003356243016055153   -0.03943425299532136   -0.0011311561134570455
-0.0030477159608462636   -0.039404426941442396   -0.0011094434550222622
-0.0040047466833629496   -0.03779933771874386   -0.0010061667043039244
-0.003038192828020721   -0.037819515368681514   -0.0010192613242360185
-0.003083669861692863   -0.037824199519221745   -0.0010248056545210126
-0.0030477159608462636   -0.039404426941442396   -0.0011094434550222622
-0.0040047466833629496   -0.03779933771874386   -0.0010061667043039244
-0.003083669861692863   -0.037824199519221745   -0.0010248056545210126
-0.003356243016055153   -0.03943425299532136   -0.0011311561134570455
-0.0035099825155925023   -0.039492632044648486   -0.001238740937383077
-0.004151675274521714   -0.03787248015774389   -0.0011453520597925512
-0.0038627230387101794   -0.03944871271738062   -0.0013513136890723188
-0.003440047435095394   -0.039448092957862134   -0.0011882653426788772
-0.004151675274521714   -0.03787248015774389   -0.0011453520597925512
-0.005222278171201064   -0.037755514064085456   -0.0012572961516921955
-0.0038627230387101794   -0.03944871271738062   -0.0013513136890723188
-0.0051667876161849225   -0.037712649202257864   -0.0011711713742170477
-0.003440047435095394   -0.039448092957862134   -0.0011882653426788772
-0.0037714101627980535   -0.03940648710852211   -0.0012514333785998608
-0.0051667876161849225   -0.037712649202257864   -0.0011711713742170477
-0.0038627230387101794   -0.03944871271738062   -0.0013513136890723188
-0.003440047435095394   -0.039448092957862134   -0.0011882653426788772
-0.0051667876161849225   -0.037712649202257864   -0.0011711713742170477
-0.0041064394145580866   -0.03782351884476847   -0.0011031146156050698
-0.004151675274521714   -0.03787248015774389   -0.0011453520597925512
-0.003440047435095394   -0.039448092957862134   -0.0011882653426788772
-0.0051667876161849225   -0.037712649202257864   -0.0011711713742170477
-0.004151675274521714   -0.03787248015774389   -0.0011453520597925512
-0.0038627230387101794   -0.03944871271738062   -0.0013513136890723188
-0.003440047435095394   -0.039448092957862134   -0.0011882653426788772
-0.0041064394145580866   -0.03782351884476847   -0.0011031146156050698
-0.0037714101627980535   -0.03940648710852211   -0.0012514333785998608
-0.003356243016055153   -0.03943425299532136   -0.0011311561134570455
-0.0041064394145580866   -0.03782351884476847   -0.0011031146156050698
-0.0051667876161849225   -0.037712649202257864   -0.0011711713742170477
-0.0037714101627980535   -0.03940648710852211   -0.0012514333785998608
-0.005090062611658068   -0.037694738068942364   -0.0010813559005538845
-0.003356243016055153   -0.03943425299532136   -0.0011311561134570455
-0.0036507330893511317   -0.039397125912243036   -0.0011441365362485974
-0.005090062611658068   -0.037694738068942364   -0.0010813559005538845
-0.0037714101627980535   -0.03940648710852211   -0.0012514333785998608
-0.003356243016055153   -0.03943425299532136   -0.0011311561134570455
-0.005090062611658068   -0.037694738068942364   -0.0010813559005538845
-0.004055677390757454   -0.03779993688934075   -0.0010568815355526161
-0.0041064394145580866   -0.03782351884476847   -0.0011031146156050698
-0.003356243016055153   -0.03943425299532136   -0.0011311561134570455
-0.005090062611658068   -0.037694738068942364   -0.0010813559005538845
-0.0041064394145580866   -0.03782351884476847   -0.0011031146156050698
-0.0037714101627980535   -0.03940648710852211   -0.0012514333785998608
-0.003356243016055153   -0.03943425299532136   -0.0011311561134570455
-0.004055677390757454   -0.03779993688934075   -0.0010568815355526161
-0.0036507330893511317   -0.039397125912243036   -0.0011441365362485974
-0.0032701098112137886   -0.039446384869547754   -0.0010703762924682886
-0.004055677390757454   -0.03779993688934075   -0.0010568815355526161
-0.005090062611658068   -0.037694738068942364   -0.0010813559005538845
-0.0036507330893511317   -0.039397125912243036   -0.0011441365362485974
-0.005023287552754723   -0.03770179934633999   -0.0009853780173397575
-0.0032701098112137886   -0.039446384869547754   -0.0010703762924682886
-0.003537511149228154   -0.03941435656414376   -0.0010327624744173984
-0.005023287552754723   -0.03770179934633999   -0.0009853780173397575
-0.0036507330893511317   -0.039397125912243036   -0.0011441365362485974
-0.0032701098112137886   -0.039446384869547754   -0.0010703762924682886
-0.005023287552754723   -0.03770179934633999   -0.0009853780173397575
-0.0040047466833629496   -0.03779933771874386   -0.0010061667043039244
-0.004055677390757454   -0.03779993688934075   -0.0010568815355526161
-0.0032701098112137886   -0.039446384869547754   -0.0010703762924682886
-0.005023287552754723   -0.03770179934633999   -0.0009853780173397575
-0.004055677390757454   -0.03779993688934075   -0.0010568815355526161
-0.0036507330893511317   -0.039397125912243036   -0.0011441365362485974
-0.0038627230387101794   -0.03944871271738062   -0.0013513136890723188
-0.005222278171201064   -0.037755514064085456   -0.0012572961516921955
-0.004552716253750799   -0.039256051106676924   -0.0014712861155337243
-0.0037714101627980535   -0.03940648710852211   -0.0012514333785998608
-0.005222278171201064   -0.037755514064085456   -0.0012572961516921955
-0.006600782486969755   -0.0375652877573208   -0.0013652289091730047
-0.004552716253750799   -0.039256051106676924   -0.0014712861155337243
-0.00642039554980757   -0.037518609382418106   -0.0012292005538393222
-0.0037714101627980535   -0.03940648710852211   -0.0012514333785998608
-0.0043079376983438155   -0.03922015895971456   -0.0013074610378742315
-0.00642039554980757   -0.037518609382418106   -0.0012292005538393222
-0.004552716253750799   -0.039256051106676924   -0.0014712861155337243
-0.0037714101627980535   -0.03940648710852211   -0.0012514333785998608
-0.00642039554980757   -0.037518609382418106   -0.0012292005538393222
-0.0051667876161849225   -0.037712649202257864   -0.0011711713742170477
-0.005222278171201064   -0.037755514064085456   -0.0012572961516921955
-0.0037714101627980535   -0.03940648710852211   -0.0012514333785998608
-0.00642039554980757   -0.037518609382418106   -0.0012292005538393222
-0.005222278171201064   -0.037755514064085456   -0.0012572961516921955
-0.004552716253750799   -0.039256051106676924   -0.0014712861155337243
-0.0037714101627980535   -0.03940648710852211   -0.0012514333785998608
-0.0051667876161849225   -0.037712649202257864   -0.0011711713742170477
-0.0043079376983438155   -0.03922015895971456   -0.0013074610378742315
-0.0036507330893511317   -0.039397125912243036   -0.0011441365362485974
-0.0051667876161849225   -0.037712649202257864   -0.0011711713742170477
-0.00642039554980757   -0.037518609382418106   -0.0012292005538393222
-0.0043079376983438155   -0.03922015895971456   -0.0013074610378742315
-0.00625904779728837   -0.03750204222001004   -0.0010854067510862788
-0.0036507330893511317   -0.039397125912243036   -0.0011441365362485974
-0.00408345043159474   -0.039215435444219   -0.001132786320626033
-0.00625904779728837   -0.03750204222001004   -0.0010854067510862788
-0.0043079376983438155   -0.03922015895971456   -0.0013074610378742315
-0.0036507330893511317   -0.039397125912243036   -0.0011441365362485974
-0.00625904779728837   -0.03750204222001004   -0.0010854067510862788
-0.005090062611658068   -0.037694738068942364   -0.0010813559005538845
-0.0051667876161849225   -0.037712649202257864   -0.0011711713742170477
-0.0036507330893511317   -0.039397125912243036   -0.0011441365362485974
-0.00625904779728837   -0.03750204222001004   -0.0010854067510862788
-0.0051667876161849225   -0.037712649202257864   -0.0011711713742170477
-0.0043079376983438155   -0.03922015895971456   -0.0013074610378742315
-0.0036507330893511317   -0.039397125912243036   -0.0011441365362485974
-0.005090062611658068   -0.037694738068942364   -0.0010813559005538845
-0.00408345043159474   -0.039215435444219   -0.001132786320626033
-0.003537511149228154   -0.03941435656414376   -0.0010327624744173984
-0.005090062611658068   -0.037694738068942364   -0.0010813559005538845
-0.00625904779728837   -0.03750204222001004   -0.0010854067510862788
-0.00408345043159474   -0.039215435444219   -0.001132786320626033
-0.006049977135168895   -0.03752424547406237   -0.0009352003207394646
-0.003537511149228154   -0.03941435656414376   -0.0010327624744173984
-0.003799869956855721   -0.03926245807142254   -0.0009502664200473496
-0.006049977135168895   -0.03752424547406237   -0.0009352003207394646
-0.00408345043159474   -0.039215435444219   -0.001132786320626033
-0.003537511149228154   -0.03941435656414376   -0.0010327624744173984
-0.006049977135168895   -0.03752424547406237   -0.0009352003207394646
-0.005023287552754723   -0.03770179934633999   -0.0009853780173397575
-0.005090062611658068   -0.037694738068942364   -0.0010813559005538845
-0.003537511149228154   -0.03941435656414376   -0.0010327624744173984
-0.006049977135168895   -0.03752424547406237   -0.0009352003207394646
-0.005090062611658068   -0.037694738068942364   -0.0010813559005538845
-0.00408345043159474   -0.039215435444219   -0.001132786320626033
-0.0012023338000028384   -0.03775419275547698   -0.000734081029527911
0.00016048587685172193   -0.035052984740080576   -0.0006065124274812733
-0.002194727442309877   -0.03786843525501513   -0.0008936801831442106
-0.0010458066110722655   -0.03767594983506139   -0.0008461997180123157
0.00016048587685172193   -0.035052984740080576   -0.0006065124274812733
-0.001520832597836605   -0.03513717092876109   -0.000763325449452502
-0.002194727442309877   -0.03786843525501513   -0.0008936801831442106
-0.0014918967549370143   -0.035070958382406744   -0.0008026266423640921
-0.0010458066110722655   -0.03767594983506139   -0.0008461997180123157
-0.0021404020852366337   -0.0378052828935103   -0.000943031021110417
-0.0014918967549370143   -0.035070958382406744   -0.0008026266423640921
-0.002194727442309877   -0.03786843525501513   -0.0008936801831442106
-0.0010458066110722655   -0.03767594983506139   -0.0008461997180123157
-0.0014918967549370143   -0.035070958382406744   -0.0008026266423640921
0.0002703584505528534   -0.034973411311039114   -0.0006961604193684693
0.00016048587685172193   -0.035052984740080576   -0.0006065124274812733
-0.0010458066110722655   -0.03767594983506139   -0.0008461997180123157
-0.0014918967549370143   -0.035070958382406744   -0.0008026266423640921
0.00016048587685172193   -0.035052984740080576   -0.0006065124274812733
-0.002194727442309877   -0.03786843525501513   -0.0008936801831442106
-0.0010458066110722655   -0.03767594983506139   -0.0008461997180123157
0.0002703584505528534   -0.034973411311039114   -0.0006961604193684693
-0.0021404020852366337   -0.0378052828935103   -0.000943031021110417
-0.0009226257654119468   -0.037639219959193684   -0.0009518280122754452
0.0002703584505528534   -0.034973411311039114   -0.0006961604193684693
-0.0014918967549370143   -0.035070958382406744   -0.0008026266423640921
-0.0021404020852366337   -0.0378052828935103   -0.000943031021110417
-0.001458847684384565   -0.03502818531295824   -0.0008374211299295457
-0.0009226257654119468   -0.037639219959193684   -0.0009518280122754452
-0.002079116474656895   -0.03777076064946391   -0.0009880004136501497
-0.001458847684384565   -0.03502818531295824   -0.0008374211299295457
-0.0021404020852366337   -0.0378052828935103   -0.000943031021110417
-0.0009226257654119468   -0.037639219959193684   -0.0009518280122754452
-0.001458847684384565   -0.03502818531295824   -0.0008374211299295457
0.0003512420930286601   -0.03492797807251275   -0.0007794999688628806
0.0002703584505528534   -0.034973411311039114   -0.0006961604193684693
-0.0009226257654119468   -0.037639219959193684   -0.0009518280122754452
-0.001458847684384565   -0.03502818531295824   -0.0008374211299295457
0.0002703584505528534   -0.034973411311039114   -0.0006961604193684693
-0.0021404020852366337   -0.0378052828935103   -0.000943031021110417
-0.0009226257654119468   -0.037639219959193684   -0.0009518280122754452
0.0003512420930286601   -0.03492797807251275   -0.0007794999688628806
-0.002079116474656895   -0.03777076064946391   -0.0009880004136501497
-0.0007878146220750076   -0.03763334692823163   -0.0010506969499144885
0.0003512420930286601   -0.03492797807251275   -0.0007794999688628806
-0.001458847684384565   -0.03502818531295824   -0.0008374211299295457
-0.002079116474656895   -0.03777076064946391   -0.0009880004136501497
-0.001439076988944839   -0.035007569553464596   -0.0008681545541212769
-0.0007878146220750076   -0.03763334692823163   -0.0010506969499144885
-0.0020321655114920634   -0.03776389816558197   -0.0010287325969301584
-0.001439076988944839   -0.035007569553464596   -0.0008681545541212769
-0.002079116474656895   -0.03777076064946391   -0.0009880004136501497
-0.0007878146220750076   -0.03763334692823163   -0.0010506969499144885
-0.001439076988944839   -0.035007569553464596   -0.0008681545541212769
0.00043810101323021877   -0.03490640919663566   -0.0008565046861646476
0.0003512420930286601   -0.03492797807251275   -0.0007794999688628806
-0.0007878146220750076   -0.03763334692823163   -0.0010506969499144885
-0.001439076988944839   -0.035007569553464596   -0.0008681545541212769
0.0003512420930286601   -0.03492797807251275   -0.0007794999688628806
-0.002079116474656895   -0.03777076064946391   -0.0009880004136501497
-0.002194727442309877   -0.03786843525501513   -0.0008936801831442106
-0.001520832597836605   -0.03513717092876109   -0.000763325449452502
-0.0031764406094435724   -0.03790855248161491   -0.001023656333368884
-0.0021404020852366337   -0.0378052828935103   -0.000943031021110417
-0.001520832597836605   -0.03513717092876109   -0.000763325449452502
-0.0031492469924256283   -0.03515332136481803   -0.0008922420254488374
-0.0031764406094435724   -0.03790855248161491   -0.001023656333368884
-0.003128048590828589   -0.03509655220636992   -0.0008931698539842394
-0.0021404020852366337   -0.0378052828935103   -0.000943031021110417
-0.003130843715699172   -0.037853474693799856   -0.0010262607789514706
-0.003128048590828589   -0.03509655220636992   -0.0008931698539842394
-0.0031764406094435724   -0.03790855248161491   -0.001023656333368884
-0.0021404020852366337   -0.0378052828935103   -0.000943031021110417
-0.003128048590828589   -0.03509655220636992   -0.0008931698539842394
-0.0014918967549370143   -0.035070958382406744   -0.0008026266423640921
-0.001520832597836605   -0.03513717092876109   -0.000763325449452502
-0.0021404020852366337   -0.0378052828935103   -0.000943031021110417
-0.003128048590828589   -0.03509655220636992   -0.0008931698539842394
-0.001520832597836605   -0.03513717092876109   -0.000763325449452502
-0.0031764406094435724   -0.03790855248161491   -0.001023656333368884
-0.0021404020852366337   -0.0378052828935103   -0.000943031021110417
-0.0014918967549370143   -0.035070958382406744   -0.0008026266423640921
-0.003130843715699172   -0.037853474693799856   -0.0010262607789514706
-0.002079116474656895   -0.03777076064946391   -0.0009880004136501497
-0.0014918967549370143   -0.035070958382406744   -0.0008026266423640921
-0.003128048590828589   -0.03509655220636992   -0.0008931698539842394
-0.003130843715699172   -0.037853474693799856   -0.0010262607789514706
-0.003106237291504256   -0.03506075538441522   -0.0008897758510153295
-0.002079116474656895   -0.03777076064946391   -0.0009880004136501497
-0.003083669861692863   -0.037824199519221745   -0.0010248056545210126
-0.003106237291504256   -0.03506075538441522   -0.0008897758510153295
-0.003130843715699172   -0.037853474693799856   -0.0010262607789514706
-0.002079116474656895   -0.03777076064946391   -0.0009880004136501497
-0.003106237291504256   -0.03506075538441522   -0.0008897758510153295
-0.001458847684384565   -0.03502818531295824   -0.0008374211299295457
-0.0014918967549370143   -0.035070958382406744   -0.0008026266423640921
-0.002079116474656895   -0.03777076064946391   -0.0009880004136501497
-0.003106237291504256   -0.03506075538441522   -0.0008897758510153295
-0.0014918967549370143   -0.035070958382406744   -0.0008026266423640921
-0.003130843715699172   -0.037853474693799856   -0.0010262607789514706
-0.002079116474656895   -0.03777076064946391   -0.0009880004136501497
-0.001458847684384565   -0.03502818531295824   -0.0008374211299295457
-0.003083669861692863   -0.037824199519221745   -0.0010248056545210126
-0.0020321655114920634   -0.03776389816558197   -0.0010287325969301584
-0.001458847684384565   -0.03502818531295824   -0.0008374211299295457
-0.003106237291504256   -0.03506075538441522   -0.0008897758510153295
-0.003083669861692863   -0.037824199519221745   -0.0010248056545210126
-0.0030871651662152102   -0.03504559624611596   -0.0008823539510284378
-0.0020321655114920634   -0.03776389816558197   -0.0010287325969301584
-0.003038192828020721   -0.037819515368681514   -0.0010192613242360185
-0.0030871651662152102   -0.03504559624611596   -0.0008823539510284378
-0.003083669861692863   -0.037824199519221745   -0.0010248056545210126
-0.0020321655114920634   -0.03776389816558197   -0.0010287325969301584
-0.0030871651662152102   -0.03504559624611596   -0.0008823539510284378
-0.001439076988944839   -0.035007569553464596   -0.0008681545541212769
-0.001458847684384565   -0.03502818531295824   -0.0008374211299295457
-0.0020321655114920634   -0.03776389816558197   -0.0010287325969301584
-0.0030871651662152102   -0.03504559624611596   -0.0008823539510284378
-0.001458847684384565   -0.03502818531295824   -0.0008374211299295457
-0.003083669861692863   -0.037824199519221745   -0.0010248056545210126
-0.0031764406094435724   -0.03790855248161491   -0.001023656333368884
-0.0031492469924256283   -0.03515332136481803   -0.0008922420254488374
-0.004151675274521714   -0.03787248015774389   -0.0011453520597925512
-0.003130843715699172   -0.037853474693799856   -0.0010262607789514706
-0.0031492469924256283   -0.03515332136481803   -0.0008922420254488374
-0.004752469367534448   -0.03510127380263569   -0.0010085814151198282
-0.004151675274521714   -0.03787248015774389   -0.0011453520597925512
-0.00473274099028187   -0.03505231797872579   -0.0009720561261831899
-0.003130843715699172   -0.037853474693799856   -0.0010262607789514706
-0.0041064394145580866   -0.03782351884476847   -0.0011031146156050698
-0.00473274099028187   -0.03505231797872579   -0.0009720561261831899
-0.004151675274521714   -0.03787248015774389   -0.0011453520597925512
-0.003130843715699172   -0.037853474693799856   -0.0010262607789514706
-0.00473274099028187   -0.03505231797872579   -0.0009720561261831899
-0.003128048590828589   -0.03509655220636992   -0.0008931698539842394
-0.0031492469924256283   -0.03515332136481803   -0.0008922420254488374
-0.003130843715699172   -0.037853474693799856   -0.0010262607789514706
-0.00473274099028187   -0.03505231797872579   -0.0009720561261831899
-0.0031492469924256283   -0.03515332136481803   -0.0008922420254488374
-0.004151675274521714   -0.03787248015774389   -0.0011453520597925512
-0.003130843715699172   -0.037853474693799856   -0.0010262607789514706
-0.003128048590828589   -0.03509655220636992   -0.0008931698539842394
-0.0041064394145580866   -0.03782351884476847   -0.0011031146156050698
-0.003083669861692863   -0.037824199519221745   -0.0010248056545210126
-0.003128048590828589   -0.03509655220636992   -0.0008931698539842394
-0.00473274099028187   -0.03505231797872579   -0.0009720561261831899
-0.0041064394145580866   -0.03782351884476847   -0.0011031146156050698
-0.0047088943964689566   -0.03502410587435155   -0.0009313062043273346
-0.003083669861692863   -0.037824199519221745   -0.0010248056545210126
-0.004055677390757454   -0.03779993688934075   -0.0010568815355526161
-0.0047088943964689566   -0.03502410587435155   -0.0009313062043273346
-0.0041064394145580866   -0.03782351884476847   -0.0011031146156050698
-0.003083669861692863   -0.037824199519221745   -0.0010248056545210126
-0.0047088943964689566   -0.03502410587435155   -0.0009313062043273346
-0.003106237291504256   -0.03506075538441522   -0.0008897758510153295
-0.003128048590828589   -0.03509655220636992   -0.0008931698539842394
-0.003083669861692863   -0.037824199519221745   -0.0010248056545210126
-0.0047088943964689566   -0.03502410587435155   -0.0009313062043273346
-0.003128048590828589   -0.03509655220636992   -0.0008931698539842394
-0.0041064394145580866   -0.03782351884476847   -0.0011031146156050698
-0.003083669861692863   -0.037824199519221745   -0.0010248056545210126
-0.003106237291504256   -0.03506075538441522   -0.0008897758510153295
-0.004055677390757454   -0.03779993688934075   -0.0010568815355526161
-0.003038192828020721   -0.037819515368681514   -0.0010192613242360185
-0.003106237291504256   -0.03506075538441522   -0.0008897758510153295
-0.0047088943964689566   -0.03502410587435155   -0.0009313062043273346
-0.004055677390757454   -0.03779993688934075   -0.0010568815355526161
-0.004685726857208168   -0.035015695227891476   -0.0008864609103240605
-0.003038192828020721   -0.037819515368681514   -0.0010192613242360185
-0.0040047466833629496   -0.03779933771874386   -0.0010061667043039244
-0.004685726857208168   -0.035015695227891476   -0.0008864609103240605
-0.004055677390757454   -0.03779993688934075   -0.0010568815355526161
-0.003038192828020721   -0.037819515368681514   -0.0010192613242360185
-0.004685726857208168   -0.035015695227891476   -0.0008864609103240605
-0.0030871651662152102   -0.03504559624611596   -0.0008823539510284378
-0.003106237291504256   -0.03506075538441522   -0.0008897758510153295
-0.003038192828020721   -0.037819515368681514   -0.0010192613242360185
-0.004685726857208168   -0.035015695227891476   -0.0008864609103240605
-0.003106237291504256   -0.03506075538441522   -0.0008897758510153295
-0.004055677390757454   -0.03779993688934075   -0.0010568815355526161
-0.004151675274521714   -0.03787248015774389   -0.0011453520597925512
-0.004752469367534448   -0.03510127380263569   -0.0010085814151198282
-0.005222278171201064   -0.037755514064085456   -0.0012572961516921955
-0.0041064394145580866   -0.03782351884476847   -0.0011031146156050698
-0.004752469367534448   -0.03510127380263569   -0.0010085814151198282
-0.006432042505446494   -0.03498281660065436   -0.0011119699300224833
-0.005222278171201064   -0.037755514064085456   -0.0012572961516921955
-0.006406154692249544   -0.03494128217661925   -0.0010379254885607828
-0.0041064394145580866   -0.03782351884476847   -0.0011031146156050698
-0.0051667876161849225   -0.037712649202257864   -0.0011711713742170477
-0.006406154692249544   -0.03494128217661925   -0.0010379254885607828
-0.005222278171201064   -0.037755514064085456   -0.0012572961516921955
-0.0041064394145580866   -0.03782351884476847   -0.0011031146156050698
-0.006406154692249544   -0.03494128217661925   -0.0010379254885607828
-0.00473274099028187   -0.03505231797872579   -0.0009720561261831899
-0.004752469367534448   -0.03510127380263569   -0.0010085814151198282
-0.0041064394145580866   -0.03782351884476847   -0.0011031146156050698
-0.006406154692249544   -0.03494128217661925   -0.0010379254885607828
-0.004752469367534448   -0.03510127380263569   -0.0010085814151198282
-0.005222278171201064   -0.037755514064085456   -0.0012572961516921955
-0.0041064394145580866   -0.03782351884476847   -0.0011031146156050698
-0.00473274099028187   -0.03505231797872579   -0.0009720561261831899
-0.0051667876161849225   -0.037712649202257864   -0.0011711713742170477
-0.004055677390757454   -0.03779993688934075   -0.0010568815355526161
-0.00473274099028187   -0.03505231797872579   -0.0009720561261831899
-0.006406154692249544   -0.03494128217661925   -0.0010379254885607828
-0.0051667876161849225   -0.037712649202257864   -0.0011711713742170477
-0.006362202031186053   -0.03491994595600315   -0.0009603110930173525
-0.004055677390757454   -0.03779993688934075   -0.0010568815355526161
-0.005090062611658068   -0.037694738068942364   -0.0010813559005538845
-0.006362202031186053   -0.03491994595600315   -0.0009603110930173525
-0.0051667876161849225   -0.037712649202257864   -0.0011711713742170477
-0.004055677390757454   -0.03779993688934075   -0.0010568815355526161
-0.006362202031186053   -0.03491994595600315   -0.0009603110930173525
-0.0047088943964689566   -0.03502410587435155   -0.0009313062043273346
-0.00473274099028187   -0.03505231797872579   -0.0009720561261831899
-0.004055677390757454   -0.03779993688934075   -0.0010568815355526161
-0.006362202031186053   -0.03491994595600315   -0.0009603110930173525
-0.00473274099028187   -0.03505231797872579   -0.0009720561261831899
-0.0051667876161849225   -0.037712649202257864   -0.0011711713742170477
-0.004055677390757454   -0.03779993688934075   -0.0010568815355526161
-0.0047088943964689566   -0.03502410587435155   -0.0009313062043273346
-0.005090062611658068   -0.037694738068942364   -0.0010813559005538845
-0.0040047466833629496   -0.03779933771874386   -0.0010061667043039244
-0.0047088943964689566   -0.03502410587435155   -0.0009313062043273346
-0.006362202031186053   -0.03491994595600315   -0.0009603110930173525
-0.005090062611658068   -0.037694738068942364   -0.0010813559005538845
-0.006326638426321745   -0.03491996338618311   -0.0008780020807324949
-0.0040047466833629496   -0.03779933771874386   -0.0010061667043039244
-0.005023287552754723   -0.03770179934633999   -0.0009853780173397575
-0.006326638426321745   -0.03491996338618311   -0.0008780020807324949
-0.005090062611658068   -0.037694738068942364   -0.0010813559005538845
-0.0040047466833629496   -0.03779933771874386   -0.0010061667043039244
-0.006326638426321745   -0.03491996338618311   -0.0008780020807324949
-0.004685726857208168   -0.035015695227891476   -0.0008864609103240605
-0.0047088943964689566   -0.03502410587435155   -0.0009313062043273346
-0.0040047466833629496   -0.03779933771874386   -0.0010061667043039244
-0.006326638426321745   -0.03491996338618311   -0.0008780020807324949
-0.0047088943964689566   -0.03502410587435155   -0.0009313062043273346
-0.005090062611658068   -0.037694738068942364   -0.0010813559005538845
-0.005222278171201064   -0.037755514064085456   -0.0012572961516921955
-0.006432042505446494   -0.03498281660065436   -0.0011119699300224833
-0.006600782486969755   -0.0375652877573208   -0.0013652289091730047
-0.0051667876161849225   -0.037712649202257864   -0.0011711713742170477
-0.006432042505446494   -0.03498281660065436   -0.0011119699300224833
-0.008390536890493233   -0.034811878461004295   -0.0012087066050862566
-0.006600782486969755   -0.0375652877573208   -0.0013652289091730047
-0.008256783437473242   -0.034768406197910016   -0.0010927293280463396
-0.0051667876161849225   -0.037712649202257864   -0.0011711713742170477
-0.00642039554980757   -0.037518609382418106   -0.0012292005538393222
-0.008256783437473242   -0.034768406197910016   -0.0010927293280463396
-0.006600782486969755   -0.0375652877573208   -0.0013652289091730047
-0.0051667876161849225   -0.037712649202257864   -0.0011711713742170477
-0.008256783437473242   -0.034768406197910016   -0.0010927293280463396
-0.006406154692249544   -0.03494128217661925   -0.0010379254885607828
-0.006432042505446494   -0.03498281660065436   -0.0011119699300224833
-0.0051667876161849225   -0.037712649202257864   -0.0011711713742170477
-0.008256783437473242   -0.034768406197910016   -0.0010927293280463396
-0.006432042505446494   -0.03498281660065436   -0.0011119699300224833
-0.006600782486969755   -0.0375652877573208   -0.0013652289091730047
-0.0051667876161849225   -0.037712649202257864   -0.0011711713742170477
-0.006406154692249544   -0.03494128217661925   -0.0010379254885607828
-0.00642039554980757   -0.037518609382418106   -0.0012292005538393222
-0.005090062611658068   -0.037694738068942364   -0.0010813559005538845
-0.006406154692249544   -0.03494128217661925   -0.0010379254885607828
-0.008256783437473242   -0.034768406197910016   -0.0010927293280463396
-0.00642039554980757   -0.037518609382418106   -0.0012292005538393222
-0.008140916027322814   -0.034748937708012066   -0.0009708497785701544
-0.005090062611658068   -0.037694738068942364   -0.0010813559005538845
-0.00625904779728837   -0.03750204222001004   -0.0010854067510862788
-0.008140916027322814   -0.034748937708012066   -0.0009708497785701544
-0.00642039554980757   -0.037518609382418106   -0.0012292005538393222
-0.005090062611658068   -0.037694738068942364   -0.0010813559005538845
-0.008140916027322814   -0.034748937708012066   -0.0009708497785701544
-0.006362202031186053   -0.03491994595600315   -0.0009603110930173525
-0.006406154692249544   -0.03494128217661925   -0.0010379254885607828
-0.005090062611658068   -0.037694738068942364   -0.0010813559005538845
-0.008140916027322814   -0.034748937708012066   -0.0009708497785701544
-0.006406154692249544   -0.03494128217661925   -0.0010379254885607828
-0.00642039554980757   -0.037518609382418106   -0.0012292005538393222
-0.005090062611658068   -0.037694738068942364   -0.0010813559005538845
-0.006362202031186053   -0.03491994595600315   -0.0009603110930173525
-0.00625904779728837   -0.03750204222001004   -0.0010854067510862788
-0.005023287552754723   -0.03770179934633999   -0.0009853780173397575
-0.006362202031186053   -0.03491994595600315   -0.0009603110930173525
-0.008140916027322814   -0.034748937708012066   -0.0009708497785701544
-0.00625904779728837   -0.03750204222001004   -0.0010854067510862788
-0.007984905725592599   -0.034762052352669326   -0.0008438415422067838
-0.005023287552754723   -0.03770179934633999   -0.0009853780173397575
-0.006049977135168895   -0.03752424547406237   -0.0009352003207394646
-0.007984905725592599   -0.034762052352669326   -0.0008438415422067838
-0.00625904779728837   -0.03750204222001004   -0.0010854067510862788
-0.005023287552754723   -0.03770179934633999   -0.0009853780173397575
-0.007984905725592599   -0.034762052352669326   -0.0008438415422067838
-0.006326638426321745   -0.03491996338618311   -0.0008780020807324949
-0.006362202031186053   -0.03491994595600315   -0.0009603110930173525
-0.005023287552754723   -0.03770179934633999   -0.0009853780173397575
-0.007984905725592599   -0.034762052352669326   -0.0008438415422067838
-0.006362202031186053   -0.03491994595600315   -0.0009603110930173525
-0.00625904779728837   -0.03750204222001004   -0.0010854067510862788
0.00016048587685172193   -0.035052984740080576   -0.0006065124274812733
0.0012001014260113283   -0.0313728192656727   -0.00046193533808096797
-0.001520832597836605   -0.03513717092876109   -0.000763325449452502
0.0002703584505528534   -0.034973411311039114   -0.0006961604193684693
0.0012001014260113283   -0.0313728192656727   -0.00046193533808096797
-0.0010318583632412438   -0.03142882889154047   -0.0006116713869420905
-0.001520832597836605   -0.03513717092876109   -0.000763325449452502
-0.0010256412865383324   -0.0313629648628363   -0.0006390800745001682
0.0002703584505528534   -0.034973411311039114   -0.0006961604193684693
-0.0014918967549370143   -0.035070958382406744   -0.0008026266423640921
-0.0010256412865383324   -0.0313629648628363   -0.0006390800745001682
-0.001520832597836605   -0.03513717092876109   -0.000763325449452502
0.0002703584505528534   -0.034973411311039114   -0.0006961604193684693
-0.0010256412865383324   -0.0313629648628363   -0.0006390800745001682
0.0012659832859299976   -0.03129512022633243   -0.0005285989361533306
0.0012001014260113283   -0.0313728192656727   -0.00046193533808096797
0.0002703584505528534   -0.034973411311039114   -0.0006961604193684693
-0.0010256412865383324   -0.0313629648628363   -0.0006390800745001682
0.0012001014260113283   -0.0313728192656727   -0.00046193533808096797
-0.001520832597836605   -0.03513717092876109   -0.000763325449452502
0.0002703584505528534   -0.034973411311039114   -0.0006961604193684693
0.0012659832859299976   -0.03129512022633243   -0.0005285989361533306
-0.0014918967549370143   -0.035070958382406744   -0.0008026266423640921
0.0003512420930286601   -0.03492797807251275   -0.0007794999688628806
0.0012659832859299976   -0.03129512022633243   -0.0005285989361533306
-0.0010256412865383324   -0.0313629648628363   -0.0006390800745001682
-0.0014918967549370143   -0.035070958382406744   -0.0008026266423640921
-0.0010177016341322948   -0.03131567122796658   -0.0006623528596029347
0.0003512420930286601   -0.03492797807251275   -0.0007794999688628806
-0.001458847684384565   -0.03502818531295824   -0.0008374211299295457
-0.0010177016341322948   -0.03131567122796658   -0.0006623528596029347
-0.0014918967549370143   -0.035070958382406744   -0.0008026266423640921
0.0003512420930286601   -0.03492797807251275   -0.0007794999688628806
-0.0010177016341322948   -0.03131567122796658   -0.0006623528596029347
0.001308271269598594   -0.03124468510561434   -0.0005894138350228321
0.0012659832859299976   -0.03129512022633243   -0.0005285989361533306
0.0003512420930286601   -0.03492797807251275   -0.0007794999688628806
-0.0010177016341322948   -0.03131567122796658   -0.0006623528596029347
0.0012659832859299976   -0.03129512022633243   -0.0005285989361533306
-0.0014918967549370143   -0.035070958382406744   -0.0008026266423640921
0.0003512420930286601   -0.03492797807251275   -0.0007794999688628806
0.001308271269598594   -0.03124468510561434   -0.0005894138350228321
-0.001458847684384565   -0.03502818531295824   -0.0008374211299295457
0.00043810101323021877   -0.03490640919663566   -0.0008565046861646476
0.001308271269598594   -0.03124468510561434   -0.0005894138350228321
-0.0010177016341322948   -0.03131567122796658   -0.0006623528596029347
-0.001458847684384565   -0.03502818531295824   -0.0008374211299295457
-0.0010211349634718146   -0.03128540916816922   -0.0006817907557435685
0.00043810101323021877   -0.03490640919663566   -0.0008565046861646476
-0.001439076988944839   -0.035007569553464596   -0.0008681545541212769
-0.0010211349634718146   -0.03128540916816922   -0.0006817907557435685
-0.001458847684384565   -0.03502818531295824   -0.0008374211299295457
0.00043810101323021877   -0.03490640919663566   -0.0008565046861646476
-0.0010211349634718146   -0.03128540916816922   -0.0006817907557435685
0.0013519454125013786   -0.031211580973041657   -0.0006445063916944866
0.001308271269598594   -0.03124468510561434   -0.0005894138350228321
0.00043810101323021877   -0.03490640919663566   -0.0008565046861646476
-0.0010211349634718146   -0.03128540916816922   -0.0006817907557435685
0.001308271269598594   -0.03124468510561434   -0.0005894138350228321
-0.001458847684384565   -0.03502818531295824   -0.0008374211299295457
-0.001520832597836605   -0.03513717092876109   -0.000763325449452502
-0.0010318583632412438   -0.03142882889154047   -0.0006116713869420905
-0.0031492469924256283   -0.03515332136481803   -0.0008922420254488374
-0.0014918967549370143   -0.035070958382406744   -0.0008026266423640921
-0.0010318583632412438   -0.03142882889154047   -0.0006116713869420905
-0.003181209040111773   -0.03142931192073557   -0.0007347942081884307
-0.0031492469924256283   -0.03515332136481803   -0.0008922420254488374
-0.003181388143548974   -0.0313737068862553   -0.0007321968401484916
-0.0014918967549370143   -0.035070958382406744   -0.0008026266423640921
-0.003128048590828589   -0.03509655220636992   -0.0008931698539842394
-0.003181388143548974   -0.0313737068862553   -0.0007321968401484916
-0.0031492469924256283   -0.03515332136481803   -0.0008922420254488374
-0.0014918967549370143   -0.035070958382406744   -0.0008026266423640921
-0.003181388143548974   -0.0313737068862553   -0.0007321968401484916
-0.0010256412865383324   -0.0313629648628363   -0.0006390800745001682
-0.0010318583632412438   -0.03142882889154047   -0.0006116713869420905
-0.0014918967549370143   -0.035070958382406744   -0.0008026266423640921
-0.003181388143548974   -0.0313737068862553   -0.0007321968401484916
-0.0010318583632412438   -0.03142882889154047   -0.0006116713869420905
-0.0031492469924256283   -0.03515332136481803   -0.0008922420254488374
-0.0014918967549370143   -0.035070958382406744   -0.0008026266423640921
-0.0010256412865383324   -0.0313629648628363   -0.0006390800745001682
-0.003128048590828589   -0.03509655220636992   -0.0008931698539842394
-0.001458847684384565   -0.03502818531295824   -0.0008374211299295457
-0.0010256412865383324   -0.0313629648628363   -0.0006390800745001682
-0.003181388143548974   -0.0313737068862553   -0.0007321968401484916
-0.003128048590828589   -0.03509655220636992   -0.0008931698539842394
-0.003181416823583091   -0.031334466236847054   -0.0007254753391544643
-0.001458847684384565   -0.03502818531295824   -0.0008374211299295457
-0.003106237291504256   -0.03506075538441522   -0.0008897758510153295
-0.003181416823583091   -0.031334466236847054   -0.0007254753391544643
-0.003128048590828589   -0.03509655220636992   -0.0008931698539842394
-0.001458847684384565   -0.03502818531295824   -0.0008374211299295457
-0.003181416823583091   -0.031334466236847054   -0.0007254753391544643
-0.0010177016341322948   -0.03131567122796658   -0.0006623528596029347
-0.0010256412865383324   -0.0313629648628363   -0.0006390800745001682
-0.001458847684384565   -0.03502818531295824   -0.0008374211299295457
-0.003181416823583091   -0.031334466236847054   -0.0007254753391544643
-0.0010256412865383324   -0.0313629648628363   -0.0006390800745001682
-0.003128048590828589   -0.03509655220636992   -0.0008931698539842394
-0.001458847684384565   -0.03502818531295824   -0.0008374211299295457
-0.0010177016341322948   -0.03131567122796658   -0.0006623528596029347
-0.003106237291504256   -0.03506075538441522   -0.0008897758510153295
-0.001439076988944839   -0.035007569553464596   -0.0008681545541212769
-0.0010177016341322948   -0.03131567122796658   -0.0006623528596029347
-0.003181416823583091   -0.031334466236847054   -0.0007254753391544643
-0.003106237291504256   -0.03506075538441522   -0.0008897758510153295
-0.0031843078430625186   -0.031311620719266554   -0.0007148493089969105
-0.001439076988944839   -0.035007569553464596   -0.0008681545541212769
-0.0030871651662152102   -0.03504559624611596   -0.0008823539510284378
-0.0031843078430625186   -0.031311620719266554   -0.0007148493089969105
-0.003106237291504256   -0.03506075538441522   -0.0008897758510153295
-0.001439076988944839   -0.035007569553464596   -0.0008681545541212769
-0.0031843078430625186   -0.031311620719266554   -0.0007148493089969105
-0.0010211349634718146   -0.03128540916816922   -0.0006817907557435685
-0.0010177016341322948   -0.03131567122796658   -0.0006623528596029347
-0.001439076988944839   -0.035007569553464596   -0.0008681545541212769
-0.0031843078430625186   -0.031311620719266554   -0.0007148493089969105
-0.0010177016341322948   -0.03131567122796658   -0.0006623528596029347
-0.003106237291504256   -0.03506075538441522   -0.0008897758510153295
-0.0031492469924256283   -0.03515332136481803   -0.0008922420254488374
-0.003181209040111773   -0.03142931192073557   -0.0007347942081884307
-0.004752469367534448   -0.03510127380263569   -0.0010085814151198282
-0.003128048590828589   -0.03509655220636992   -0.0008931698539842394
-0.003181209040111773   -0.03142931192073557   -0.0007347942081884307
-0.005294430684189181   -0.03137566394126659   -0.000842530392053083
-0.004752469367534448   -0.03510127380263569   -0.0010085814151198282
-0.005296213757874007   -0.031329035649917784   -0.000810293913020406
-0.003128048590828589   -0.03509655220636992   -0.0008931698539842394
-0.00473274099028187   -0.03505231797872579   -0.0009720561261831899
-0.005296213757874007   -0.031329035649917784   -0.000810293913020406
-0.004752469367534448   -0.03510127380263569   -0.0010085814151198282
-0.003128048590828589   -0.03509655220636992   -0.0008931698539842394
-0.005296213757874007   -0.031329035649917784   -0.000810293913020406
-0.003181388143548974   -0.0313737068862553   -0.0007321968401484916
-0.003181209040111773   -0.03142931192073557   -0.0007347942081884307
-0.003128048590828589   -0.03509655220636992   -0.0008931698539842394
-0.005296213757874007   -0.031329035649917784   -0.000810293913020406
-0.003181209040111773   -0.03142931192073557   -0.0007347942081884307
-0.004752469367534448   -0.03510127380263569   -0.0010085814151198282
-0.003128048590828589   -0.03509655220636992   -0.0008931698539842394
-0.003181388143548974   -0.0313737068862553   -0.0007321968401484916
-0.00473274099028187   -0.03505231797872579   -0.0009720561261831899
-0.003106237291504256   -0.03506075538441522   -0.0008897758510153295
-0.003181388143548974   -0.0313737068862553   -0.0007321968401484916
-0.005296213757874007   -0.031329035649917784   -0.000810293913020406
-0.00473274099028187   -0.03505231797872579   -0.0009720561261831899
-0.005294405536947287   -0.03129862751277577   -0.0007740163289335131
-0.003106237291504256   -0.03506075538441522   -0.0008897758510153295
-0.0047088943964689566   -0.03502410587435155   -0.0009313062043273346
-0.005294405536947287   -0.03129862751277577   -0.0007740163289335131
-0.00473274099028187   -0.03505231797872579   -0.0009720561261831899
-0.003106237291504256   -0.03506075538441522   -0.0008897758510153295
-0.005294405536947287   -0.03129862751277577   -0.0007740163289335131
-0.003181416823583091   -0.031334466236847054   -0.0007254753391544643
-0.003181388143548974   -0.0313737068862553   -0.0007321968401484916
-0.003106237291504256   -0.03506075538441522   -0.0008897758510153295
-0.005294405536947287   -0.03129862751277577   -0.0007740163289335131
-0.003181388143548974   -0.0313737068862553   -0.0007321968401484916
-0.00473274099028187   -0.03505231797872579   -0.0009720561261831899
-0.003106237291504256   -0.03506075538441522   -0.0008897758510153295
-0.003181416823583091   -0.031334466236847054   -0.0007254753391544643
-0.0047088943964689566   -0.03502410587435155   -0.0009313062043273346
-0.0030871651662152102   -0.03504559624611596   -0.0008823539510284378
-0.003181416823583091   -0.031334466236847054   -0.0007254753391544643
-0.005294405536947287   -0.03129862751277577   -0.0007740163289335131
-0.0047088943964689566   -0.03502410587435155   -0.0009313062043273346
-0.005293258219329162   -0.031284160403100995   -0.000733814016268016
-0.0030871651662152102   -0.03504559624611596   -0.0008823539510284378
-0.004685726857208168   -0.035015695227891476   -0.0008864609103240605
-0.005293258219329162   -0.031284160403100995   -0.000733814016268016
-0.0047088943964689566   -0.03502410587435155   -0.0009313062043273346
-0.0030871651662152102   -0.03504559624611596   -0.0008823539510284378
-0.005293258219329162   -0.031284160403100995   -0.000733814016268016
-0.0031843078430625186   -0.031311620719266554   -0.0007148493089969105
-0.003181416823583091   -0.031334466236847054   -0.0007254753391544643
-0.0030871651662152102   -0.03504559624611596   -0.0008823539510284378
-0.005293258219329162   -0.031284160403100995   -0.000733814016268016
-0.003181416823583091   -0.031334466236847054   -0.0007254753391544643
-0.0047088943964689566   -0.03502410587435155   -0.0009313062043273346
-0.004752469367534448   -0.03510127380263569   -0.0010085814151198282
-0.005294430684189181   -0.03137566394126659   -0.000842530392053083
-0.006432042505446494   -0.03498281660065436   -0.0011119699300224833
-0.00473274099028187   -0.03505231797872579   -0.0009720561261831899
-0.005294430684189181   -0.03137566394126659   -0.000842530392053083
-0.007473272589971506   -0.031269870453316306   -0.000935137121806716
-0.006432042505446494   -0.03498281660065436   -0.0011119699300224833
-0.00747054751474175   -0.031231806672620526   -0.0008729020615917408
-0.00473274099028187   -0.03505231797872579   -0.0009720561261831899
-0.006406154692249544   -0.03494128217661925   -0.0010379254885607828
-0.00747054751474175   -0.031231806672620526   -0.0008729020615917408
-0.006432042505446494   -0.03498281660065436   -0.0011119699300224833
-0.00473274099028187   -0.03505231797872579   -0.0009720561261831899
-0.00747054751474175   -0.031231806672620526   -0.0008729020615917408
-0.005296213757874007   -0.031329035649917784   -0.000810293913020406
-0.005294430684189181   -0.03137566394126659   -0.000842530392053083
-0.00473274099028187   -0.03505231797872579   -0.0009720561261831899
-0.00747054751474175   -0.031231806672620526   -0.0008729020615917408
-0.005294430684189181   -0.03137566394126659   -0.000842530392053083
-0.006432042505446494   -0.03498281660065436   -0.0011119699300224833
-0.00473274099028187   -0.03505231797872579   -0.0009720561261831899
-0.005296213757874007   -0.031329035649917784   -0.000810293913020406
-0.006406154692249544   -0.03494128217661925   -0.0010379254885607828
-0.0047088943964689566   -0.03502410587435155   -0.0009313062043273346
-0.005296213757874007   -0.031329035649917784   -0.000810293913020406
-0.00747054751474175   -0.031231806672620526   -0.0008729020615917408
-0.006406154692249544   -0.03494128217661925   -0.0010379254885607828
-0.007452067945191084   -0.03120940884652051   -0.0008072370402130499
-0.0047088943964689566   -0.03502410587435155   -0.0009313062043273346
-0.006362202031186053   -0.03491994595600315   -0.0009603110930173525
-0.007452067945191084   -0.03120940884652051   -0.0008072370402130499
-0.006406154692249544   -0.03494128217661925   -0.0010379254885607828
-0.0047088943964689566   -0.03502410587435155   -0.0009313062043273346
-0.007452067945191084   -0.03120940884652051   -0.0008072370402130499
-0.005294405536947287   -0.03129862751277577   -0.0007740163289335131
-0.005296213757874007   -0.031329035649917784   -0.000810293913020406
-0.0047088943964689566   -0.03502410587435155   -0.0009313062043273346
-0.007452067945191084   -0.03120940884652051   -0.0008072370402130499
-0.005296213757874007   -0.031329035649917784   -0.000810293913020406
-0.006406154692249544   -0.03494128217661925   -0.0010379254885607828
-0.0047088943964689566   -0.03502410587435155   -0.0009313062043273346
-0.005294405536947287   -0.03129862751277577   -0.0007740163289335131
-0.006362202031186053   -0.03491994595600315   -0.0009603110930173525
-0.004685726857208168   -0.035015695227891476   -0.0008864609103240605
-0.005294405536947287   -0.03129862751277577   -0.0007740163289335131
-0.007452067945191084   -0.03120940884652051   -0.0008072370402130499
-0.006362202031186053   -0.03491994595600315   -0.0009603110930173525
-0.0074397656317709915   -0.031204297654724187   -0.0007373287269683854
-0.004685726857208168   -0.035015695227891476   -0.0008864609103240605
-0.006326638426321745   -0.03491996338618311   -0.0008780020807324949
-0.0074397656317709915   -0.031204297654724187   -0.0007373287269683854
-0.006362202031186053   -0.03491994595600315   -0.0009603110930173525
-0.004685726857208168   -0.035015695227891476   -0.0008864609103240605
-0.0074397656317709915   -0.031204297654724187   -0.0007373287269683854
-0.005293258219329162   -0.031284160403100995   -0.000733814016268016
-0.005294405536947287   -0.03129862751277577   -0.0007740163289335131
-0.004685726857208168   -0.035015695227891476   -0.0008864609103240605
-0.0074397656317709915   -0.031204297654724187   -0.0007373287269683854
-0.005294405536947287   -0.03129862751277577   -0.0007740163289335131
-0.006362202031186053   -0.03491994595600315   -0.0009603110930173525
-0.006432042505446494   -0.03498281660065436   -0.0011119699300224833
-0.007473272589971506   -0.031269870453316306   -0.000935137121806716
-0.008390536890493233   -0.034811878461004295   -0.0012087066050862566
-0.006406154692249544   -0.03494128217661925   -0.0010379254885607828
-0.007473272589971506   -0.031269870453316306   -0.000935137121806716
-0.009907099373977239   -0.03112367320055901   -0.0010188319468077479
-0.008390536890493233   -0.034811878461004295   -0.0012087066050862566
-0.009815033660593409   -0.031086223875738356   -0.0009235124926571765
-0.006406154692249544   -0.03494128217661925   -0.0010379254885607828
-0.008256783437473242   -0.034768406197910016   -0.0010927293280463396
-0.009815033660593409   -0.031086223875738356   -0.0009235124926571765
-0.008390536890493233   -0.034811878461004295   -0.0012087066050862566
-0.006406154692249544   -0.03494128217661925   -0.0010379254885607828
-0.009815033660593409   -0.031086223875738356   -0.0009235124926571765
-0.00747054751474175   -0.031231806672620526   -0.0008729020615917408
-0.007473272589971506   -0.031269870453316306   -0.000935137121806716
-0.006406154692249544   -0.03494128217661925   -0.0010379254885607828
-0.009815033660593409   -0.031086223875738356   -0.0009235124926571765
-0.007473272589971506   -0.031269870453316306   -0.000935137121806716
-0.008390536890493233   -0.034811878461004295   -0.0012087066050862566
-0.006406154692249544   -0.03494128217661925   -0.0010379254885607828
-0.00747054751474175   -0.031231806672620526   -0.0008729020615917408
-0.008256783437473242   -0.034768406197910016   -0.0010927293280463396
-0.006362202031186053   -0.03491994595600315   -0.0009603110930173525
-0.00747054751474175   -0.031231806672620526   -0.0008729020615917408
-0.009815033660593409   -0.031086223875738356   -0.0009235124926571765
-0.008256783437473242   -0.034768406197910016   -0.0010927293280463396
-0.009736435604018202   -0.031066754000126685   -0.000822414962853054
-0.006362202031186053   -0.03491994595600315   -0.0009603110930173525
-0.008140916027322814   -0.034748937708012066   -0.0009708497785701544
-0.009736435604018202   -0.031066754000126685   -0.000822414962853054
-0.008256783437473242   -0.034768406197910016   -0.0010927293280463396
-0.006362202031186053   -0.03491994595600315   -0.0009603110930173525
-0.009736435604018202   -0.031066754000126685   -0.000822414962853054
-0.007452067945191084   -0.03120940884652051   -0.0008072370402130499
-0.00747054751474175   -0.031231806672620526   -0.0008729020615917408
-0.006362202031186053   -0.03491994595600315   -0.0009603110930173525
-0.009736435604018202   -0.031066754000126685   -0.000822414962853054
-0.00747054751474175   -0.031231806672620526   -0.0008729020615917408
-0.008256783437473242   -0.034768406197910016   -0.0010927293280463396
-0.006362202031186053   -0.03491994595600315   -0.0009603110930173525
-0.007452067945191084   -0.03120940884652051   -0.0008072370402130499
-0.008140916027322814   -0.034748937708012066   -0.0009708497785701544
-0.006326638426321745   -0.03491996338618311   -0.0008780020807324949
-0.007452067945191084   -0.03120940884652051   -0.0008072370402130499
-0.009736435604018202   -0.031066754000126685   -0.000822414962853054
-0.008140916027322814   -0.034748937708012066   -0.0009708497785701544
-0.009623196130881693   -0.031074651607606096   -0.0007163374974589249
-0.006326638426321745   -0.03491996338618311   -0.0008780020807324949
-0.007984905725592599   -0.034762052352669326   -0.0008438415422067838
-0.009623196130881693   -0.031074651607606096   -0.0007163374974589249
-0.008140916027322814   -0.034748937708012066   -0.0009708497785701544
-0.006326638426321745   -0.03491996338618311   -0.0008780020807324949
-0.009623196130881693   -0.031074651607606096   -0.0007163374974589249
-0.0074397656317709915   -0.031204297654724187   -0.0007373287269683854
-0.007452067945191084   -0.03120940884652051   -0.0008072370402130499
-0.006326638426321745   -0.03491996338618311   -0.0008780020807324949
-0.009623196130881693   -0.031074651607606096   -0.0007163374974589249
-0.007452067945191084   -0.03120940884652051   -0.0008072370402130499
-0.008140916027322814   -0.034748937708012066   -0.0009708497785701544
0.0012001014260113283   -0.0313728192656727   -0.00046193533808096797
0.0019211413783497523   -0.026934894623362172   -0.00030794115478894154
-0.0010318583632412438   -0.03142882889154047   -0.0006116713869420905
0.0012659832859299976   -0.03129512022633243   -0.0005285989361533306
0.0019211413783497523   -0.026934894623362172   -0.00030794115478894154
-0.0007323710097178567   -0.02696283824655678   -0.0004487817728982695
-0.0010318583632412438   -0.03142882889154047   -0.0006116713869420905
-0.0007444866807841281   -0.026898605367118734   -0.0004637373011519744
0.0012659832859299976   -0.03129512022633243   -0.0005285989361533306
-0.0010256412865383324   -0.0313629648628363   -0.0006390800745001682
-0.0007444866807841281   -0.026898605367118734   -0.0004637373011519744
-0.0010318583632412438   -0.03142882889154047   -0.0006116713869420905
0.0012659832859299976   -0.03129512022633243   -0.0005285989361533306
-0.0007444866807841281   -0.026898605367118734   -0.0004637373011519744
0.0019479223882154196   -0.026860031248776874   -0.00035197049979223316
0.0019211413783497523   -0.026934894623362172   -0.00030794115478894154
0.0012659832859299976   -0.03129512022633243   -0.0005285989361533306
-0.0007444866807841281   -0.026898605367118734   -0.0004637373011519744
0.0019211413783497523   -0.026934894623362172   -0.00030794115478894154
-0.0010318583632412438   -0.03142882889154047   -0.0006116713869420905
0.0012659832859299976   -0.03129512022633243   -0.0005285989361533306
0.0019479223882154196   -0.026860031248776874   -0.00035197049979223316
-0.0010256412865383324   -0.0313629648628363   -0.0006390800745001682
0.001308271269598594   -0.03124468510561434   -0.0005894138350228321
0.0019479223882154196   -0.026860031248776874   -0.00035197049979223316
-0.0007444866807841281   -0.026898605367118734   -0.0004637373011519744
-0.0010256412865383324   -0.0313629648628363   -0.0006390800745001682
-0.0007571753065431297   -0.02684820588216138   -0.0004749826450664774
0.001308271269598594   -0.03124468510561434   -0.0005894138350228321
-0.0010177016341322948   -0.03131567122796658   -0.0006623528596029347
-0.0007571753065431297   -0.02684820588216138   -0.0004749826450664774
-0.0010256412865383324   -0.0313629648628363   -0.0006390800745001682
0.001308271269598594   -0.03124468510561434   -0.0005894138350228321
-0.0007571753065431297   -0.02684820588216138   -0.0004749826450664774
0.0019566060616885116   -0.026805995912395977   -0.00039052179270100283
0.0019479223882154196   -0.026860031248776874   -0.00035197049979223316
0.001308271269598594   -0.03124468510561434   -0.0005894138350228321
-0.0007571753065431297   -0.02684820588216138   -0.0004749826450664774
0.0019479223882154196   -0.026860031248776874   -0.00035197049979223316
-0.0010256412865383324   -0.0313629648628363   -0.0006390800745001682
0.001308271269598594   -0.03124468510561434   -0.0005894138350228321
0.0019566060616885116   -0.026805995912395977   -0.00039052179270100283
-0.0010177016341322948   -0.03131567122796658   -0.0006623528596029347
0.0013519454125013786   -0.031211580973041657   -0.0006445063916944866
0.0019566060616885116   -0.026805995912395977   -0.00039052179270100283
-0.0007571753065431297   -0.02684820588216138   -0.0004749826450664774
-0.0010177016341322948   -0.03131567122796658   -0.0006623528596029347
-0.0007791157940999667   -0.0268100263802502   -0.0004826422538609792
0.0013519454125013786   -0.031211580973041657   -0.0006445063916944866
-0.0010211349634718146   -0.03128540916816922   -0.0006817907557435685
-0.0007791157940999667   -0.0268100263802502   -0.0004826422538609792
-0.0010177016341322948   -0.03131567122796658   -0.0006623528596029347
0.0013519454125013786   -0.031211580973041657   -0.0006445063916944866
-0.0007791157940999667   -0.0268100263802502   -0.0004826422538609792
0.0019620996916913987   -0.026763086214991624   -0.00042385653847805215
0.0019566060616885116   -0.026805995912395977   -0.00039052179270100283
0.0013519454125013786   -0.031211580973041657   -0.0006445063916944866
-0.0007791157940999667   -0.0268100263802502   -0.0004826422538609792
0.0019566060616885116   -0.026805995912395977   -0.00039052179270100283
-0.0010177016341322948   -0.03131567122796658   -0.0006623528596029347
-0.0010318583632412438   -0.03142882889154047   -0.0006116713869420905
-0.0007323710097178567   -0.02696283824655678   -0.0004487817728982695
-0.003181209040111773   -0.03142931192073557   -0.0007347942081884307
-0.0010256412865383324   -0.0313629648628363   -0.0006390800745001682
-0.0007323710097178567   -0.02696283824655678   -0.0004487817728982695
-0.003276949566023555   -0.026949007696967994   -0.0005643200038251596
-0.003181209040111773   -0.03142931192073557   -0.0007347942081884307
-0.003293990480582998   -0.026895494767684356   -0.0005574744422385896
-0.0010256412865383324   -0.0313629648628363   -0.0006390800745001682
-0.003181388143548974   -0.0313737068862553   -0.0007321968401484916
-0.003293990480582998   -0.026895494767684356   -0.0005574744422385896
-0.003181209040111773   -0.03142931192073557   -0.0007347942081884307
-0.0010256412865383324   -0.0313629648628363   -0.0006390800745001682
-0.003293990480582998   -0.026895494767684356   -0.0005574744422385896
-0.0007444866807841281   -0.026898605367118734   -0.0004637373011519744
-0.0007323710097178567   -0.02696283824655678   -0.0004487817728982695
-0.0010256412865383324   -0.0313629648628363   -0.0006390800745001682
-0.003293990480582998   -0.026895494767684356   -0.0005574744422385896
-0.0007323710097178567   -0.02696283824655678   -0.0004487817728982695
-0.003181209040111773   -0.03142931192073557   -0.0007347942081884307
-0.0010256412865383324   -0.0313629648628363   -0.0006390800745001682
-0.0007444866807841281   -0.026898605367118734   -0.0004637373011519744
-0.003181388143548974   -0.0313737068862553   -0.0007321968401484916
-0.0010177016341322948   -0.03131567122796658   -0.0006623528596029347
-0.0007444866807841281   -0.026898605367118734   -0.0004637373011519744
-0.003293990480582998   -0.026895494767684356   -0.0005574744422385896
-0.003181388143548974   -0.0313737068862553   -0.0007321968401484916
-0.00331126764623813   -0.026853835478515383   -0.0005468051724336799
-0.0010177016341322948   -0.03131567122796658   -0.0006623528596029347
-0.003181416823583091   -0.031334466236847054   -0.0007254753391544643
-0.00331126764623813   -0.026853835478515383   -0.0005468051724336799
-0.003181388143548974   -0.0313737068862553   -0.0007321968401484916
-0.0010177016341322948   -0.03131567122796658   -0.0006623528596029347
-0.00331126764623813   -0.026853835478515383   -0.0005468051724336799
-0.0007571753065431297   -0.02684820588216138   -0.0004749826450664774
-0.0007444866807841281   -0.026898605367118734   -0.0004637373011519744
-0.0010177016341322948   -0.03131567122796658   -0.0006623528596029347
-0.00331126764623813   -0.026853835478515383   -0.0005468051724336799
-0.0007444866807841281   -0.026898605367118734   -0.0004637373011519744
-0.003181388143548974   -0.0313737068862553   -0.0007321968401484916
-0.0010177016341322948   -0.03131567122796658   -0.0006623528596029347
-0.0007571753065431297   -0.02684820588216138   -0.0004749826450664774
-0.003181416823583091   -0.031334466236847054   -0.0007254753391544643
-0.0010211349634718146   -0.03128540916816922   -0.0006817907557435685
-0.0007571753065431297   -0.02684820588216138   -0.0004749826450664774
-0.00331126764623813   -0.026853835478515383   -0.0005468051724336799
-0.003181416823583091   -0.031334466236847054   -0.0007254753391544643
-0.0033312687072866525   -0.026824228965194933   -0.0005325018006316437
-0.0010211349634718146   -0.03128540916816922   -0.0006817907557435685
-0.0031843078430625186   -0.031311620719266554   -0.0007148493089969105
-0.0033312687072866525   -0.026824228965194933   -0.0005325018006316437
-0.003181416823583091   -0.031334466236847054   -0.0007254753391544643
-0.0010211349634718146   -0.03128540916816922   -0.0006817907557435685
-0.0033312687072866525   -0.026824228965194933   -0.0005325018006316437
-0.0007791157940999667   -0.0268100263802502   -0.0004826422538609792
-0.0007571753065431297   -0.02684820588216138   -0.0004749826450664774
-0.0010211349634718146   -0.03128540916816922   -0.0006817907557435685
-0.0033312687072866525   -0.026824228965194933   -0.0005325018006316437
-0.0007571753065431297   -0.02684820588216138   -0.0004749826450664774
-0.003181416823583091   -0.031334466236847054   -0.0007254753391544643
-0.003181209040111773   -0.03142931192073557   -0.0007347942081884307
-0.003276949566023555   -0.026949007696967994   -0.0005643200038251596
-0.005294430684189181   -0.03137566394126659   -0.000842530392053083
-0.003181388143548974   -0.0313737068862553   -0.0007321968401484916
-0.003276949566023555   -0.026949007696967994   -0.0005643200038251596
-0.005778755688681314   -0.026896105812097528   -0.0006629774229639811
-0.005294430684189181   -0.03137566394126659   -0.000842530392053083
-0.005797192859465483   -0.02685229886390805   -0.0006344467249393702
-0.003181388143548974   -0.0313737068862553   -0.0007321968401484916
-0.005296213757874007   -0.031329035649917784   -0.000810293913020406
-0.005797192859465483   -0.02685229886390805   -0.0006344467249393702
-0.005294430684189181   -0.03137566394126659   -0.000842530392053083
-0.003181388143548974   -0.0313737068862553   -0.0007321968401484916
-0.005797192859465483   -0.02685229886390805   -0.0006344467249393702
-0.003293990480582998   -0.026895494767684356   -0.0005574744422385896
-0.003276949566023555   -0.026949007696967994   -0.0005643200038251596
-0.003181388143548974   -0.0313737068862553   -0.0007321968401484916
-0.005797192859465483   -0.02685229886390805   -0.0006344467249393702
-0.003276949566023555   -0.026949007696967994   -0.0005643200038251596
-0.005294430684189181   -0.03137566394126659   -0.000842530392053083
-0.003181388143548974   -0.0313737068862553   -0.0007321968401484916
-0.003293990480582998   -0.026895494767684356   -0.0005574744422385896
-0.005296213757874007   -0.031329035649917784   -0.000810293913020406
-0.003181416823583091   -0.031334466236847054   -0.0007254753391544643
-0.003293990480582998   -0.026895494767684356   -0.0005574744422385896
-0.005797192859465483   -0.02685229886390805   -0.0006344467249393702
-0.005296213757874007   -0.031329035649917784   -0.000810293913020406
-0.0058124318176231244   -0.026820233106192963   -0.0006021624498096688
-0.003181416823583091   -0.031334466236847054   -0.0007254753391544643
-0.005294405536947287   -0.03129862751277577   -0.0007740163289335131
-0.0058124318176231244   -0.026820233106192963   -0.0006021624498096688
-0.005296213757874007   -0.031329035649917784   -0.000810293913020406
-0.003181416823583091   -0.031334466236847054   -0.0007254753391544643
-0.0058124318176231244   -0.026820233106192963   -0.0006021624498096688
-0.00331126764623813   -0.026853835478515383   -0.0005468051724336799
-0.003293990480582998   -0.026895494767684356   -0.0005574744422385896
-0.003181416823583091   -0.031334466236847054   -0.0007254753391544643
-0.0058124318176231244   -0.026820233106192963   -0.0006021624498096688
-0.003293990480582998   -0.026895494767684356   -0.0005574744422385896
-0.005296213757874007   -0.031329035649917784   -0.000810293913020406
-0.003181416823583091   -0.031334466236847054   -0.0007254753391544643
-0.00331126764623813   -0.026853835478515383   -0.0005468051724336799
-0.005294405536947287   -0.03129862751277577   -0.0007740163289335131
-0.0031843078430625186   -0.031311620719266554   -0.0007148493089969105
-0.00331126764623813   -0.026853835478515383   -0.0005468051724336799
-0.0058124318176231244   -0.026820233106192963   -0.0006021624498096688
-0.005294405536947287   -0.03129862751277577   -0.0007740163289335131
-0.005828125777206702   -0.026799857521618096   -0.00056623344122891
-0.0031843078430625186   -0.031311620719266554   -0.0007148493089969105
-0.005293258219329162   -0.031284160403100995   -0.000733814016268016
-0.005828125777206702   -0.026799857521618096   -0.00056623344122891
-0.005294405536947287   -0.03129862751277577   -0.0007740163289335131
-0.0031843078430625186   -0.031311620719266554   -0.0007148493089969105
-0.005828125777206702   -0.026799857521618096   -0.00056623344122891
-0.0033312687072866525   -0.026824228965194933   -0.0005325018006316437
-0.00331126764623813   -0.026853835478515383   -0.0005468051724336799
-0.0031843078430625186   -0.031311620719266554   -0.0007148493089969105
-0.005828125777206702   -0.026799857521618096   -0.00056623344122891
-0.00331126764623813   -0.026853835478515383   -0.0005468051724336799
-0.005294405536947287   -0.03129862751277577   -0.0007740163289335131
-0.005294430684189181   -0.03137566394126659   -0.000842530392053083
-0.005778755688681314   -0.026896105812097528   -0.0006629774229639811
-0.007473272589971506   -0.031269870453316306   -0.000935137121806716
-0.005296213757874007   -0.031329035649917784   -0.000810293913020406
-0.005778755688681314   -0.026896105812097528   -0.0006629774229639811
-0.008340038625933657   -0.026805166885613164   -0.0007451742856212527
-0.007473272589971506   -0.031269870453316306   -0.000935137121806716
-0.008355199931050198   -0.026770817196861123   -0.0006946581947900685
-0.005296213757874007   -0.031329035649917784   -0.000810293913020406
-0.00747054751474175   -0.031231806672620526   -0.0008729020615917408
-0.008355199931050198   -0.026770817196861123   -0.0006946581947900685
-0.007473272589971506   -0.031269870453316306   -0.000935137121806716
-0.005296213757874007   -0.031329035649917784   -0.000810293913020406
-0.008355199931050198   -0.026770817196861123   -0.0006946581947900685
-0.005797192859465483   -0.02685229886390805   -0.0006344467249393702
-0.005778755688681314   -0.026896105812097528   -0.0006629774229639811
-0.005296213757874007   -0.031329035649917784   -0.000810293913020406
-0.008355199931050198   -0.026770817196861123   -0.0006946581947900685
-0.005778755688681314   -0.026896105812097528   -0.0006629774229639811
-0.007473272589971506   -0.031269870453316306   -0.000935137121806716
-0.005296213757874007   -0.031329035649917784   -0.000810293913020406
-0.005797192859465483   -0.02685229886390805   -0.0006344467249393702
-0.00747054751474175   -0.031231806672620526   -0.0008729020615917408
-0.005294405536947287   -0.03129862751277577   -0.0007740163289335131
-0.005797192859465483   -0.02685229886390805   -0.0006344467249393702
-0.008355199931050198   -0.026770817196861123   -0.0006946581947900685
-0.00747054751474175   -0.031231806672620526   -0.0008729020615917408
-0.008356830046274508   -0.02674752807587297   -0.0006409070700559724
-0.005294405536947287   -0.03129862751277577   -0.0007740163289335131
-0.007452067945191084   -0.03120940884652051   -0.0008072370402130499
-0.008356830046274508   -0.02674752807587297   -0.0006409070700559724
-0.00747054751474175   -0.031231806672620526   -0.0008729020615917408
-0.005294405536947287   -0.03129862751277577   -0.0007740163289335131
-0.008356830046274508   -0.02674752807587297   -0.0006409070700559724
-0.0058124318176231244   -0.026820233106192963   -0.0006021624498096688
-0.005797192859465483   -0.02685229886390805   -0.0006344467249393702
-0.005294405536947287   -0.03129862751277577   -0.0007740163289335131
-0.008356830046274508   -0.02674752807587297   -0.0006409070700559724
-0.005797192859465483   -0.02685229886390805   -0.0006344467249393702
-0.00747054751474175   -0.031231806672620526   -0.0008729020615917408
-0.005294405536947287   -0.03129862751277577   -0.0007740163289335131
-0.0058124318176231244   -0.026820233106192963   -0.0006021624498096688
-0.007452067945191084   -0.03120940884652051   -0.0008072370402130499
-0.005293258219329162   -0.031284160403100995   -0.000733814016268016
-0.0058124318176231244   -0.026820233106192963   -0.0006021624498096688
-0.008356830046274508   -0.02674752807587297   -0.0006409070700559724
-0.007452067945191084   -0.03120940884652051   -0.0008072370402130499
-0.008362374935467182   -0.026736989141134305   -0.0005832330884660167
-0.005293258219329162   -0.031284160403100995   -0.000733814016268016
-0.0074397656317709915   -0.031204297654724187   -0.0007373287269683854
-0.008362374935467182   -0.026736989141134305   -0.0005832330884660167
-0.007452067945191084   -0.03120940884652051   -0.0008072370402130499
-0.005293258219329162   -0.031284160403100995   -0.000733814016268016
-0.008362374935467182   -0.026736989141134305   -0.0005832330884660167
-0.005828125777206702   -0.026799857521618096   -0.00056623344122891
-0.0058124318176231244   -0.026820233106192963   -0.0006021624498096688
-0.005293258219329162   -0.031284160403100995   -0.000733814016268016
-0.008362374935467182   -0.026736989141134305   -0.0005832330884660167
-0.0058124318176231244   -0.026820233106192963   -0.0006021624498096688
-0.007452067945191084   -0.03120940884652051   -0.0008072370402130499
-0.007473272589971506   -0.031269870453316306   -0.000935137121806716
-0.008340038625933657   -0.026805166885613164   -0.0007451742856212527
-0.009907099373977239   -0.03112367320055901   -0.0010188319468077479
-0.00747054751474175   -0.031231806672620526   -0.0008729020615917408
-0.008340038625933657   -0.026805166885613164   -0.0007451742856212527
-0.01113360404552333   -0.026685504944311902   -0.0008154107872138506
-0.009907099373977239   -0.03112367320055901   -0.0010188319468077479
-0.011079018701038772   -0.02665412350430176   -0.0007415306948668299
-0.00747054751474175   -0.031231806672620526   -0.0008729020615917408
-0.009815033660593409   -0.031086223875738356   -0.0009235124926571765
-0.011079018701038772   -0.02665412350430176   -0.0007415306948668299
-0.009907099373977239   -0.03112367320055901   -0.0010188319468077479
-0.00747054751474175   -0.031231806672620526   -0.0008729020615917408
-0.011079018701038772   -0.02665412350430176   -0.0007415306948668299
-0.008355199931050198   -0.026770817196861123   -0.0006946581947900685
-0.008340038625933657   -0.026805166885613164   -0.0007451742856212527
-0.00747054751474175   -0.031231806672620526   -0.0008729020615917408
-0.011079018701038772   -0.02665412350430176   -0.0007415306948668299
-0.008340038625933657   -0.026805166885613164   -0.0007451742856212527
-0.009907099373977239   -0.03112367320055901   -0.0010188319468077479
-0.00747054751474175   -0.031231806672620526   -0.0008729020615917408
-0.008355199931050198   -0.026770817196861123   -0.0006946581947900685
-0.009815033660593409   -0.031086223875738356   -0.0009235124926571765
-0.007452067945191084   -0.03120940884652051   -0.0008072370402130499
-0.008355199931050198   -0.026770817196861123   -0.0006946581947900685
-0.011079018701038772   -0.02665412350430176   -0.0007415306948668299
-0.009815033660593409   -0.031086223875738356   -0.0009235124926571765
-0.011033066756692052   -0.02663456084096313   -0.0006619947531300951
-0.007452067945191084   -0.03120940884652051   -0.0008072370402130499
-0.009736435604018202   -0.031066754000126685   -0.000822414962853054
-0.011033066756692052   -0.02663456084096313   -0.0006619947531300951
-0.009815033660593409   -0.031086223875738356   -0.0009235124926571765
-0.007452067945191084   -0.03120940884652051   -0.0008072370402130499
-0.011033066756692052   -0.02663456084096313   -0.0006619947531300951
-0.008356830046274508   -0.02674752807587297   -0.0006409070700559724
-0.008355199931050198   -0.026770817196861123   -0.0006946581947900685
-0.007452067945191084   -0.03120940884652051   -0.0008072370402130499
-0.011033066756692052   -0.02663456084096313   -0.0006619947531300951
-0.008355199931050198   -0.026770817196861123   -0.0006946581947900685
-0.009815033660593409   -0.031086223875738356   -0.0009235124926571765
-0.007452067945191084   -0.03120940884652051   -0.0008072370402130499
-0.008356830046274508   -0.02674752807587297   -0.0006409070700559724
-0.009736435604018202   -0.031066754000126685   -0.000822414962853054
-0.0074397656317709915   -0.031204297654724187   -0.0007373287269683854
-0.008356830046274508   -0.02674752807587297   -0.0006409070700559724
-0.011033066756692052   -0.02663456084096313   -0.0006619947531300951
-0.009736435604018202   -0.031066754000126685   -0.000822414962853054
-0.010957648860166888   -0.02663660360132342   -0.0005775103571235741
-0.0074397656317709915   -0.031204297654724187   -0.0007373287269683854
-0.009623196130881693   -0.031074651607606096   -0.0007163374974589249
-0.010957648860166888   -0.02663660360132342   -0.0005775103571235741
-0.009736435604018202   -0.031066754000126685   -0.000822414962853054
-0.0074397656317709915   -0.031204297654724187   -0.0007373287269683854
-0.010957648860166888   -0.02663660360132342   -0.0005775103571235741
-0.008362374935467182   -0.026736989141134305   -0.0005832330884660167
-0.008356830046274508   -0.02674752807587297   -0.0006409070700559724
-0.0074397656317709915   -0.031204297654724187   -0.0007373287269683854
-0.010957648860166888   -0.02663660360132342   -0.0005775103571235741
-0.008356830046274508   -0.02674752807587297   -0.0006409070700559724
-0.009736435604018202   -0.031066754000126685   -0.000822414962853054
0.0019211413783497523   -0.026934894623362172   -0.00030794115478894154
0.002326646089856424   -0.021944562987020914   -0.00015752736625887503
-0.0007323710097178567   -0.02696283824655678   -0.0004487817728982695
0.0019479223882154196   -0.026860031248776874   -0.00035197049979223316
0.002326646089856424   -0.021944562987020914   -0.00015752736625887503
-0.0006243671725973563   -0.02194459572158311   -0.0002879836175362901
-0.0007323710097178567   -0.02696283824655678   -0.0004487817728982695
-0.000650276680914112   -0.02188252884861069   -0.0002902632957706796
0.0019479223882154196   -0.026860031248776874   -0.00035197049979223316
-0.0007444866807841281   -0.026898605367118734   -0.0004637373011519744
-0.000650276680914112   -0.02188252884861069   -0.0002902632957706796
-0.0007323710097178567   -0.02696283824655678   -0.0004487817728982695
0.0019479223882154196   -0.026860031248776874   -0.00035197049979223316
-0.000650276680914112   -0.02188252884861069   -0.0002902632957706796
0.0023192732358898573   -0.021872941036506603   -0.00017906261321141626
0.002326646089856424   -0.021944562987020914   -0.00015752736625887503
0.0019479223882154196   -0.026860031248776874   -0.00035197049979223316
-0.000650276680914112   -0.02188252884861069   -0.0002902632957706796
0.002326646089856424   -0.021944562987020914   -0.00015752736625887503
-0.0007323710097178567   -0.02696283824655678   -0.0004487817728982695
0.0019479223882154196   -0.026860031248776874   -0.00035197049979223316
0.0023192732358898573   -0.021872941036506603   -0.00017906261321141626
-0.0007444866807841281   -0.026898605367118734   -0.0004637373011519744
0.0019566060616885116   -0.026805995912395977   -0.00039052179270100283
0.0023192732358898573   -0.021872941036506603   -0.00017906261321141626
-0.000650276680914112   -0.02188252884861069   -0.0002902632957706796
-0.0007444866807841281   -0.026898605367118734   -0.0004637373011519744
-0.0006790758489875465   -0.02182945269540556   -0.00028923532140140944
0.0019566060616885116   -0.026805995912395977   -0.00039052179270100283
-0.0007571753065431297   -0.02684820588216138   -0.0004749826450664774
-0.0006790758489875465   -0.02182945269540556   -0.00028923532140140944
-0.0007444866807841281   -0.026898605367118734   -0.0004637373011519744
0.0019566060616885116   -0.026805995912395977   -0.00039052179270100283
-0.0006790758489875465   -0.02182945269540556   -0.00028923532140140944
0.0022989990143250628   -0.021815778619991944   -0.00019529614990751806
0.0023192732358898573   -0.021872941036506603   -0.00017906261321141626
0.0019566060616885116   -0.026805995912395977   -0.00039052179270100283
-0.0006790758489875465   -0.02182945269540556   -0.00028923532140140944
0.0023192732358898573   -0.021872941036506603   -0.00017906261321141626
-0.0007444866807841281   -0.026898605367118734   -0.0004637373011519744
0.0019566060616885116   -0.026805995912395977   -0.00039052179270100283
0.0022989990143250628   -0.021815778619991944   -0.00019529614990751806
-0.0007571753065431297   -0.02684820588216138   -0.0004749826450664774
0.0019620996916913987   -0.026763086214991624   -0.00042385653847805215
0.0022989990143250628   -0.021815778619991944   -0.00019529614990751806
-0.0006790758489875465   -0.02182945269540556   -0.00028923532140140944
-0.0007571753065431297   -0.02684820588216138   -0.0004749826450664774
-0.0007149929439685045   -0.021783964325728083   -0.0002847692935393025
0.0019620996916913987   -0.026763086214991624   -0.00042385653847805215
-0.0007791157940999667   -0.0268100263802502   -0.0004826422538609792
-0.0007149929439685045   -0.021783964325728083   -0.0002847692935393025
-0.0007571753065431297   -0.02684820588216138   -0.0004749826450664774
0.0019620996916913987   -0.026763086214991624   -0.00042385653847805215
-0.0007149929439685045   -0.021783964325728083   -0.0002847692935393025
0.002270525288998045   -0.021763547056363443   -0.00020659840317430005
0.0022989990143250628   -0.021815778619991944   -0.00019529614990751806
0.0019620996916913987   -0.026763086214991624   -0.00042385653847805215
-0.0007149929439685045   -0.021783964325728083   -0.0002847692935393025
0.0022989990143250628   -0.021815778619991944   -0.00019529614990751806
-0.0007571753065431297   -0.02684820588216138   -0.0004749826450664774
-0.0007323710097178567   -0.02696283824655678   -0.0004487817728982695
-0.0006243671725973563   -0.02194459572158311   -0.0002879836175362901
-0.003276949566023555   -0.026949007696967994   -0.0005643200038251596
-0.0007444866807841281   -0.026898605367118734   -0.0004637373011519744
-0.0006243671725973563   -0.02194459572158311   -0.0002879836175362901
-0.003439649892394595   -0.021918058500947475   -0.0003951515133212421
-0.003276949566023555   -0.026949007696967994   -0.0005643200038251596
-0.003468827378151617   -0.021866744333478925   -0.00038367846671097795
-0.0007444866807841281   -0.026898605367118734   -0.0004637373011519744
-0.003293990480582998   -0.026895494767684356   -0.0005574744422385896
-0.003468827378151617   -0.021866744333478925   -0.00038367846671097795
-0.003276949566023555   -0.026949007696967994   -0.0005643200038251596
-0.0007444866807841281   -0.026898605367118734   -0.0004637373011519744
-0.003468827378151617   -0.021866744333478925   -0.00038367846671097795
-0.000650276680914112   -0.02188252884861069   -0.0002902632957706796
-0.0006243671725973563   -0.02194459572158311   -0.0002879836175362901
-0.0007444866807841281   -0.026898605367118734   -0.0004637373011519744
-0.003468827378151617   -0.021866744333478925   -0.00038367846671097795
-0.0006243671725973563   -0.02194459572158311   -0.0002879836175362901
-0.003276949566023555   -0.026949007696967994   -0.0005643200038251596
-0.0007444866807841281   -0.026898605367118734   -0.0004637373011519744
-0.000650276680914112   -0.02188252884861069   -0.0002902632957706796
-0.003293990480582998   -0.026895494767684356   -0.0005574744422385896
-0.0007571753065431297   -0.02684820588216138   -0.0004749826450664774
-0.000650276680914112   -0.02188252884861069   -0.0002902632957706796
-0.003468827378151617   -0.021866744333478925   -0.00038367846671097795
-0.003293990480582998   -0.026895494767684356   -0.0005574744422385896
-0.0034986035044577537   -0.021822747999932526   -0.0003687555286740275
-0.0007571753065431297   -0.02684820588216138   -0.0004749826450664774
-0.00331126764623813   -0.026853835478515383   -0.0005468051724336799
-0.0034986035044577537   -0.021822747999932526   -0.0003687555286740275
-0.003293990480582998   -0.026895494767684356   -0.0005574744422385896
-0.0007571753065431297   -0.02684820588216138   -0.0004749826450664774
-0.0034986035044577537   -0.021822747999932526   -0.0003687555286740275
-0.0006790758489875465   -0.02182945269540556   -0.00028923532140140944
-0.000650276680914112   -0.02188252884861069   -0.0002902632957706796
-0.0007571753065431297   -0.02684820588216138   -0.0004749826450664774
-0.0034986035044577537   -0.021822747999932526   -0.0003687555286740275
-0.000650276680914112   -0.02188252884861069   -0.0002902632957706796
-0.003293990480582998   -0.026895494767684356   -0.0005574744422385896
-0.0007571753065431297   -0.02684820588216138   -0.0004749826450664774
-0.0006790758489875465   -0.02182945269540556   -0.00028923532140140944
-0.00331126764623813   -0.026853835478515383   -0.0005468051724336799
-0.0007791157940999667   -0.0268100263802502   -0.0004826422538609792
-0.0006790758489875465   -0.02182945269540556   -0.00028923532140140944
-0.0034986035044577537   -0.021822747999932526   -0.0003687555286740275
-0.00331126764623813   -0.026853835478515383   -0.0005468051724336799
-0.003530926173868772   -0.021786498026302198   -0.0003505495604248466
-0.0007791157940999667   -0.0268100263802502   -0.0004826422538609792
-0.0033312687072866525   -0.026824228965194933   -0.0005325018006316437
-0.003530926173868772   -0.021786498026302198   -0.0003505495604248466
-0.00331126764623813   -0.026853835478515383   -0.0005468051724336799
-0.0007791157940999667   -0.0268100263802502   -0.0004826422538609792
-0.003530926173868772   -0.021786498026302198   -0.0003505495604248466
-0.0007149929439685045   -0.021783964325728083   -0.0002847692935393025
-0.0006790758489875465   -0.02182945269540556   -0.00028923532140140944
-0.0007791157940999667   -0.0268100263802502   -0.0004826422538609792
-0.003530926173868772   -0.021786498026302198   -0.0003505495604248466
-0.0006790758489875465   -0.02182945269540556   -0.00028923532140140944
-0.00331126764623813   -0.026853835478515383   -0.0005468051724336799
-0.003276949566023555   -0.026949007696967994   -0.0005643200038251596
-0.003439649892394595   -0.021918058500947475   -0.0003951515133212421
-0.005778755688681314   -0.026896105812097528   -0.0006629774229639811
-0.003293990480582998   -0.026895494767684356   -0.0005574744422385896
-0.003439649892394595   -0.021918058500947475   -0.0003951515133212421
-0.0062073573420552055   -0.021868084062453233   -0.00048528403573419967
-0.005778755688681314   -0.026896105812097528   -0.0006629774229639811
-0.006237456370140972   -0.021826649347326012   -0.00046009833685549655
-0.003293990480582998   -0.026895494767684356   -0.0005574744422385896
-0.005797192859465483   -0.02685229886390805   -0.0006344467249393702
-0.006237456370140972   -0.021826649347326012   -0.00046009833685549655
-0.005778755688681314   -0.026896105812097528   -0.0006629774229639811
-0.003293990480582998   -0.026895494767684356   -0.0005574744422385896
-0.006237456370140972   -0.021826649347326012   -0.00046009833685549655
-0.003468827378151617   -0.021866744333478925   -0.00038367846671097795
-0.003439649892394595   -0.021918058500947475   -0.0003951515133212421
-0.003293990480582998   -0.026895494767684356   -0.0005574744422385896
-0.006237456370140972   -0.021826649347326012   -0.00046009833685549655
-0.003439649892394595   -0.021918058500947475   -0.0003951515133212421
-0.005778755688681314   -0.026896105812097528   -0.0006629774229639811
-0.003293990480582998   -0.026895494767684356   -0.0005574744422385896
-0.003468827378151617   -0.021866744333478925   -0.00038367846671097795
-0.005797192859465483   -0.02685229886390805   -0.0006344467249393702
-0.00331126764623813   -0.026853835478515383   -0.0005468051724336799
-0.003468827378151617   -0.021866744333478925   -0.00038367846671097795
-0.006237456370140972   -0.021826649347326012   -0.00046009833685549655
-0.005797192859465483   -0.02685229886390805   -0.0006344467249393702
-0.006264732999971434   -0.02179248088473953   -0.0004315447805206925
-0.00331126764623813   -0.026853835478515383   -0.0005468051724336799
-0.0058124318176231244   -0.026820233106192963   -0.0006021624498096688
-0.006264732999971434   -0.02179248088473953   -0.0004315447805206925
-0.005797192859465483   -0.02685229886390805   -0.0006344467249393702
-0.00331126764623813   -0.026853835478515383   -0.0005468051724336799
-0.006264732999971434   -0.02179248088473953   -0.0004315447805206925
-0.0034986035044577537   -0.021822747999932526   -0.0003687555286740275
-0.003468827378151617   -0.021866744333478925   -0.00038367846671097795
-0.00331126764623813   -0.026853835478515383   -0.0005468051724336799
-0.006264732999971434   -0.02179248088473953   -0.0004315447805206925
-0.003468827378151617   -0.021866744333478925   -0.00038367846671097795
-0.005797192859465483   -0.02685229886390805   -0.0006344467249393702
-0.00331126764623813   -0.026853835478515383   -0.0005468051724336799
-0.0034986035044577537   -0.021822747999932526   -0.0003687555286740275
-0.0058124318176231244   -0.026820233106192963   -0.0006021624498096688
-0.0033312687072866525   -0.026824228965194933   -0.0005325018006316437
-0.0034986035044577537   -0.021822747999932526   -0.0003687555286740275
-0.006264732999971434   -0.02179248088473953   -0.0004315447805206925
-0.0058124318176231244   -0.026820233106192963   -0.0006021624498096688
-0.006292272161932588   -0.02176563257909356   -0.0003997498406619418
-0.0033312687072866525   -0.026824228965194933   -0.0005325018006316437
-0.005828125777206702   -0.026799857521618096   -0.00056623344122891
-0.006292272161932588   -0.02176563257909356   -0.0003997498406619418
-0.0058124318176231244   -0.026820233106192963   -0.0006021624498096688
-0.0033312687072866525   -0.026824228965194933   -0.0005325018006316437
-0.006292272161932588   -0.02176563257909356   -0.0003997498406619418
-0.003530926173868772   -0.021786498026302198   -0.0003505495604248466
-0.0034986035044577537   -0.021822747999932526   -0.0003687555286740275
-0.0033312687072866525   -0.026824228965194933   -0.0005325018006316437
-0.006292272161932588   -0.02176563257909356   -0.0003997498406619418
-0.0034986035044577537   -0.021822747999932526   -0.0003687555286740275
-0.0058124318176231244   -0.026820233106192963   -0.0006021624498096688
-0.005778755688681314   -0.026896105812097528   -0.0006629774229639811
-0.0062073573420552055   -0.021868084062453233   -0.00048528403573419967
-0.008340038625933657   -0.026805166885613164   -0.0007451742856212527
-0.005797192859465483   -0.02685229886390805   -0.0006344467249393702
-0.0062073573420552055   -0.021868084062453233   -0.00048528403573419967
-0.00903000778152445   -0.021793618658400918   -0.0005586161929550222
-0.008340038625933657   -0.026805166885613164   -0.0007451742856212527
-0.009057898865166343   -0.021762131883925808   -0.0005196102438122331
-0.005797192859465483   -0.02685229886390805   -0.0006344467249393702
-0.008355199931050198   -0.026770817196861123   -0.0006946581947900685
-0.009057898865166343   -0.021762131883925808   -0.0005196102438122331
-0.008340038625933657   -0.026805166885613164   -0.0007451742856212527
-0.005797192859465483   -0.02685229886390805   -0.0006344467249393702
-0.009057898865166343   -0.021762131883925808   -0.0005196102438122331
-0.006237456370140972   -0.021826649347326012   -0.00046009833685549655
-0.0062073573420552055   -0.021868084062453233   -0.00048528403573419967
-0.005797192859465483   -0.02685229886390805   -0.0006344467249393702
-0.009057898865166343   -0.021762131883925808   -0.0005196102438122331
-0.0062073573420552055   -0.021868084062453233   -0.00048528403573419967
-0.008340038625933657   -0.026805166885613164   -0.0007451742856212527
-0.005797192859465483   -0.02685229886390805   -0.0006344467249393702
-0.006237456370140972   -0.021826649347326012   -0.00046009833685549655
-0.008355199931050198   -0.026770817196861123   -0.0006946581947900685
-0.0058124318176231244   -0.026820233106192963   -0.0006021624498096688
-0.006237456370140972   -0.021826649347326012   -0.00046009833685549655
-0.009057898865166343   -0.021762131883925808   -0.0005196102438122331
-0.008355199931050198   -0.026770817196861123   -0.0006946581947900685
-0.009074582357136235   -0.02173702938191134   -0.0004776865509993929
-0.0058124318176231244   -0.026820233106192963   -0.0006021624498096688
-0.008356830046274508   -0.02674752807587297   -0.0006409070700559724
-0.009074582357136235   -0.02173702938191134   -0.0004776865509993929
-0.008355199931050198   -0.026770817196861123   -0.0006946581947900685
-0.0058124318176231244   -0.026820233106192963   -0.0006021624498096688
-0.009074582357136235   -0.02173702938191134   -0.0004776865509993929
-0.006264732999971434   -0.02179248088473953   -0.0004315447805206925
-0.006237456370140972   -0.021826649347326012   -0.00046009833685549655
-0.0058124318176231244   -0.026820233106192963   -0.0006021624498096688
-0.009074582357136235   -0.02173702938191134   -0.0004776865509993929
-0.006237456370140972   -0.021826649347326012   -0.00046009833685549655
-0.008355199931050198   -0.026770817196861123   -0.0006946581947900685
-0.0058124318176231244   -0.026820233106192963   -0.0006021624498096688
-0.006264732999971434   -0.02179248088473953   -0.0004315447805206925
-0.008356830046274508   -0.02674752807587297   -0.0006409070700559724
-0.005828125777206702   -0.026799857521618096   -0.00056623344122891
-0.006264732999971434   -0.02179248088473953   -0.0004315447805206925
-0.009074582357136235   -0.02173702938191134   -0.0004776865509993929
-0.008356830046274508   -0.02674752807587297   -0.0006409070700559724
-0.009093016814040447   -0.02171989236491773   -0.00043224392002303076
-0.005828125777206702   -0.026799857521618096   -0.00056623344122891
-0.008362374935467182   -0.026736989141134305   -0.0005832330884660167
-0.009093016814040447   -0.02171989236491773   -0.00043224392002303076
-0.008356830046274508   -0.02674752807587297   -0.0006409070700559724
-0.005828125777206702   -0.026799857521618096   -0.00056623344122891
-0.009093016814040447   -0.02171989236491773   -0.00043224392002303076
-0.006292272161932588   -0.02176563257909356   -0.0003997498406619418
-0.006264732999971434   -0.02179248088473953   -0.0004315447805206925
-0.005828125777206702   -0.026799857521618096   -0.00056623344122891
-0.009093016814040447   -0.02171989236491773   -0.00043224392002303076
-0.006264732999971434   -0.02179248088473953   -0.0004315447805206925
-0.008356830046274508   -0.02674752807587297   -0.0006409070700559724
-0.008340038625933657   -0.026805166885613164   -0.0007451742856212527
-0.00903000778152445   -0.021793618658400918   -0.0005586161929550222
-0.01113360404552333   -0.026685504944311902   -0.0008154107872138506
-0.008355199931050198   -0.026770817196861123   -0.0006946581947900685
-0.00903000778152445   -0.021793618658400918   -0.0005586161929550222
-0.01206043738362107   -0.021701648826401184   -0.0006167287038604123
-0.01113360404552333   -0.026685504944311902   -0.0008154107872138506
-0.012038535824217515   -0.021675226031388068   -0.0005645429344617031
-0.008355199931050198   -0.026770817196861123   -0.0006946581947900685
-0.011079018701038772   -0.02665412350430176   -0.0007415306948668299
-0.012038535824217515   -0.021675226031388068   -0.0005645429344617031
-0.01113360404552333   -0.026685504944311902   -0.0008154107872138506
-0.008355199931050198   -0.026770817196861123   -0.0006946581947900685
-0.012038535824217515   -0.021675226031388068   -0.0005645429344617031
-0.009057898865166343   -0.021762131883925808   -0.0005196102438122331
-0.00903000778152445   -0.021793618658400918   -0.0005586161929550222
-0.008355199931050198   -0.026770817196861123   -0.0006946581947900685
-0.012038535824217515   -0.021675226031388068   -0.0005645429344617031
-0.00903000778152445   -0.021793618658400918   -0.0005586161929550222
-0.01113360404552333   -0.026685504944311902   -0.0008154107872138506
-0.008355199931050198   -0.026770817196861123   -0.0006946581947900685
-0.009057898865166343   -0.021762131883925808   -0.0005196102438122331
-0.011079018701038772   -0.02665412350430176   -0.0007415306948668299
-0.008356830046274508   -0.02674752807587297   -0.0006409070700559724
-0.009057898865166343   -0.021762131883925808   -0.0005196102438122331
-0.012038535824217515   -0.021675226031388068   -0.0005645429344617031
-0.011079018701038772   -0.02665412350430176   -0.0007415306948668299
-0.012020673063101651   -0.021654398659798648   -0.0005070025160500289
-0.008356830046274508   -0.02674752807587297   -0.0006409070700559724
-0.011033066756692052   -0.02663456084096313   -0.0006619947531300951
-0.012020673063101651   -0.021654398659798648   -0.0005070025160500289
-0.011079018701038772   -0.02665412350430176   -0.0007415306948668299
-0.008356830046274508   -0.02674752807587297   -0.0006409070700559724
-0.012020673063101651   -0.021654398659798648   -0.0005070025160500289
-0.009074582357136235   -0.02173702938191134   -0.0004776865509993929
-0.009057898865166343   -0.021762131883925808   -0.0005196102438122331
-0.008356830046274508   -0.02674752807587297   -0.0006409070700559724
-0.012020673063101651   -0.021654398659798648   -0.0005070025160500289
-0.009057898865166343   -0.021762131883925808   -0.0005196102438122331
-0.011079018701038772   -0.02665412350430176   -0.0007415306948668299
-0.008356830046274508   -0.02674752807587297   -0.0006409070700559724
-0.009074582357136235   -0.02173702938191134   -0.0004776865509993929
-0.011033066756692052   -0.02663456084096313   -0.0006619947531300951
-0.008362374935467182   -0.026736989141134305   -0.0005832330884660167
-0.009074582357136235   -0.02173702938191134   -0.0004776865509993929
-0.012020673063101651   -0.021654398659798648   -0.0005070025160500289
-0.011033066756692052   -0.02663456084096313   -0.0006619947531300951
-0.011978816678682164   -0.021648961300786616   -0.0004447168364585795
-0.008362374935467182   -0.026736989141134305   -0.0005832330884660167
-0.010957648860166888   -0.02663660360132342   -0.0005775103571235741
-0.011978816678682164   -0.021648961300786616   -0.0004447168364585795
-0.011033066756692052   -0.02663456084096313   -0.0006619947531300951
-0.008362374935467182   -0.026736989141134305   -0.0005832330884660167
-0.011978816678682164   -0.021648961300786616   -0.0004447168364585795
-0.009093016814040447   -0.02171989236491773   -0.00043224392002303076
-0.009074582357136235   -0.02173702938191134   -0.0004776865509993929
-0.008362374935467182   -0.026736989141134305   -0.0005832330884660167
-0.011978816678682164   -0.021648961300786616   -0.0004447168364585795
-0.009074582357136235   -0.02173702938191134   -0.0004776865509993929
-0.011033066756692052   -0.02663456084096313   -0.0006619947531300951
0.002326646089856424   -0.021944562987020914   -0.00015752736625887503
0.00241521341133441   -0.016599871582488476   -2.5933070988305573e-05
-0.0006243671725973563   -0.02194459572158311   -0.0002879836175362901
0.0023192732358898573   -0.021872941036506603   -0.00017906261321141626
0.00241521341133441   -0.016599871582488476   -2.5933070988305573e-05
-0.0007082235260936693   -0.016572997755789777   -0.0001429237819456549
-0.0006243671725973563   -0.02194459572158311   -0.0002879836175362901
-0.0007440139374030101   -0.016513698589785537   -0.00013246308848924003
0.0023192732358898573   -0.021872941036506603   -0.00017906261321141626
-0.000650276680914112   -0.02188252884861069   -0.0002902632957706796
-0.0007440139374030101   -0.016513698589785537   -0.00013246308848924003
-0.0006243671725973563   -0.02194459572158311   -0.0002879836175362901
0.0023192732358898573   -0.021872941036506603   -0.00017906261321141626
-0.0007440139374030101   -0.016513698589785537   -0.00013246308848924003
0.002377860717261556   -0.01653165416669482   -2.448253559100335e-05
0.00241521341133441   -0.016599871582488476   -2.5933070988305573e-05
0.0023192732358898573   -0.021872941036506603   -0.00017906261321141626
-0.0007440139374030101   -0.016513698589785537   -0.00013246308848924003
0.00241521341133441   -0.016599871582488476   -2.5933070988305573e-05
-0.0006243671725973563   -0.02194459572158311   -0.0002879836175362901
0.0023192732358898573   -0.021872941036506603   -0.00017906261321141626
0.002377860717261556   -0.01653165416669482   -2.448253559100335e-05
-0.000650276680914112   -0.02188252884861069   -0.0002902632957706796
0.0022989990143250628   -0.021815778619991944   -0.00019529614990751806
0.002377860717261556   -0.01653165416669482   -2.448253559100335e-05
-0.0007440139374030101   -0.016513698589785537   -0.00013246308848924003
-0.000650276680914112   -0.02188252884861069   -0.0002902632957706796
-0.0007850379153499941   -0.016457978595232882   -0.00011898754347875991
0.0022989990143250628   -0.021815778619991944   -0.00019529614990751806
-0.0006790758489875465   -0.02182945269540556   -0.00028923532140140944
-0.0007850379153499941   -0.016457978595232882   -0.00011898754347875991
-0.000650276680914112   -0.02188252884861069   -0.0002902632957706796
0.0022989990143250628   -0.021815778619991944   -0.00019529614990751806
-0.0007850379153499941   -0.016457978595232882   -0.00011898754347875991
0.002331522675037728   -0.01647107243061725   -1.688241339314536e-05
0.002377860717261556   -0.01653165416669482   -2.448253559100335e-05
0.0022989990143250628   -0.021815778619991944   -0.00019529614990751806
-0.0007850379153499941   -0.016457978595232882   -0.00011898754347875991
0.002377860717261556   -0.01653165416669482   -2.448253559100335e-05
-0.000650276680914112   -0.02188252884861069   -0.0002902632957706796
0.0022989990143250628   -0.021815778619991944   -0.00019529614990751806
0.002331522675037728   -0.01647107243061725   -1.688241339314536e-05
-0.0006790758489875465   -0.02182945269540556   -0.00028923532140140944
0.002270525288998045   -0.021763547056363443   -0.00020659840317430005
0.002331522675037728   -0.01647107243061725   -1.688241339314536e-05
-0.0007850379153499941   -0.016457978595232882   -0.00011898754347875991
-0.0006790758489875465   -0.02182945269540556   -0.00028923532140140944
-0.0008312037156047859   -0.01640506248446326   -0.00010174347021245704
0.002270525288998045   -0.021763547056363443   -0.00020659840317430005
-0.0007149929439685045   -0.021783964325728083   -0.0002847692935393025
-0.0008312037156047859   -0.01640506248446326   -0.00010174347021245704
-0.0006790758489875465   -0.02182945269540556   -0.00028923532140140944
0.002270525288998045   -0.021763547056363443   -0.00020659840317430005
-0.0008312037156047859   -0.01640506248446326   -0.00010174347021245704
0.0022703115513788793   -0.01640789068781538   -3.4076983834501846e-06
0.002331522675037728   -0.01647107243061725   -1.688241339314536e-05
0.002270525288998045   -0.021763547056363443   -0.00020659840317430005
-0.0008312037156047859   -0.01640506248446326   -0.00010174347021245704
0.002331522675037728   -0.01647107243061725   -1.688241339314536e-05
-0.0006790758489875465   -0.02182945269540556   -0.00028923532140140944
-0.0006243671725973563   -0.02194459572158311   -0.0002879836175362901
-0.0007082235260936693   -0.016572997755789777   -0.0001429237819456549
-0.003439649892394595   -0.021918058500947475   -0.0003951515133212421
-0.000650276680914112   -0.02188252884861069   -0.0002902632957706796
-0.0007082235260936693   -0.016572997755789777   -0.0001429237819456549
-0.0036676706104929965   -0.01654106148859138   -0.00024141307236155563
-0.003439649892394595   -0.021918058500947475   -0.0003951515133212421
-0.003704339146079036   -0.016491696128327786   -0.00022498692400496091
-0.000650276680914112   -0.02188252884861069   -0.0002902632957706796
-0.003468827378151617   -0.021866744333478925   -0.00038367846671097795
-0.003704339146079036   -0.016491696128327786   -0.00022498692400496091
-0.003439649892394595   -0.021918058500947475   -0.0003951515133212421
-0.000650276680914112   -0.02188252884861069   -0.0002902632957706796
-0.003704339146079036   -0.016491696128327786   -0.00022498692400496091
-0.0007440139374030101   -0.016513698589785537   -0.00013246308848924003
-0.0007082235260936693   -0.016572997755789777   -0.0001429237819456549
-0.000650276680914112   -0.02188252884861069   -0.0002902632957706796
-0.003704339146079036   -0.016491696128327786   -0.00022498692400496091
-0.0007082235260936693   -0.016572997755789777   -0.0001429237819456549
-0.003439649892394595   -0.021918058500947475   -0.0003951515133212421
-0.000650276680914112   -0.02188252884861069   -0.0002902632957706796
-0.0007440139374030101   -0.016513698589785537   -0.00013246308848924003
-0.003468827378151617   -0.021866744333478925   -0.00038367846671097795
-0.0006790758489875465   -0.02182945269540556   -0.00028923532140140944
-0.0007440139374030101   -0.016513698589785537   -0.00013246308848924003
-0.003704339146079036   -0.016491696128327786   -0.00022498692400496091
-0.003468827378151617   -0.021866744333478925   -0.00038367846671097795
-0.003741847505105884   -0.016445103455106094   -0.0002056793437171408
-0.0006790758489875465   -0.02182945269540556   -0.00028923532140140944
-0.0034986035044577537   -0.021822747999932526   -0.0003687555286740275
-0.003741847505105884   -0.016445103455106094   -0.0002056793437171408
-0.003468827378151617   -0.021866744333478925   -0.00038367846671097795
-0.0006790758489875465   -0.02182945269540556   -0.00028923532140140944
-0.003741847505105884   -0.016445103455106094   -0.0002056793437171408
-0.0007850379153499941   -0.016457978595232882   -0.00011898754347875991
-0.0007440139374030101   -0.016513698589785537   -0.00013246308848924003
-0.0006790758489875465   -0.02182945269540556   -0.00028923532140140944
-0.003741847505105884   -0.016445103455106094   -0.0002056793437171408
-0.0007440139374030101   -0.016513698589785537   -0.00013246308848924003
-0.003468827378151617   -0.021866744333478925   -0.00038367846671097795
-0.0006790758489875465   -0.02182945269540556   -0.00028923532140140944
-0.0007850379153499941   -0.016457978595232882   -0.00011898754347875991
-0.0034986035044577537   -0.021822747999932526   -0.0003687555286740275
-0.0007149929439685045   -0.021783964325728083   -0.0002847692935393025
-0.0007850379153499941   -0.016457978595232882   -0.00011898754347875991
-0.003741847505105884   -0.016445103455106094   -0.0002056793437171408
-0.0034986035044577537   -0.021822747999932526   -0.0003687555286740275
-0.003781769947564625   -0.016402030591052646   -0.00018346565459170498
-0.0007149929439685045   -0.021783964325728083   -0.0002847692935393025
-0.003530926173868772   -0.021786498026302198   -0.0003505495604248466
-0.003781769947564625   -0.016402030591052646   -0.00018346565459170498
-0.0034986035044577537   -0.021822747999932526   -0.0003687555286740275
-0.0007149929439685045   -0.021783964325728083   -0.0002847692935393025
-0.003781769947564625   -0.016402030591052646   -0.00018346565459170498
-0.0008312037156047859   -0.01640506248446326   -0.00010174347021245704
-0.0007850379153499941   -0.016457978595232882   -0.00011898754347875991
-0.0007149929439685045   -0.021783964325728083   -0.0002847692935393025
-0.003781769947564625   -0.016402030591052646   -0.00018346565459170498
-0.0007850379153499941   -0.016457978595232882   -0.00011898754347875991
-0.0034986035044577537   -0.021822747999932526   -0.0003687555286740275
-0.003439649892394595   -0.021918058500947475   -0.0003951515133212421
-0.0036676706104929965   -0.01654106148859138   -0.00024141307236155563
-0.0062073573420552055   -0.021868084062453233   -0.00048528403573419967
-0.003468827378151617   -0.021866744333478925   -0.00038367846671097795
-0.0036676706104929965   -0.01654106148859138   -0.00024141307236155563
-0.006578652651856398   -0.016502482617313664   -0.0003247460216187891
-0.0062073573420552055   -0.021868084062453233   -0.00048528403573419967
-0.0066151176626446555   -0.01646228920121659   -0.00030238295990173895
-0.003468827378151617   -0.021866744333478925   -0.00038367846671097795
-0.006237456370140972   -0.021826649347326012   -0.00046009833685549655
-0.0066151176626446555   -0.01646228920121659   -0.00030238295990173895
-0.0062073573420552055   -0.021868084062453233   -0.00048528403573419967
-0.003468827378151617   -0.021866744333478925   -0.00038367846671097795
-0.0066151176626446555   -0.01646228920121659   -0.00030238295990173895
-0.003704339146079036   -0.016491696128327786   -0.00022498692400496091
-0.0036676706104929965   -0.01654106148859138   -0.00024141307236155563
-0.003468827378151617   -0.021866744333478925   -0.00038367846671097795
-0.0066151176626446555   -0.01646228920121659   -0.00030238295990173895
-0.0036676706104929965   -0.01654106148859138   -0.00024141307236155563
-0.0062073573420552055   -0.021868084062453233   -0.00048528403573419967
-0.003468827378151617   -0.021866744333478925   -0.00038367846671097795
-0.003704339146079036   -0.016491696128327786   -0.00022498692400496091
-0.006237456370140972   -0.021826649347326012   -0.00046009833685549655
-0.0034986035044577537   -0.021822747999932526   -0.0003687555286740275
-0.003704339146079036   -0.016491696128327786   -0.00022498692400496091
-0.0066151176626446555   -0.01646228920121659   -0.00030238295990173895
-0.006237456370140972   -0.021826649347326012   -0.00046009833685549655
-0.006649205809573838   -0.016425014895320496   -0.0002772365917303727
-0.0034986035044577537   -0.021822747999932526   -0.0003687555286740275
-0.006264732999971434   -0.02179248088473953   -0.0004315447805206925
-0.006649205809573838   -0.016425014895320496   -0.0002772365917303727
-0.006237456370140972   -0.021826649347326012   -0.00046009833685549655
-0.0034986035044577537   -0.021822747999932526   -0.0003687555286740275
-0.006649205809573838   -0.016425014895320496   -0.0002772365917303727
-0.003741847505105884   -0.016445103455106094   -0.0002056793437171408
-0.003704339146079036   -0.016491696128327786   -0.00022498692400496091
-0.0034986035044577537   -0.021822747999932526   -0.0003687555286740275
-0.006649205809573838   -0.016425014895320496   -0.0002772365917303727
-0.003704339146079036   -0.016491696128327786   -0.00022498692400496091
-0.006237456370140972   -0.021826649347326012   -0.00046009833685549655
-0.0034986035044577537   -0.021822747999932526   -0.0003687555286740275
-0.003741847505105884   -0.016445103455106094   -0.0002056793437171408
-0.006264732999971434   -0.02179248088473953   -0.0004315447805206925
-0.003530926173868772   -0.021786498026302198   -0.0003505495604248466
-0.003741847505105884   -0.016445103455106094   -0.0002056793437171408
-0.006649205809573838   -0.016425014895320496   -0.0002772365917303727
-0.006264732999971434   -0.02179248088473953   -0.0004315447805206925
-0.006683416468033058   -0.016390759034083973   -0.0002494428528133551
-0.003530926173868772   -0.021786498026302198   -0.0003505495604248466
-0.006292272161932588   -0.02176563257909356   -0.0003997498406619418
-0.006683416468033058   -0.016390759034083973   -0.0002494428528133551
-0.006264732999971434   -0.02179248088473953   -0.0004315447805206925
-0.003530926173868772   -0.021786498026302198   -0.0003505495604248466
-0.006683416468033058   -0.016390759034083973   -0.0002494428528133551
-0.003781769947564625   -0.016402030591052646   -0.00018346565459170498
-0.003741847505105884   -0.016445103455106094   -0.0002056793437171408
-0.003530926173868772   -0.021786498026302198   -0.0003505495604248466
-0.006683416468033058   -0.016390759034083973   -0.0002494428528133551
-0.003741847505105884   -0.016445103455106094   -0.0002056793437171408
-0.006264732999971434   -0.02179248088473953   -0.0004315447805206925
-0.0062073573420552055   -0.021868084062453233   -0.00048528403573419967
-0.006578652651856398   -0.016502482617313664   -0.0003247460216187891
-0.00903000778152445   -0.021793618658400918   -0.0005586161929550222
-0.006237456370140972   -0.021826649347326012   -0.00046009833685549655
-0.006578652651856398   -0.016502482617313664   -0.0003247460216187891
-0.00954240610023125   -0.01645014554483181   -0.00039220569561755056
-0.00903000778152445   -0.021793618658400918   -0.0005586161929550222
-0.009577300849048237   -0.016419597688108026   -0.00036397763764678273
-0.006237456370140972   -0.021826649347326012   -0.00046009833685549655
-0.009057898865166343   -0.021762131883925808   -0.0005196102438122331
-0.009577300849048237   -0.016419597688108026   -0.00036397763764678273
-0.00903000778152445   -0.021793618658400918   -0.0005586161929550222
-0.006237456370140972   -0.021826649347326012   -0.00046009833685549655
-0.009577300849048237   -0.016419597688108026   -0.00036397763764678273
-0.0066151176626446555   -0.01646228920121659   -0.00030238295990173895
-0.006578652651856398   -0.016502482617313664   -0.0003247460216187891
-0.006237456370140972   -0.021826649347326012   -0.00046009833685549655
-0.009577300849048237   -0.016419597688108026   -0.00036397763764678273
-0.006578652651856398   -0.016502482617313664   -0.0003247460216187891
-0.00903000778152445   -0.021793618658400918   -0.0005586161929550222
-0.006237456370140972   -0.021826649347326012   -0.00046009833685549655
-0.0066151176626446555   -0.01646228920121659   -0.00030238295990173895
-0.009057898865166343   -0.021762131883925808   -0.0005196102438122331
-0.006264732999971434   -0.02179248088473953   -0.0004315447805206925
-0.0066151176626446555   -0.01646228920121659   -0.00030238295990173895
-0.009577300849048237   -0.016419597688108026   -0.00036397763764678273
-0.009057898865166343   -0.021762131883925808   -0.0005196102438122331
-0.00960360965063515   -0.01639092112767183   -0.00033341654988750967
-0.006264732999971434   -0.02179248088473953   -0.0004315447805206925
-0.009074582357136235   -0.02173702938191134   -0.0004776865509993929
-0.00960360965063515   -0.01639092112767183   -0.00033341654988750967
-0.009057898865166343   -0.021762131883925808   -0.0005196102438122331
-0.006264732999971434   -0.02179248088473953   -0.0004315447805206925
-0.00960360965063515   -0.01639092112767183   -0.00033341654988750967
-0.006649205809573838   -0.016425014895320496   -0.0002772365917303727
-0.0066151176626446555   -0.01646228920121659   -0.00030238295990173895
-0.006264732999971434   -0.02179248088473953   -0.0004315447805206925
-0.00960360965063515   -0.01639092112767183   -0.00033341654988750967
-0.0066151176626446555   -0.01646228920121659   -0.00030238295990173895
-0.009057898865166343   -0.021762131883925808   -0.0005196102438122331
-0.006264732999971434   -0.02179248088473953   -0.0004315447805206925
-0.006649205809573838   -0.016425014895320496   -0.0002772365917303727
-0.009074582357136235   -0.02173702938191134   -0.0004776865509993929
-0.006292272161932588   -0.02176563257909356   -0.0003997498406619418
-0.006649205809573838   -0.016425014895320496   -0.0002772365917303727
-0.00960360965063515   -0.01639092112767183   -0.00033341654988750967
-0.009074582357136235   -0.02173702938191134   -0.0004776865509993929
-0.009629748022554698   -0.016365441706930897   -0.0002999216921960915
-0.006292272161932588   -0.02176563257909356   -0.0003997498406619418
-0.009093016814040447   -0.02171989236491773   -0.00043224392002303076
-0.009629748022554698   -0.016365441706930897   -0.0002999216921960915
-0.009074582357136235   -0.02173702938191134   -0.0004776865509993929
-0.006292272161932588   -0.02176563257909356   -0.0003997498406619418
-0.009629748022554698   -0.016365441706930897   -0.0002999216921960915
-0.006683416468033058   -0.016390759034083973   -0.0002494428528133551
-0.006649205809573838   -0.016425014895320496   -0.0002772365917303727
-0.006292272161932588   -0.02176563257909356   -0.0003997498406619418
-0.009629748022554698   -0.016365441706930897   -0.0002999216921960915
-0.006649205809573838   -0.016425014895320496   -0.0002772365917303727
-0.009074582357136235   -0.02173702938191134   -0.0004776865509993929
-0.00903000778152445   -0.021793618658400918   -0.0005586161929550222
-0.00954240610023125   -0.01645014554483181   -0.00039220569561755056
-0.01206043738362107   -0.021701648826401184   -0.0006167287038604123
-0.009057898865166343   -0.021762131883925808   -0.0005196102438122331
-0.00954240610023125   -0.01645014554483181   -0.00039220569561755056
-0.012684991312119578   -0.01638799461431315   -0.0004418303430484789
-0.01206043738362107   -0.021701648826401184   -0.0006167287038604123
-0.012689487982592482   -0.016363860423522218   -0.000410379115184344
-0.009057898865166343   -0.021762131883925808   -0.0005196102438122331
-0.012038535824217515   -0.021675226031388068   -0.0005645429344617031
-0.012689487982592482   -0.016363860423522218   -0.000410379115184344
-0.01206043738362107   -0.021701648826401184   -0.0006167287038604123
-0.009057898865166343   -0.021762131883925808   -0.0005196102438122331
-0.012689487982592482   -0.016363860423522218   -0.000410379115184344
-0.009577300849048237   -0.016419597688108026   -0.00036397763764678273
-0.00954240610023125   -0.01645014554483181   -0.00039220569561755056
-0.009057898865166343   -0.021762131883925808   -0.0005196102438122331
-0.012689487982592482   -0.016363860423522218   -0.000410379115184344
-0.00954240610023125   -0.01645014554483181   -0.00039220569561755056
-0.01206043738362107   -0.021701648826401184   -0.0006167287038604123
-0.009057898865166343   -0.021762131883925808   -0.0005196102438122331
-0.009577300849048237   -0.016419597688108026   -0.00036397763764678273
-0.012038535824217515   -0.021675226031388068   -0.0005645429344617031
-0.009074582357136235   -0.02173702938191134   -0.0004776865509993929
-0.009577300849048237   -0.016419597688108026   -0.00036397763764678273
-0.012689487982592482   -0.016363860423522218   -0.000410379115184344
-0.012038535824217515   -0.021675226031388068   -0.0005645429344617031
-0.012694248865207123   -0.016339603535384793   -0.0003742406867821369
-0.009074582357136235   -0.02173702938191134   -0.0004776865509993929
-0.012020673063101651   -0.021654398659798648   -0.0005070025160500289
-0.012694248865207123   -0.016339603535384793   -0.0003742406867821369
-0.012038535824217515   -0.021675226031388068   -0.0005645429344617031
-0.009074582357136235   -0.02173702938191134   -0.0004776865509993929
-0.012694248865207123   -0.016339603535384793   -0.0003742406867821369
-0.00960360965063515   -0.01639092112767183   -0.00033341654988750967
-0.009577300849048237   -0.016419597688108026   -0.00036397763764678273
-0.009074582357136235   -0.02173702938191134   -0.0004776865509993929
-0.012694248865207123   -0.016339603535384793   -0.0003742406867821369
-0.009577300849048237   -0.016419597688108026   -0.00036397763764678273
-0.012038535824217515   -0.021675226031388068   -0.0005645429344617031
-0.009074582357136235   -0.02173702938191134   -0.0004776865509993929
-0.00960360965063515   -0.01639092112767183   -0.00033341654988750967
-0.012020673063101651   -0.021654398659798648   -0.0005070025160500289
-0.009093016814040447   -0.02171989236491773   -0.00043224392002303076
-0.00960360965063515   -0.01639092112767183   -0.00033341654988750967
-0.012694248865207123   -0.016339603535384793   -0.0003742406867821369
-0.012020673063101651   -0.021654398659798648   -0.0005070025160500289
-0.012681110797127613   -0.01632434663823693   -0.00033396531428297164
-0.009093016814040447   -0.02171989236491773   -0.00043224392002303076
-0.011978816678682164   -0.021648961300786616   -0.0004447168364585795
-0.012681110797127613   -0.01632434663823693   -0.00033396531428297164
-0.012020673063101651   -0.021654398659798648   -0.0005070025160500289
-0.009093016814040447   -0.02171989236491773   -0.00043224392002303076
-0.012681110797127613   -0.01632434663823693   -0.00033396531428297164
-0.009629748022554698   -0.016365441706930897   -0.0002999216921960915
-0.00960360965063515   -0.01639092112767183   -0.00033341654988750967
-0.009093016814040447   -0.02171989236491773   -0.00043224392002303076
-0.012681110797127613   -0.01632434663823693   -0.00033396531428297164
-0.00960360965063515   -0.01639092112767183   -0.00033341654988750967
-0.012020673063101651   -0.021654398659798648   -0.0005070025160500289
0.00241521341133441   -0.016599871582488476   -2.5933070988305573e-05
0.0021718020005479944   -0.011087511699465856   6.498757343931936e-05
-0.0007082235260936693   -0.016572997755789777   -0.0001429237819456549
0.002377860717261556   -0.01653165416669482   -2.448253559100335e-05
0.0021718020005479944   -0.011087511699465856   6.498757343931936e-05
-0.0009797700065580111   -0.011036168224217772   -2.7340977920182497e-05
-0.0007082235260936693   -0.016572997755789777   -0.0001429237819456549
-0.0010228133582215542   -0.010982650149988414   -5.075050641750571e-06
0.002377860717261556   -0.01653165416669482   -2.448253559100335e-05
-0.0007440139374030101   -0.016513698589785537   -0.00013246308848924003
-0.0010228133582215542   -0.010982650149988414   -5.075050641750571e-06
-0.0007082235260936693   -0.016572997755789777   -0.0001429237819456549
0.002377860717261556   -0.01653165416669482   -2.448253559100335e-05
-0.0010228133582215542   -0.010982650149988414   -5.075050641750571e-06
0.0021044557122816975   -0.011022646524476055   9.23171812606183e-05
0.0021718020005479944   -0.011087511699465856   6.498757343931936e-05
0.002377860717261556   -0.01653165416669482   -2.448253559100335e-05
-0.0010228133582215542   -0.010982650149988414   -5.075050641750571e-06
0.0021718020005479944   -0.011087511699465856   6.498757343931936e-05
-0.0007082235260936693   -0.016572997755789777   -0.0001429237819456549
0.002377860717261556   -0.01653165416669482   -2.448253559100335e-05
0.0021044557122816975   -0.011022646524476055   9.23171812606183e-05
-0.0007440139374030101   -0.016513698589785537   -0.00013246308848924003
0.002331522675037728   -0.01647107243061725   -1.688241339314536e-05
0.0021044557122816975   -0.011022646524476055   9.23171812606183e-05
-0.0010228133582215542   -0.010982650149988414   -5.075050641750571e-06
-0.0007440139374030101   -0.016513698589785537   -0.00013246308848924003
-0.0010732405848323894   -0.010926263414801168   2.1211049845479097e-05
0.002331522675037728   -0.01647107243061725   -1.688241339314536e-05
-0.0007850379153499941   -0.016457978595232882   -0.00011898754347875991
-0.0010732405848323894   -0.010926263414801168   2.1211049845479097e-05
-0.0007440139374030101   -0.016513698589785537   -0.00013246308848924003
0.002331522675037728   -0.01647107243061725   -1.688241339314536e-05
-0.0010732405848323894   -0.010926263414801168   2.1211049845479097e-05
0.0020288839397592327   -0.010958461630043782   0.00013191897098415654
0.0021044557122816975   -0.011022646524476055   9.23171812606183e-05
0.002331522675037728   -0.01647107243061725   -1.688241339314536e-05
-0.0010732405848323894   -0.010926263414801168   2.1211049845479097e-05
0.0021044557122816975   -0.011022646524476055   9.23171812606183e-05
-0.0007440139374030101   -0.016513698589785537   -0.00013246308848924003
0.002331522675037728   -0.01647107243061725   -1.688241339314536e-05
0.0020288839397592327   -0.010958461630043782   0.00013191897098415654
-0.0007850379153499941   -0.016457978595232882   -0.00011898754347875991
0.0022703115513788793   -0.01640789068781538   -3.4076983834501846e-06
0.0020288839397592327   -0.010958461630043782   0.00013191897098415654
-0.0010732405848323894   -0.010926263414801168   2.1211049845479097e-05
-0.0007850379153499941   -0.016457978595232882   -0.00011898754347875991
-0.0011254889117925434   -0.010866480329436587   5.14754877235129e-05
0.0022703115513788793   -0.01640789068781538   -3.4076983834501846e-06
-0.0008312037156047859   -0.01640506248446326   -0.00010174347021245704
-0.0011254889117925434   -0.010866480329436587   5.14754877235129e-05
-0.0007850379153499941   -0.016457978595232882   -0.00011898754347875991
0.0022703115513788793   -0.01640789068781538   -3.4076983834501846e-06
-0.0011254889117925434   -0.010866480329436587   5.14754877235129e-05
0.001936507631104992   -0.010879523745372571   0.0001755558596963032
0.0020288839397592327   -0.010958461630043782   0.00013191897098415654
0.0022703115513788793   -0.01640789068781538   -3.4076983834501846e-06
-0.0011254889117925434   -0.010866480329436587   5.14754877235129e-05
0.0020288839397592327   -0.010958461630043782   0.00013191897098415654
-0.0007850379153499941   -0.016457978595232882   -0.00011898754347875991
-0.0007082235260936693   -0.016572997755789777   -0.0001429237819456549
-0.0009797700065580111   -0.011036168224217772   -2.7340977920182497e-05
-0.0036676706104929965   -0.01654106148859138   -0.00024141307236155563
-0.0007440139374030101   -0.016513698589785537   -0.00013246308848924003
-0.0009797700065580111   -0.011036168224217772   -2.7340977920182497e-05
-0.003946196072869992   -0.01102284870390117   -0.0001160511131362815
-0.0036676706104929965   -0.01654106148859138   -0.00024141307236155563
-0.003985251291173463   -0.010976355321198445   -9.51479419597922e-05
-0.0007440139374030101   -0.016513698589785537   -0.00013246308848924003
-0.003704339146079036   -0.016491696128327786   -0.00022498692400496091
-0.003985251291173463   -0.010976355321198445   -9.51479419597922e-05
-0.0036676706104929965   -0.01654106148859138   -0.00024141307236155563
-0.0007440139374030101   -0.016513698589785537   -0.00013246308848924003
-0.003985251291173463   -0.010976355321198445   -9.51479419597922e-05
-0.0010228133582215542   -0.010982650149988414   -5.075050641750571e-06
-0.0009797700065580111   -0.011036168224217772   -2.7340977920182497e-05
-0.0007440139374030101   -0.016513698589785537   -0.00013246308848924003
-0.003985251291173463   -0.010976355321198445   -9.51479419597922e-05
-0.0009797700065580111   -0.011036168224217772   -2.7340977920182497e-05
-0.0036676706104929965   -0.01654106148859138   -0.00024141307236155563
-0.0007440139374030101   -0.016513698589785537   -0.00013246308848924003
-0.0010228133582215542   -0.010982650149988414   -5.075050641750571e-06
-0.003704339146079036   -0.016491696128327786   -0.00022498692400496091
-0.0007850379153499941   -0.016457978595232882   -0.00011898754347875991
-0.0010228133582215542   -0.010982650149988414   -5.075050641750571e-06
-0.003985251291173463   -0.010976355321198445   -9.51479419597922e-05
-0.003704339146079036   -0.016491696128327786   -0.00022498692400496091
-0.004025688642729122   -0.010928031153710084   -7.213540004933491e-05
-0.0007850379153499941   -0.016457978595232882   -0.00011898754347875991
-0.003741847505105884   -0.016445103455106094   -0.0002056793437171408
-0.004025688642729122   -0.010928031153710084   -7.213540004933491e-05
-0.003704339146079036   -0.016491696128327786   -0.00022498692400496091
-0.0007850379153499941   -0.016457978595232882   -0.00011898754347875991
-0.004025688642729122   -0.010928031153710084   -7.213540004933491e-05
-0.0010732405848323894   -0.010926263414801168   2.1211049845479097e-05
-0.0010228133582215542   -0.010982650149988414   -5.075050641750571e-06
-0.0007850379153499941   -0.016457978595232882   -0.00011898754347875991
-0.004025688642729122   -0.010928031153710084   -7.213540004933491e-05
-0.0010228133582215542   -0.010982650149988414   -5.075050641750571e-06
-0.003704339146079036   -0.016491696128327786   -0.00022498692400496091
-0.0007850379153499941   -0.016457978595232882   -0.00011898754347875991
-0.0010732405848323894   -0.010926263414801168   2.1211049845479097e-05
-0.003741847505105884   -0.016445103455106094   -0.0002056793437171408
-0.0008312037156047859   -0.01640506248446326   -0.00010174347021245704
-0.0010732405848323894   -0.010926263414801168   2.1211049845479097e-05
-0.004025688642729122   -0.010928031153710084   -7.213540004933491e-05
-0.003741847505105884   -0.016445103455106094   -0.0002056793437171408
-0.0040678239721778945   -0.01087879185334122   -4.660006621989335e-05
-0.0008312037156047859   -0.01640506248446326   -0.00010174347021245704
-0.003781769947564625   -0.016402030591052646   -0.00018346565459170498
-0.0040678239721778945   -0.01087879185334122   -4.660006621989335e-05
-0.003741847505105884   -0.016445103455106094   -0.0002056793437171408
-0.0008312037156047859   -0.01640506248446326   -0.00010174347021245704
-0.0040678239721778945   -0.01087879185334122   -4.660006621989335e-05
-0.0011254889117925434   -0.010866480329436587   5.14754877235129e-05
-0.0010732405848323894   -0.010926263414801168   2.1211049845479097e-05
-0.0008312037156047859   -0.01640506248446326   -0.00010174347021245704
-0.0040678239721778945   -0.01087879185334122   -4.660006621989335e-05
-0.0010732405848323894   -0.010926263414801168   2.1211049845479097e-05
-0.003741847505105884   -0.016445103455106094   -0.0002056793437171408
-0.0036676706104929965   -0.01654106148859138   -0.00024141307236155563
-0.003946196072869992   -0.01102284870390117   -0.0001160511131362815
-0.006578652651856398   -0.016502482617313664   -0.0003247460216187891
-0.003704339146079036   -0.016491696128327786   -0.00022498692400496091
-0.003946196072869992   -0.01102284870390117   -0.0001160511131362815
-0.006881244483219618   -0.011019100462284544   -0.00019605873695813927
-0.006578652651856398   -0.016502482617313664   -0.0003247460216187891
-0.0069186534658405565   -0.01097848944895608   -0.00017595809452599934
-0.003704339146079036   -0.016491696128327786   -0.00022498692400496091
-0.0066151176626446555   -0.01646228920121659   -0.00030238295990173895
-0.0069186534658405565   -0.01097848944895608   -0.00017595809452599934
-0.006578652651856398   -0.016502482617313664   -0.0003247460216187891
-0.003704339146079036   -0.016491696128327786   -0.00022498692400496091
-0.0069186534658405565   -0.01097848944895608   -0.00017595809452599934
-0.003985251291173463   -0.010976355321198445   -9.51479419597922e-05
-0.003946196072869992   -0.01102284870390117   -0.0001160511131362815
-0.003704339146079036   -0.016491696128327786   -0.00022498692400496091
-0.0069186534658405565   -0.01097848944895608   -0.00017595809452599934
-0.003946196072869992   -0.01102284870390117   -0.0001160511131362815
-0.006578652651856398   -0.016502482617313664   -0.0003247460216187891
-0.003704339146079036   -0.016491696128327786   -0.00022498692400496091
-0.003985251291173463   -0.010976355321198445   -9.51479419597922e-05
-0.0066151176626446555   -0.01646228920121659   -0.00030238295990173895
-0.003741847505105884   -0.016445103455106094   -0.0002056793437171408
-0.003985251291173463   -0.010976355321198445   -9.51479419597922e-05
-0.0069186534658405565   -0.01097848944895608   -0.00017595809452599934
-0.0066151176626446555   -0.01646228920121659   -0.00030238295990173895
-0.006954293741602453   -0.010937205350883036   -0.00015400698643965106
-0.003741847505105884   -0.016445103455106094   -0.0002056793437171408
-0.006649205809573838   -0.016425014895320496   -0.0002772365917303727
-0.006954293741602453   -0.010937205350883036   -0.00015400698643965106
-0.0066151176626446555   -0.01646228920121659   -0.00030238295990173895
-0.003741847505105884   -0.016445103455106094   -0.0002056793437171408
-0.006954293741602453   -0.010937205350883036   -0.00015400698643965106
-0.004025688642729122   -0.010928031153710084   -7.213540004933491e-05
-0.003985251291173463   -0.010976355321198445   -9.51479419597922e-05
-0.003741847505105884   -0.016445103455106094   -0.0002056793437171408
-0.006954293741602453   -0.010937205350883036   -0.00015400698643965106
-0.003985251291173463   -0.010976355321198445   -9.51479419597922e-05
-0.0066151176626446555   -0.01646228920121659   -0.00030238295990173895
-0.003741847505105884   -0.016445103455106094   -0.0002056793437171408
-0.004025688642729122   -0.010928031153710084   -7.213540004933491e-05
-0.006649205809573838   -0.016425014895320496   -0.0002772365917303727
-0.003781769947564625   -0.016402030591052646   -0.00018346565459170498
-0.004025688642729122   -0.010928031153710084   -7.213540004933491e-05
-0.006954293741602453   -0.010937205350883036   -0.00015400698643965106
-0.006649205809573838   -0.016425014895320496   -0.0002772365917303727
-0.006989579485897749   -0.010895003113097494   -0.00013030472538378887
-0.003781769947564625   -0.016402030591052646   -0.00018346565459170498
-0.006683416468033058   -0.016390759034083973   -0.0002494428528133551
-0.006989579485897749   -0.010895003113097494   -0.00013030472538378887
-0.006649205809573838   -0.016425014895320496   -0.0002772365917303727
-0.003781769947564625   -0.016402030591052646   -0.00018346565459170498
-0.006989579485897749   -0.010895003113097494   -0.00013030472538378887
-0.0040678239721778945   -0.01087879185334122   -4.660006621989335e-05
-0.004025688642729122   -0.010928031153710084   -7.213540004933491e-05
-0.003781769947564625   -0.016402030591052646   -0.00018346565459170498
-0.006989579485897749   -0.010895003113097494   -0.00013030472538378887
-0.004025688642729122   -0.010928031153710084   -7.213540004933491e-05
-0.006649205809573838   -0.016425014895320496   -0.0002772365917303727
-0.006578652651856398   -0.016502482617313664   -0.0003247460216187891
-0.006881244483219618   -0.011019100462284544   -0.00019605873695813927
-0.00954240610023125   -0.01645014554483181   -0.00039220569561755056
-0.0066151176626446555   -0.01646228920121659   -0.00030238295990173895
-0.006881244483219618   -0.011019100462284544   -0.00019605873695813927
-0.009878611309398025   -0.011001825861194383   -0.0002629101321818903
-0.00954240610023125   -0.01645014554483181   -0.00039220569561755056
-0.009914271512059078   -0.010968982285239287   -0.00024373365192466683
-0.0066151176626446555   -0.01646228920121659   -0.00030238295990173895
-0.009577300849048237   -0.016419597688108026   -0.00036397763764678273
-0.009914271512059078   -0.010968982285239287   -0.00024373365192466683
-0.00954240610023125   -0.01645014554483181   -0.00039220569561755056
-0.0066151176626446555   -0.01646228920121659   -0.00030238295990173895
-0.009914271512059078   -0.010968982285239287   -0.00024373365192466683
-0.0069186534658405565   -0.01097848944895608   -0.00017595809452599934
-0.006881244483219618   -0.011019100462284544   -0.00019605873695813927
-0.0066151176626446555   -0.01646228920121659   -0.00030238295990173895
-0.009914271512059078   -0.010968982285239287   -0.00024373365192466683
-0.006881244483219618   -0.011019100462284544   -0.00019605873695813927
-0.00954240610023125   -0.01645014554483181   -0.00039220569561755056
-0.0066151176626446555   -0.01646228920121659   -0.00030238295990173895
-0.0069186534658405565   -0.01097848944895608   -0.00017595809452599934
-0.009577300849048237   -0.016419597688108026   -0.00036397763764678273
-0.006649205809573838   -0.016425014895320496   -0.0002772365917303727
-0.0069186534658405565   -0.01097848944895608   -0.00017595809452599934
-0.009914271512059078   -0.010968982285239287   -0.00024373365192466683
-0.009577300849048237   -0.016419597688108026   -0.00036397763764678273
-0.009944407257963512   -0.010934359044803197   -0.00022322568933400287
-0.006649205809573838   -0.016425014895320496   -0.0002772365917303727
-0.00960360965063515   -0.01639092112767183   -0.00033341654988750967
-0.009944407257963512   -0.010934359044803197   -0.00022322568933400287
-0.009577300849048237   -0.016419597688108026   -0.00036397763764678273
-0.006649205809573838   -0.016425014895320496   -0.0002772365917303727
-0.009944407257963512   -0.010934359044803197   -0.00022322568933400287
-0.006954293741602453   -0.010937205350883036   -0.00015400698643965106
-0.0069186534658405565   -0.01097848944895608   -0.00017595809452599934
-0.006649205809573838   -0.016425014895320496   -0.0002772365917303727
-0.009944407257963512   -0.010934359044803197   -0.00022322568933400287
-0.0069186534658405565   -0.01097848944895608   -0.00017595809452599934
-0.009577300849048237   -0.016419597688108026   -0.00036397763764678273
-0.006649205809573838   -0.016425014895320496   -0.0002772365917303727
-0.006954293741602453   -0.010937205350883036   -0.00015400698643965106
-0.00960360965063515   -0.01639092112767183   -0.00033341654988750967
-0.006683416468033058   -0.016390759034083973   -0.0002494428528133551
-0.006954293741602453   -0.010937205350883036   -0.00015400698643965106
-0.009944407257963512   -0.010934359044803197   -0.00022322568933400287
-0.00960360965063515   -0.01639092112767183   -0.00033341654988750967
-0.009972885430605788   -0.010898877766584937   -0.0002008229132821195
-0.006683416468033058   -0.016390759034083973   -0.0002494428528133551
-0.009629748022554698   -0.016365441706930897   -0.0002999216921960915
-0.009972885430605788   -0.010898877766584937   -0.0002008229132821195
-0.00960360965063515   -0.01639092112767183   -0.00033341654988750967
-0.006683416468033058   -0.016390759034083973   -0.0002494428528133551
-0.009972885430605788   -0.010898877766584937   -0.0002008229132821195
-0.006989579485897749   -0.010895003113097494   -0.00013030472538378887
-0.006954293741602453   -0.010937205350883036   -0.00015400698643965106
-0.006683416468033058   -0.016390759034083973   -0.0002494428528133551
-0.009972885430605788   -0.010898877766584937   -0.0002008229132821195
-0.006954293741602453   -0.010937205350883036   -0.00015400698643965106
-0.00960360965063515   -0.01639092112767183   -0.00033341654988750967
-0.00954240610023125   -0.01645014554483181   -0.00039220569561755056
-0.009878611309398025   -0.011001825861194383   -0.0002629101321818903
-0.012684991312119578   -0.01638799461431315   -0.0004418303430484789
-0.009577300849048237   -0.016419597688108026   -0.00036397763764678273
-0.009878611309398025   -0.011001825861194383   -0.0002629101321818903
-0.013020056468165824   -0.010973139037472568   -0.0003117987169689014
-0.012684991312119578   -0.01638799461431315   -0.0004418303430484789
-0.013041797841187521   -0.010945819708006755   -0.0002971618900326305
-0.009577300849048237   -0.016419597688108026   -0.00036397763764678273
-0.012689487982592482   -0.016363860423522218   -0.000410379115184344
-0.013041797841187521   -0.010945819708006755   -0.0002971618900326305
-0.012684991312119578   -0.01638799461431315   -0.0004418303430484789
-0.009577300849048237   -0.016419597688108026   -0.00036397763764678273
-0.013041797841187521   -0.010945819708006755   -0.0002971618900326305
-0.009914271512059078   -0.010968982285239287   -0.00024373365192466683
-0.009878611309398025   -0.011001825861194383   -0.0002629101321818903
-0.009577300849048237   -0.016419597688108026   -0.00036397763764678273
-0.013041797841187521   -0.010945819708006755   -0.0002971618900326305
-0.009878611309398025   -0.011001825861194383   -0.0002629101321818903
-0.012684991312119578   -0.01638799461431315   -0.0004418303430484789
-0.009577300849048237   -0.016419597688108026   -0.00036397763764678273
-0.009914271512059078   -0.010968982285239287   -0.00024373365192466683
-0.012689487982592482   -0.016363860423522218   -0.000410379115184344
-0.00960360965063515   -0.01639092112767183   -0.00033341654988750967
-0.009914271512059078   -0.010968982285239287   -0.00024373365192466683
-0.013041797841187521   -0.010945819708006755   -0.0002971618900326305
-0.012689487982592482   -0.016363860423522218   -0.000410379115184344
-0.013061678103621707   -0.010914801782463594   -0.00027929422317646366
-0.00960360965063515   -0.01639092112767183   -0.00033341654988750967
-0.012694248865207123   -0.016339603535384793   -0.0003742406867821369
-0.013061678103621707   -0.010914801782463594   -0.00027929422317646366
-0.012689487982592482   -0.016363860423522218   -0.000410379115184344
-0.00960360965063515   -0.01639092112767183   -0.00033341654988750967
-0.013061678103621707   -0.010914801782463594   -0.00027929422317646366
-0.009944407257963512   -0.010934359044803197   -0.00022322568933400287
-0.009914271512059078   -0.010968982285239287   -0.00024373365192466683
-0.00960360965063515   -0.01639092112767183   -0.00033341654988750967
-0.013061678103621707   -0.010914801782463594   -0.00027929422317646366
-0.009914271512059078   -0.010968982285239287   -0.00024373365192466683
-0.012689487982592482   -0.016363860423522218   -0.000410379115184344
-0.00960360965063515   -0.01639092112767183   -0.00033341654988750967
-0.009944407257963512   -0.010934359044803197   -0.00022322568933400287
-0.012694248865207123   -0.016339603535384793   -0.0003742406867821369
-0.009629748022554698   -0.016365441706930897   -0.0002999216921960915
-0.009944407257963512   -0.010934359044803197   -0.00022322568933400287
-0.013061678103621707   -0.010914801782463594   -0.00027929422317646366
-0.012694248865207123   -0.016339603535384793   -0.0003742406867821369
-0.013070839785862683   -0.010886651296480544   -0.00025898357491113406
-0.009629748022554698   -0.016365441706930897   -0.0002999216921960915
-0.012681110797127613   -0.01632434663823693   -0.00033396531428297164
-0.013070839785862683   -0.010886651296480544   -0.00025898357491113406
-0.012694248865207123   -0.016339603535384793   -0.0003742406867821369
-0.009629748022554698   -0.016365441706930897   -0.0002999216921960915
-0.013070839785862683   -0.010886651296480544   -0.00025898357491113406
-0.009972885430605788   -0.010898877766584937   -0.0002008229132821195
-0.009944407257963512   -0.010934359044803197   -0.00022322568933400287
-0.009629748022554698   -0.016365441706930897   -0.0002999216921960915
-0.013070839785862683   -0.010886651296480544   -0.00025898357491113406
-0.009944407257963512   -0.010934359044803197   -0.00022322568933400287
-0.012694248865207123   -0.016339603535384793   -0.0003742406867821369
0.0021718020005479944   -0.011087511699465856   6.498757343931936e-05
0.0015260488416521526   -0.005576458409584493   7.034078336614048e-05
-0.0009797700065580111   -0.011036168224217772   -2.7340977920182497e-05
0.0021044557122816975   -0.011022646524476055   9.23171812606183e-05
0.0015260488416521526   -0.005576458409584493   7.034078336614048e-05
-0.0014181399184525578   -0.005505541524896253   3.8057318045740926e-05
-0.0009797700065580111   -0.011036168224217772   -2.7340977920182497e-05
-0.001461140684011928   -0.005479218730074551   6.927617784733886e-05
0.0021044557122816975   -0.011022646524476055   9.23171812606183e-05
-0.0010228133582215542   -0.010982650149988414   -5.075050641750571e-06
-0.001461140684011928   -0.005479218730074551   6.927617784733886e-05
-0.0009797700065580111   -0.011036168224217772   -2.7340977920182497e-05
0.0021044557122816975   -0.011022646524476055   9.23171812606183e-05
-0.001461140684011928   -0.005479218730074551   6.927617784733886e-05
0.0013918132207444366   -0.005507235865014378   0.00014734822389281813
0.0015260488416521526   -0.005576458409584493   7.034078336614048e-05
0.0021044557122816975   -0.011022646524476055   9.23171812606183e-05
-0.001461140684011928   -0.005479218730074551   6.927617784733886e-05
0.0015260488416521526   -0.005576458409584493   7.034078336614048e-05
-0.0009797700065580111   -0.011036168224217772   -2.7340977920182497e-05
0.0021044557122816975   -0.011022646524476055   9.23171812606183e-05
0.0013918132207444366   -0.005507235865014378   0.00014734822389281813
-0.0010228133582215542   -0.010982650149988414   -5.075050641750571e-06
0.0020288839397592327   -0.010958461630043782   0.00013191897098415654
0.0013918132207444366   -0.005507235865014378   0.00014734822389281813
-0.001461140684011928   -0.005479218730074551   6.927617784733886e-05
-0.0010228133582215542   -0.010982650149988414   -5.075050641750571e-06
-0.0015179709810425996   -0.005431268861087178   0.0001072759185597645
0.0020288839397592327   -0.010958461630043782   0.00013191897098415654
-0.0010732405848323894   -0.010926263414801168   2.1211049845479097e-05
-0.0015179709810425996   -0.005431268861087178   0.0001072759185597645
-0.0010228133582215542   -0.010982650149988414   -5.075050641750571e-06
0.0020288839397592327   -0.010958461630043782   0.00013191897098415654
-0.0015179709810425996   -0.005431268861087178   0.0001072759185597645
0.001313349116465027   -0.005451120717028638   0.00020463984420744137
0.0013918132207444366   -0.005507235865014378   0.00014734822389281813
0.0020288839397592327   -0.010958461630043782   0.00013191897098415654
-0.0015179709810425996   -0.005431268861087178   0.0001072759185597645
0.0013918132207444366   -0.005507235865014378   0.00014734822389281813
-0.0010228133582215542   -0.010982650149988414   -5.075050641750571e-06
0.0020288839397592327   -0.010958461630043782   0.00013191897098415654
0.001313349116465027   -0.005451120717028638   0.00020463984420744137
-0.0010732405848323894   -0.010926263414801168   2.1211049845479097e-05
0.001936507631104992   -0.010879523745372571   0.0001755558596963032
0.001313349116465027   -0.005451120717028638   0.00020463984420744137
-0.0015179709810425996   -0.005431268861087178   0.0001072759185597645
-0.0010732405848323894   -0.010926263414801168   2.1211049845479097e-05
-0.0015658893702410312   -0.0053799045082778465   0.00014070752898157795
0.001936507631104992   -0.010879523745372571   0.0001755558596963032
-0.0011254889117925434   -0.010866480329436587   5.14754877235129e-05
-0.0015658893702410312   -0.0053799045082778465   0.00014070752898157795
-0.0010732405848323894   -0.010926263414801168   2.1211049845479097e-05
0.001936507631104992   -0.010879523745372571   0.0001755558596963032
-0.0015658893702410312   -0.0053799045082778465   0.00014070752898157795
0.0012125661118791288   -0.00536488318521277   0.00027032368380287196
0.001313349116465027   -0.005451120717028638   0.00020463984420744137
0.001936507631104992   -0.010879523745372571   0.0001755558596963032
-0.0015658893702410312   -0.0053799045082778465   0.00014070752898157795
0.001313349116465027   -0.005451120717028638   0.00020463984420744137
-0.0010732405848323894   -0.010926263414801168   2.1211049845479097e-05
-0.0009797700065580111   -0.011036168224217772   -2.7340977920182497e-05
-0.0014181399184525578   -0.005505541524896253   3.8057318045740926e-05
-0.003946196072869992   -0.01102284870390117   -0.0001160511131362815
-0.0010228133582215542   -0.010982650149988414   -5.075050641750571e-06
-0.0014181399184525578   -0.005505541524896253   3.8057318045740926e-05
-0.004216334971912183   -0.00558791108483947   -3.1800343271039497e-05
-0.003946196072869992   -0.01102284870390117   -0.0001160511131362815
-0.00425621001398941   -0.005546904087100009   -9.572263008334464e-06
-0.0010228133582215542   -0.010982650149988414   -5.075050641750571e-06
-0.003985251291173463   -0.010976355321198445   -9.51479419597922e-05
-0.00425621001398941   -0.005546904087100009   -9.572263008334464e-06
-0.003946196072869992   -0.01102284870390117   -0.0001160511131362815
-0.0010228133582215542   -0.010982650149988414   -5.075050641750571e-06
-0.00425621001398941   -0.005546904087100009   -9.572263008334464e-06
-0.001461140684011928   -0.005479218730074551   6.927617784733886e-05
-0.0014181399184525578   -0.005505541524896253   3.8057318045740926e-05
-0.0010228133582215542   -0.010982650149988414   -5.075050641750571e-06
-0.00425621001398941   -0.005546904087100009   -9.572263008334464e-06
-0.0014181399184525578   -0.005505541524896253   3.8057318045740926e-05
-0.003946196072869992   -0.01102284870390117   -0.0001160511131362815
-0.0010228133582215542   -0.010982650149988414   -5.075050641750571e-06
-0.001461140684011928   -0.005479218730074551   6.927617784733886e-05
-0.003985251291173463   -0.010976355321198445   -9.51479419597922e-05
-0.0010732405848323894   -0.010926263414801168   2.1211049845479097e-05
-0.001461140684011928   -0.005479218730074551   6.927617784733886e-05
-0.00425621001398941   -0.005546904087100009   -9.572263008334464e-06
-0.003985251291173463   -0.010976355321198445   -9.51479419597922e-05
-0.00429810048158366   -0.005500408978270803   1.4028603195018775e-05
-0.0010732405848323894   -0.010926263414801168   2.1211049845479097e-05
-0.004025688642729122   -0.010928031153710084   -7.213540004933491e-05
-0.00429810048158366   -0.005500408978270803   1.4028603195018775e-05
-0.003985251291173463   -0.010976355321198445   -9.51479419597922e-05
-0.0010732405848323894   -0.010926263414801168   2.1211049845479097e-05
-0.00429810048158366   -0.005500408978270803   1.4028603195018775e-05
-0.0015179709810425996   -0.005431268861087178   0.0001072759185597645
-0.001461140684011928   -0.005479218730074551   6.927617784733886e-05
-0.0010732405848323894   -0.010926263414801168   2.1211049845479097e-05
-0.00429810048158366   -0.005500408978270803   1.4028603195018775e-05
-0.001461140684011928   -0.005479218730074551   6.927617784733886e-05
-0.003985251291173463   -0.010976355321198445   -9.51479419597922e-05
-0.0010732405848323894   -0.010926263414801168   2.1211049845479097e-05
-0.0015179709810425996   -0.005431268861087178   0.0001072759185597645
-0.004025688642729122   -0.010928031153710084   -7.213540004933491e-05
-0.0011254889117925434   -0.010866480329436587   5.14754877235129e-05
-0.0015179709810425996   -0.005431268861087178   0.0001072759185597645
-0.00429810048158366   -0.005500408978270803   1.4028603195018775e-05
-0.004025688642729122   -0.010928031153710084   -7.213540004933491e-05
-0.0043380431754667294   -0.005449448066474212   4.010220080234968e-05
-0.0011254889117925434   -0.010866480329436587   5.14754877235129e-05
-0.0040678239721778945   -0.01087879185334122   -4.660006621989335e-05
-0.0043380431754667294   -0.005449448066474212   4.010220080234968e-05
-0.004025688642729122   -0.010928031153710084   -7.213540004933491e-05
-0.0011254889117925434   -0.010866480329436587   5.14754877235129e-05
-0.0043380431754667294   -0.005449448066474212   4.010220080234968e-05
-0.0015658893702410312   -0.0053799045082778465   0.00014070752898157795
-0.0015179709810425996   -0.005431268861087178   0.0001072759185597645
-0.0011254889117925434   -0.010866480329436587   5.14754877235129e-05
-0.0043380431754667294   -0.005449448066474212   4.010220080234968e-05
-0.0015179709810425996   -0.005431268861087178   0.0001072759185597645
-0.004025688642729122   -0.010928031153710084   -7.213540004933491e-05
-0.003946196072869992   -0.01102284870390117   -0.0001160511131362815
-0.004216334971912183   -0.00558791108483947   -3.1800343271039497e-05
-0.006881244483219618   -0.011019100462284544   -0.00019605873695813927
-0.003985251291173463   -0.010976355321198445   -9.51479419597922e-05
-0.004216334971912183   -0.00558791108483947   -3.1800343271039497e-05
-0.007081428646110791   -0.00565228406007591   -0.00010971322760562408
-0.006881244483219618   -0.011019100462284544   -0.00019605873695813927
-0.007117365310938598   -0.005610126971178078   -9.239491667808227e-05
-0.003985251291173463   -0.010976355321198445   -9.51479419597922e-05
-0.0069186534658405565   -0.01097848944895608   -0.00017595809452599934
-0.007117365310938598   -0.005610126971178078   -9.239491667808227e-05
-0.006881244483219618   -0.011019100462284544   -0.00019605873695813927
-0.003985251291173463   -0.010976355321198445   -9.51479419597922e-05
-0.007117365310938598   -0.005610126971178078   -9.239491667808227e-05
-0.00425621001398941   -0.005546904087100009   -9.572263008334464e-06
-0.004216334971912183   -0.00558791108483947   -3.1800343271039497e-05
-0.003985251291173463   -0.010976355321198445   -9.51479419597922e-05
-0.007117365310938598   -0.005610126971178078   -9.239491667808227e-05
-0.004216334971912183   -0.00558791108483947   -3.1800343271039497e-05
-0.006881244483219618   -0.011019100462284544   -0.00019605873695813927
-0.003985251291173463   -0.010976355321198445   -9.51479419597922e-05
-0.00425621001398941   -0.005546904087100009   -9.572263008334464e-06
-0.0069186534658405565   -0.01097848944895608   -0.00017595809452599934
-0.004025688642729122   -0.010928031153710084   -7.213540004933491e-05
-0.00425621001398941   -0.005546904087100009   -9.572263008334464e-06
-0.007117365310938598   -0.005610126971178078   -9.239491667808227e-05
-0.0069186534658405565   -0.01097848944895608   -0.00017595809452599934
-0.007151849252212727   -0.005565515988945526   -7.507832394433537e-05
-0.004025688642729122   -0.010928031153710084   -7.213540004933491e-05
-0.006954293741602453   -0.010937205350883036   -0.00015400698643965106
-0.007151849252212727   -0.005565515988945526   -7.507832394433537e-05
-0.0069186534658405565   -0.01097848944895608   -0.00017595809452599934
-0.004025688642729122   -0.010928031153710084   -7.213540004933491e-05
-0.007151849252212727   -0.005565515988945526   -7.507832394433537e-05
-0.00429810048158366   -0.005500408978270803   1.4028603195018775e-05
-0.00425621001398941   -0.005546904087100009   -9.572263008334464e-06
-0.004025688642729122   -0.010928031153710084   -7.213540004933491e-05
-0.007151849252212727   -0.005565515988945526   -7.507832394433537e-05
-0.00425621001398941   -0.005546904087100009   -9.572263008334464e-06
-0.0069186534658405565   -0.01097848944895608   -0.00017595809452599934
-0.004025688642729122   -0.010928031153710084   -7.213540004933491e-05
-0.00429810048158366   -0.005500408978270803   1.4028603195018775e-05
-0.006954293741602453   -0.010937205350883036   -0.00015400698643965106
-0.0040678239721778945   -0.01087879185334122   -4.660006621989335e-05
-0.00429810048158366   -0.005500408978270803   1.4028603195018775e-05
-0.007151849252212727   -0.005565515988945526   -7.507832394433537e-05
-0.006954293741602453   -0.010937205350883036   -0.00015400698643965106
-0.007183705449790198   -0.0055171484629961964   -5.616794423060979e-05
-0.0040678239721778945   -0.01087879185334122   -4.660006621989335e-05
-0.006989579485897749   -0.010895003113097494   -0.00013030472538378887
-0.007183705449790198   -0.0055171484629961964   -5.616794423060979e-05
-0.006954293741602453   -0.010937205350883036   -0.00015400698643965106
-0.0040678239721778945   -0.01087879185334122   -4.660006621989335e-05
-0.007183705449790198   -0.0055171484629961964   -5.616794423060979e-05
-0.0043380431754667294   -0.005449448066474212   4.010220080234968e-05
-0.00429810048158366   -0.005500408978270803   1.4028603195018775e-05
-0.0040678239721778945   -0.01087879185334122   -4.660006621989335e-05
-0.007183705449790198   -0.0055171484629961964   -5.616794423060979e-05
-0.00429810048158366   -0.005500408978270803   1.4028603195018775e-05
-0.006954293741602453   -0.010937205350883036   -0.00015400698643965106
-0.006881244483219618   -0.011019100462284544   -0.00019605873695813927
-0.007081428646110791   -0.00565228406007591   -0.00010971322760562408
-0.009878611309398025   -0.011001825861194383   -0.0002629101321818903
-0.0069186534658405565   -0.01097848944895608   -0.00017595809452599934
-0.007081428646110791   -0.00565228406007591   -0.00010971322760562408
-0.010047212153852849   -0.005678785911757973   -0.00018152628075001966
-0.009878611309398025   -0.011001825861194383   -0.0002629101321818903
-0.010079615091416002   -0.005641068064092088   -0.00016882466925597625
-0.0069186534658405565   -0.01097848944895608   -0.00017595809452599934
-0.009914271512059078   -0.010968982285239287   -0.00024373365192466683
-0.010079615091416002   -0.005641068064092088   -0.00016882466925597625
-0.009878611309398025   -0.011001825861194383   -0.0002629101321818903
-0.0069186534658405565   -0.01097848944895608   -0.00017595809452599934
-0.010079615091416002   -0.005641068064092088   -0.00016882466925597625
-0.007117365310938598   -0.005610126971178078   -9.239491667808227e-05
-0.007081428646110791   -0.00565228406007591   -0.00010971322760562408
-0.0069186534658405565   -0.01097848944895608   -0.00017595809452599934
-0.010079615091416002   -0.005641068064092088   -0.00016882466925597625
-0.007081428646110791   -0.00565228406007591   -0.00010971322760562408
-0.009878611309398025   -0.011001825861194383   -0.0002629101321818903
-0.0069186534658405565   -0.01097848944895608   -0.00017595809452599934
-0.007117365310938598   -0.005610126971178078   -9.239491667808227e-05
-0.009914271512059078   -0.010968982285239287   -0.00024373365192466683
-0.006954293741602453   -0.010937205350883036   -0.00015400698643965106
-0.007117365310938598   -0.005610126971178078   -9.239491667808227e-05
-0.010079615091416002   -0.005641068064092088   -0.00016882466925597625
-0.009914271512059078   -0.010968982285239287   -0.00024373365192466683
-0.010108495036059553   -0.005599871079149238   -0.00015643518801045227
-0.006954293741602453   -0.010937205350883036   -0.00015400698643965106
-0.009944407257963512   -0.010934359044803197   -0.00022322568933400287
-0.010108495036059553   -0.005599871079149238   -0.00015643518801045227
-0.009914271512059078   -0.010968982285239287   -0.00024373365192466683
-0.006954293741602453   -0.010937205350883036   -0.00015400698643965106
-0.010108495036059553   -0.005599871079149238   -0.00015643518801045227
-0.007151849252212727   -0.005565515988945526   -7.507832394433537e-05
-0.007117365310938598   -0.005610126971178078   -9.239491667808227e-05
-0.006954293741602453   -0.010937205350883036   -0.00015400698643965106
-0.010108495036059553   -0.005599871079149238   -0.00015643518801045227
-0.007117365310938598   -0.005610126971178078   -9.239491667808227e-05
-0.009914271512059078   -0.010968982285239287   -0.00024373365192466683
-0.006954293741602453   -0.010937205350883036   -0.00015400698643965106
-0.007151849252212727   -0.005565515988945526   -7.507832394433537e-05
-0.009944407257963512   -0.010934359044803197   -0.00022322568933400287
-0.006989579485897749   -0.010895003113097494   -0.00013030472538378887
-0.007151849252212727   -0.005565515988945526   -7.507832394433537e-05
-0.010108495036059553   -0.005599871079149238   -0.00015643518801045227
-0.009944407257963512   -0.010934359044803197   -0.00022322568933400287
-0.01013466773462967   -0.005555960520848602   -0.00014361943073622045
-0.006989579485897749   -0.010895003113097494   -0.00013030472538378887
-0.009972885430605788   -0.010898877766584937   -0.0002008229132821195
-0.01013466773462967   -0.005555960520848602   -0.00014361943073622045
-0.009944407257963512   -0.010934359044803197   -0.00022322568933400287
-0.006989579485897749   -0.010895003113097494   -0.00013030472538378887
-0.01013466773462967   -0.005555960520848602   -0.00014361943073622045
-0.007183705449790198   -0.0055171484629961964   -5.616794423060979e-05
-0.007151849252212727   -0.005565515988945526   -7.507832394433537e-05
-0.006989579485897749   -0.010895003113097494   -0.00013030472538378887
-0.01013466773462967   -0.005555960520848602   -0.00014361943073622045
-0.007151849252212727   -0.005565515988945526   -7.507832394433537e-05
-0.009944407257963512   -0.010934359044803197   -0.00022322568933400287
-0.009878611309398025   -0.011001825861194383   -0.0002629101321818903
-0.010047212153852849   -0.005678785911757973   -0.00018152628075001966
-0.013020056468165824   -0.010973139037472568   -0.0003117987169689014
-0.009914271512059078   -0.010968982285239287   -0.00024373365192466683
-0.010047212153852849   -0.005678785911757973   -0.00018152628075001966
-0.013120193124632872   -0.0056816102339223035   -0.00024075875099350262
-0.013020056468165824   -0.010973139037472568   -0.0003117987169689014
-0.01314790804986894   -0.005645065024461925   -0.000235157373270724
-0.009914271512059078   -0.010968982285239287   -0.00024373365192466683
-0.013041797841187521   -0.010945819708006755   -0.0002971618900326305
-0.01314790804986894   -0.005645065024461925   -0.000235157373270724
-0.013020056468165824   -0.010973139037472568   -0.0003117987169689014
-0.009914271512059078   -0.010968982285239287   -0.00024373365192466683
-0.01314790804986894   -0.005645065024461925   -0.000235157373270724
-0.010079615091416002   -0.005641068064092088   -0.00016882466925597625
-0.010047212153852849   -0.005678785911757973   -0.00018152628075001966
-0.009914271512059078   -0.010968982285239287   -0.00024373365192466683
-0.01314790804986894   -0.005645065024461925   -0.000235157373270724
-0.010047212153852849   -0.005678785911757973   -0.00018152628075001966
-0.013020056468165824   -0.010973139037472568   -0.0003117987169689014
-0.009914271512059078   -0.010968982285239287   -0.00024373365192466683
-0.010079615091416002   -0.005641068064092088   -0.00016882466925597625
-0.013041797841187521   -0.010945819708006755   -0.0002971618900326305
-0.009944407257963512   -0.010934359044803197   -0.00022322568933400287
-0.010079615091416002   -0.005641068064092088   -0.00016882466925597625
-0.01314790804986894   -0.005645065024461925   -0.000235157373270724
-0.013041797841187521   -0.010945819708006755   -0.0002971618900326305
-0.01317273835339592   -0.005605435833892282   -0.00022857876493043993
-0.009944407257963512   -0.010934359044803197   -0.00022322568933400287
-0.013061678103621707   -0.010914801782463594   -0.00027929422317646366
-0.01317273835339592   -0.005605435833892282   -0.00022857876493043993
-0.013041797841187521   -0.010945819708006755   -0.0002971618900326305
-0.009944407257963512   -0.010934359044803197   -0.00022322568933400287
-0.01317273835339592   -0.005605435833892282   -0.00022857876493043993
-0.010108495036059553   -0.005599871079149238   -0.00015643518801045227
-0.010079615091416002   -0.005641068064092088   -0.00016882466925597625
-0.009944407257963512   -0.010934359044803197   -0.00022322568933400287
-0.01317273835339592   -0.005605435833892282   -0.00022857876493043993
-0.010079615091416002   -0.005641068064092088   -0.00016882466925597625
-0.013041797841187521   -0.010945819708006755   -0.0002971618900326305
-0.009944407257963512   -0.010934359044803197   -0.00022322568933400287
-0.010108495036059553   -0.005599871079149238   -0.00015643518801045227
-0.013061678103621707   -0.010914801782463594   -0.00027929422317646366
-0.009972885430605788   -0.010898877766584937   -0.0002008229132821195
-0.010108495036059553   -0.005599871079149238   -0.00015643518801045227
-0.01317273835339592   -0.005605435833892282   -0.00022857876493043993
-0.013061678103621707   -0.010914801782463594   -0.00027929422317646366
-0.013193456759522281   -0.00556349443850982   -0.0002223659821856626
-0.009972885430605788   -0.010898877766584937   -0.0002008229132821195
-0.013070839785862683   -0.010886651296480544   -0.00025898357491113406
-0.013193456759522281   -0.00556349443850982   -0.0002223659821856626
-0.013061678103621707   -0.010914801782463594   -0.00027929422317646366
-0.009972885430605788   -0.010898877766584937   -0.0002008229132821195
-0.013193456759522281   -0.00556349443850982   -0.0002223659821856626
-0.01013466773462967   -0.005555960520848602   -0.00014361943073622045
-0.010108495036059553   -0.005599871079149238   -0.00015643518801045227
-0.009972885430605788   -0.010898877766584937   -0.0002008229132821195
-0.013193456759522281   -0.00556349443850982   -0.0002223659821856626
-0.010108495036059553   -0.005599871079149238   -0.00015643518801045227
-0.013061678103621707   -0.010914801782463594   -0.00027929422317646366
0.0015260488416521526   -0.005576458409584493   7.034078336614048e-05
0.0   0.0   0.0
-0.0014181399184525578   -0.005505541524896253   3.8057318045740926e-05
0.0013918132207444366   -0.005507235865014378   0.00014734822389281813
0.0   0.0   0.0
-0.0017751095421518171   -0.000458841981240723   -1.2880643876115233e-05
-0.0014181399184525578   -0.005505541524896253   3.8057318045740926e-05
-0.0018813552508710801   -0.00035835904379998294   4.915841968901439e-05
0.0013918132207444366   -0.005507235865014378   0.00014734822389281813
-0.001461140684011928   -0.005479218730074551   6.927617784733886e-05
-0.0018813552508710801   -0.00035835904379998294   4.915841968901439e-05
-0.0014181399184525578   -0.005505541524896253   3.8057318045740926e-05
0.0013918132207444366   -0.005507235865014378   0.00014734822389281813
-0.0018813552508710801   -0.00035835904379998294   4.915841968901439e-05
0.0   0.0   0.0
0.0   0.0   0.0
0.0013918132207444366   -0.005507235865014378   0.00014734822389281813
-0.0018813552508710801   -0.00035835904379998294   4.915841968901439e-05
0.0   0.0   0.0
-0.0014181399184525578   -0.005505541524896253   3.8057318045740926e-05
0.0013918132207444366   -0.005507235865014378   0.00014734822389281813
0.0   0.0   0.0
-0.001461140684011928   -0.005479218730074551   6.927617784733886e-05
0.001313349116465027   -0.005451120717028638   0.00020463984420744137
0.0   0.0   0.0
-0.0018813552508710801   -0.00035835904379998294   4.915841968901439e-05
-0.001461140684011928   -0.005479218730074551   6.927617784733886e-05
-0.0019482989342369727   -0.00031017083788866006   8.526448720347024e-05
0.001313349116465027   -0.005451120717028638   0.00020463984420744137
-0.0015179709810425996   -0.005431268861087178   0.0001072759185597645
-0.0019482989342369727   -0.00031017083788866006   8.526448720347024e-05
-0.001461140684011928   -0.005479218730074551   6.927617784733886e-05
0.001313349116465027   -0.005451120717028638   0.00020463984420744137
-0.0019482989342369727   -0.00031017083788866006   8.526448720347024e-05
0.0   0.0   0.0
0.0   0.0   0.0
0.001313349116465027   -0.005451120717028638   0.00020463984420744137
-0.0019482989342369727   -0.00031017083788866006   8.526448720347024e-05
0.0   0.0   0.0
-0.001461140684011928   -0.005479218730074551   6.927617784733886e-05
0.001313349116465027   -0.005451120717028638   0.00020463984420744137
0.0   0.0   0.0
-0.0015179709810425996   -0.005431268861087178   0.0001072759185597645
0.0012125661118791288   -0.00536488318521277   0.00027032368380287196
0.0   0.0   0.0
-0.0019482989342369727   -0.00031017083788866006   8.526448720347024e-05
-0.0015179709810425996   -0.005431268861087178   0.0001072759185597645
-0.002038513612473152   -0.00024602969214010086   0.00012676454151954063
0.0012125661118791288   -0.00536488318521277   0.00027032368380287196
-0.0015658893702410312   -0.0053799045082778465   0.00014070752898157795
-0.002038513612473152   -0.00024602969214010086   0.00012676454151954063
-0.0015179709810425996   -0.005431268861087178   0.0001072759185597645
0.0012125661118791288   -0.00536488318521277   0.00027032368380287196
-0.002038513612473152   -0.00024602969214010086   0.00012676454151954063
0.0   0.0   0.0
0.0   0.0   0.0
0.0012125661118791288   -0.00536488318521277   0.00027032368380287196
-0.002038513612473152   -0.00024602969214010086   0.00012676454151954063
0.0   0.0   0.0
-0.0015179709810425996   -0.005431268861087178   0.0001072759185597645
-0.0014181399184525578   -0.005505541524896253   3.8057318045740926e-05
-0.0017751095421518171   -0.000458841981240723   -1.2880643876115233e-05
-0.004216334971912183   -0.00558791108483947   -3.1800343271039497e-05
-0.001461140684011928   -0.005479218730074551   6.927617784733886e-05
-0.0017751095421518171   -0.000458841981240723   -1.2880643876115233e-05
-0.00434015913119611   -0.0006042359463307796   -9.133336698430181e-06
-0.004216334971912183   -0.00558791108483947   -3.1800343271039497e-05
-0.0043952535407292695   -0.0005498084600366928   7.164886509018162e-06
-0.001461140684011928   -0.005479218730074551   6.927617784733886e-05
-0.00425621001398941   -0.005546904087100009   -9.572263008334464e-06
-0.0043952535407292695   -0.0005498084600366928   7.164886509018162e-06
-0.004216334971912183   -0.00558791108483947   -3.1800343271039497e-05
-0.001461140684011928   -0.005479218730074551   6.927617784733886e-05
-0.0043952535407292695   -0.0005498084600366928   7.164886509018162e-06
-0.0018813552508710801   -0.00035835904379998294   4.915841968901439e-05
-0.0017751095421518171   -0.000458841981240723   -1.2880643876115233e-05
-0.001461140684011928   -0.005479218730074551   6.927617784733886e-05
-0.0043952535407292695   -0.0005498084600366928   7.164886509018162e-06
-0.0017751095421518171   -0.000458841981240723   -1.2880643876115233e-05
-0.004216334971912183   -0.00558791108483947   -3.1800343271039497e-05
-0.001461140684011928   -0.005479218730074551   6.927617784733886e-05
-0.0018813552508710801   -0.00035835904379998294   4.915841968901439e-05
-0.00425621001398941   -0.005546904087100009   -9.572263008334464e-06
-0.0015179709810425996   -0.005431268861087178   0.0001072759185597645
-0.0018813552508710801   -0.00035835904379998294   4.915841968901439e-05
-0.0043952535407292695   -0.0005498084600366928   7.164886509018162e-06
-0.00425621001398941   -0.005546904087100009   -9.572263008334464e-06
-0.004450238446884746   -0.00048599584497888056   3.605973964866139e-05
-0.0015179709810425996   -0.005431268861087178   0.0001072759185597645
-0.00429810048158366   -0.005500408978270803   1.4028603195018775e-05
-0.004450238446884746   -0.00048599584497888056   3.605973964866139e-05
-0.00425621001398941   -0.005546904087100009   -9.572263008334464e-06
-0.0015179709810425996   -0.005431268861087178   0.0001072759185597645
-0.004450238446884746   -0.00048599584497888056   3.605973964866139e-05
-0.0019482989342369727   -0.00031017083788866006   8.526448720347024e-05
-0.0018813552508710801   -0.00035835904379998294   4.915841968901439e-05
-0.0015179709810425996   -0.005431268861087178   0.0001072759185597645
-0.004450238446884746   -0.00048599584497888056   3.605973964866139e-05
-0.0018813552508710801   -0.00035835904379998294   4.915841968901439e-05
-0.00425621001398941   -0.005546904087100009   -9.572263008334464e-06
-0.0015179709810425996   -0.005431268861087178   0.0001072759185597645
-0.0019482989342369727   -0.00031017083788866006   8.526448720347024e-05
-0.00429810048158366   -0.005500408978270803   1.4028603195018775e-05
-0.0015658893702410312   -0.0053799045082778465   0.00014070752898157795
-0.0019482989342369727   -0.00031017083788866006   8.526448720347024e-05
-0.004450238446884746   -0.00048599584497888056   3.605973964866139e-05
-0.00429810048158366   -0.005500408978270803   1.4028603195018775e-05
-0.00451160180220995   -0.00041192232908746047   6.39134837650395e-05
-0.0015658893702410312   -0.0053799045082778465   0.00014070752898157795
-0.0043380431754667294   -0.005449448066474212   4.010220080234968e-05
-0.00451160180220995   -0.00041192232908746047   6.39134837650395e-05
-0.00429810048158366   -0.005500408978270803   1.4028603195018775e-05
-0.0015658893702410312   -0.0053799045082778465   0.00014070752898157795
-0.00451160180220995   -0.00041192232908746047   6.39134837650395e-05
-0.002038513612473152   -0.00024602969214010086   0.00012676454151954063
-0.0019482989342369727   -0.00031017083788866006   8.526448720347024e-05
-0.0015658893702410312   -0.0053799045082778465   0.00014070752898157795
-0.00451160180220995   -0.00041192232908746047   6.39134837650395e-05
-0.0019482989342369727   -0.00031017083788866006   8.526448720347024e-05
-0.00429810048158366   -0.005500408978270803   1.4028603195018775e-05
-0.004216334971912183   -0.00558791108483947   -3.1800343271039497e-05
-0.00434015913119611   -0.0006042359463307796   -9.133336698430181e-06
-0.007081428646110791   -0.00565228406007591   -0.00010971322760562408
-0.00425621001398941   -0.005546904087100009   -9.572263008334464e-06
-0.00434015913119611   -0.0006042359463307796   -9.133336698430181e-06
-0.007150836900805771   -0.0006466399002436651   -5.73447949343957e-05
-0.007081428646110791   -0.00565228406007591   -0.00010971322760562408
-0.0071844549345721495   -0.0006047277617089255   -5.266241159593797e-05
-0.00425621001398941   -0.005546904087100009   -9.572263008334464e-06
-0.007117365310938598   -0.005610126971178078   -9.239491667808227e-05
-0.0071844549345721495   -0.0006047277617089255   -5.266241159593797e-05
-0.007081428646110791   -0.00565228406007591   -0.00010971322760562408
-0.00425621001398941   -0.005546904087100009   -9.572263008334464e-06
-0.0071844549345721495   -0.0006047277617089255   -5.266241159593797e-05
-0.0043952535407292695   -0.0005498084600366928   7.164886509018162e-06
-0.00434015913119611   -0.0006042359463307796   -9.133336698430181e-06
-0.00425621001398941   -0.005546904087100009   -9.572263008334464e-06
-0.0071844549345721495   -0.0006047277617089255   -5.266241159593797e-05
-0.00434015913119611   -0.0006042359463307796   -9.133336698430181e-06
-0.007081428646110791   -0.00565228406007591   -0.00010971322760562408
-0.00425621001398941   -0.005546904087100009   -9.572263008334464e-06
-0.0043952535407292695   -0.0005498084600366928   7.164886509018162e-06
-0.007117365310938598   -0.005610126971178078   -9.239491667808227e-05
-0.00429810048158366   -0.005500408978270803   1.4028603195018775e-05
-0.0043952535407292695   -0.0005498084600366928   7.164886509018162e-06
-0.0071844549345721495   -0.0006047277617089255   -5.266241159593797e-05
-0.007117365310938598   -0.005610126971178078   -9.239491667808227e-05
-0.007219445345301869   -0.0005558187124199182   -4.454124099880272e-05
-0.00429810048158366   -0.005500408978270803   1.4028603195018775e-05
-0.007151849252212727   -0.005565515988945526   -7.507832394433537e-05
-0.007219445345301869   -0.0005558187124199182   -4.454124099880272e-05
-0.007117365310938598   -0.005610126971178078   -9.239491667808227e-05
-0.00429810048158366   -0.005500408978270803   1.4028603195018775e-05
-0.007219445345301869   -0.0005558187124199182   -4.454124099880272e-05
-0.004450238446884746   -0.00048599584497888056   3.605973964866139e-05
-0.0043952535407292695   -0.0005498084600366928   7.164886509018162e-06
-0.00429810048158366   -0.005500408978270803   1.4028603195018775e-05
-0.007219445345301869   -0.0005558187124199182   -4.454124099880272e-05
-0.0043952535407292695   -0.0005498084600366928   7.164886509018162e-06
-0.007117365310938598   -0.005610126971178078   -9.239491667808227e-05
-0.00429810048158366   -0.005500408978270803   1.4028603195018775e-05
-0.004450238446884746   -0.00048599584497888056   3.605973964866139e-05
-0.007151849252212727   -0.005565515988945526   -7.507832394433537e-05
-0.0043380431754667294   -0.005449448066474212   4.010220080234968e-05
-0.004450238446884746   -0.00048599584497888056   3.605973964866139e-05
-0.007219445345301869   -0.0005558187124199182   -4.454124099880272e-05
-0.007151849252212727   -0.005565515988945526   -7.507832394433537e-05
-0.007253039354033724   -0.0004958734986478594   -3.379468151077692e-05
-0.0043380431754667294   -0.005449448066474212   4.010220080234968e-05
-0.007183705449790198   -0.0055171484629961964   -5.616794423060979e-05
-0.007253039354033724   -0.0004958734986478594   -3.379468151077692e-05
-0.007151849252212727   -0.005565515988945526   -7.507832394433537e-05
-0.0043380431754667294   -0.005449448066474212   4.010220080234968e-05
-0.007253039354033724   -0.0004958734986478594   -3.379468151077692e-05
-0.00451160180220995   -0.00041192232908746047   6.39134837650395e-05
-0.004450238446884746   -0.00048599584497888056   3.605973964866139e-05
-0.0043380431754667294   -0.005449448066474212   4.010220080234968e-05
-0.007253039354033724   -0.0004958734986478594   -3.379468151077692e-05
-0.004450238446884746   -0.00048599584497888056   3.605973964866139e-05
-0.007151849252212727   -0.005565515988945526   -7.507832394433537e-05
-0.007081428646110791   -0.00565228406007591   -0.00010971322760562408
-0.007150836900805771   -0.0006466399002436651   -5.73447949343957e-05
-0.010047212153852849   -0.005678785911757973   -0.00018152628075001966
-0.007117365310938598   -0.005610126971178078   -9.239491667808227e-05
-0.007150836900805771   -0.0006466399002436651   -5.73447949343957e-05
-0.010099500411806475   -0.0006413797598942148   -0.0001280472976307599
-0.010047212153852849   -0.005678785911757973   -0.00018152628075001966
-0.010122255897168732   -0.0006041126702324837   -0.00012601726019218838
-0.007117365310938598   -0.005610126971178078   -9.239491667808227e-05
-0.010079615091416002   -0.005641068064092088   -0.00016882466925597625
-0.010122255897168732   -0.0006041126702324837   -0.00012601726019218838
-0.010047212153852849   -0.005678785911757973   -0.00018152628075001966
-0.007117365310938598   -0.005610126971178078   -9.239491667808227e-05
-0.010122255897168732   -0.0006041126702324837   -0.00012601726019218838
-0.0071844549345721495   -0.0006047277617089255   -5.266241159593797e-05
-0.007150836900805771   -0.0006466399002436651   -5.73447949343957e-05
-0.007117365310938598   -0.005610126971178078   -9.239491667808227e-05
-0.010122255897168732   -0.0006041126702324837   -0.00012601726019218838
-0.007150836900805771   -0.0006466399002436651   -5.73447949343957e-05
-0.010047212153852849   -0.005678785911757973   -0.00018152628075001966
-0.007117365310938598   -0.005610126971178078   -9.239491667808227e-05
-0.0071844549345721495   -0.0006047277617089255   -5.266241159593797e-05
-0.010079615091416002   -0.005641068064092088   -0.00016882466925597625
-0.007151849252212727   -0.005565515988945526   -7.507832394433537e-05
-0.0071844549345721495   -0.0006047277617089255   -5.266241159593797e-05
-0.010122255897168732   -0.0006041126702324837   -0.00012601726019218838
-0.010079615091416002   -0.005641068064092088   -0.00016882466925597625
-0.010145984916527068   -0.0005623782342152382   -0.000124463483239703
-0.007151849252212727   -0.005565515988945526   -7.507832394433537e-05
-0.010108495036059553   -0.005599871079149238   -0.00015643518801045227
-0.010145984916527068   -0.0005623782342152382   -0.000124463483239703
-0.010079615091416002   -0.005641068064092088   -0.00016882466925597625
-0.007151849252212727   -0.005565515988945526   -7.507832394433537e-05
-0.010145984916527068   -0.0005623782342152382   -0.000124463483239703
-0.007219445345301869   -0.0005558187124199182   -4.454124099880272e-05
-0.0071844549345721495   -0.0006047277617089255   -5.266241159593797e-05
-0.007151849252212727   -0.005565515988945526   -7.507832394433537e-05
-0.010145984916527068   -0.0005623782342152382   -0.000124463483239703
-0.0071844549345721495   -0.0006047277617089255   -5.266241159593797e-05
-0.010079615091416002   -0.005641068064092088   -0.00016882466925597625
-0.007151849252212727   -0.005565515988945526   -7.507832394433537e-05
-0.007219445345301869   -0.0005558187124199182   -4.454124099880272e-05
-0.010108495036059553   -0.005599871079149238   -0.00015643518801045227
-0.007183705449790198   -0.0055171484629961964   -5.616794423060979e-05
-0.007219445345301869   -0.0005558187124199182   -4.454124099880272e-05
-0.010145984916527068   -0.0005623782342152382   -0.000124463483239703
-0.010108495036059553   -0.005599871079149238   -0.00015643518801045227
-0.01016427732344338   -0.0005169321405260977   -0.000123473577308606
-0.007183705449790198   -0.0055171484629961964   -5.616794423060979e-05
-0.01013466773462967   -0.005555960520848602   -0.00014361943073622045
-0.01016427732344338   -0.0005169321405260977   -0.000123473577308606
-0.010108495036059553   -0.005599871079149238   -0.00015643518801045227
-0.007183705449790198   -0.0055171484629961964   -5.616794423060979e-05
-0.01016427732344338   -0.0005169321405260977   -0.000123473577308606
-0.007253039354033724   -0.0004958734986478594   -3.379468151077692e-05
-0.007219445345301869   -0.0005558187124199182   -4.454124099880272e-05
-0.007183705449790198   -0.0055171484629961964   -5.616794423060979e-05
-0.01016427732344338   -0.0005169321405260977   -0.000123473577308606
-0.007219445345301869   -0.0005558187124199182   -4.454124099880272e-05
-0.010108495036059553   -0.005599871079149238   -0.00015643518801045227
-0.010047212153852849   -0.005678785911757973   -0.00018152628075001966
-0.010099500411806475   -0.0006413797598942148   -0.0001280472976307599
-0.013120193124632872   -0.0056816102339223035   -0.00024075875099350262
-0.010079615091416002   -0.005641068064092088   -0.00016882466925597625
-0.010099500411806475   -0.0006413797598942148   -0.0001280472976307599
-0.013130707571412027   -0.0006370777278559245   -0.00019777707163703523
-0.013120193124632872   -0.0056816102339223035   -0.00024075875099350262
-0.013148977965518666   -0.0005967451622268614   -0.0001976592260011275
-0.010079615091416002   -0.005641068064092088   -0.00016882466925597625
-0.01314790804986894   -0.005645065024461925   -0.000235157373270724
-0.013148977965518666   -0.0005967451622268614   -0.0001976592260011275
-0.013120193124632872   -0.0056816102339223035   -0.00024075875099350262
-0.010079615091416002   -0.005641068064092088   -0.00016882466925597625
-0.013148977965518666   -0.0005967451622268614   -0.0001976592260011275
-0.010122255897168732   -0.0006041126702324837   -0.00012601726019218838
-0.010099500411806475   -0.0006413797598942148   -0.0001280472976307599
-0.010079615091416002   -0.005641068064092088   -0.00016882466925597625
-0.013148977965518666   -0.0005967451622268614   -0.0001976592260011275
-0.010099500411806475   -0.0006413797598942148   -0.0001280472976307599
-0.013120193124632872   -0.0056816102339223035   -0.00024075875099350262
-0.010079615091416002   -0.005641068064092088   -0.00016882466925597625
-0.010122255897168732   -0.0006041126702324837   -0.00012601726019218838
-0.01314790804986894   -0.005645065024461925   -0.000235157373270724
-0.010108495036059553   -0.005599871079149238   -0.00015643518801045227
-0.010122255897168732   -0.0006041126702324837   -0.00012601726019218838
-0.013148977965518666   -0.0005967451622268614   -0.0001976592260011275
-0.01314790804986894   -0.005645065024461925   -0.000235157373270724
-0.01316901074275329   -0.0005562802576247103   -0.00020069760038195607
-0.010108495036059553   -0.005599871079149238   -0.00015643518801045227
-0.01317273835339592   -0.005605435833892282   -0.00022857876493043993
-0.01316901074275329   -0.0005562802576247103   -0.00020069760038195607
-0.01314790804986894   -0.005645065024461925   -0.000235157373270724
-0.010108495036059553   -0.005599871079149238   -0.00015643518801045227
-0.01316901074275329   -0.0005562802576247103   -0.00020069760038195607
-0.010145984916527068   -0.0005623782342152382   -0.000124463483239703
-0.010122255897168732   -0.0006041126702324837   -0.00012601726019218838
-0.010108495036059553   -0.005599871079149238   -0.00015643518801045227
-0.01316901074275329   -0.0005562802576247103   -0.00020069760038195607
-0.010122255897168732   -0.0006041126702324837   -0.00012601726019218838
-0.01314790804986894   -0.005645065024461925   -0.000235157373270724
-0.010108495036059553   -0.005599871079149238   -0.00015643518801045227
-0.010145984916527068   -0.0005623782342152382   -0.000124463483239703
-0.01317273835339592   -0.005605435833892282   -0.00022857876493043993
-0.01013466773462967   -0.005555960520848602   -0.00014361943073622045
-0.010145984916527068   -0.0005623782342152382   -0.000124463483239703
-0.01316901074275329   -0.0005562802576247103   -0.00020069760038195607
-0.01317273835339592   -0.005605435833892282   -0.00022857876493043993
-0.013183857930579398   -0.000512105008816488   -0.00020388759594350793
-0.01013466773462967   -0.005555960520848602   -0.00014361943073622045
-0.013193456759522281   -0.00556349443850982   -0.0002223659821856626
-0.013183857930579398   -0.000512105008816488   -0.00020388759594350793
-0.01317273835339592   -0.005605435833892282   -0.00022857876493043993
-0.01013466773462967   -0.005555960520848602   -0.00014361943073622045
-0.013183857930579398   -0.000512105008816488   -0.00020388759594350793
-0.01016427732344338   -0.0005169321405260977   -0.000123473577308606
-0.010145984916527068   -0.0005623782342152382   -0.000124463483239703
-0.01013466773462967   -0.005555960520848602   -0.00014361943073622045
-0.013183857930579398   -0.000512105008816488   -0.00020388759594350793
-0.010145984916527068   -0.0005623782342152382   -0.000124463483239703
-0.01317273835339592   -0.005605435833892282   -0.00022857876493043993
              </DataArray>   
          </PointData>  
       </Piece>  
   </UnstructuredGrid> 
</VTKFile> 
